# vtk DataFile Version 3.0
vtk output
ASCII
DATASET UNSTRUCTURED_GRID
POINTS      5151 double 
  0.00000000E+00  1.00000000E+02  0.00000000E+00
  0.00000000E+00  9.80000000E+01  0.00000000E+00
  0.00000000E+00  9.60000000E+01  0.00000000E+00
  0.00000000E+00  9.40000000E+01  0.00000000E+00
  0.00000000E+00  9.20000000E+01  0.00000000E+00
  0.00000000E+00  9.00000000E+01  0.00000000E+00
  0.00000000E+00  8.80000000E+01  0.00000000E+00
  0.00000000E+00  8.60000000E+01  0.00000000E+00
  0.00000000E+00  8.40000000E+01  0.00000000E+00
  0.00000000E+00  8.20000000E+01  0.00000000E+00
  0.00000000E+00  8.00000000E+01  0.00000000E+00
  0.00000000E+00  7.80000000E+01  0.00000000E+00
  0.00000000E+00  7.60000000E+01  0.00000000E+00
  0.00000000E+00  7.40000000E+01  0.00000000E+00
  0.00000000E+00  7.20000000E+01  0.00000000E+00
  0.00000000E+00  7.00000000E+01  0.00000000E+00
  0.00000000E+00  6.80000000E+01  0.00000000E+00
  0.00000000E+00  6.60000000E+01  0.00000000E+00
  0.00000000E+00  6.40000000E+01  0.00000000E+00
  0.00000000E+00  6.20000000E+01  0.00000000E+00
  0.00000000E+00  6.00000000E+01  0.00000000E+00
  0.00000000E+00  5.80000000E+01  0.00000000E+00
  0.00000000E+00  5.60000000E+01  0.00000000E+00
  0.00000000E+00  5.40000000E+01  0.00000000E+00
  0.00000000E+00  5.20000000E+01  0.00000000E+00
  0.00000000E+00  5.00000000E+01  0.00000000E+00
  0.00000000E+00  4.80000000E+01  0.00000000E+00
  0.00000000E+00  4.60000000E+01  0.00000000E+00
  0.00000000E+00  4.40000000E+01  0.00000000E+00
  0.00000000E+00  4.20000000E+01  0.00000000E+00
  0.00000000E+00  4.00000000E+01  0.00000000E+00
  0.00000000E+00  3.80000000E+01  0.00000000E+00
  0.00000000E+00  3.60000000E+01  0.00000000E+00
  0.00000000E+00  3.40000000E+01  0.00000000E+00
  0.00000000E+00  3.20000000E+01  0.00000000E+00
  0.00000000E+00  3.00000000E+01  0.00000000E+00
  0.00000000E+00  2.80000000E+01  0.00000000E+00
  0.00000000E+00  2.60000000E+01  0.00000000E+00
  0.00000000E+00  2.40000000E+01  0.00000000E+00
  0.00000000E+00  2.20000000E+01  0.00000000E+00
  0.00000000E+00  2.00000000E+01  0.00000000E+00
  0.00000000E+00  1.80000000E+01  0.00000000E+00
  0.00000000E+00  1.60000000E+01  0.00000000E+00
  0.00000000E+00  1.40000000E+01  0.00000000E+00
  0.00000000E+00  1.20000000E+01  0.00000000E+00
  0.00000000E+00  1.00000000E+01  0.00000000E+00
  0.00000000E+00  8.00000000E+00  0.00000000E+00
  0.00000000E+00  6.00000000E+00  0.00000000E+00
  0.00000000E+00  4.00000000E+00  0.00000000E+00
  0.00000000E+00  2.00000000E+00  0.00000000E+00
  0.00000000E+00 -3.33066907E-14  0.00000000E+00
  1.00000000E+01  1.00000000E+02  0.00000000E+00
  1.00000000E+01  9.80000000E+01  0.00000000E+00
  1.00000000E+01  9.60000000E+01  0.00000000E+00
  1.00000000E+01  9.40000000E+01  0.00000000E+00
  1.00000000E+01  9.20000000E+01  0.00000000E+00
  1.00000000E+01  9.00000000E+01  0.00000000E+00
  1.00000000E+01  8.80000000E+01  0.00000000E+00
  1.00000000E+01  8.60000000E+01  0.00000000E+00
  1.00000000E+01  8.40000000E+01  0.00000000E+00
  1.00000000E+01  8.20000000E+01  0.00000000E+00
  1.00000000E+01  8.00000000E+01  0.00000000E+00
  1.00000000E+01  7.80000000E+01  0.00000000E+00
  1.00000000E+01  7.60000000E+01  0.00000000E+00
  1.00000000E+01  7.40000000E+01  0.00000000E+00
  1.00000000E+01  7.20000000E+01  0.00000000E+00
  1.00000000E+01  7.00000000E+01  0.00000000E+00
  1.00000000E+01  6.80000000E+01  0.00000000E+00
  1.00000000E+01  6.60000000E+01  0.00000000E+00
  1.00000000E+01  6.40000000E+01  0.00000000E+00
  1.00000000E+01  6.20000000E+01  0.00000000E+00
  1.00000000E+01  6.00000000E+01  0.00000000E+00
  1.00000000E+01  5.80000000E+01  0.00000000E+00
  1.00000000E+01  5.60000000E+01  0.00000000E+00
  1.00000000E+01  5.40000000E+01  0.00000000E+00
  1.00000000E+01  5.20000000E+01  0.00000000E+00
  1.00000000E+01  5.00000000E+01  0.00000000E+00
  1.00000000E+01  4.80000000E+01  0.00000000E+00
  1.00000000E+01  4.60000000E+01  0.00000000E+00
  1.00000000E+01  4.40000000E+01  0.00000000E+00
  1.00000000E+01  4.20000000E+01  0.00000000E+00
  1.00000000E+01  4.00000000E+01  0.00000000E+00
  1.00000000E+01  3.80000000E+01  0.00000000E+00
  1.00000000E+01  3.60000000E+01  0.00000000E+00
  1.00000000E+01  3.40000000E+01  0.00000000E+00
  1.00000000E+01  3.20000000E+01  0.00000000E+00
  1.00000000E+01  3.00000000E+01  0.00000000E+00
  1.00000000E+01  2.80000000E+01  0.00000000E+00
  1.00000000E+01  2.60000000E+01  0.00000000E+00
  1.00000000E+01  2.40000000E+01  0.00000000E+00
  1.00000000E+01  2.20000000E+01  0.00000000E+00
  1.00000000E+01  2.00000000E+01  0.00000000E+00
  1.00000000E+01  1.80000000E+01  0.00000000E+00
  1.00000000E+01  1.60000000E+01  0.00000000E+00
  1.00000000E+01  1.40000000E+01  0.00000000E+00
  1.00000000E+01  1.20000000E+01  0.00000000E+00
  1.00000000E+01  1.00000000E+01  0.00000000E+00
  1.00000000E+01  8.00000000E+00  0.00000000E+00
  1.00000000E+01  6.00000000E+00  0.00000000E+00
  1.00000000E+01  4.00000000E+00  0.00000000E+00
  1.00000000E+01  2.00000000E+00  0.00000000E+00
  1.00000000E+01 -3.33066907E-14  0.00000000E+00
  2.00000000E+01  1.00000000E+02  0.00000000E+00
  2.00000000E+01  9.80000000E+01  0.00000000E+00
  2.00000000E+01  9.60000000E+01  0.00000000E+00
  2.00000000E+01  9.40000000E+01  0.00000000E+00
  2.00000000E+01  9.20000000E+01  0.00000000E+00
  2.00000000E+01  9.00000000E+01  0.00000000E+00
  2.00000000E+01  8.80000000E+01  0.00000000E+00
  2.00000000E+01  8.60000000E+01  0.00000000E+00
  2.00000000E+01  8.40000000E+01  0.00000000E+00
  2.00000000E+01  8.20000000E+01  0.00000000E+00
  2.00000000E+01  8.00000000E+01  0.00000000E+00
  2.00000000E+01  7.80000000E+01  0.00000000E+00
  2.00000000E+01  7.60000000E+01  0.00000000E+00
  2.00000000E+01  7.40000000E+01  0.00000000E+00
  2.00000000E+01  7.20000000E+01  0.00000000E+00
  2.00000000E+01  7.00000000E+01  0.00000000E+00
  2.00000000E+01  6.80000000E+01  0.00000000E+00
  2.00000000E+01  6.60000000E+01  0.00000000E+00
  2.00000000E+01  6.40000000E+01  0.00000000E+00
  2.00000000E+01  6.20000000E+01  0.00000000E+00
  2.00000000E+01  6.00000000E+01  0.00000000E+00
  2.00000000E+01  5.80000000E+01  0.00000000E+00
  2.00000000E+01  5.60000000E+01  0.00000000E+00
  2.00000000E+01  5.40000000E+01  0.00000000E+00
  2.00000000E+01  5.20000000E+01  0.00000000E+00
  2.00000000E+01  5.00000000E+01  0.00000000E+00
  2.00000000E+01  4.80000000E+01  0.00000000E+00
  2.00000000E+01  4.60000000E+01  0.00000000E+00
  2.00000000E+01  4.40000000E+01  0.00000000E+00
  2.00000000E+01  4.20000000E+01  0.00000000E+00
  2.00000000E+01  4.00000000E+01  0.00000000E+00
  2.00000000E+01  3.80000000E+01  0.00000000E+00
  2.00000000E+01  3.60000000E+01  0.00000000E+00
  2.00000000E+01  3.40000000E+01  0.00000000E+00
  2.00000000E+01  3.20000000E+01  0.00000000E+00
  2.00000000E+01  3.00000000E+01  0.00000000E+00
  2.00000000E+01  2.80000000E+01  0.00000000E+00
  2.00000000E+01  2.60000000E+01  0.00000000E+00
  2.00000000E+01  2.40000000E+01  0.00000000E+00
  2.00000000E+01  2.20000000E+01  0.00000000E+00
  2.00000000E+01  2.00000000E+01  0.00000000E+00
  2.00000000E+01  1.80000000E+01  0.00000000E+00
  2.00000000E+01  1.60000000E+01  0.00000000E+00
  2.00000000E+01  1.40000000E+01  0.00000000E+00
  2.00000000E+01  1.20000000E+01  0.00000000E+00
  2.00000000E+01  1.00000000E+01  0.00000000E+00
  2.00000000E+01  8.00000000E+00  0.00000000E+00
  2.00000000E+01  6.00000000E+00  0.00000000E+00
  2.00000000E+01  4.00000000E+00  0.00000000E+00
  2.00000000E+01  2.00000000E+00  0.00000000E+00
  2.00000000E+01 -3.33066907E-14  0.00000000E+00
  3.00000000E+01  1.00000000E+02  0.00000000E+00
  3.00000000E+01  9.80000000E+01  0.00000000E+00
  3.00000000E+01  9.60000000E+01  0.00000000E+00
  3.00000000E+01  9.40000000E+01  0.00000000E+00
  3.00000000E+01  9.20000000E+01  0.00000000E+00
  3.00000000E+01  9.00000000E+01  0.00000000E+00
  3.00000000E+01  8.80000000E+01  0.00000000E+00
  3.00000000E+01  8.60000000E+01  0.00000000E+00
  3.00000000E+01  8.40000000E+01  0.00000000E+00
  3.00000000E+01  8.20000000E+01  0.00000000E+00
  3.00000000E+01  8.00000000E+01  0.00000000E+00
  3.00000000E+01  7.80000000E+01  0.00000000E+00
  3.00000000E+01  7.60000000E+01  0.00000000E+00
  3.00000000E+01  7.40000000E+01  0.00000000E+00
  3.00000000E+01  7.20000000E+01  0.00000000E+00
  3.00000000E+01  7.00000000E+01  0.00000000E+00
  3.00000000E+01  6.80000000E+01  0.00000000E+00
  3.00000000E+01  6.60000000E+01  0.00000000E+00
  3.00000000E+01  6.40000000E+01  0.00000000E+00
  3.00000000E+01  6.20000000E+01  0.00000000E+00
  3.00000000E+01  6.00000000E+01  0.00000000E+00
  3.00000000E+01  5.80000000E+01  0.00000000E+00
  3.00000000E+01  5.60000000E+01  0.00000000E+00
  3.00000000E+01  5.40000000E+01  0.00000000E+00
  3.00000000E+01  5.20000000E+01  0.00000000E+00
  3.00000000E+01  5.00000000E+01  0.00000000E+00
  3.00000000E+01  4.80000000E+01  0.00000000E+00
  3.00000000E+01  4.60000000E+01  0.00000000E+00
  3.00000000E+01  4.40000000E+01  0.00000000E+00
  3.00000000E+01  4.20000000E+01  0.00000000E+00
  3.00000000E+01  4.00000000E+01  0.00000000E+00
  3.00000000E+01  3.80000000E+01  0.00000000E+00
  3.00000000E+01  3.60000000E+01  0.00000000E+00
  3.00000000E+01  3.40000000E+01  0.00000000E+00
  3.00000000E+01  3.20000000E+01  0.00000000E+00
  3.00000000E+01  3.00000000E+01  0.00000000E+00
  3.00000000E+01  2.80000000E+01  0.00000000E+00
  3.00000000E+01  2.60000000E+01  0.00000000E+00
  3.00000000E+01  2.40000000E+01  0.00000000E+00
  3.00000000E+01  2.20000000E+01  0.00000000E+00
  3.00000000E+01  2.00000000E+01  0.00000000E+00
  3.00000000E+01  1.80000000E+01  0.00000000E+00
  3.00000000E+01  1.60000000E+01  0.00000000E+00
  3.00000000E+01  1.40000000E+01  0.00000000E+00
  3.00000000E+01  1.20000000E+01  0.00000000E+00
  3.00000000E+01  1.00000000E+01  0.00000000E+00
  3.00000000E+01  8.00000000E+00  0.00000000E+00
  3.00000000E+01  6.00000000E+00  0.00000000E+00
  3.00000000E+01  4.00000000E+00  0.00000000E+00
  3.00000000E+01  2.00000000E+00  0.00000000E+00
  3.00000000E+01 -3.33066907E-14  0.00000000E+00
  4.00000000E+01  1.00000000E+02  0.00000000E+00
  4.00000000E+01  9.80000000E+01  0.00000000E+00
  4.00000000E+01  9.60000000E+01  0.00000000E+00
  4.00000000E+01  9.40000000E+01  0.00000000E+00
  4.00000000E+01  9.20000000E+01  0.00000000E+00
  4.00000000E+01  9.00000000E+01  0.00000000E+00
  4.00000000E+01  8.80000000E+01  0.00000000E+00
  4.00000000E+01  8.60000000E+01  0.00000000E+00
  4.00000000E+01  8.40000000E+01  0.00000000E+00
  4.00000000E+01  8.20000000E+01  0.00000000E+00
  4.00000000E+01  8.00000000E+01  0.00000000E+00
  4.00000000E+01  7.80000000E+01  0.00000000E+00
  4.00000000E+01  7.60000000E+01  0.00000000E+00
  4.00000000E+01  7.40000000E+01  0.00000000E+00
  4.00000000E+01  7.20000000E+01  0.00000000E+00
  4.00000000E+01  7.00000000E+01  0.00000000E+00
  4.00000000E+01  6.80000000E+01  0.00000000E+00
  4.00000000E+01  6.60000000E+01  0.00000000E+00
  4.00000000E+01  6.40000000E+01  0.00000000E+00
  4.00000000E+01  6.20000000E+01  0.00000000E+00
  4.00000000E+01  6.00000000E+01  0.00000000E+00
  4.00000000E+01  5.80000000E+01  0.00000000E+00
  4.00000000E+01  5.60000000E+01  0.00000000E+00
  4.00000000E+01  5.40000000E+01  0.00000000E+00
  4.00000000E+01  5.20000000E+01  0.00000000E+00
  4.00000000E+01  5.00000000E+01  0.00000000E+00
  4.00000000E+01  4.80000000E+01  0.00000000E+00
  4.00000000E+01  4.60000000E+01  0.00000000E+00
  4.00000000E+01  4.40000000E+01  0.00000000E+00
  4.00000000E+01  4.20000000E+01  0.00000000E+00
  4.00000000E+01  4.00000000E+01  0.00000000E+00
  4.00000000E+01  3.80000000E+01  0.00000000E+00
  4.00000000E+01  3.60000000E+01  0.00000000E+00
  4.00000000E+01  3.40000000E+01  0.00000000E+00
  4.00000000E+01  3.20000000E+01  0.00000000E+00
  4.00000000E+01  3.00000000E+01  0.00000000E+00
  4.00000000E+01  2.80000000E+01  0.00000000E+00
  4.00000000E+01  2.60000000E+01  0.00000000E+00
  4.00000000E+01  2.40000000E+01  0.00000000E+00
  4.00000000E+01  2.20000000E+01  0.00000000E+00
  4.00000000E+01  2.00000000E+01  0.00000000E+00
  4.00000000E+01  1.80000000E+01  0.00000000E+00
  4.00000000E+01  1.60000000E+01  0.00000000E+00
  4.00000000E+01  1.40000000E+01  0.00000000E+00
  4.00000000E+01  1.20000000E+01  0.00000000E+00
  4.00000000E+01  1.00000000E+01  0.00000000E+00
  4.00000000E+01  8.00000000E+00  0.00000000E+00
  4.00000000E+01  6.00000000E+00  0.00000000E+00
  4.00000000E+01  4.00000000E+00  0.00000000E+00
  4.00000000E+01  2.00000000E+00  0.00000000E+00
  4.00000000E+01 -3.33066907E-14  0.00000000E+00
  5.00000000E+01  1.00000000E+02  0.00000000E+00
  5.00000000E+01  9.80000000E+01  0.00000000E+00
  5.00000000E+01  9.60000000E+01  0.00000000E+00
  5.00000000E+01  9.40000000E+01  0.00000000E+00
  5.00000000E+01  9.20000000E+01  0.00000000E+00
  5.00000000E+01  9.00000000E+01  0.00000000E+00
  5.00000000E+01  8.80000000E+01  0.00000000E+00
  5.00000000E+01  8.60000000E+01  0.00000000E+00
  5.00000000E+01  8.40000000E+01  0.00000000E+00
  5.00000000E+01  8.20000000E+01  0.00000000E+00
  5.00000000E+01  8.00000000E+01  0.00000000E+00
  5.00000000E+01  7.80000000E+01  0.00000000E+00
  5.00000000E+01  7.60000000E+01  0.00000000E+00
  5.00000000E+01  7.40000000E+01  0.00000000E+00
  5.00000000E+01  7.20000000E+01  0.00000000E+00
  5.00000000E+01  7.00000000E+01  0.00000000E+00
  5.00000000E+01  6.80000000E+01  0.00000000E+00
  5.00000000E+01  6.60000000E+01  0.00000000E+00
  5.00000000E+01  6.40000000E+01  0.00000000E+00
  5.00000000E+01  6.20000000E+01  0.00000000E+00
  5.00000000E+01  6.00000000E+01  0.00000000E+00
  5.00000000E+01  5.80000000E+01  0.00000000E+00
  5.00000000E+01  5.60000000E+01  0.00000000E+00
  5.00000000E+01  5.40000000E+01  0.00000000E+00
  5.00000000E+01  5.20000000E+01  0.00000000E+00
  5.00000000E+01  5.00000000E+01  0.00000000E+00
  5.00000000E+01  4.80000000E+01  0.00000000E+00
  5.00000000E+01  4.60000000E+01  0.00000000E+00
  5.00000000E+01  4.40000000E+01  0.00000000E+00
  5.00000000E+01  4.20000000E+01  0.00000000E+00
  5.00000000E+01  4.00000000E+01  0.00000000E+00
  5.00000000E+01  3.80000000E+01  0.00000000E+00
  5.00000000E+01  3.60000000E+01  0.00000000E+00
  5.00000000E+01  3.40000000E+01  0.00000000E+00
  5.00000000E+01  3.20000000E+01  0.00000000E+00
  5.00000000E+01  3.00000000E+01  0.00000000E+00
  5.00000000E+01  2.80000000E+01  0.00000000E+00
  5.00000000E+01  2.60000000E+01  0.00000000E+00
  5.00000000E+01  2.40000000E+01  0.00000000E+00
  5.00000000E+01  2.20000000E+01  0.00000000E+00
  5.00000000E+01  2.00000000E+01  0.00000000E+00
  5.00000000E+01  1.80000000E+01  0.00000000E+00
  5.00000000E+01  1.60000000E+01  0.00000000E+00
  5.00000000E+01  1.40000000E+01  0.00000000E+00
  5.00000000E+01  1.20000000E+01  0.00000000E+00
  5.00000000E+01  1.00000000E+01  0.00000000E+00
  5.00000000E+01  8.00000000E+00  0.00000000E+00
  5.00000000E+01  6.00000000E+00  0.00000000E+00
  5.00000000E+01  4.00000000E+00  0.00000000E+00
  5.00000000E+01  2.00000000E+00  0.00000000E+00
  5.00000000E+01 -3.33066907E-14  0.00000000E+00
  6.00000000E+01  1.00000000E+02  0.00000000E+00
  6.00000000E+01  9.80000000E+01  0.00000000E+00
  6.00000000E+01  9.60000000E+01  0.00000000E+00
  6.00000000E+01  9.40000000E+01  0.00000000E+00
  6.00000000E+01  9.20000000E+01  0.00000000E+00
  6.00000000E+01  9.00000000E+01  0.00000000E+00
  6.00000000E+01  8.80000000E+01  0.00000000E+00
  6.00000000E+01  8.60000000E+01  0.00000000E+00
  6.00000000E+01  8.40000000E+01  0.00000000E+00
  6.00000000E+01  8.20000000E+01  0.00000000E+00
  6.00000000E+01  8.00000000E+01  0.00000000E+00
  6.00000000E+01  7.80000000E+01  0.00000000E+00
  6.00000000E+01  7.60000000E+01  0.00000000E+00
  6.00000000E+01  7.40000000E+01  0.00000000E+00
  6.00000000E+01  7.20000000E+01  0.00000000E+00
  6.00000000E+01  7.00000000E+01  0.00000000E+00
  6.00000000E+01  6.80000000E+01  0.00000000E+00
  6.00000000E+01  6.60000000E+01  0.00000000E+00
  6.00000000E+01  6.40000000E+01  0.00000000E+00
  6.00000000E+01  6.20000000E+01  0.00000000E+00
  6.00000000E+01  6.00000000E+01  0.00000000E+00
  6.00000000E+01  5.80000000E+01  0.00000000E+00
  6.00000000E+01  5.60000000E+01  0.00000000E+00
  6.00000000E+01  5.40000000E+01  0.00000000E+00
  6.00000000E+01  5.20000000E+01  0.00000000E+00
  6.00000000E+01  5.00000000E+01  0.00000000E+00
  6.00000000E+01  4.80000000E+01  0.00000000E+00
  6.00000000E+01  4.60000000E+01  0.00000000E+00
  6.00000000E+01  4.40000000E+01  0.00000000E+00
  6.00000000E+01  4.20000000E+01  0.00000000E+00
  6.00000000E+01  4.00000000E+01  0.00000000E+00
  6.00000000E+01  3.80000000E+01  0.00000000E+00
  6.00000000E+01  3.60000000E+01  0.00000000E+00
  6.00000000E+01  3.40000000E+01  0.00000000E+00
  6.00000000E+01  3.20000000E+01  0.00000000E+00
  6.00000000E+01  3.00000000E+01  0.00000000E+00
  6.00000000E+01  2.80000000E+01  0.00000000E+00
  6.00000000E+01  2.60000000E+01  0.00000000E+00
  6.00000000E+01  2.40000000E+01  0.00000000E+00
  6.00000000E+01  2.20000000E+01  0.00000000E+00
  6.00000000E+01  2.00000000E+01  0.00000000E+00
  6.00000000E+01  1.80000000E+01  0.00000000E+00
  6.00000000E+01  1.60000000E+01  0.00000000E+00
  6.00000000E+01  1.40000000E+01  0.00000000E+00
  6.00000000E+01  1.20000000E+01  0.00000000E+00
  6.00000000E+01  1.00000000E+01  0.00000000E+00
  6.00000000E+01  8.00000000E+00  0.00000000E+00
  6.00000000E+01  6.00000000E+00  0.00000000E+00
  6.00000000E+01  4.00000000E+00  0.00000000E+00
  6.00000000E+01  2.00000000E+00  0.00000000E+00
  6.00000000E+01 -3.33066907E-14  0.00000000E+00
  7.00000000E+01  1.00000000E+02  0.00000000E+00
  7.00000000E+01  9.80000000E+01  0.00000000E+00
  7.00000000E+01  9.60000000E+01  0.00000000E+00
  7.00000000E+01  9.40000000E+01  0.00000000E+00
  7.00000000E+01  9.20000000E+01  0.00000000E+00
  7.00000000E+01  9.00000000E+01  0.00000000E+00
  7.00000000E+01  8.80000000E+01  0.00000000E+00
  7.00000000E+01  8.60000000E+01  0.00000000E+00
  7.00000000E+01  8.40000000E+01  0.00000000E+00
  7.00000000E+01  8.20000000E+01  0.00000000E+00
  7.00000000E+01  8.00000000E+01  0.00000000E+00
  7.00000000E+01  7.80000000E+01  0.00000000E+00
  7.00000000E+01  7.60000000E+01  0.00000000E+00
  7.00000000E+01  7.40000000E+01  0.00000000E+00
  7.00000000E+01  7.20000000E+01  0.00000000E+00
  7.00000000E+01  7.00000000E+01  0.00000000E+00
  7.00000000E+01  6.80000000E+01  0.00000000E+00
  7.00000000E+01  6.60000000E+01  0.00000000E+00
  7.00000000E+01  6.40000000E+01  0.00000000E+00
  7.00000000E+01  6.20000000E+01  0.00000000E+00
  7.00000000E+01  6.00000000E+01  0.00000000E+00
  7.00000000E+01  5.80000000E+01  0.00000000E+00
  7.00000000E+01  5.60000000E+01  0.00000000E+00
  7.00000000E+01  5.40000000E+01  0.00000000E+00
  7.00000000E+01  5.20000000E+01  0.00000000E+00
  7.00000000E+01  5.00000000E+01  0.00000000E+00
  7.00000000E+01  4.80000000E+01  0.00000000E+00
  7.00000000E+01  4.60000000E+01  0.00000000E+00
  7.00000000E+01  4.40000000E+01  0.00000000E+00
  7.00000000E+01  4.20000000E+01  0.00000000E+00
  7.00000000E+01  4.00000000E+01  0.00000000E+00
  7.00000000E+01  3.80000000E+01  0.00000000E+00
  7.00000000E+01  3.60000000E+01  0.00000000E+00
  7.00000000E+01  3.40000000E+01  0.00000000E+00
  7.00000000E+01  3.20000000E+01  0.00000000E+00
  7.00000000E+01  3.00000000E+01  0.00000000E+00
  7.00000000E+01  2.80000000E+01  0.00000000E+00
  7.00000000E+01  2.60000000E+01  0.00000000E+00
  7.00000000E+01  2.40000000E+01  0.00000000E+00
  7.00000000E+01  2.20000000E+01  0.00000000E+00
  7.00000000E+01  2.00000000E+01  0.00000000E+00
  7.00000000E+01  1.80000000E+01  0.00000000E+00
  7.00000000E+01  1.60000000E+01  0.00000000E+00
  7.00000000E+01  1.40000000E+01  0.00000000E+00
  7.00000000E+01  1.20000000E+01  0.00000000E+00
  7.00000000E+01  1.00000000E+01  0.00000000E+00
  7.00000000E+01  8.00000000E+00  0.00000000E+00
  7.00000000E+01  6.00000000E+00  0.00000000E+00
  7.00000000E+01  4.00000000E+00  0.00000000E+00
  7.00000000E+01  2.00000000E+00  0.00000000E+00
  7.00000000E+01 -3.33066907E-14  0.00000000E+00
  8.00000000E+01  1.00000000E+02  0.00000000E+00
  8.00000000E+01  9.80000000E+01  0.00000000E+00
  8.00000000E+01  9.60000000E+01  0.00000000E+00
  8.00000000E+01  9.40000000E+01  0.00000000E+00
  8.00000000E+01  9.20000000E+01  0.00000000E+00
  8.00000000E+01  9.00000000E+01  0.00000000E+00
  8.00000000E+01  8.80000000E+01  0.00000000E+00
  8.00000000E+01  8.60000000E+01  0.00000000E+00
  8.00000000E+01  8.40000000E+01  0.00000000E+00
  8.00000000E+01  8.20000000E+01  0.00000000E+00
  8.00000000E+01  8.00000000E+01  0.00000000E+00
  8.00000000E+01  7.80000000E+01  0.00000000E+00
  8.00000000E+01  7.60000000E+01  0.00000000E+00
  8.00000000E+01  7.40000000E+01  0.00000000E+00
  8.00000000E+01  7.20000000E+01  0.00000000E+00
  8.00000000E+01  7.00000000E+01  0.00000000E+00
  8.00000000E+01  6.80000000E+01  0.00000000E+00
  8.00000000E+01  6.60000000E+01  0.00000000E+00
  8.00000000E+01  6.40000000E+01  0.00000000E+00
  8.00000000E+01  6.20000000E+01  0.00000000E+00
  8.00000000E+01  6.00000000E+01  0.00000000E+00
  8.00000000E+01  5.80000000E+01  0.00000000E+00
  8.00000000E+01  5.60000000E+01  0.00000000E+00
  8.00000000E+01  5.40000000E+01  0.00000000E+00
  8.00000000E+01  5.20000000E+01  0.00000000E+00
  8.00000000E+01  5.00000000E+01  0.00000000E+00
  8.00000000E+01  4.80000000E+01  0.00000000E+00
  8.00000000E+01  4.60000000E+01  0.00000000E+00
  8.00000000E+01  4.40000000E+01  0.00000000E+00
  8.00000000E+01  4.20000000E+01  0.00000000E+00
  8.00000000E+01  4.00000000E+01  0.00000000E+00
  8.00000000E+01  3.80000000E+01  0.00000000E+00
  8.00000000E+01  3.60000000E+01  0.00000000E+00
  8.00000000E+01  3.40000000E+01  0.00000000E+00
  8.00000000E+01  3.20000000E+01  0.00000000E+00
  8.00000000E+01  3.00000000E+01  0.00000000E+00
  8.00000000E+01  2.80000000E+01  0.00000000E+00
  8.00000000E+01  2.60000000E+01  0.00000000E+00
  8.00000000E+01  2.40000000E+01  0.00000000E+00
  8.00000000E+01  2.20000000E+01  0.00000000E+00
  8.00000000E+01  2.00000000E+01  0.00000000E+00
  8.00000000E+01  1.80000000E+01  0.00000000E+00
  8.00000000E+01  1.60000000E+01  0.00000000E+00
  8.00000000E+01  1.40000000E+01  0.00000000E+00
  8.00000000E+01  1.20000000E+01  0.00000000E+00
  8.00000000E+01  1.00000000E+01  0.00000000E+00
  8.00000000E+01  8.00000000E+00  0.00000000E+00
  8.00000000E+01  6.00000000E+00  0.00000000E+00
  8.00000000E+01  4.00000000E+00  0.00000000E+00
  8.00000000E+01  2.00000000E+00  0.00000000E+00
  8.00000000E+01 -3.33066907E-14  0.00000000E+00
  9.00000000E+01  1.00000000E+02  0.00000000E+00
  9.00000000E+01  9.80000000E+01  0.00000000E+00
  9.00000000E+01  9.60000000E+01  0.00000000E+00
  9.00000000E+01  9.40000000E+01  0.00000000E+00
  9.00000000E+01  9.20000000E+01  0.00000000E+00
  9.00000000E+01  9.00000000E+01  0.00000000E+00
  9.00000000E+01  8.80000000E+01  0.00000000E+00
  9.00000000E+01  8.60000000E+01  0.00000000E+00
  9.00000000E+01  8.40000000E+01  0.00000000E+00
  9.00000000E+01  8.20000000E+01  0.00000000E+00
  9.00000000E+01  8.00000000E+01  0.00000000E+00
  9.00000000E+01  7.80000000E+01  0.00000000E+00
  9.00000000E+01  7.60000000E+01  0.00000000E+00
  9.00000000E+01  7.40000000E+01  0.00000000E+00
  9.00000000E+01  7.20000000E+01  0.00000000E+00
  9.00000000E+01  7.00000000E+01  0.00000000E+00
  9.00000000E+01  6.80000000E+01  0.00000000E+00
  9.00000000E+01  6.60000000E+01  0.00000000E+00
  9.00000000E+01  6.40000000E+01  0.00000000E+00
  9.00000000E+01  6.20000000E+01  0.00000000E+00
  9.00000000E+01  6.00000000E+01  0.00000000E+00
  9.00000000E+01  5.80000000E+01  0.00000000E+00
  9.00000000E+01  5.60000000E+01  0.00000000E+00
  9.00000000E+01  5.40000000E+01  0.00000000E+00
  9.00000000E+01  5.20000000E+01  0.00000000E+00
  9.00000000E+01  5.00000000E+01  0.00000000E+00
  9.00000000E+01  4.80000000E+01  0.00000000E+00
  9.00000000E+01  4.60000000E+01  0.00000000E+00
  9.00000000E+01  4.40000000E+01  0.00000000E+00
  9.00000000E+01  4.20000000E+01  0.00000000E+00
  9.00000000E+01  4.00000000E+01  0.00000000E+00
  9.00000000E+01  3.80000000E+01  0.00000000E+00
  9.00000000E+01  3.60000000E+01  0.00000000E+00
  9.00000000E+01  3.40000000E+01  0.00000000E+00
  9.00000000E+01  3.20000000E+01  0.00000000E+00
  9.00000000E+01  3.00000000E+01  0.00000000E+00
  9.00000000E+01  2.80000000E+01  0.00000000E+00
  9.00000000E+01  2.60000000E+01  0.00000000E+00
  9.00000000E+01  2.40000000E+01  0.00000000E+00
  9.00000000E+01  2.20000000E+01  0.00000000E+00
  9.00000000E+01  2.00000000E+01  0.00000000E+00
  9.00000000E+01  1.80000000E+01  0.00000000E+00
  9.00000000E+01  1.60000000E+01  0.00000000E+00
  9.00000000E+01  1.40000000E+01  0.00000000E+00
  9.00000000E+01  1.20000000E+01  0.00000000E+00
  9.00000000E+01  1.00000000E+01  0.00000000E+00
  9.00000000E+01  8.00000000E+00  0.00000000E+00
  9.00000000E+01  6.00000000E+00  0.00000000E+00
  9.00000000E+01  4.00000000E+00  0.00000000E+00
  9.00000000E+01  2.00000000E+00  0.00000000E+00
  9.00000000E+01 -3.33066907E-14  0.00000000E+00
  1.00000000E+02  1.00000000E+02  0.00000000E+00
  1.00000000E+02  9.80000000E+01  0.00000000E+00
  1.00000000E+02  9.60000000E+01  0.00000000E+00
  1.00000000E+02  9.40000000E+01  0.00000000E+00
  1.00000000E+02  9.20000000E+01  0.00000000E+00
  1.00000000E+02  9.00000000E+01  0.00000000E+00
  1.00000000E+02  8.80000000E+01  0.00000000E+00
  1.00000000E+02  8.60000000E+01  0.00000000E+00
  1.00000000E+02  8.40000000E+01  0.00000000E+00
  1.00000000E+02  8.20000000E+01  0.00000000E+00
  1.00000000E+02  8.00000000E+01  0.00000000E+00
  1.00000000E+02  7.80000000E+01  0.00000000E+00
  1.00000000E+02  7.60000000E+01  0.00000000E+00
  1.00000000E+02  7.40000000E+01  0.00000000E+00
  1.00000000E+02  7.20000000E+01  0.00000000E+00
  1.00000000E+02  7.00000000E+01  0.00000000E+00
  1.00000000E+02  6.80000000E+01  0.00000000E+00
  1.00000000E+02  6.60000000E+01  0.00000000E+00
  1.00000000E+02  6.40000000E+01  0.00000000E+00
  1.00000000E+02  6.20000000E+01  0.00000000E+00
  1.00000000E+02  6.00000000E+01  0.00000000E+00
  1.00000000E+02  5.80000000E+01  0.00000000E+00
  1.00000000E+02  5.60000000E+01  0.00000000E+00
  1.00000000E+02  5.40000000E+01  0.00000000E+00
  1.00000000E+02  5.20000000E+01  0.00000000E+00
  1.00000000E+02  5.00000000E+01  0.00000000E+00
  1.00000000E+02  4.80000000E+01  0.00000000E+00
  1.00000000E+02  4.60000000E+01  0.00000000E+00
  1.00000000E+02  4.40000000E+01  0.00000000E+00
  1.00000000E+02  4.20000000E+01  0.00000000E+00
  1.00000000E+02  4.00000000E+01  0.00000000E+00
  1.00000000E+02  3.80000000E+01  0.00000000E+00
  1.00000000E+02  3.60000000E+01  0.00000000E+00
  1.00000000E+02  3.40000000E+01  0.00000000E+00
  1.00000000E+02  3.20000000E+01  0.00000000E+00
  1.00000000E+02  3.00000000E+01  0.00000000E+00
  1.00000000E+02  2.80000000E+01  0.00000000E+00
  1.00000000E+02  2.60000000E+01  0.00000000E+00
  1.00000000E+02  2.40000000E+01  0.00000000E+00
  1.00000000E+02  2.20000000E+01  0.00000000E+00
  1.00000000E+02  2.00000000E+01  0.00000000E+00
  1.00000000E+02  1.80000000E+01  0.00000000E+00
  1.00000000E+02  1.60000000E+01  0.00000000E+00
  1.00000000E+02  1.40000000E+01  0.00000000E+00
  1.00000000E+02  1.20000000E+01  0.00000000E+00
  1.00000000E+02  1.00000000E+01  0.00000000E+00
  1.00000000E+02  8.00000000E+00  0.00000000E+00
  1.00000000E+02  6.00000000E+00  0.00000000E+00
  1.00000000E+02  4.00000000E+00  0.00000000E+00
  1.00000000E+02  2.00000000E+00  0.00000000E+00
  1.00000000E+02 -3.33066907E-14  0.00000000E+00
  1.10000000E+02  1.00000000E+02  0.00000000E+00
  1.10000000E+02  9.80000000E+01  0.00000000E+00
  1.10000000E+02  9.60000000E+01  0.00000000E+00
  1.10000000E+02  9.40000000E+01  0.00000000E+00
  1.10000000E+02  9.20000000E+01  0.00000000E+00
  1.10000000E+02  9.00000000E+01  0.00000000E+00
  1.10000000E+02  8.80000000E+01  0.00000000E+00
  1.10000000E+02  8.60000000E+01  0.00000000E+00
  1.10000000E+02  8.40000000E+01  0.00000000E+00
  1.10000000E+02  8.20000000E+01  0.00000000E+00
  1.10000000E+02  8.00000000E+01  0.00000000E+00
  1.10000000E+02  7.80000000E+01  0.00000000E+00
  1.10000000E+02  7.60000000E+01  0.00000000E+00
  1.10000000E+02  7.40000000E+01  0.00000000E+00
  1.10000000E+02  7.20000000E+01  0.00000000E+00
  1.10000000E+02  7.00000000E+01  0.00000000E+00
  1.10000000E+02  6.80000000E+01  0.00000000E+00
  1.10000000E+02  6.60000000E+01  0.00000000E+00
  1.10000000E+02  6.40000000E+01  0.00000000E+00
  1.10000000E+02  6.20000000E+01  0.00000000E+00
  1.10000000E+02  6.00000000E+01  0.00000000E+00
  1.10000000E+02  5.80000000E+01  0.00000000E+00
  1.10000000E+02  5.60000000E+01  0.00000000E+00
  1.10000000E+02  5.40000000E+01  0.00000000E+00
  1.10000000E+02  5.20000000E+01  0.00000000E+00
  1.10000000E+02  5.00000000E+01  0.00000000E+00
  1.10000000E+02  4.80000000E+01  0.00000000E+00
  1.10000000E+02  4.60000000E+01  0.00000000E+00
  1.10000000E+02  4.40000000E+01  0.00000000E+00
  1.10000000E+02  4.20000000E+01  0.00000000E+00
  1.10000000E+02  4.00000000E+01  0.00000000E+00
  1.10000000E+02  3.80000000E+01  0.00000000E+00
  1.10000000E+02  3.60000000E+01  0.00000000E+00
  1.10000000E+02  3.40000000E+01  0.00000000E+00
  1.10000000E+02  3.20000000E+01  0.00000000E+00
  1.10000000E+02  3.00000000E+01  0.00000000E+00
  1.10000000E+02  2.80000000E+01  0.00000000E+00
  1.10000000E+02  2.60000000E+01  0.00000000E+00
  1.10000000E+02  2.40000000E+01  0.00000000E+00
  1.10000000E+02  2.20000000E+01  0.00000000E+00
  1.10000000E+02  2.00000000E+01  0.00000000E+00
  1.10000000E+02  1.80000000E+01  0.00000000E+00
  1.10000000E+02  1.60000000E+01  0.00000000E+00
  1.10000000E+02  1.40000000E+01  0.00000000E+00
  1.10000000E+02  1.20000000E+01  0.00000000E+00
  1.10000000E+02  1.00000000E+01  0.00000000E+00
  1.10000000E+02  8.00000000E+00  0.00000000E+00
  1.10000000E+02  6.00000000E+00  0.00000000E+00
  1.10000000E+02  4.00000000E+00  0.00000000E+00
  1.10000000E+02  2.00000000E+00  0.00000000E+00
  1.10000000E+02 -3.33066907E-14  0.00000000E+00
  1.20000000E+02  1.00000000E+02  0.00000000E+00
  1.20000000E+02  9.80000000E+01  0.00000000E+00
  1.20000000E+02  9.60000000E+01  0.00000000E+00
  1.20000000E+02  9.40000000E+01  0.00000000E+00
  1.20000000E+02  9.20000000E+01  0.00000000E+00
  1.20000000E+02  9.00000000E+01  0.00000000E+00
  1.20000000E+02  8.80000000E+01  0.00000000E+00
  1.20000000E+02  8.60000000E+01  0.00000000E+00
  1.20000000E+02  8.40000000E+01  0.00000000E+00
  1.20000000E+02  8.20000000E+01  0.00000000E+00
  1.20000000E+02  8.00000000E+01  0.00000000E+00
  1.20000000E+02  7.80000000E+01  0.00000000E+00
  1.20000000E+02  7.60000000E+01  0.00000000E+00
  1.20000000E+02  7.40000000E+01  0.00000000E+00
  1.20000000E+02  7.20000000E+01  0.00000000E+00
  1.20000000E+02  7.00000000E+01  0.00000000E+00
  1.20000000E+02  6.80000000E+01  0.00000000E+00
  1.20000000E+02  6.60000000E+01  0.00000000E+00
  1.20000000E+02  6.40000000E+01  0.00000000E+00
  1.20000000E+02  6.20000000E+01  0.00000000E+00
  1.20000000E+02  6.00000000E+01  0.00000000E+00
  1.20000000E+02  5.80000000E+01  0.00000000E+00
  1.20000000E+02  5.60000000E+01  0.00000000E+00
  1.20000000E+02  5.40000000E+01  0.00000000E+00
  1.20000000E+02  5.20000000E+01  0.00000000E+00
  1.20000000E+02  5.00000000E+01  0.00000000E+00
  1.20000000E+02  4.80000000E+01  0.00000000E+00
  1.20000000E+02  4.60000000E+01  0.00000000E+00
  1.20000000E+02  4.40000000E+01  0.00000000E+00
  1.20000000E+02  4.20000000E+01  0.00000000E+00
  1.20000000E+02  4.00000000E+01  0.00000000E+00
  1.20000000E+02  3.80000000E+01  0.00000000E+00
  1.20000000E+02  3.60000000E+01  0.00000000E+00
  1.20000000E+02  3.40000000E+01  0.00000000E+00
  1.20000000E+02  3.20000000E+01  0.00000000E+00
  1.20000000E+02  3.00000000E+01  0.00000000E+00
  1.20000000E+02  2.80000000E+01  0.00000000E+00
  1.20000000E+02  2.60000000E+01  0.00000000E+00
  1.20000000E+02  2.40000000E+01  0.00000000E+00
  1.20000000E+02  2.20000000E+01  0.00000000E+00
  1.20000000E+02  2.00000000E+01  0.00000000E+00
  1.20000000E+02  1.80000000E+01  0.00000000E+00
  1.20000000E+02  1.60000000E+01  0.00000000E+00
  1.20000000E+02  1.40000000E+01  0.00000000E+00
  1.20000000E+02  1.20000000E+01  0.00000000E+00
  1.20000000E+02  1.00000000E+01  0.00000000E+00
  1.20000000E+02  8.00000000E+00  0.00000000E+00
  1.20000000E+02  6.00000000E+00  0.00000000E+00
  1.20000000E+02  4.00000000E+00  0.00000000E+00
  1.20000000E+02  2.00000000E+00  0.00000000E+00
  1.20000000E+02 -3.33066907E-14  0.00000000E+00
  1.30000000E+02  1.00000000E+02  0.00000000E+00
  1.30000000E+02  9.80000000E+01  0.00000000E+00
  1.30000000E+02  9.60000000E+01  0.00000000E+00
  1.30000000E+02  9.40000000E+01  0.00000000E+00
  1.30000000E+02  9.20000000E+01  0.00000000E+00
  1.30000000E+02  9.00000000E+01  0.00000000E+00
  1.30000000E+02  8.80000000E+01  0.00000000E+00
  1.30000000E+02  8.60000000E+01  0.00000000E+00
  1.30000000E+02  8.40000000E+01  0.00000000E+00
  1.30000000E+02  8.20000000E+01  0.00000000E+00
  1.30000000E+02  8.00000000E+01  0.00000000E+00
  1.30000000E+02  7.80000000E+01  0.00000000E+00
  1.30000000E+02  7.60000000E+01  0.00000000E+00
  1.30000000E+02  7.40000000E+01  0.00000000E+00
  1.30000000E+02  7.20000000E+01  0.00000000E+00
  1.30000000E+02  7.00000000E+01  0.00000000E+00
  1.30000000E+02  6.80000000E+01  0.00000000E+00
  1.30000000E+02  6.60000000E+01  0.00000000E+00
  1.30000000E+02  6.40000000E+01  0.00000000E+00
  1.30000000E+02  6.20000000E+01  0.00000000E+00
  1.30000000E+02  6.00000000E+01  0.00000000E+00
  1.30000000E+02  5.80000000E+01  0.00000000E+00
  1.30000000E+02  5.60000000E+01  0.00000000E+00
  1.30000000E+02  5.40000000E+01  0.00000000E+00
  1.30000000E+02  5.20000000E+01  0.00000000E+00
  1.30000000E+02  5.00000000E+01  0.00000000E+00
  1.30000000E+02  4.80000000E+01  0.00000000E+00
  1.30000000E+02  4.60000000E+01  0.00000000E+00
  1.30000000E+02  4.40000000E+01  0.00000000E+00
  1.30000000E+02  4.20000000E+01  0.00000000E+00
  1.30000000E+02  4.00000000E+01  0.00000000E+00
  1.30000000E+02  3.80000000E+01  0.00000000E+00
  1.30000000E+02  3.60000000E+01  0.00000000E+00
  1.30000000E+02  3.40000000E+01  0.00000000E+00
  1.30000000E+02  3.20000000E+01  0.00000000E+00
  1.30000000E+02  3.00000000E+01  0.00000000E+00
  1.30000000E+02  2.80000000E+01  0.00000000E+00
  1.30000000E+02  2.60000000E+01  0.00000000E+00
  1.30000000E+02  2.40000000E+01  0.00000000E+00
  1.30000000E+02  2.20000000E+01  0.00000000E+00
  1.30000000E+02  2.00000000E+01  0.00000000E+00
  1.30000000E+02  1.80000000E+01  0.00000000E+00
  1.30000000E+02  1.60000000E+01  0.00000000E+00
  1.30000000E+02  1.40000000E+01  0.00000000E+00
  1.30000000E+02  1.20000000E+01  0.00000000E+00
  1.30000000E+02  1.00000000E+01  0.00000000E+00
  1.30000000E+02  8.00000000E+00  0.00000000E+00
  1.30000000E+02  6.00000000E+00  0.00000000E+00
  1.30000000E+02  4.00000000E+00  0.00000000E+00
  1.30000000E+02  2.00000000E+00  0.00000000E+00
  1.30000000E+02 -3.33066907E-14  0.00000000E+00
  1.40000000E+02  1.00000000E+02  0.00000000E+00
  1.40000000E+02  9.80000000E+01  0.00000000E+00
  1.40000000E+02  9.60000000E+01  0.00000000E+00
  1.40000000E+02  9.40000000E+01  0.00000000E+00
  1.40000000E+02  9.20000000E+01  0.00000000E+00
  1.40000000E+02  9.00000000E+01  0.00000000E+00
  1.40000000E+02  8.80000000E+01  0.00000000E+00
  1.40000000E+02  8.60000000E+01  0.00000000E+00
  1.40000000E+02  8.40000000E+01  0.00000000E+00
  1.40000000E+02  8.20000000E+01  0.00000000E+00
  1.40000000E+02  8.00000000E+01  0.00000000E+00
  1.40000000E+02  7.80000000E+01  0.00000000E+00
  1.40000000E+02  7.60000000E+01  0.00000000E+00
  1.40000000E+02  7.40000000E+01  0.00000000E+00
  1.40000000E+02  7.20000000E+01  0.00000000E+00
  1.40000000E+02  7.00000000E+01  0.00000000E+00
  1.40000000E+02  6.80000000E+01  0.00000000E+00
  1.40000000E+02  6.60000000E+01  0.00000000E+00
  1.40000000E+02  6.40000000E+01  0.00000000E+00
  1.40000000E+02  6.20000000E+01  0.00000000E+00
  1.40000000E+02  6.00000000E+01  0.00000000E+00
  1.40000000E+02  5.80000000E+01  0.00000000E+00
  1.40000000E+02  5.60000000E+01  0.00000000E+00
  1.40000000E+02  5.40000000E+01  0.00000000E+00
  1.40000000E+02  5.20000000E+01  0.00000000E+00
  1.40000000E+02  5.00000000E+01  0.00000000E+00
  1.40000000E+02  4.80000000E+01  0.00000000E+00
  1.40000000E+02  4.60000000E+01  0.00000000E+00
  1.40000000E+02  4.40000000E+01  0.00000000E+00
  1.40000000E+02  4.20000000E+01  0.00000000E+00
  1.40000000E+02  4.00000000E+01  0.00000000E+00
  1.40000000E+02  3.80000000E+01  0.00000000E+00
  1.40000000E+02  3.60000000E+01  0.00000000E+00
  1.40000000E+02  3.40000000E+01  0.00000000E+00
  1.40000000E+02  3.20000000E+01  0.00000000E+00
  1.40000000E+02  3.00000000E+01  0.00000000E+00
  1.40000000E+02  2.80000000E+01  0.00000000E+00
  1.40000000E+02  2.60000000E+01  0.00000000E+00
  1.40000000E+02  2.40000000E+01  0.00000000E+00
  1.40000000E+02  2.20000000E+01  0.00000000E+00
  1.40000000E+02  2.00000000E+01  0.00000000E+00
  1.40000000E+02  1.80000000E+01  0.00000000E+00
  1.40000000E+02  1.60000000E+01  0.00000000E+00
  1.40000000E+02  1.40000000E+01  0.00000000E+00
  1.40000000E+02  1.20000000E+01  0.00000000E+00
  1.40000000E+02  1.00000000E+01  0.00000000E+00
  1.40000000E+02  8.00000000E+00  0.00000000E+00
  1.40000000E+02  6.00000000E+00  0.00000000E+00
  1.40000000E+02  4.00000000E+00  0.00000000E+00
  1.40000000E+02  2.00000000E+00  0.00000000E+00
  1.40000000E+02 -3.33066907E-14  0.00000000E+00
  1.50000000E+02  1.00000000E+02  0.00000000E+00
  1.50000000E+02  9.80000000E+01  0.00000000E+00
  1.50000000E+02  9.60000000E+01  0.00000000E+00
  1.50000000E+02  9.40000000E+01  0.00000000E+00
  1.50000000E+02  9.20000000E+01  0.00000000E+00
  1.50000000E+02  9.00000000E+01  0.00000000E+00
  1.50000000E+02  8.80000000E+01  0.00000000E+00
  1.50000000E+02  8.60000000E+01  0.00000000E+00
  1.50000000E+02  8.40000000E+01  0.00000000E+00
  1.50000000E+02  8.20000000E+01  0.00000000E+00
  1.50000000E+02  8.00000000E+01  0.00000000E+00
  1.50000000E+02  7.80000000E+01  0.00000000E+00
  1.50000000E+02  7.60000000E+01  0.00000000E+00
  1.50000000E+02  7.40000000E+01  0.00000000E+00
  1.50000000E+02  7.20000000E+01  0.00000000E+00
  1.50000000E+02  7.00000000E+01  0.00000000E+00
  1.50000000E+02  6.80000000E+01  0.00000000E+00
  1.50000000E+02  6.60000000E+01  0.00000000E+00
  1.50000000E+02  6.40000000E+01  0.00000000E+00
  1.50000000E+02  6.20000000E+01  0.00000000E+00
  1.50000000E+02  6.00000000E+01  0.00000000E+00
  1.50000000E+02  5.80000000E+01  0.00000000E+00
  1.50000000E+02  5.60000000E+01  0.00000000E+00
  1.50000000E+02  5.40000000E+01  0.00000000E+00
  1.50000000E+02  5.20000000E+01  0.00000000E+00
  1.50000000E+02  5.00000000E+01  0.00000000E+00
  1.50000000E+02  4.80000000E+01  0.00000000E+00
  1.50000000E+02  4.60000000E+01  0.00000000E+00
  1.50000000E+02  4.40000000E+01  0.00000000E+00
  1.50000000E+02  4.20000000E+01  0.00000000E+00
  1.50000000E+02  4.00000000E+01  0.00000000E+00
  1.50000000E+02  3.80000000E+01  0.00000000E+00
  1.50000000E+02  3.60000000E+01  0.00000000E+00
  1.50000000E+02  3.40000000E+01  0.00000000E+00
  1.50000000E+02  3.20000000E+01  0.00000000E+00
  1.50000000E+02  3.00000000E+01  0.00000000E+00
  1.50000000E+02  2.80000000E+01  0.00000000E+00
  1.50000000E+02  2.60000000E+01  0.00000000E+00
  1.50000000E+02  2.40000000E+01  0.00000000E+00
  1.50000000E+02  2.20000000E+01  0.00000000E+00
  1.50000000E+02  2.00000000E+01  0.00000000E+00
  1.50000000E+02  1.80000000E+01  0.00000000E+00
  1.50000000E+02  1.60000000E+01  0.00000000E+00
  1.50000000E+02  1.40000000E+01  0.00000000E+00
  1.50000000E+02  1.20000000E+01  0.00000000E+00
  1.50000000E+02  1.00000000E+01  0.00000000E+00
  1.50000000E+02  8.00000000E+00  0.00000000E+00
  1.50000000E+02  6.00000000E+00  0.00000000E+00
  1.50000000E+02  4.00000000E+00  0.00000000E+00
  1.50000000E+02  2.00000000E+00  0.00000000E+00
  1.50000000E+02 -3.33066907E-14  0.00000000E+00
  1.60000000E+02  1.00000000E+02  0.00000000E+00
  1.60000000E+02  9.80000000E+01  0.00000000E+00
  1.60000000E+02  9.60000000E+01  0.00000000E+00
  1.60000000E+02  9.40000000E+01  0.00000000E+00
  1.60000000E+02  9.20000000E+01  0.00000000E+00
  1.60000000E+02  9.00000000E+01  0.00000000E+00
  1.60000000E+02  8.80000000E+01  0.00000000E+00
  1.60000000E+02  8.60000000E+01  0.00000000E+00
  1.60000000E+02  8.40000000E+01  0.00000000E+00
  1.60000000E+02  8.20000000E+01  0.00000000E+00
  1.60000000E+02  8.00000000E+01  0.00000000E+00
  1.60000000E+02  7.80000000E+01  0.00000000E+00
  1.60000000E+02  7.60000000E+01  0.00000000E+00
  1.60000000E+02  7.40000000E+01  0.00000000E+00
  1.60000000E+02  7.20000000E+01  0.00000000E+00
  1.60000000E+02  7.00000000E+01  0.00000000E+00
  1.60000000E+02  6.80000000E+01  0.00000000E+00
  1.60000000E+02  6.60000000E+01  0.00000000E+00
  1.60000000E+02  6.40000000E+01  0.00000000E+00
  1.60000000E+02  6.20000000E+01  0.00000000E+00
  1.60000000E+02  6.00000000E+01  0.00000000E+00
  1.60000000E+02  5.80000000E+01  0.00000000E+00
  1.60000000E+02  5.60000000E+01  0.00000000E+00
  1.60000000E+02  5.40000000E+01  0.00000000E+00
  1.60000000E+02  5.20000000E+01  0.00000000E+00
  1.60000000E+02  5.00000000E+01  0.00000000E+00
  1.60000000E+02  4.80000000E+01  0.00000000E+00
  1.60000000E+02  4.60000000E+01  0.00000000E+00
  1.60000000E+02  4.40000000E+01  0.00000000E+00
  1.60000000E+02  4.20000000E+01  0.00000000E+00
  1.60000000E+02  4.00000000E+01  0.00000000E+00
  1.60000000E+02  3.80000000E+01  0.00000000E+00
  1.60000000E+02  3.60000000E+01  0.00000000E+00
  1.60000000E+02  3.40000000E+01  0.00000000E+00
  1.60000000E+02  3.20000000E+01  0.00000000E+00
  1.60000000E+02  3.00000000E+01  0.00000000E+00
  1.60000000E+02  2.80000000E+01  0.00000000E+00
  1.60000000E+02  2.60000000E+01  0.00000000E+00
  1.60000000E+02  2.40000000E+01  0.00000000E+00
  1.60000000E+02  2.20000000E+01  0.00000000E+00
  1.60000000E+02  2.00000000E+01  0.00000000E+00
  1.60000000E+02  1.80000000E+01  0.00000000E+00
  1.60000000E+02  1.60000000E+01  0.00000000E+00
  1.60000000E+02  1.40000000E+01  0.00000000E+00
  1.60000000E+02  1.20000000E+01  0.00000000E+00
  1.60000000E+02  1.00000000E+01  0.00000000E+00
  1.60000000E+02  8.00000000E+00  0.00000000E+00
  1.60000000E+02  6.00000000E+00  0.00000000E+00
  1.60000000E+02  4.00000000E+00  0.00000000E+00
  1.60000000E+02  2.00000000E+00  0.00000000E+00
  1.60000000E+02 -3.33066907E-14  0.00000000E+00
  1.70000000E+02  1.00000000E+02  0.00000000E+00
  1.70000000E+02  9.80000000E+01  0.00000000E+00
  1.70000000E+02  9.60000000E+01  0.00000000E+00
  1.70000000E+02  9.40000000E+01  0.00000000E+00
  1.70000000E+02  9.20000000E+01  0.00000000E+00
  1.70000000E+02  9.00000000E+01  0.00000000E+00
  1.70000000E+02  8.80000000E+01  0.00000000E+00
  1.70000000E+02  8.60000000E+01  0.00000000E+00
  1.70000000E+02  8.40000000E+01  0.00000000E+00
  1.70000000E+02  8.20000000E+01  0.00000000E+00
  1.70000000E+02  8.00000000E+01  0.00000000E+00
  1.70000000E+02  7.80000000E+01  0.00000000E+00
  1.70000000E+02  7.60000000E+01  0.00000000E+00
  1.70000000E+02  7.40000000E+01  0.00000000E+00
  1.70000000E+02  7.20000000E+01  0.00000000E+00
  1.70000000E+02  7.00000000E+01  0.00000000E+00
  1.70000000E+02  6.80000000E+01  0.00000000E+00
  1.70000000E+02  6.60000000E+01  0.00000000E+00
  1.70000000E+02  6.40000000E+01  0.00000000E+00
  1.70000000E+02  6.20000000E+01  0.00000000E+00
  1.70000000E+02  6.00000000E+01  0.00000000E+00
  1.70000000E+02  5.80000000E+01  0.00000000E+00
  1.70000000E+02  5.60000000E+01  0.00000000E+00
  1.70000000E+02  5.40000000E+01  0.00000000E+00
  1.70000000E+02  5.20000000E+01  0.00000000E+00
  1.70000000E+02  5.00000000E+01  0.00000000E+00
  1.70000000E+02  4.80000000E+01  0.00000000E+00
  1.70000000E+02  4.60000000E+01  0.00000000E+00
  1.70000000E+02  4.40000000E+01  0.00000000E+00
  1.70000000E+02  4.20000000E+01  0.00000000E+00
  1.70000000E+02  4.00000000E+01  0.00000000E+00
  1.70000000E+02  3.80000000E+01  0.00000000E+00
  1.70000000E+02  3.60000000E+01  0.00000000E+00
  1.70000000E+02  3.40000000E+01  0.00000000E+00
  1.70000000E+02  3.20000000E+01  0.00000000E+00
  1.70000000E+02  3.00000000E+01  0.00000000E+00
  1.70000000E+02  2.80000000E+01  0.00000000E+00
  1.70000000E+02  2.60000000E+01  0.00000000E+00
  1.70000000E+02  2.40000000E+01  0.00000000E+00
  1.70000000E+02  2.20000000E+01  0.00000000E+00
  1.70000000E+02  2.00000000E+01  0.00000000E+00
  1.70000000E+02  1.80000000E+01  0.00000000E+00
  1.70000000E+02  1.60000000E+01  0.00000000E+00
  1.70000000E+02  1.40000000E+01  0.00000000E+00
  1.70000000E+02  1.20000000E+01  0.00000000E+00
  1.70000000E+02  1.00000000E+01  0.00000000E+00
  1.70000000E+02  8.00000000E+00  0.00000000E+00
  1.70000000E+02  6.00000000E+00  0.00000000E+00
  1.70000000E+02  4.00000000E+00  0.00000000E+00
  1.70000000E+02  2.00000000E+00  0.00000000E+00
  1.70000000E+02 -3.33066907E-14  0.00000000E+00
  1.80000000E+02  1.00000000E+02  0.00000000E+00
  1.80000000E+02  9.80000000E+01  0.00000000E+00
  1.80000000E+02  9.60000000E+01  0.00000000E+00
  1.80000000E+02  9.40000000E+01  0.00000000E+00
  1.80000000E+02  9.20000000E+01  0.00000000E+00
  1.80000000E+02  9.00000000E+01  0.00000000E+00
  1.80000000E+02  8.80000000E+01  0.00000000E+00
  1.80000000E+02  8.60000000E+01  0.00000000E+00
  1.80000000E+02  8.40000000E+01  0.00000000E+00
  1.80000000E+02  8.20000000E+01  0.00000000E+00
  1.80000000E+02  8.00000000E+01  0.00000000E+00
  1.80000000E+02  7.80000000E+01  0.00000000E+00
  1.80000000E+02  7.60000000E+01  0.00000000E+00
  1.80000000E+02  7.40000000E+01  0.00000000E+00
  1.80000000E+02  7.20000000E+01  0.00000000E+00
  1.80000000E+02  7.00000000E+01  0.00000000E+00
  1.80000000E+02  6.80000000E+01  0.00000000E+00
  1.80000000E+02  6.60000000E+01  0.00000000E+00
  1.80000000E+02  6.40000000E+01  0.00000000E+00
  1.80000000E+02  6.20000000E+01  0.00000000E+00
  1.80000000E+02  6.00000000E+01  0.00000000E+00
  1.80000000E+02  5.80000000E+01  0.00000000E+00
  1.80000000E+02  5.60000000E+01  0.00000000E+00
  1.80000000E+02  5.40000000E+01  0.00000000E+00
  1.80000000E+02  5.20000000E+01  0.00000000E+00
  1.80000000E+02  5.00000000E+01  0.00000000E+00
  1.80000000E+02  4.80000000E+01  0.00000000E+00
  1.80000000E+02  4.60000000E+01  0.00000000E+00
  1.80000000E+02  4.40000000E+01  0.00000000E+00
  1.80000000E+02  4.20000000E+01  0.00000000E+00
  1.80000000E+02  4.00000000E+01  0.00000000E+00
  1.80000000E+02  3.80000000E+01  0.00000000E+00
  1.80000000E+02  3.60000000E+01  0.00000000E+00
  1.80000000E+02  3.40000000E+01  0.00000000E+00
  1.80000000E+02  3.20000000E+01  0.00000000E+00
  1.80000000E+02  3.00000000E+01  0.00000000E+00
  1.80000000E+02  2.80000000E+01  0.00000000E+00
  1.80000000E+02  2.60000000E+01  0.00000000E+00
  1.80000000E+02  2.40000000E+01  0.00000000E+00
  1.80000000E+02  2.20000000E+01  0.00000000E+00
  1.80000000E+02  2.00000000E+01  0.00000000E+00
  1.80000000E+02  1.80000000E+01  0.00000000E+00
  1.80000000E+02  1.60000000E+01  0.00000000E+00
  1.80000000E+02  1.40000000E+01  0.00000000E+00
  1.80000000E+02  1.20000000E+01  0.00000000E+00
  1.80000000E+02  1.00000000E+01  0.00000000E+00
  1.80000000E+02  8.00000000E+00  0.00000000E+00
  1.80000000E+02  6.00000000E+00  0.00000000E+00
  1.80000000E+02  4.00000000E+00  0.00000000E+00
  1.80000000E+02  2.00000000E+00  0.00000000E+00
  1.80000000E+02 -3.33066907E-14  0.00000000E+00
  1.90000000E+02  1.00000000E+02  0.00000000E+00
  1.90000000E+02  9.80000000E+01  0.00000000E+00
  1.90000000E+02  9.60000000E+01  0.00000000E+00
  1.90000000E+02  9.40000000E+01  0.00000000E+00
  1.90000000E+02  9.20000000E+01  0.00000000E+00
  1.90000000E+02  9.00000000E+01  0.00000000E+00
  1.90000000E+02  8.80000000E+01  0.00000000E+00
  1.90000000E+02  8.60000000E+01  0.00000000E+00
  1.90000000E+02  8.40000000E+01  0.00000000E+00
  1.90000000E+02  8.20000000E+01  0.00000000E+00
  1.90000000E+02  8.00000000E+01  0.00000000E+00
  1.90000000E+02  7.80000000E+01  0.00000000E+00
  1.90000000E+02  7.60000000E+01  0.00000000E+00
  1.90000000E+02  7.40000000E+01  0.00000000E+00
  1.90000000E+02  7.20000000E+01  0.00000000E+00
  1.90000000E+02  7.00000000E+01  0.00000000E+00
  1.90000000E+02  6.80000000E+01  0.00000000E+00
  1.90000000E+02  6.60000000E+01  0.00000000E+00
  1.90000000E+02  6.40000000E+01  0.00000000E+00
  1.90000000E+02  6.20000000E+01  0.00000000E+00
  1.90000000E+02  6.00000000E+01  0.00000000E+00
  1.90000000E+02  5.80000000E+01  0.00000000E+00
  1.90000000E+02  5.60000000E+01  0.00000000E+00
  1.90000000E+02  5.40000000E+01  0.00000000E+00
  1.90000000E+02  5.20000000E+01  0.00000000E+00
  1.90000000E+02  5.00000000E+01  0.00000000E+00
  1.90000000E+02  4.80000000E+01  0.00000000E+00
  1.90000000E+02  4.60000000E+01  0.00000000E+00
  1.90000000E+02  4.40000000E+01  0.00000000E+00
  1.90000000E+02  4.20000000E+01  0.00000000E+00
  1.90000000E+02  4.00000000E+01  0.00000000E+00
  1.90000000E+02  3.80000000E+01  0.00000000E+00
  1.90000000E+02  3.60000000E+01  0.00000000E+00
  1.90000000E+02  3.40000000E+01  0.00000000E+00
  1.90000000E+02  3.20000000E+01  0.00000000E+00
  1.90000000E+02  3.00000000E+01  0.00000000E+00
  1.90000000E+02  2.80000000E+01  0.00000000E+00
  1.90000000E+02  2.60000000E+01  0.00000000E+00
  1.90000000E+02  2.40000000E+01  0.00000000E+00
  1.90000000E+02  2.20000000E+01  0.00000000E+00
  1.90000000E+02  2.00000000E+01  0.00000000E+00
  1.90000000E+02  1.80000000E+01  0.00000000E+00
  1.90000000E+02  1.60000000E+01  0.00000000E+00
  1.90000000E+02  1.40000000E+01  0.00000000E+00
  1.90000000E+02  1.20000000E+01  0.00000000E+00
  1.90000000E+02  1.00000000E+01  0.00000000E+00
  1.90000000E+02  8.00000000E+00  0.00000000E+00
  1.90000000E+02  6.00000000E+00  0.00000000E+00
  1.90000000E+02  4.00000000E+00  0.00000000E+00
  1.90000000E+02  2.00000000E+00  0.00000000E+00
  1.90000000E+02 -3.33066907E-14  0.00000000E+00
  2.00000000E+02  1.00000000E+02  0.00000000E+00
  2.00000000E+02  9.80000000E+01  0.00000000E+00
  2.00000000E+02  9.60000000E+01  0.00000000E+00
  2.00000000E+02  9.40000000E+01  0.00000000E+00
  2.00000000E+02  9.20000000E+01  0.00000000E+00
  2.00000000E+02  9.00000000E+01  0.00000000E+00
  2.00000000E+02  8.80000000E+01  0.00000000E+00
  2.00000000E+02  8.60000000E+01  0.00000000E+00
  2.00000000E+02  8.40000000E+01  0.00000000E+00
  2.00000000E+02  8.20000000E+01  0.00000000E+00
  2.00000000E+02  8.00000000E+01  0.00000000E+00
  2.00000000E+02  7.80000000E+01  0.00000000E+00
  2.00000000E+02  7.60000000E+01  0.00000000E+00
  2.00000000E+02  7.40000000E+01  0.00000000E+00
  2.00000000E+02  7.20000000E+01  0.00000000E+00
  2.00000000E+02  7.00000000E+01  0.00000000E+00
  2.00000000E+02  6.80000000E+01  0.00000000E+00
  2.00000000E+02  6.60000000E+01  0.00000000E+00
  2.00000000E+02  6.40000000E+01  0.00000000E+00
  2.00000000E+02  6.20000000E+01  0.00000000E+00
  2.00000000E+02  6.00000000E+01  0.00000000E+00
  2.00000000E+02  5.80000000E+01  0.00000000E+00
  2.00000000E+02  5.60000000E+01  0.00000000E+00
  2.00000000E+02  5.40000000E+01  0.00000000E+00
  2.00000000E+02  5.20000000E+01  0.00000000E+00
  2.00000000E+02  5.00000000E+01  0.00000000E+00
  2.00000000E+02  4.80000000E+01  0.00000000E+00
  2.00000000E+02  4.60000000E+01  0.00000000E+00
  2.00000000E+02  4.40000000E+01  0.00000000E+00
  2.00000000E+02  4.20000000E+01  0.00000000E+00
  2.00000000E+02  4.00000000E+01  0.00000000E+00
  2.00000000E+02  3.80000000E+01  0.00000000E+00
  2.00000000E+02  3.60000000E+01  0.00000000E+00
  2.00000000E+02  3.40000000E+01  0.00000000E+00
  2.00000000E+02  3.20000000E+01  0.00000000E+00
  2.00000000E+02  3.00000000E+01  0.00000000E+00
  2.00000000E+02  2.80000000E+01  0.00000000E+00
  2.00000000E+02  2.60000000E+01  0.00000000E+00
  2.00000000E+02  2.40000000E+01  0.00000000E+00
  2.00000000E+02  2.20000000E+01  0.00000000E+00
  2.00000000E+02  2.00000000E+01  0.00000000E+00
  2.00000000E+02  1.80000000E+01  0.00000000E+00
  2.00000000E+02  1.60000000E+01  0.00000000E+00
  2.00000000E+02  1.40000000E+01  0.00000000E+00
  2.00000000E+02  1.20000000E+01  0.00000000E+00
  2.00000000E+02  1.00000000E+01  0.00000000E+00
  2.00000000E+02  8.00000000E+00  0.00000000E+00
  2.00000000E+02  6.00000000E+00  0.00000000E+00
  2.00000000E+02  4.00000000E+00  0.00000000E+00
  2.00000000E+02  2.00000000E+00  0.00000000E+00
  2.00000000E+02 -3.33066907E-14  0.00000000E+00
  2.10000000E+02  1.00000000E+02  0.00000000E+00
  2.10000000E+02  9.80000000E+01  0.00000000E+00
  2.10000000E+02  9.60000000E+01  0.00000000E+00
  2.10000000E+02  9.40000000E+01  0.00000000E+00
  2.10000000E+02  9.20000000E+01  0.00000000E+00
  2.10000000E+02  9.00000000E+01  0.00000000E+00
  2.10000000E+02  8.80000000E+01  0.00000000E+00
  2.10000000E+02  8.60000000E+01  0.00000000E+00
  2.10000000E+02  8.40000000E+01  0.00000000E+00
  2.10000000E+02  8.20000000E+01  0.00000000E+00
  2.10000000E+02  8.00000000E+01  0.00000000E+00
  2.10000000E+02  7.80000000E+01  0.00000000E+00
  2.10000000E+02  7.60000000E+01  0.00000000E+00
  2.10000000E+02  7.40000000E+01  0.00000000E+00
  2.10000000E+02  7.20000000E+01  0.00000000E+00
  2.10000000E+02  7.00000000E+01  0.00000000E+00
  2.10000000E+02  6.80000000E+01  0.00000000E+00
  2.10000000E+02  6.60000000E+01  0.00000000E+00
  2.10000000E+02  6.40000000E+01  0.00000000E+00
  2.10000000E+02  6.20000000E+01  0.00000000E+00
  2.10000000E+02  6.00000000E+01  0.00000000E+00
  2.10000000E+02  5.80000000E+01  0.00000000E+00
  2.10000000E+02  5.60000000E+01  0.00000000E+00
  2.10000000E+02  5.40000000E+01  0.00000000E+00
  2.10000000E+02  5.20000000E+01  0.00000000E+00
  2.10000000E+02  5.00000000E+01  0.00000000E+00
  2.10000000E+02  4.80000000E+01  0.00000000E+00
  2.10000000E+02  4.60000000E+01  0.00000000E+00
  2.10000000E+02  4.40000000E+01  0.00000000E+00
  2.10000000E+02  4.20000000E+01  0.00000000E+00
  2.10000000E+02  4.00000000E+01  0.00000000E+00
  2.10000000E+02  3.80000000E+01  0.00000000E+00
  2.10000000E+02  3.60000000E+01  0.00000000E+00
  2.10000000E+02  3.40000000E+01  0.00000000E+00
  2.10000000E+02  3.20000000E+01  0.00000000E+00
  2.10000000E+02  3.00000000E+01  0.00000000E+00
  2.10000000E+02  2.80000000E+01  0.00000000E+00
  2.10000000E+02  2.60000000E+01  0.00000000E+00
  2.10000000E+02  2.40000000E+01  0.00000000E+00
  2.10000000E+02  2.20000000E+01  0.00000000E+00
  2.10000000E+02  2.00000000E+01  0.00000000E+00
  2.10000000E+02  1.80000000E+01  0.00000000E+00
  2.10000000E+02  1.60000000E+01  0.00000000E+00
  2.10000000E+02  1.40000000E+01  0.00000000E+00
  2.10000000E+02  1.20000000E+01  0.00000000E+00
  2.10000000E+02  1.00000000E+01  0.00000000E+00
  2.10000000E+02  8.00000000E+00  0.00000000E+00
  2.10000000E+02  6.00000000E+00  0.00000000E+00
  2.10000000E+02  4.00000000E+00  0.00000000E+00
  2.10000000E+02  2.00000000E+00  0.00000000E+00
  2.10000000E+02 -3.33066907E-14  0.00000000E+00
  2.20000000E+02  1.00000000E+02  0.00000000E+00
  2.20000000E+02  9.80000000E+01  0.00000000E+00
  2.20000000E+02  9.60000000E+01  0.00000000E+00
  2.20000000E+02  9.40000000E+01  0.00000000E+00
  2.20000000E+02  9.20000000E+01  0.00000000E+00
  2.20000000E+02  9.00000000E+01  0.00000000E+00
  2.20000000E+02  8.80000000E+01  0.00000000E+00
  2.20000000E+02  8.60000000E+01  0.00000000E+00
  2.20000000E+02  8.40000000E+01  0.00000000E+00
  2.20000000E+02  8.20000000E+01  0.00000000E+00
  2.20000000E+02  8.00000000E+01  0.00000000E+00
  2.20000000E+02  7.80000000E+01  0.00000000E+00
  2.20000000E+02  7.60000000E+01  0.00000000E+00
  2.20000000E+02  7.40000000E+01  0.00000000E+00
  2.20000000E+02  7.20000000E+01  0.00000000E+00
  2.20000000E+02  7.00000000E+01  0.00000000E+00
  2.20000000E+02  6.80000000E+01  0.00000000E+00
  2.20000000E+02  6.60000000E+01  0.00000000E+00
  2.20000000E+02  6.40000000E+01  0.00000000E+00
  2.20000000E+02  6.20000000E+01  0.00000000E+00
  2.20000000E+02  6.00000000E+01  0.00000000E+00
  2.20000000E+02  5.80000000E+01  0.00000000E+00
  2.20000000E+02  5.60000000E+01  0.00000000E+00
  2.20000000E+02  5.40000000E+01  0.00000000E+00
  2.20000000E+02  5.20000000E+01  0.00000000E+00
  2.20000000E+02  5.00000000E+01  0.00000000E+00
  2.20000000E+02  4.80000000E+01  0.00000000E+00
  2.20000000E+02  4.60000000E+01  0.00000000E+00
  2.20000000E+02  4.40000000E+01  0.00000000E+00
  2.20000000E+02  4.20000000E+01  0.00000000E+00
  2.20000000E+02  4.00000000E+01  0.00000000E+00
  2.20000000E+02  3.80000000E+01  0.00000000E+00
  2.20000000E+02  3.60000000E+01  0.00000000E+00
  2.20000000E+02  3.40000000E+01  0.00000000E+00
  2.20000000E+02  3.20000000E+01  0.00000000E+00
  2.20000000E+02  3.00000000E+01  0.00000000E+00
  2.20000000E+02  2.80000000E+01  0.00000000E+00
  2.20000000E+02  2.60000000E+01  0.00000000E+00
  2.20000000E+02  2.40000000E+01  0.00000000E+00
  2.20000000E+02  2.20000000E+01  0.00000000E+00
  2.20000000E+02  2.00000000E+01  0.00000000E+00
  2.20000000E+02  1.80000000E+01  0.00000000E+00
  2.20000000E+02  1.60000000E+01  0.00000000E+00
  2.20000000E+02  1.40000000E+01  0.00000000E+00
  2.20000000E+02  1.20000000E+01  0.00000000E+00
  2.20000000E+02  1.00000000E+01  0.00000000E+00
  2.20000000E+02  8.00000000E+00  0.00000000E+00
  2.20000000E+02  6.00000000E+00  0.00000000E+00
  2.20000000E+02  4.00000000E+00  0.00000000E+00
  2.20000000E+02  2.00000000E+00  0.00000000E+00
  2.20000000E+02 -3.33066907E-14  0.00000000E+00
  2.30000000E+02  1.00000000E+02  0.00000000E+00
  2.30000000E+02  9.80000000E+01  0.00000000E+00
  2.30000000E+02  9.60000000E+01  0.00000000E+00
  2.30000000E+02  9.40000000E+01  0.00000000E+00
  2.30000000E+02  9.20000000E+01  0.00000000E+00
  2.30000000E+02  9.00000000E+01  0.00000000E+00
  2.30000000E+02  8.80000000E+01  0.00000000E+00
  2.30000000E+02  8.60000000E+01  0.00000000E+00
  2.30000000E+02  8.40000000E+01  0.00000000E+00
  2.30000000E+02  8.20000000E+01  0.00000000E+00
  2.30000000E+02  8.00000000E+01  0.00000000E+00
  2.30000000E+02  7.80000000E+01  0.00000000E+00
  2.30000000E+02  7.60000000E+01  0.00000000E+00
  2.30000000E+02  7.40000000E+01  0.00000000E+00
  2.30000000E+02  7.20000000E+01  0.00000000E+00
  2.30000000E+02  7.00000000E+01  0.00000000E+00
  2.30000000E+02  6.80000000E+01  0.00000000E+00
  2.30000000E+02  6.60000000E+01  0.00000000E+00
  2.30000000E+02  6.40000000E+01  0.00000000E+00
  2.30000000E+02  6.20000000E+01  0.00000000E+00
  2.30000000E+02  6.00000000E+01  0.00000000E+00
  2.30000000E+02  5.80000000E+01  0.00000000E+00
  2.30000000E+02  5.60000000E+01  0.00000000E+00
  2.30000000E+02  5.40000000E+01  0.00000000E+00
  2.30000000E+02  5.20000000E+01  0.00000000E+00
  2.30000000E+02  5.00000000E+01  0.00000000E+00
  2.30000000E+02  4.80000000E+01  0.00000000E+00
  2.30000000E+02  4.60000000E+01  0.00000000E+00
  2.30000000E+02  4.40000000E+01  0.00000000E+00
  2.30000000E+02  4.20000000E+01  0.00000000E+00
  2.30000000E+02  4.00000000E+01  0.00000000E+00
  2.30000000E+02  3.80000000E+01  0.00000000E+00
  2.30000000E+02  3.60000000E+01  0.00000000E+00
  2.30000000E+02  3.40000000E+01  0.00000000E+00
  2.30000000E+02  3.20000000E+01  0.00000000E+00
  2.30000000E+02  3.00000000E+01  0.00000000E+00
  2.30000000E+02  2.80000000E+01  0.00000000E+00
  2.30000000E+02  2.60000000E+01  0.00000000E+00
  2.30000000E+02  2.40000000E+01  0.00000000E+00
  2.30000000E+02  2.20000000E+01  0.00000000E+00
  2.30000000E+02  2.00000000E+01  0.00000000E+00
  2.30000000E+02  1.80000000E+01  0.00000000E+00
  2.30000000E+02  1.60000000E+01  0.00000000E+00
  2.30000000E+02  1.40000000E+01  0.00000000E+00
  2.30000000E+02  1.20000000E+01  0.00000000E+00
  2.30000000E+02  1.00000000E+01  0.00000000E+00
  2.30000000E+02  8.00000000E+00  0.00000000E+00
  2.30000000E+02  6.00000000E+00  0.00000000E+00
  2.30000000E+02  4.00000000E+00  0.00000000E+00
  2.30000000E+02  2.00000000E+00  0.00000000E+00
  2.30000000E+02 -3.33066907E-14  0.00000000E+00
  2.40000000E+02  1.00000000E+02  0.00000000E+00
  2.40000000E+02  9.80000000E+01  0.00000000E+00
  2.40000000E+02  9.60000000E+01  0.00000000E+00
  2.40000000E+02  9.40000000E+01  0.00000000E+00
  2.40000000E+02  9.20000000E+01  0.00000000E+00
  2.40000000E+02  9.00000000E+01  0.00000000E+00
  2.40000000E+02  8.80000000E+01  0.00000000E+00
  2.40000000E+02  8.60000000E+01  0.00000000E+00
  2.40000000E+02  8.40000000E+01  0.00000000E+00
  2.40000000E+02  8.20000000E+01  0.00000000E+00
  2.40000000E+02  8.00000000E+01  0.00000000E+00
  2.40000000E+02  7.80000000E+01  0.00000000E+00
  2.40000000E+02  7.60000000E+01  0.00000000E+00
  2.40000000E+02  7.40000000E+01  0.00000000E+00
  2.40000000E+02  7.20000000E+01  0.00000000E+00
  2.40000000E+02  7.00000000E+01  0.00000000E+00
  2.40000000E+02  6.80000000E+01  0.00000000E+00
  2.40000000E+02  6.60000000E+01  0.00000000E+00
  2.40000000E+02  6.40000000E+01  0.00000000E+00
  2.40000000E+02  6.20000000E+01  0.00000000E+00
  2.40000000E+02  6.00000000E+01  0.00000000E+00
  2.40000000E+02  5.80000000E+01  0.00000000E+00
  2.40000000E+02  5.60000000E+01  0.00000000E+00
  2.40000000E+02  5.40000000E+01  0.00000000E+00
  2.40000000E+02  5.20000000E+01  0.00000000E+00
  2.40000000E+02  5.00000000E+01  0.00000000E+00
  2.40000000E+02  4.80000000E+01  0.00000000E+00
  2.40000000E+02  4.60000000E+01  0.00000000E+00
  2.40000000E+02  4.40000000E+01  0.00000000E+00
  2.40000000E+02  4.20000000E+01  0.00000000E+00
  2.40000000E+02  4.00000000E+01  0.00000000E+00
  2.40000000E+02  3.80000000E+01  0.00000000E+00
  2.40000000E+02  3.60000000E+01  0.00000000E+00
  2.40000000E+02  3.40000000E+01  0.00000000E+00
  2.40000000E+02  3.20000000E+01  0.00000000E+00
  2.40000000E+02  3.00000000E+01  0.00000000E+00
  2.40000000E+02  2.80000000E+01  0.00000000E+00
  2.40000000E+02  2.60000000E+01  0.00000000E+00
  2.40000000E+02  2.40000000E+01  0.00000000E+00
  2.40000000E+02  2.20000000E+01  0.00000000E+00
  2.40000000E+02  2.00000000E+01  0.00000000E+00
  2.40000000E+02  1.80000000E+01  0.00000000E+00
  2.40000000E+02  1.60000000E+01  0.00000000E+00
  2.40000000E+02  1.40000000E+01  0.00000000E+00
  2.40000000E+02  1.20000000E+01  0.00000000E+00
  2.40000000E+02  1.00000000E+01  0.00000000E+00
  2.40000000E+02  8.00000000E+00  0.00000000E+00
  2.40000000E+02  6.00000000E+00  0.00000000E+00
  2.40000000E+02  4.00000000E+00  0.00000000E+00
  2.40000000E+02  2.00000000E+00  0.00000000E+00
  2.40000000E+02 -3.33066907E-14  0.00000000E+00
  2.50000000E+02  1.00000000E+02  0.00000000E+00
  2.50000000E+02  9.80000000E+01  0.00000000E+00
  2.50000000E+02  9.60000000E+01  0.00000000E+00
  2.50000000E+02  9.40000000E+01  0.00000000E+00
  2.50000000E+02  9.20000000E+01  0.00000000E+00
  2.50000000E+02  9.00000000E+01  0.00000000E+00
  2.50000000E+02  8.80000000E+01  0.00000000E+00
  2.50000000E+02  8.60000000E+01  0.00000000E+00
  2.50000000E+02  8.40000000E+01  0.00000000E+00
  2.50000000E+02  8.20000000E+01  0.00000000E+00
  2.50000000E+02  8.00000000E+01  0.00000000E+00
  2.50000000E+02  7.80000000E+01  0.00000000E+00
  2.50000000E+02  7.60000000E+01  0.00000000E+00
  2.50000000E+02  7.40000000E+01  0.00000000E+00
  2.50000000E+02  7.20000000E+01  0.00000000E+00
  2.50000000E+02  7.00000000E+01  0.00000000E+00
  2.50000000E+02  6.80000000E+01  0.00000000E+00
  2.50000000E+02  6.60000000E+01  0.00000000E+00
  2.50000000E+02  6.40000000E+01  0.00000000E+00
  2.50000000E+02  6.20000000E+01  0.00000000E+00
  2.50000000E+02  6.00000000E+01  0.00000000E+00
  2.50000000E+02  5.80000000E+01  0.00000000E+00
  2.50000000E+02  5.60000000E+01  0.00000000E+00
  2.50000000E+02  5.40000000E+01  0.00000000E+00
  2.50000000E+02  5.20000000E+01  0.00000000E+00
  2.50000000E+02  5.00000000E+01  0.00000000E+00
  2.50000000E+02  4.80000000E+01  0.00000000E+00
  2.50000000E+02  4.60000000E+01  0.00000000E+00
  2.50000000E+02  4.40000000E+01  0.00000000E+00
  2.50000000E+02  4.20000000E+01  0.00000000E+00
  2.50000000E+02  4.00000000E+01  0.00000000E+00
  2.50000000E+02  3.80000000E+01  0.00000000E+00
  2.50000000E+02  3.60000000E+01  0.00000000E+00
  2.50000000E+02  3.40000000E+01  0.00000000E+00
  2.50000000E+02  3.20000000E+01  0.00000000E+00
  2.50000000E+02  3.00000000E+01  0.00000000E+00
  2.50000000E+02  2.80000000E+01  0.00000000E+00
  2.50000000E+02  2.60000000E+01  0.00000000E+00
  2.50000000E+02  2.40000000E+01  0.00000000E+00
  2.50000000E+02  2.20000000E+01  0.00000000E+00
  2.50000000E+02  2.00000000E+01  0.00000000E+00
  2.50000000E+02  1.80000000E+01  0.00000000E+00
  2.50000000E+02  1.60000000E+01  0.00000000E+00
  2.50000000E+02  1.40000000E+01  0.00000000E+00
  2.50000000E+02  1.20000000E+01  0.00000000E+00
  2.50000000E+02  1.00000000E+01  0.00000000E+00
  2.50000000E+02  8.00000000E+00  0.00000000E+00
  2.50000000E+02  6.00000000E+00  0.00000000E+00
  2.50000000E+02  4.00000000E+00  0.00000000E+00
  2.50000000E+02  2.00000000E+00  0.00000000E+00
  2.50000000E+02 -3.33066907E-14  0.00000000E+00
  2.60000000E+02  1.00000000E+02  0.00000000E+00
  2.60000000E+02  9.80000000E+01  0.00000000E+00
  2.60000000E+02  9.60000000E+01  0.00000000E+00
  2.60000000E+02  9.40000000E+01  0.00000000E+00
  2.60000000E+02  9.20000000E+01  0.00000000E+00
  2.60000000E+02  9.00000000E+01  0.00000000E+00
  2.60000000E+02  8.80000000E+01  0.00000000E+00
  2.60000000E+02  8.60000000E+01  0.00000000E+00
  2.60000000E+02  8.40000000E+01  0.00000000E+00
  2.60000000E+02  8.20000000E+01  0.00000000E+00
  2.60000000E+02  8.00000000E+01  0.00000000E+00
  2.60000000E+02  7.80000000E+01  0.00000000E+00
  2.60000000E+02  7.60000000E+01  0.00000000E+00
  2.60000000E+02  7.40000000E+01  0.00000000E+00
  2.60000000E+02  7.20000000E+01  0.00000000E+00
  2.60000000E+02  7.00000000E+01  0.00000000E+00
  2.60000000E+02  6.80000000E+01  0.00000000E+00
  2.60000000E+02  6.60000000E+01  0.00000000E+00
  2.60000000E+02  6.40000000E+01  0.00000000E+00
  2.60000000E+02  6.20000000E+01  0.00000000E+00
  2.60000000E+02  6.00000000E+01  0.00000000E+00
  2.60000000E+02  5.80000000E+01  0.00000000E+00
  2.60000000E+02  5.60000000E+01  0.00000000E+00
  2.60000000E+02  5.40000000E+01  0.00000000E+00
  2.60000000E+02  5.20000000E+01  0.00000000E+00
  2.60000000E+02  5.00000000E+01  0.00000000E+00
  2.60000000E+02  4.80000000E+01  0.00000000E+00
  2.60000000E+02  4.60000000E+01  0.00000000E+00
  2.60000000E+02  4.40000000E+01  0.00000000E+00
  2.60000000E+02  4.20000000E+01  0.00000000E+00
  2.60000000E+02  4.00000000E+01  0.00000000E+00
  2.60000000E+02  3.80000000E+01  0.00000000E+00
  2.60000000E+02  3.60000000E+01  0.00000000E+00
  2.60000000E+02  3.40000000E+01  0.00000000E+00
  2.60000000E+02  3.20000000E+01  0.00000000E+00
  2.60000000E+02  3.00000000E+01  0.00000000E+00
  2.60000000E+02  2.80000000E+01  0.00000000E+00
  2.60000000E+02  2.60000000E+01  0.00000000E+00
  2.60000000E+02  2.40000000E+01  0.00000000E+00
  2.60000000E+02  2.20000000E+01  0.00000000E+00
  2.60000000E+02  2.00000000E+01  0.00000000E+00
  2.60000000E+02  1.80000000E+01  0.00000000E+00
  2.60000000E+02  1.60000000E+01  0.00000000E+00
  2.60000000E+02  1.40000000E+01  0.00000000E+00
  2.60000000E+02  1.20000000E+01  0.00000000E+00
  2.60000000E+02  1.00000000E+01  0.00000000E+00
  2.60000000E+02  8.00000000E+00  0.00000000E+00
  2.60000000E+02  6.00000000E+00  0.00000000E+00
  2.60000000E+02  4.00000000E+00  0.00000000E+00
  2.60000000E+02  2.00000000E+00  0.00000000E+00
  2.60000000E+02 -3.33066907E-14  0.00000000E+00
  2.70000000E+02  1.00000000E+02  0.00000000E+00
  2.70000000E+02  9.80000000E+01  0.00000000E+00
  2.70000000E+02  9.60000000E+01  0.00000000E+00
  2.70000000E+02  9.40000000E+01  0.00000000E+00
  2.70000000E+02  9.20000000E+01  0.00000000E+00
  2.70000000E+02  9.00000000E+01  0.00000000E+00
  2.70000000E+02  8.80000000E+01  0.00000000E+00
  2.70000000E+02  8.60000000E+01  0.00000000E+00
  2.70000000E+02  8.40000000E+01  0.00000000E+00
  2.70000000E+02  8.20000000E+01  0.00000000E+00
  2.70000000E+02  8.00000000E+01  0.00000000E+00
  2.70000000E+02  7.80000000E+01  0.00000000E+00
  2.70000000E+02  7.60000000E+01  0.00000000E+00
  2.70000000E+02  7.40000000E+01  0.00000000E+00
  2.70000000E+02  7.20000000E+01  0.00000000E+00
  2.70000000E+02  7.00000000E+01  0.00000000E+00
  2.70000000E+02  6.80000000E+01  0.00000000E+00
  2.70000000E+02  6.60000000E+01  0.00000000E+00
  2.70000000E+02  6.40000000E+01  0.00000000E+00
  2.70000000E+02  6.20000000E+01  0.00000000E+00
  2.70000000E+02  6.00000000E+01  0.00000000E+00
  2.70000000E+02  5.80000000E+01  0.00000000E+00
  2.70000000E+02  5.60000000E+01  0.00000000E+00
  2.70000000E+02  5.40000000E+01  0.00000000E+00
  2.70000000E+02  5.20000000E+01  0.00000000E+00
  2.70000000E+02  5.00000000E+01  0.00000000E+00
  2.70000000E+02  4.80000000E+01  0.00000000E+00
  2.70000000E+02  4.60000000E+01  0.00000000E+00
  2.70000000E+02  4.40000000E+01  0.00000000E+00
  2.70000000E+02  4.20000000E+01  0.00000000E+00
  2.70000000E+02  4.00000000E+01  0.00000000E+00
  2.70000000E+02  3.80000000E+01  0.00000000E+00
  2.70000000E+02  3.60000000E+01  0.00000000E+00
  2.70000000E+02  3.40000000E+01  0.00000000E+00
  2.70000000E+02  3.20000000E+01  0.00000000E+00
  2.70000000E+02  3.00000000E+01  0.00000000E+00
  2.70000000E+02  2.80000000E+01  0.00000000E+00
  2.70000000E+02  2.60000000E+01  0.00000000E+00
  2.70000000E+02  2.40000000E+01  0.00000000E+00
  2.70000000E+02  2.20000000E+01  0.00000000E+00
  2.70000000E+02  2.00000000E+01  0.00000000E+00
  2.70000000E+02  1.80000000E+01  0.00000000E+00
  2.70000000E+02  1.60000000E+01  0.00000000E+00
  2.70000000E+02  1.40000000E+01  0.00000000E+00
  2.70000000E+02  1.20000000E+01  0.00000000E+00
  2.70000000E+02  1.00000000E+01  0.00000000E+00
  2.70000000E+02  8.00000000E+00  0.00000000E+00
  2.70000000E+02  6.00000000E+00  0.00000000E+00
  2.70000000E+02  4.00000000E+00  0.00000000E+00
  2.70000000E+02  2.00000000E+00  0.00000000E+00
  2.70000000E+02 -3.33066907E-14  0.00000000E+00
  2.80000000E+02  1.00000000E+02  0.00000000E+00
  2.80000000E+02  9.80000000E+01  0.00000000E+00
  2.80000000E+02  9.60000000E+01  0.00000000E+00
  2.80000000E+02  9.40000000E+01  0.00000000E+00
  2.80000000E+02  9.20000000E+01  0.00000000E+00
  2.80000000E+02  9.00000000E+01  0.00000000E+00
  2.80000000E+02  8.80000000E+01  0.00000000E+00
  2.80000000E+02  8.60000000E+01  0.00000000E+00
  2.80000000E+02  8.40000000E+01  0.00000000E+00
  2.80000000E+02  8.20000000E+01  0.00000000E+00
  2.80000000E+02  8.00000000E+01  0.00000000E+00
  2.80000000E+02  7.80000000E+01  0.00000000E+00
  2.80000000E+02  7.60000000E+01  0.00000000E+00
  2.80000000E+02  7.40000000E+01  0.00000000E+00
  2.80000000E+02  7.20000000E+01  0.00000000E+00
  2.80000000E+02  7.00000000E+01  0.00000000E+00
  2.80000000E+02  6.80000000E+01  0.00000000E+00
  2.80000000E+02  6.60000000E+01  0.00000000E+00
  2.80000000E+02  6.40000000E+01  0.00000000E+00
  2.80000000E+02  6.20000000E+01  0.00000000E+00
  2.80000000E+02  6.00000000E+01  0.00000000E+00
  2.80000000E+02  5.80000000E+01  0.00000000E+00
  2.80000000E+02  5.60000000E+01  0.00000000E+00
  2.80000000E+02  5.40000000E+01  0.00000000E+00
  2.80000000E+02  5.20000000E+01  0.00000000E+00
  2.80000000E+02  5.00000000E+01  0.00000000E+00
  2.80000000E+02  4.80000000E+01  0.00000000E+00
  2.80000000E+02  4.60000000E+01  0.00000000E+00
  2.80000000E+02  4.40000000E+01  0.00000000E+00
  2.80000000E+02  4.20000000E+01  0.00000000E+00
  2.80000000E+02  4.00000000E+01  0.00000000E+00
  2.80000000E+02  3.80000000E+01  0.00000000E+00
  2.80000000E+02  3.60000000E+01  0.00000000E+00
  2.80000000E+02  3.40000000E+01  0.00000000E+00
  2.80000000E+02  3.20000000E+01  0.00000000E+00
  2.80000000E+02  3.00000000E+01  0.00000000E+00
  2.80000000E+02  2.80000000E+01  0.00000000E+00
  2.80000000E+02  2.60000000E+01  0.00000000E+00
  2.80000000E+02  2.40000000E+01  0.00000000E+00
  2.80000000E+02  2.20000000E+01  0.00000000E+00
  2.80000000E+02  2.00000000E+01  0.00000000E+00
  2.80000000E+02  1.80000000E+01  0.00000000E+00
  2.80000000E+02  1.60000000E+01  0.00000000E+00
  2.80000000E+02  1.40000000E+01  0.00000000E+00
  2.80000000E+02  1.20000000E+01  0.00000000E+00
  2.80000000E+02  1.00000000E+01  0.00000000E+00
  2.80000000E+02  8.00000000E+00  0.00000000E+00
  2.80000000E+02  6.00000000E+00  0.00000000E+00
  2.80000000E+02  4.00000000E+00  0.00000000E+00
  2.80000000E+02  2.00000000E+00  0.00000000E+00
  2.80000000E+02 -3.33066907E-14  0.00000000E+00
  2.90000000E+02  1.00000000E+02  0.00000000E+00
  2.90000000E+02  9.80000000E+01  0.00000000E+00
  2.90000000E+02  9.60000000E+01  0.00000000E+00
  2.90000000E+02  9.40000000E+01  0.00000000E+00
  2.90000000E+02  9.20000000E+01  0.00000000E+00
  2.90000000E+02  9.00000000E+01  0.00000000E+00
  2.90000000E+02  8.80000000E+01  0.00000000E+00
  2.90000000E+02  8.60000000E+01  0.00000000E+00
  2.90000000E+02  8.40000000E+01  0.00000000E+00
  2.90000000E+02  8.20000000E+01  0.00000000E+00
  2.90000000E+02  8.00000000E+01  0.00000000E+00
  2.90000000E+02  7.80000000E+01  0.00000000E+00
  2.90000000E+02  7.60000000E+01  0.00000000E+00
  2.90000000E+02  7.40000000E+01  0.00000000E+00
  2.90000000E+02  7.20000000E+01  0.00000000E+00
  2.90000000E+02  7.00000000E+01  0.00000000E+00
  2.90000000E+02  6.80000000E+01  0.00000000E+00
  2.90000000E+02  6.60000000E+01  0.00000000E+00
  2.90000000E+02  6.40000000E+01  0.00000000E+00
  2.90000000E+02  6.20000000E+01  0.00000000E+00
  2.90000000E+02  6.00000000E+01  0.00000000E+00
  2.90000000E+02  5.80000000E+01  0.00000000E+00
  2.90000000E+02  5.60000000E+01  0.00000000E+00
  2.90000000E+02  5.40000000E+01  0.00000000E+00
  2.90000000E+02  5.20000000E+01  0.00000000E+00
  2.90000000E+02  5.00000000E+01  0.00000000E+00
  2.90000000E+02  4.80000000E+01  0.00000000E+00
  2.90000000E+02  4.60000000E+01  0.00000000E+00
  2.90000000E+02  4.40000000E+01  0.00000000E+00
  2.90000000E+02  4.20000000E+01  0.00000000E+00
  2.90000000E+02  4.00000000E+01  0.00000000E+00
  2.90000000E+02  3.80000000E+01  0.00000000E+00
  2.90000000E+02  3.60000000E+01  0.00000000E+00
  2.90000000E+02  3.40000000E+01  0.00000000E+00
  2.90000000E+02  3.20000000E+01  0.00000000E+00
  2.90000000E+02  3.00000000E+01  0.00000000E+00
  2.90000000E+02  2.80000000E+01  0.00000000E+00
  2.90000000E+02  2.60000000E+01  0.00000000E+00
  2.90000000E+02  2.40000000E+01  0.00000000E+00
  2.90000000E+02  2.20000000E+01  0.00000000E+00
  2.90000000E+02  2.00000000E+01  0.00000000E+00
  2.90000000E+02  1.80000000E+01  0.00000000E+00
  2.90000000E+02  1.60000000E+01  0.00000000E+00
  2.90000000E+02  1.40000000E+01  0.00000000E+00
  2.90000000E+02  1.20000000E+01  0.00000000E+00
  2.90000000E+02  1.00000000E+01  0.00000000E+00
  2.90000000E+02  8.00000000E+00  0.00000000E+00
  2.90000000E+02  6.00000000E+00  0.00000000E+00
  2.90000000E+02  4.00000000E+00  0.00000000E+00
  2.90000000E+02  2.00000000E+00  0.00000000E+00
  2.90000000E+02 -3.33066907E-14  0.00000000E+00
  3.00000000E+02  1.00000000E+02  0.00000000E+00
  3.00000000E+02  9.80000000E+01  0.00000000E+00
  3.00000000E+02  9.60000000E+01  0.00000000E+00
  3.00000000E+02  9.40000000E+01  0.00000000E+00
  3.00000000E+02  9.20000000E+01  0.00000000E+00
  3.00000000E+02  9.00000000E+01  0.00000000E+00
  3.00000000E+02  8.80000000E+01  0.00000000E+00
  3.00000000E+02  8.60000000E+01  0.00000000E+00
  3.00000000E+02  8.40000000E+01  0.00000000E+00
  3.00000000E+02  8.20000000E+01  0.00000000E+00
  3.00000000E+02  8.00000000E+01  0.00000000E+00
  3.00000000E+02  7.80000000E+01  0.00000000E+00
  3.00000000E+02  7.60000000E+01  0.00000000E+00
  3.00000000E+02  7.40000000E+01  0.00000000E+00
  3.00000000E+02  7.20000000E+01  0.00000000E+00
  3.00000000E+02  7.00000000E+01  0.00000000E+00
  3.00000000E+02  6.80000000E+01  0.00000000E+00
  3.00000000E+02  6.60000000E+01  0.00000000E+00
  3.00000000E+02  6.40000000E+01  0.00000000E+00
  3.00000000E+02  6.20000000E+01  0.00000000E+00
  3.00000000E+02  6.00000000E+01  0.00000000E+00
  3.00000000E+02  5.80000000E+01  0.00000000E+00
  3.00000000E+02  5.60000000E+01  0.00000000E+00
  3.00000000E+02  5.40000000E+01  0.00000000E+00
  3.00000000E+02  5.20000000E+01  0.00000000E+00
  3.00000000E+02  5.00000000E+01  0.00000000E+00
  3.00000000E+02  4.80000000E+01  0.00000000E+00
  3.00000000E+02  4.60000000E+01  0.00000000E+00
  3.00000000E+02  4.40000000E+01  0.00000000E+00
  3.00000000E+02  4.20000000E+01  0.00000000E+00
  3.00000000E+02  4.00000000E+01  0.00000000E+00
  3.00000000E+02  3.80000000E+01  0.00000000E+00
  3.00000000E+02  3.60000000E+01  0.00000000E+00
  3.00000000E+02  3.40000000E+01  0.00000000E+00
  3.00000000E+02  3.20000000E+01  0.00000000E+00
  3.00000000E+02  3.00000000E+01  0.00000000E+00
  3.00000000E+02  2.80000000E+01  0.00000000E+00
  3.00000000E+02  2.60000000E+01  0.00000000E+00
  3.00000000E+02  2.40000000E+01  0.00000000E+00
  3.00000000E+02  2.20000000E+01  0.00000000E+00
  3.00000000E+02  2.00000000E+01  0.00000000E+00
  3.00000000E+02  1.80000000E+01  0.00000000E+00
  3.00000000E+02  1.60000000E+01  0.00000000E+00
  3.00000000E+02  1.40000000E+01  0.00000000E+00
  3.00000000E+02  1.20000000E+01  0.00000000E+00
  3.00000000E+02  1.00000000E+01  0.00000000E+00
  3.00000000E+02  8.00000000E+00  0.00000000E+00
  3.00000000E+02  6.00000000E+00  0.00000000E+00
  3.00000000E+02  4.00000000E+00  0.00000000E+00
  3.00000000E+02  2.00000000E+00  0.00000000E+00
  3.00000000E+02 -3.33066907E-14  0.00000000E+00
  3.10000000E+02  1.00000000E+02  0.00000000E+00
  3.10000000E+02  9.80000000E+01  0.00000000E+00
  3.10000000E+02  9.60000000E+01  0.00000000E+00
  3.10000000E+02  9.40000000E+01  0.00000000E+00
  3.10000000E+02  9.20000000E+01  0.00000000E+00
  3.10000000E+02  9.00000000E+01  0.00000000E+00
  3.10000000E+02  8.80000000E+01  0.00000000E+00
  3.10000000E+02  8.60000000E+01  0.00000000E+00
  3.10000000E+02  8.40000000E+01  0.00000000E+00
  3.10000000E+02  8.20000000E+01  0.00000000E+00
  3.10000000E+02  8.00000000E+01  0.00000000E+00
  3.10000000E+02  7.80000000E+01  0.00000000E+00
  3.10000000E+02  7.60000000E+01  0.00000000E+00
  3.10000000E+02  7.40000000E+01  0.00000000E+00
  3.10000000E+02  7.20000000E+01  0.00000000E+00
  3.10000000E+02  7.00000000E+01  0.00000000E+00
  3.10000000E+02  6.80000000E+01  0.00000000E+00
  3.10000000E+02  6.60000000E+01  0.00000000E+00
  3.10000000E+02  6.40000000E+01  0.00000000E+00
  3.10000000E+02  6.20000000E+01  0.00000000E+00
  3.10000000E+02  6.00000000E+01  0.00000000E+00
  3.10000000E+02  5.80000000E+01  0.00000000E+00
  3.10000000E+02  5.60000000E+01  0.00000000E+00
  3.10000000E+02  5.40000000E+01  0.00000000E+00
  3.10000000E+02  5.20000000E+01  0.00000000E+00
  3.10000000E+02  5.00000000E+01  0.00000000E+00
  3.10000000E+02  4.80000000E+01  0.00000000E+00
  3.10000000E+02  4.60000000E+01  0.00000000E+00
  3.10000000E+02  4.40000000E+01  0.00000000E+00
  3.10000000E+02  4.20000000E+01  0.00000000E+00
  3.10000000E+02  4.00000000E+01  0.00000000E+00
  3.10000000E+02  3.80000000E+01  0.00000000E+00
  3.10000000E+02  3.60000000E+01  0.00000000E+00
  3.10000000E+02  3.40000000E+01  0.00000000E+00
  3.10000000E+02  3.20000000E+01  0.00000000E+00
  3.10000000E+02  3.00000000E+01  0.00000000E+00
  3.10000000E+02  2.80000000E+01  0.00000000E+00
  3.10000000E+02  2.60000000E+01  0.00000000E+00
  3.10000000E+02  2.40000000E+01  0.00000000E+00
  3.10000000E+02  2.20000000E+01  0.00000000E+00
  3.10000000E+02  2.00000000E+01  0.00000000E+00
  3.10000000E+02  1.80000000E+01  0.00000000E+00
  3.10000000E+02  1.60000000E+01  0.00000000E+00
  3.10000000E+02  1.40000000E+01  0.00000000E+00
  3.10000000E+02  1.20000000E+01  0.00000000E+00
  3.10000000E+02  1.00000000E+01  0.00000000E+00
  3.10000000E+02  8.00000000E+00  0.00000000E+00
  3.10000000E+02  6.00000000E+00  0.00000000E+00
  3.10000000E+02  4.00000000E+00  0.00000000E+00
  3.10000000E+02  2.00000000E+00  0.00000000E+00
  3.10000000E+02 -3.33066907E-14  0.00000000E+00
  3.20000000E+02  1.00000000E+02  0.00000000E+00
  3.20000000E+02  9.80000000E+01  0.00000000E+00
  3.20000000E+02  9.60000000E+01  0.00000000E+00
  3.20000000E+02  9.40000000E+01  0.00000000E+00
  3.20000000E+02  9.20000000E+01  0.00000000E+00
  3.20000000E+02  9.00000000E+01  0.00000000E+00
  3.20000000E+02  8.80000000E+01  0.00000000E+00
  3.20000000E+02  8.60000000E+01  0.00000000E+00
  3.20000000E+02  8.40000000E+01  0.00000000E+00
  3.20000000E+02  8.20000000E+01  0.00000000E+00
  3.20000000E+02  8.00000000E+01  0.00000000E+00
  3.20000000E+02  7.80000000E+01  0.00000000E+00
  3.20000000E+02  7.60000000E+01  0.00000000E+00
  3.20000000E+02  7.40000000E+01  0.00000000E+00
  3.20000000E+02  7.20000000E+01  0.00000000E+00
  3.20000000E+02  7.00000000E+01  0.00000000E+00
  3.20000000E+02  6.80000000E+01  0.00000000E+00
  3.20000000E+02  6.60000000E+01  0.00000000E+00
  3.20000000E+02  6.40000000E+01  0.00000000E+00
  3.20000000E+02  6.20000000E+01  0.00000000E+00
  3.20000000E+02  6.00000000E+01  0.00000000E+00
  3.20000000E+02  5.80000000E+01  0.00000000E+00
  3.20000000E+02  5.60000000E+01  0.00000000E+00
  3.20000000E+02  5.40000000E+01  0.00000000E+00
  3.20000000E+02  5.20000000E+01  0.00000000E+00
  3.20000000E+02  5.00000000E+01  0.00000000E+00
  3.20000000E+02  4.80000000E+01  0.00000000E+00
  3.20000000E+02  4.60000000E+01  0.00000000E+00
  3.20000000E+02  4.40000000E+01  0.00000000E+00
  3.20000000E+02  4.20000000E+01  0.00000000E+00
  3.20000000E+02  4.00000000E+01  0.00000000E+00
  3.20000000E+02  3.80000000E+01  0.00000000E+00
  3.20000000E+02  3.60000000E+01  0.00000000E+00
  3.20000000E+02  3.40000000E+01  0.00000000E+00
  3.20000000E+02  3.20000000E+01  0.00000000E+00
  3.20000000E+02  3.00000000E+01  0.00000000E+00
  3.20000000E+02  2.80000000E+01  0.00000000E+00
  3.20000000E+02  2.60000000E+01  0.00000000E+00
  3.20000000E+02  2.40000000E+01  0.00000000E+00
  3.20000000E+02  2.20000000E+01  0.00000000E+00
  3.20000000E+02  2.00000000E+01  0.00000000E+00
  3.20000000E+02  1.80000000E+01  0.00000000E+00
  3.20000000E+02  1.60000000E+01  0.00000000E+00
  3.20000000E+02  1.40000000E+01  0.00000000E+00
  3.20000000E+02  1.20000000E+01  0.00000000E+00
  3.20000000E+02  1.00000000E+01  0.00000000E+00
  3.20000000E+02  8.00000000E+00  0.00000000E+00
  3.20000000E+02  6.00000000E+00  0.00000000E+00
  3.20000000E+02  4.00000000E+00  0.00000000E+00
  3.20000000E+02  2.00000000E+00  0.00000000E+00
  3.20000000E+02 -3.33066907E-14  0.00000000E+00
  3.30000000E+02  1.00000000E+02  0.00000000E+00
  3.30000000E+02  9.80000000E+01  0.00000000E+00
  3.30000000E+02  9.60000000E+01  0.00000000E+00
  3.30000000E+02  9.40000000E+01  0.00000000E+00
  3.30000000E+02  9.20000000E+01  0.00000000E+00
  3.30000000E+02  9.00000000E+01  0.00000000E+00
  3.30000000E+02  8.80000000E+01  0.00000000E+00
  3.30000000E+02  8.60000000E+01  0.00000000E+00
  3.30000000E+02  8.40000000E+01  0.00000000E+00
  3.30000000E+02  8.20000000E+01  0.00000000E+00
  3.30000000E+02  8.00000000E+01  0.00000000E+00
  3.30000000E+02  7.80000000E+01  0.00000000E+00
  3.30000000E+02  7.60000000E+01  0.00000000E+00
  3.30000000E+02  7.40000000E+01  0.00000000E+00
  3.30000000E+02  7.20000000E+01  0.00000000E+00
  3.30000000E+02  7.00000000E+01  0.00000000E+00
  3.30000000E+02  6.80000000E+01  0.00000000E+00
  3.30000000E+02  6.60000000E+01  0.00000000E+00
  3.30000000E+02  6.40000000E+01  0.00000000E+00
  3.30000000E+02  6.20000000E+01  0.00000000E+00
  3.30000000E+02  6.00000000E+01  0.00000000E+00
  3.30000000E+02  5.80000000E+01  0.00000000E+00
  3.30000000E+02  5.60000000E+01  0.00000000E+00
  3.30000000E+02  5.40000000E+01  0.00000000E+00
  3.30000000E+02  5.20000000E+01  0.00000000E+00
  3.30000000E+02  5.00000000E+01  0.00000000E+00
  3.30000000E+02  4.80000000E+01  0.00000000E+00
  3.30000000E+02  4.60000000E+01  0.00000000E+00
  3.30000000E+02  4.40000000E+01  0.00000000E+00
  3.30000000E+02  4.20000000E+01  0.00000000E+00
  3.30000000E+02  4.00000000E+01  0.00000000E+00
  3.30000000E+02  3.80000000E+01  0.00000000E+00
  3.30000000E+02  3.60000000E+01  0.00000000E+00
  3.30000000E+02  3.40000000E+01  0.00000000E+00
  3.30000000E+02  3.20000000E+01  0.00000000E+00
  3.30000000E+02  3.00000000E+01  0.00000000E+00
  3.30000000E+02  2.80000000E+01  0.00000000E+00
  3.30000000E+02  2.60000000E+01  0.00000000E+00
  3.30000000E+02  2.40000000E+01  0.00000000E+00
  3.30000000E+02  2.20000000E+01  0.00000000E+00
  3.30000000E+02  2.00000000E+01  0.00000000E+00
  3.30000000E+02  1.80000000E+01  0.00000000E+00
  3.30000000E+02  1.60000000E+01  0.00000000E+00
  3.30000000E+02  1.40000000E+01  0.00000000E+00
  3.30000000E+02  1.20000000E+01  0.00000000E+00
  3.30000000E+02  1.00000000E+01  0.00000000E+00
  3.30000000E+02  8.00000000E+00  0.00000000E+00
  3.30000000E+02  6.00000000E+00  0.00000000E+00
  3.30000000E+02  4.00000000E+00  0.00000000E+00
  3.30000000E+02  2.00000000E+00  0.00000000E+00
  3.30000000E+02 -3.33066907E-14  0.00000000E+00
  3.40000000E+02  1.00000000E+02  0.00000000E+00
  3.40000000E+02  9.80000000E+01  0.00000000E+00
  3.40000000E+02  9.60000000E+01  0.00000000E+00
  3.40000000E+02  9.40000000E+01  0.00000000E+00
  3.40000000E+02  9.20000000E+01  0.00000000E+00
  3.40000000E+02  9.00000000E+01  0.00000000E+00
  3.40000000E+02  8.80000000E+01  0.00000000E+00
  3.40000000E+02  8.60000000E+01  0.00000000E+00
  3.40000000E+02  8.40000000E+01  0.00000000E+00
  3.40000000E+02  8.20000000E+01  0.00000000E+00
  3.40000000E+02  8.00000000E+01  0.00000000E+00
  3.40000000E+02  7.80000000E+01  0.00000000E+00
  3.40000000E+02  7.60000000E+01  0.00000000E+00
  3.40000000E+02  7.40000000E+01  0.00000000E+00
  3.40000000E+02  7.20000000E+01  0.00000000E+00
  3.40000000E+02  7.00000000E+01  0.00000000E+00
  3.40000000E+02  6.80000000E+01  0.00000000E+00
  3.40000000E+02  6.60000000E+01  0.00000000E+00
  3.40000000E+02  6.40000000E+01  0.00000000E+00
  3.40000000E+02  6.20000000E+01  0.00000000E+00
  3.40000000E+02  6.00000000E+01  0.00000000E+00
  3.40000000E+02  5.80000000E+01  0.00000000E+00
  3.40000000E+02  5.60000000E+01  0.00000000E+00
  3.40000000E+02  5.40000000E+01  0.00000000E+00
  3.40000000E+02  5.20000000E+01  0.00000000E+00
  3.40000000E+02  5.00000000E+01  0.00000000E+00
  3.40000000E+02  4.80000000E+01  0.00000000E+00
  3.40000000E+02  4.60000000E+01  0.00000000E+00
  3.40000000E+02  4.40000000E+01  0.00000000E+00
  3.40000000E+02  4.20000000E+01  0.00000000E+00
  3.40000000E+02  4.00000000E+01  0.00000000E+00
  3.40000000E+02  3.80000000E+01  0.00000000E+00
  3.40000000E+02  3.60000000E+01  0.00000000E+00
  3.40000000E+02  3.40000000E+01  0.00000000E+00
  3.40000000E+02  3.20000000E+01  0.00000000E+00
  3.40000000E+02  3.00000000E+01  0.00000000E+00
  3.40000000E+02  2.80000000E+01  0.00000000E+00
  3.40000000E+02  2.60000000E+01  0.00000000E+00
  3.40000000E+02  2.40000000E+01  0.00000000E+00
  3.40000000E+02  2.20000000E+01  0.00000000E+00
  3.40000000E+02  2.00000000E+01  0.00000000E+00
  3.40000000E+02  1.80000000E+01  0.00000000E+00
  3.40000000E+02  1.60000000E+01  0.00000000E+00
  3.40000000E+02  1.40000000E+01  0.00000000E+00
  3.40000000E+02  1.20000000E+01  0.00000000E+00
  3.40000000E+02  1.00000000E+01  0.00000000E+00
  3.40000000E+02  8.00000000E+00  0.00000000E+00
  3.40000000E+02  6.00000000E+00  0.00000000E+00
  3.40000000E+02  4.00000000E+00  0.00000000E+00
  3.40000000E+02  2.00000000E+00  0.00000000E+00
  3.40000000E+02 -3.33066907E-14  0.00000000E+00
  3.50000000E+02  1.00000000E+02  0.00000000E+00
  3.50000000E+02  9.80000000E+01  0.00000000E+00
  3.50000000E+02  9.60000000E+01  0.00000000E+00
  3.50000000E+02  9.40000000E+01  0.00000000E+00
  3.50000000E+02  9.20000000E+01  0.00000000E+00
  3.50000000E+02  9.00000000E+01  0.00000000E+00
  3.50000000E+02  8.80000000E+01  0.00000000E+00
  3.50000000E+02  8.60000000E+01  0.00000000E+00
  3.50000000E+02  8.40000000E+01  0.00000000E+00
  3.50000000E+02  8.20000000E+01  0.00000000E+00
  3.50000000E+02  8.00000000E+01  0.00000000E+00
  3.50000000E+02  7.80000000E+01  0.00000000E+00
  3.50000000E+02  7.60000000E+01  0.00000000E+00
  3.50000000E+02  7.40000000E+01  0.00000000E+00
  3.50000000E+02  7.20000000E+01  0.00000000E+00
  3.50000000E+02  7.00000000E+01  0.00000000E+00
  3.50000000E+02  6.80000000E+01  0.00000000E+00
  3.50000000E+02  6.60000000E+01  0.00000000E+00
  3.50000000E+02  6.40000000E+01  0.00000000E+00
  3.50000000E+02  6.20000000E+01  0.00000000E+00
  3.50000000E+02  6.00000000E+01  0.00000000E+00
  3.50000000E+02  5.80000000E+01  0.00000000E+00
  3.50000000E+02  5.60000000E+01  0.00000000E+00
  3.50000000E+02  5.40000000E+01  0.00000000E+00
  3.50000000E+02  5.20000000E+01  0.00000000E+00
  3.50000000E+02  5.00000000E+01  0.00000000E+00
  3.50000000E+02  4.80000000E+01  0.00000000E+00
  3.50000000E+02  4.60000000E+01  0.00000000E+00
  3.50000000E+02  4.40000000E+01  0.00000000E+00
  3.50000000E+02  4.20000000E+01  0.00000000E+00
  3.50000000E+02  4.00000000E+01  0.00000000E+00
  3.50000000E+02  3.80000000E+01  0.00000000E+00
  3.50000000E+02  3.60000000E+01  0.00000000E+00
  3.50000000E+02  3.40000000E+01  0.00000000E+00
  3.50000000E+02  3.20000000E+01  0.00000000E+00
  3.50000000E+02  3.00000000E+01  0.00000000E+00
  3.50000000E+02  2.80000000E+01  0.00000000E+00
  3.50000000E+02  2.60000000E+01  0.00000000E+00
  3.50000000E+02  2.40000000E+01  0.00000000E+00
  3.50000000E+02  2.20000000E+01  0.00000000E+00
  3.50000000E+02  2.00000000E+01  0.00000000E+00
  3.50000000E+02  1.80000000E+01  0.00000000E+00
  3.50000000E+02  1.60000000E+01  0.00000000E+00
  3.50000000E+02  1.40000000E+01  0.00000000E+00
  3.50000000E+02  1.20000000E+01  0.00000000E+00
  3.50000000E+02  1.00000000E+01  0.00000000E+00
  3.50000000E+02  8.00000000E+00  0.00000000E+00
  3.50000000E+02  6.00000000E+00  0.00000000E+00
  3.50000000E+02  4.00000000E+00  0.00000000E+00
  3.50000000E+02  2.00000000E+00  0.00000000E+00
  3.50000000E+02 -3.33066907E-14  0.00000000E+00
  3.60000000E+02  1.00000000E+02  0.00000000E+00
  3.60000000E+02  9.80000000E+01  0.00000000E+00
  3.60000000E+02  9.60000000E+01  0.00000000E+00
  3.60000000E+02  9.40000000E+01  0.00000000E+00
  3.60000000E+02  9.20000000E+01  0.00000000E+00
  3.60000000E+02  9.00000000E+01  0.00000000E+00
  3.60000000E+02  8.80000000E+01  0.00000000E+00
  3.60000000E+02  8.60000000E+01  0.00000000E+00
  3.60000000E+02  8.40000000E+01  0.00000000E+00
  3.60000000E+02  8.20000000E+01  0.00000000E+00
  3.60000000E+02  8.00000000E+01  0.00000000E+00
  3.60000000E+02  7.80000000E+01  0.00000000E+00
  3.60000000E+02  7.60000000E+01  0.00000000E+00
  3.60000000E+02  7.40000000E+01  0.00000000E+00
  3.60000000E+02  7.20000000E+01  0.00000000E+00
  3.60000000E+02  7.00000000E+01  0.00000000E+00
  3.60000000E+02  6.80000000E+01  0.00000000E+00
  3.60000000E+02  6.60000000E+01  0.00000000E+00
  3.60000000E+02  6.40000000E+01  0.00000000E+00
  3.60000000E+02  6.20000000E+01  0.00000000E+00
  3.60000000E+02  6.00000000E+01  0.00000000E+00
  3.60000000E+02  5.80000000E+01  0.00000000E+00
  3.60000000E+02  5.60000000E+01  0.00000000E+00
  3.60000000E+02  5.40000000E+01  0.00000000E+00
  3.60000000E+02  5.20000000E+01  0.00000000E+00
  3.60000000E+02  5.00000000E+01  0.00000000E+00
  3.60000000E+02  4.80000000E+01  0.00000000E+00
  3.60000000E+02  4.60000000E+01  0.00000000E+00
  3.60000000E+02  4.40000000E+01  0.00000000E+00
  3.60000000E+02  4.20000000E+01  0.00000000E+00
  3.60000000E+02  4.00000000E+01  0.00000000E+00
  3.60000000E+02  3.80000000E+01  0.00000000E+00
  3.60000000E+02  3.60000000E+01  0.00000000E+00
  3.60000000E+02  3.40000000E+01  0.00000000E+00
  3.60000000E+02  3.20000000E+01  0.00000000E+00
  3.60000000E+02  3.00000000E+01  0.00000000E+00
  3.60000000E+02  2.80000000E+01  0.00000000E+00
  3.60000000E+02  2.60000000E+01  0.00000000E+00
  3.60000000E+02  2.40000000E+01  0.00000000E+00
  3.60000000E+02  2.20000000E+01  0.00000000E+00
  3.60000000E+02  2.00000000E+01  0.00000000E+00
  3.60000000E+02  1.80000000E+01  0.00000000E+00
  3.60000000E+02  1.60000000E+01  0.00000000E+00
  3.60000000E+02  1.40000000E+01  0.00000000E+00
  3.60000000E+02  1.20000000E+01  0.00000000E+00
  3.60000000E+02  1.00000000E+01  0.00000000E+00
  3.60000000E+02  8.00000000E+00  0.00000000E+00
  3.60000000E+02  6.00000000E+00  0.00000000E+00
  3.60000000E+02  4.00000000E+00  0.00000000E+00
  3.60000000E+02  2.00000000E+00  0.00000000E+00
  3.60000000E+02 -3.33066907E-14  0.00000000E+00
  3.70000000E+02  1.00000000E+02  0.00000000E+00
  3.70000000E+02  9.80000000E+01  0.00000000E+00
  3.70000000E+02  9.60000000E+01  0.00000000E+00
  3.70000000E+02  9.40000000E+01  0.00000000E+00
  3.70000000E+02  9.20000000E+01  0.00000000E+00
  3.70000000E+02  9.00000000E+01  0.00000000E+00
  3.70000000E+02  8.80000000E+01  0.00000000E+00
  3.70000000E+02  8.60000000E+01  0.00000000E+00
  3.70000000E+02  8.40000000E+01  0.00000000E+00
  3.70000000E+02  8.20000000E+01  0.00000000E+00
  3.70000000E+02  8.00000000E+01  0.00000000E+00
  3.70000000E+02  7.80000000E+01  0.00000000E+00
  3.70000000E+02  7.60000000E+01  0.00000000E+00
  3.70000000E+02  7.40000000E+01  0.00000000E+00
  3.70000000E+02  7.20000000E+01  0.00000000E+00
  3.70000000E+02  7.00000000E+01  0.00000000E+00
  3.70000000E+02  6.80000000E+01  0.00000000E+00
  3.70000000E+02  6.60000000E+01  0.00000000E+00
  3.70000000E+02  6.40000000E+01  0.00000000E+00
  3.70000000E+02  6.20000000E+01  0.00000000E+00
  3.70000000E+02  6.00000000E+01  0.00000000E+00
  3.70000000E+02  5.80000000E+01  0.00000000E+00
  3.70000000E+02  5.60000000E+01  0.00000000E+00
  3.70000000E+02  5.40000000E+01  0.00000000E+00
  3.70000000E+02  5.20000000E+01  0.00000000E+00
  3.70000000E+02  5.00000000E+01  0.00000000E+00
  3.70000000E+02  4.80000000E+01  0.00000000E+00
  3.70000000E+02  4.60000000E+01  0.00000000E+00
  3.70000000E+02  4.40000000E+01  0.00000000E+00
  3.70000000E+02  4.20000000E+01  0.00000000E+00
  3.70000000E+02  4.00000000E+01  0.00000000E+00
  3.70000000E+02  3.80000000E+01  0.00000000E+00
  3.70000000E+02  3.60000000E+01  0.00000000E+00
  3.70000000E+02  3.40000000E+01  0.00000000E+00
  3.70000000E+02  3.20000000E+01  0.00000000E+00
  3.70000000E+02  3.00000000E+01  0.00000000E+00
  3.70000000E+02  2.80000000E+01  0.00000000E+00
  3.70000000E+02  2.60000000E+01  0.00000000E+00
  3.70000000E+02  2.40000000E+01  0.00000000E+00
  3.70000000E+02  2.20000000E+01  0.00000000E+00
  3.70000000E+02  2.00000000E+01  0.00000000E+00
  3.70000000E+02  1.80000000E+01  0.00000000E+00
  3.70000000E+02  1.60000000E+01  0.00000000E+00
  3.70000000E+02  1.40000000E+01  0.00000000E+00
  3.70000000E+02  1.20000000E+01  0.00000000E+00
  3.70000000E+02  1.00000000E+01  0.00000000E+00
  3.70000000E+02  8.00000000E+00  0.00000000E+00
  3.70000000E+02  6.00000000E+00  0.00000000E+00
  3.70000000E+02  4.00000000E+00  0.00000000E+00
  3.70000000E+02  2.00000000E+00  0.00000000E+00
  3.70000000E+02 -3.33066907E-14  0.00000000E+00
  3.80000000E+02  1.00000000E+02  0.00000000E+00
  3.80000000E+02  9.80000000E+01  0.00000000E+00
  3.80000000E+02  9.60000000E+01  0.00000000E+00
  3.80000000E+02  9.40000000E+01  0.00000000E+00
  3.80000000E+02  9.20000000E+01  0.00000000E+00
  3.80000000E+02  9.00000000E+01  0.00000000E+00
  3.80000000E+02  8.80000000E+01  0.00000000E+00
  3.80000000E+02  8.60000000E+01  0.00000000E+00
  3.80000000E+02  8.40000000E+01  0.00000000E+00
  3.80000000E+02  8.20000000E+01  0.00000000E+00
  3.80000000E+02  8.00000000E+01  0.00000000E+00
  3.80000000E+02  7.80000000E+01  0.00000000E+00
  3.80000000E+02  7.60000000E+01  0.00000000E+00
  3.80000000E+02  7.40000000E+01  0.00000000E+00
  3.80000000E+02  7.20000000E+01  0.00000000E+00
  3.80000000E+02  7.00000000E+01  0.00000000E+00
  3.80000000E+02  6.80000000E+01  0.00000000E+00
  3.80000000E+02  6.60000000E+01  0.00000000E+00
  3.80000000E+02  6.40000000E+01  0.00000000E+00
  3.80000000E+02  6.20000000E+01  0.00000000E+00
  3.80000000E+02  6.00000000E+01  0.00000000E+00
  3.80000000E+02  5.80000000E+01  0.00000000E+00
  3.80000000E+02  5.60000000E+01  0.00000000E+00
  3.80000000E+02  5.40000000E+01  0.00000000E+00
  3.80000000E+02  5.20000000E+01  0.00000000E+00
  3.80000000E+02  5.00000000E+01  0.00000000E+00
  3.80000000E+02  4.80000000E+01  0.00000000E+00
  3.80000000E+02  4.60000000E+01  0.00000000E+00
  3.80000000E+02  4.40000000E+01  0.00000000E+00
  3.80000000E+02  4.20000000E+01  0.00000000E+00
  3.80000000E+02  4.00000000E+01  0.00000000E+00
  3.80000000E+02  3.80000000E+01  0.00000000E+00
  3.80000000E+02  3.60000000E+01  0.00000000E+00
  3.80000000E+02  3.40000000E+01  0.00000000E+00
  3.80000000E+02  3.20000000E+01  0.00000000E+00
  3.80000000E+02  3.00000000E+01  0.00000000E+00
  3.80000000E+02  2.80000000E+01  0.00000000E+00
  3.80000000E+02  2.60000000E+01  0.00000000E+00
  3.80000000E+02  2.40000000E+01  0.00000000E+00
  3.80000000E+02  2.20000000E+01  0.00000000E+00
  3.80000000E+02  2.00000000E+01  0.00000000E+00
  3.80000000E+02  1.80000000E+01  0.00000000E+00
  3.80000000E+02  1.60000000E+01  0.00000000E+00
  3.80000000E+02  1.40000000E+01  0.00000000E+00
  3.80000000E+02  1.20000000E+01  0.00000000E+00
  3.80000000E+02  1.00000000E+01  0.00000000E+00
  3.80000000E+02  8.00000000E+00  0.00000000E+00
  3.80000000E+02  6.00000000E+00  0.00000000E+00
  3.80000000E+02  4.00000000E+00  0.00000000E+00
  3.80000000E+02  2.00000000E+00  0.00000000E+00
  3.80000000E+02 -3.33066907E-14  0.00000000E+00
  3.90000000E+02  1.00000000E+02  0.00000000E+00
  3.90000000E+02  9.80000000E+01  0.00000000E+00
  3.90000000E+02  9.60000000E+01  0.00000000E+00
  3.90000000E+02  9.40000000E+01  0.00000000E+00
  3.90000000E+02  9.20000000E+01  0.00000000E+00
  3.90000000E+02  9.00000000E+01  0.00000000E+00
  3.90000000E+02  8.80000000E+01  0.00000000E+00
  3.90000000E+02  8.60000000E+01  0.00000000E+00
  3.90000000E+02  8.40000000E+01  0.00000000E+00
  3.90000000E+02  8.20000000E+01  0.00000000E+00
  3.90000000E+02  8.00000000E+01  0.00000000E+00
  3.90000000E+02  7.80000000E+01  0.00000000E+00
  3.90000000E+02  7.60000000E+01  0.00000000E+00
  3.90000000E+02  7.40000000E+01  0.00000000E+00
  3.90000000E+02  7.20000000E+01  0.00000000E+00
  3.90000000E+02  7.00000000E+01  0.00000000E+00
  3.90000000E+02  6.80000000E+01  0.00000000E+00
  3.90000000E+02  6.60000000E+01  0.00000000E+00
  3.90000000E+02  6.40000000E+01  0.00000000E+00
  3.90000000E+02  6.20000000E+01  0.00000000E+00
  3.90000000E+02  6.00000000E+01  0.00000000E+00
  3.90000000E+02  5.80000000E+01  0.00000000E+00
  3.90000000E+02  5.60000000E+01  0.00000000E+00
  3.90000000E+02  5.40000000E+01  0.00000000E+00
  3.90000000E+02  5.20000000E+01  0.00000000E+00
  3.90000000E+02  5.00000000E+01  0.00000000E+00
  3.90000000E+02  4.80000000E+01  0.00000000E+00
  3.90000000E+02  4.60000000E+01  0.00000000E+00
  3.90000000E+02  4.40000000E+01  0.00000000E+00
  3.90000000E+02  4.20000000E+01  0.00000000E+00
  3.90000000E+02  4.00000000E+01  0.00000000E+00
  3.90000000E+02  3.80000000E+01  0.00000000E+00
  3.90000000E+02  3.60000000E+01  0.00000000E+00
  3.90000000E+02  3.40000000E+01  0.00000000E+00
  3.90000000E+02  3.20000000E+01  0.00000000E+00
  3.90000000E+02  3.00000000E+01  0.00000000E+00
  3.90000000E+02  2.80000000E+01  0.00000000E+00
  3.90000000E+02  2.60000000E+01  0.00000000E+00
  3.90000000E+02  2.40000000E+01  0.00000000E+00
  3.90000000E+02  2.20000000E+01  0.00000000E+00
  3.90000000E+02  2.00000000E+01  0.00000000E+00
  3.90000000E+02  1.80000000E+01  0.00000000E+00
  3.90000000E+02  1.60000000E+01  0.00000000E+00
  3.90000000E+02  1.40000000E+01  0.00000000E+00
  3.90000000E+02  1.20000000E+01  0.00000000E+00
  3.90000000E+02  1.00000000E+01  0.00000000E+00
  3.90000000E+02  8.00000000E+00  0.00000000E+00
  3.90000000E+02  6.00000000E+00  0.00000000E+00
  3.90000000E+02  4.00000000E+00  0.00000000E+00
  3.90000000E+02  2.00000000E+00  0.00000000E+00
  3.90000000E+02 -3.33066907E-14  0.00000000E+00
  4.00000000E+02  1.00000000E+02  0.00000000E+00
  4.00000000E+02  9.80000000E+01  0.00000000E+00
  4.00000000E+02  9.60000000E+01  0.00000000E+00
  4.00000000E+02  9.40000000E+01  0.00000000E+00
  4.00000000E+02  9.20000000E+01  0.00000000E+00
  4.00000000E+02  9.00000000E+01  0.00000000E+00
  4.00000000E+02  8.80000000E+01  0.00000000E+00
  4.00000000E+02  8.60000000E+01  0.00000000E+00
  4.00000000E+02  8.40000000E+01  0.00000000E+00
  4.00000000E+02  8.20000000E+01  0.00000000E+00
  4.00000000E+02  8.00000000E+01  0.00000000E+00
  4.00000000E+02  7.80000000E+01  0.00000000E+00
  4.00000000E+02  7.60000000E+01  0.00000000E+00
  4.00000000E+02  7.40000000E+01  0.00000000E+00
  4.00000000E+02  7.20000000E+01  0.00000000E+00
  4.00000000E+02  7.00000000E+01  0.00000000E+00
  4.00000000E+02  6.80000000E+01  0.00000000E+00
  4.00000000E+02  6.60000000E+01  0.00000000E+00
  4.00000000E+02  6.40000000E+01  0.00000000E+00
  4.00000000E+02  6.20000000E+01  0.00000000E+00
  4.00000000E+02  6.00000000E+01  0.00000000E+00
  4.00000000E+02  5.80000000E+01  0.00000000E+00
  4.00000000E+02  5.60000000E+01  0.00000000E+00
  4.00000000E+02  5.40000000E+01  0.00000000E+00
  4.00000000E+02  5.20000000E+01  0.00000000E+00
  4.00000000E+02  5.00000000E+01  0.00000000E+00
  4.00000000E+02  4.80000000E+01  0.00000000E+00
  4.00000000E+02  4.60000000E+01  0.00000000E+00
  4.00000000E+02  4.40000000E+01  0.00000000E+00
  4.00000000E+02  4.20000000E+01  0.00000000E+00
  4.00000000E+02  4.00000000E+01  0.00000000E+00
  4.00000000E+02  3.80000000E+01  0.00000000E+00
  4.00000000E+02  3.60000000E+01  0.00000000E+00
  4.00000000E+02  3.40000000E+01  0.00000000E+00
  4.00000000E+02  3.20000000E+01  0.00000000E+00
  4.00000000E+02  3.00000000E+01  0.00000000E+00
  4.00000000E+02  2.80000000E+01  0.00000000E+00
  4.00000000E+02  2.60000000E+01  0.00000000E+00
  4.00000000E+02  2.40000000E+01  0.00000000E+00
  4.00000000E+02  2.20000000E+01  0.00000000E+00
  4.00000000E+02  2.00000000E+01  0.00000000E+00
  4.00000000E+02  1.80000000E+01  0.00000000E+00
  4.00000000E+02  1.60000000E+01  0.00000000E+00
  4.00000000E+02  1.40000000E+01  0.00000000E+00
  4.00000000E+02  1.20000000E+01  0.00000000E+00
  4.00000000E+02  1.00000000E+01  0.00000000E+00
  4.00000000E+02  8.00000000E+00  0.00000000E+00
  4.00000000E+02  6.00000000E+00  0.00000000E+00
  4.00000000E+02  4.00000000E+00  0.00000000E+00
  4.00000000E+02  2.00000000E+00  0.00000000E+00
  4.00000000E+02 -3.33066907E-14  0.00000000E+00
  4.10000000E+02  1.00000000E+02  0.00000000E+00
  4.10000000E+02  9.80000000E+01  0.00000000E+00
  4.10000000E+02  9.60000000E+01  0.00000000E+00
  4.10000000E+02  9.40000000E+01  0.00000000E+00
  4.10000000E+02  9.20000000E+01  0.00000000E+00
  4.10000000E+02  9.00000000E+01  0.00000000E+00
  4.10000000E+02  8.80000000E+01  0.00000000E+00
  4.10000000E+02  8.60000000E+01  0.00000000E+00
  4.10000000E+02  8.40000000E+01  0.00000000E+00
  4.10000000E+02  8.20000000E+01  0.00000000E+00
  4.10000000E+02  8.00000000E+01  0.00000000E+00
  4.10000000E+02  7.80000000E+01  0.00000000E+00
  4.10000000E+02  7.60000000E+01  0.00000000E+00
  4.10000000E+02  7.40000000E+01  0.00000000E+00
  4.10000000E+02  7.20000000E+01  0.00000000E+00
  4.10000000E+02  7.00000000E+01  0.00000000E+00
  4.10000000E+02  6.80000000E+01  0.00000000E+00
  4.10000000E+02  6.60000000E+01  0.00000000E+00
  4.10000000E+02  6.40000000E+01  0.00000000E+00
  4.10000000E+02  6.20000000E+01  0.00000000E+00
  4.10000000E+02  6.00000000E+01  0.00000000E+00
  4.10000000E+02  5.80000000E+01  0.00000000E+00
  4.10000000E+02  5.60000000E+01  0.00000000E+00
  4.10000000E+02  5.40000000E+01  0.00000000E+00
  4.10000000E+02  5.20000000E+01  0.00000000E+00
  4.10000000E+02  5.00000000E+01  0.00000000E+00
  4.10000000E+02  4.80000000E+01  0.00000000E+00
  4.10000000E+02  4.60000000E+01  0.00000000E+00
  4.10000000E+02  4.40000000E+01  0.00000000E+00
  4.10000000E+02  4.20000000E+01  0.00000000E+00
  4.10000000E+02  4.00000000E+01  0.00000000E+00
  4.10000000E+02  3.80000000E+01  0.00000000E+00
  4.10000000E+02  3.60000000E+01  0.00000000E+00
  4.10000000E+02  3.40000000E+01  0.00000000E+00
  4.10000000E+02  3.20000000E+01  0.00000000E+00
  4.10000000E+02  3.00000000E+01  0.00000000E+00
  4.10000000E+02  2.80000000E+01  0.00000000E+00
  4.10000000E+02  2.60000000E+01  0.00000000E+00
  4.10000000E+02  2.40000000E+01  0.00000000E+00
  4.10000000E+02  2.20000000E+01  0.00000000E+00
  4.10000000E+02  2.00000000E+01  0.00000000E+00
  4.10000000E+02  1.80000000E+01  0.00000000E+00
  4.10000000E+02  1.60000000E+01  0.00000000E+00
  4.10000000E+02  1.40000000E+01  0.00000000E+00
  4.10000000E+02  1.20000000E+01  0.00000000E+00
  4.10000000E+02  1.00000000E+01  0.00000000E+00
  4.10000000E+02  8.00000000E+00  0.00000000E+00
  4.10000000E+02  6.00000000E+00  0.00000000E+00
  4.10000000E+02  4.00000000E+00  0.00000000E+00
  4.10000000E+02  2.00000000E+00  0.00000000E+00
  4.10000000E+02 -3.33066907E-14  0.00000000E+00
  4.20000000E+02  1.00000000E+02  0.00000000E+00
  4.20000000E+02  9.80000000E+01  0.00000000E+00
  4.20000000E+02  9.60000000E+01  0.00000000E+00
  4.20000000E+02  9.40000000E+01  0.00000000E+00
  4.20000000E+02  9.20000000E+01  0.00000000E+00
  4.20000000E+02  9.00000000E+01  0.00000000E+00
  4.20000000E+02  8.80000000E+01  0.00000000E+00
  4.20000000E+02  8.60000000E+01  0.00000000E+00
  4.20000000E+02  8.40000000E+01  0.00000000E+00
  4.20000000E+02  8.20000000E+01  0.00000000E+00
  4.20000000E+02  8.00000000E+01  0.00000000E+00
  4.20000000E+02  7.80000000E+01  0.00000000E+00
  4.20000000E+02  7.60000000E+01  0.00000000E+00
  4.20000000E+02  7.40000000E+01  0.00000000E+00
  4.20000000E+02  7.20000000E+01  0.00000000E+00
  4.20000000E+02  7.00000000E+01  0.00000000E+00
  4.20000000E+02  6.80000000E+01  0.00000000E+00
  4.20000000E+02  6.60000000E+01  0.00000000E+00
  4.20000000E+02  6.40000000E+01  0.00000000E+00
  4.20000000E+02  6.20000000E+01  0.00000000E+00
  4.20000000E+02  6.00000000E+01  0.00000000E+00
  4.20000000E+02  5.80000000E+01  0.00000000E+00
  4.20000000E+02  5.60000000E+01  0.00000000E+00
  4.20000000E+02  5.40000000E+01  0.00000000E+00
  4.20000000E+02  5.20000000E+01  0.00000000E+00
  4.20000000E+02  5.00000000E+01  0.00000000E+00
  4.20000000E+02  4.80000000E+01  0.00000000E+00
  4.20000000E+02  4.60000000E+01  0.00000000E+00
  4.20000000E+02  4.40000000E+01  0.00000000E+00
  4.20000000E+02  4.20000000E+01  0.00000000E+00
  4.20000000E+02  4.00000000E+01  0.00000000E+00
  4.20000000E+02  3.80000000E+01  0.00000000E+00
  4.20000000E+02  3.60000000E+01  0.00000000E+00
  4.20000000E+02  3.40000000E+01  0.00000000E+00
  4.20000000E+02  3.20000000E+01  0.00000000E+00
  4.20000000E+02  3.00000000E+01  0.00000000E+00
  4.20000000E+02  2.80000000E+01  0.00000000E+00
  4.20000000E+02  2.60000000E+01  0.00000000E+00
  4.20000000E+02  2.40000000E+01  0.00000000E+00
  4.20000000E+02  2.20000000E+01  0.00000000E+00
  4.20000000E+02  2.00000000E+01  0.00000000E+00
  4.20000000E+02  1.80000000E+01  0.00000000E+00
  4.20000000E+02  1.60000000E+01  0.00000000E+00
  4.20000000E+02  1.40000000E+01  0.00000000E+00
  4.20000000E+02  1.20000000E+01  0.00000000E+00
  4.20000000E+02  1.00000000E+01  0.00000000E+00
  4.20000000E+02  8.00000000E+00  0.00000000E+00
  4.20000000E+02  6.00000000E+00  0.00000000E+00
  4.20000000E+02  4.00000000E+00  0.00000000E+00
  4.20000000E+02  2.00000000E+00  0.00000000E+00
  4.20000000E+02 -3.33066907E-14  0.00000000E+00
  4.30000000E+02  1.00000000E+02  0.00000000E+00
  4.30000000E+02  9.80000000E+01  0.00000000E+00
  4.30000000E+02  9.60000000E+01  0.00000000E+00
  4.30000000E+02  9.40000000E+01  0.00000000E+00
  4.30000000E+02  9.20000000E+01  0.00000000E+00
  4.30000000E+02  9.00000000E+01  0.00000000E+00
  4.30000000E+02  8.80000000E+01  0.00000000E+00
  4.30000000E+02  8.60000000E+01  0.00000000E+00
  4.30000000E+02  8.40000000E+01  0.00000000E+00
  4.30000000E+02  8.20000000E+01  0.00000000E+00
  4.30000000E+02  8.00000000E+01  0.00000000E+00
  4.30000000E+02  7.80000000E+01  0.00000000E+00
  4.30000000E+02  7.60000000E+01  0.00000000E+00
  4.30000000E+02  7.40000000E+01  0.00000000E+00
  4.30000000E+02  7.20000000E+01  0.00000000E+00
  4.30000000E+02  7.00000000E+01  0.00000000E+00
  4.30000000E+02  6.80000000E+01  0.00000000E+00
  4.30000000E+02  6.60000000E+01  0.00000000E+00
  4.30000000E+02  6.40000000E+01  0.00000000E+00
  4.30000000E+02  6.20000000E+01  0.00000000E+00
  4.30000000E+02  6.00000000E+01  0.00000000E+00
  4.30000000E+02  5.80000000E+01  0.00000000E+00
  4.30000000E+02  5.60000000E+01  0.00000000E+00
  4.30000000E+02  5.40000000E+01  0.00000000E+00
  4.30000000E+02  5.20000000E+01  0.00000000E+00
  4.30000000E+02  5.00000000E+01  0.00000000E+00
  4.30000000E+02  4.80000000E+01  0.00000000E+00
  4.30000000E+02  4.60000000E+01  0.00000000E+00
  4.30000000E+02  4.40000000E+01  0.00000000E+00
  4.30000000E+02  4.20000000E+01  0.00000000E+00
  4.30000000E+02  4.00000000E+01  0.00000000E+00
  4.30000000E+02  3.80000000E+01  0.00000000E+00
  4.30000000E+02  3.60000000E+01  0.00000000E+00
  4.30000000E+02  3.40000000E+01  0.00000000E+00
  4.30000000E+02  3.20000000E+01  0.00000000E+00
  4.30000000E+02  3.00000000E+01  0.00000000E+00
  4.30000000E+02  2.80000000E+01  0.00000000E+00
  4.30000000E+02  2.60000000E+01  0.00000000E+00
  4.30000000E+02  2.40000000E+01  0.00000000E+00
  4.30000000E+02  2.20000000E+01  0.00000000E+00
  4.30000000E+02  2.00000000E+01  0.00000000E+00
  4.30000000E+02  1.80000000E+01  0.00000000E+00
  4.30000000E+02  1.60000000E+01  0.00000000E+00
  4.30000000E+02  1.40000000E+01  0.00000000E+00
  4.30000000E+02  1.20000000E+01  0.00000000E+00
  4.30000000E+02  1.00000000E+01  0.00000000E+00
  4.30000000E+02  8.00000000E+00  0.00000000E+00
  4.30000000E+02  6.00000000E+00  0.00000000E+00
  4.30000000E+02  4.00000000E+00  0.00000000E+00
  4.30000000E+02  2.00000000E+00  0.00000000E+00
  4.30000000E+02 -3.33066907E-14  0.00000000E+00
  4.40000000E+02  1.00000000E+02  0.00000000E+00
  4.40000000E+02  9.80000000E+01  0.00000000E+00
  4.40000000E+02  9.60000000E+01  0.00000000E+00
  4.40000000E+02  9.40000000E+01  0.00000000E+00
  4.40000000E+02  9.20000000E+01  0.00000000E+00
  4.40000000E+02  9.00000000E+01  0.00000000E+00
  4.40000000E+02  8.80000000E+01  0.00000000E+00
  4.40000000E+02  8.60000000E+01  0.00000000E+00
  4.40000000E+02  8.40000000E+01  0.00000000E+00
  4.40000000E+02  8.20000000E+01  0.00000000E+00
  4.40000000E+02  8.00000000E+01  0.00000000E+00
  4.40000000E+02  7.80000000E+01  0.00000000E+00
  4.40000000E+02  7.60000000E+01  0.00000000E+00
  4.40000000E+02  7.40000000E+01  0.00000000E+00
  4.40000000E+02  7.20000000E+01  0.00000000E+00
  4.40000000E+02  7.00000000E+01  0.00000000E+00
  4.40000000E+02  6.80000000E+01  0.00000000E+00
  4.40000000E+02  6.60000000E+01  0.00000000E+00
  4.40000000E+02  6.40000000E+01  0.00000000E+00
  4.40000000E+02  6.20000000E+01  0.00000000E+00
  4.40000000E+02  6.00000000E+01  0.00000000E+00
  4.40000000E+02  5.80000000E+01  0.00000000E+00
  4.40000000E+02  5.60000000E+01  0.00000000E+00
  4.40000000E+02  5.40000000E+01  0.00000000E+00
  4.40000000E+02  5.20000000E+01  0.00000000E+00
  4.40000000E+02  5.00000000E+01  0.00000000E+00
  4.40000000E+02  4.80000000E+01  0.00000000E+00
  4.40000000E+02  4.60000000E+01  0.00000000E+00
  4.40000000E+02  4.40000000E+01  0.00000000E+00
  4.40000000E+02  4.20000000E+01  0.00000000E+00
  4.40000000E+02  4.00000000E+01  0.00000000E+00
  4.40000000E+02  3.80000000E+01  0.00000000E+00
  4.40000000E+02  3.60000000E+01  0.00000000E+00
  4.40000000E+02  3.40000000E+01  0.00000000E+00
  4.40000000E+02  3.20000000E+01  0.00000000E+00
  4.40000000E+02  3.00000000E+01  0.00000000E+00
  4.40000000E+02  2.80000000E+01  0.00000000E+00
  4.40000000E+02  2.60000000E+01  0.00000000E+00
  4.40000000E+02  2.40000000E+01  0.00000000E+00
  4.40000000E+02  2.20000000E+01  0.00000000E+00
  4.40000000E+02  2.00000000E+01  0.00000000E+00
  4.40000000E+02  1.80000000E+01  0.00000000E+00
  4.40000000E+02  1.60000000E+01  0.00000000E+00
  4.40000000E+02  1.40000000E+01  0.00000000E+00
  4.40000000E+02  1.20000000E+01  0.00000000E+00
  4.40000000E+02  1.00000000E+01  0.00000000E+00
  4.40000000E+02  8.00000000E+00  0.00000000E+00
  4.40000000E+02  6.00000000E+00  0.00000000E+00
  4.40000000E+02  4.00000000E+00  0.00000000E+00
  4.40000000E+02  2.00000000E+00  0.00000000E+00
  4.40000000E+02 -3.33066907E-14  0.00000000E+00
  4.50000000E+02  1.00000000E+02  0.00000000E+00
  4.50000000E+02  9.80000000E+01  0.00000000E+00
  4.50000000E+02  9.60000000E+01  0.00000000E+00
  4.50000000E+02  9.40000000E+01  0.00000000E+00
  4.50000000E+02  9.20000000E+01  0.00000000E+00
  4.50000000E+02  9.00000000E+01  0.00000000E+00
  4.50000000E+02  8.80000000E+01  0.00000000E+00
  4.50000000E+02  8.60000000E+01  0.00000000E+00
  4.50000000E+02  8.40000000E+01  0.00000000E+00
  4.50000000E+02  8.20000000E+01  0.00000000E+00
  4.50000000E+02  8.00000000E+01  0.00000000E+00
  4.50000000E+02  7.80000000E+01  0.00000000E+00
  4.50000000E+02  7.60000000E+01  0.00000000E+00
  4.50000000E+02  7.40000000E+01  0.00000000E+00
  4.50000000E+02  7.20000000E+01  0.00000000E+00
  4.50000000E+02  7.00000000E+01  0.00000000E+00
  4.50000000E+02  6.80000000E+01  0.00000000E+00
  4.50000000E+02  6.60000000E+01  0.00000000E+00
  4.50000000E+02  6.40000000E+01  0.00000000E+00
  4.50000000E+02  6.20000000E+01  0.00000000E+00
  4.50000000E+02  6.00000000E+01  0.00000000E+00
  4.50000000E+02  5.80000000E+01  0.00000000E+00
  4.50000000E+02  5.60000000E+01  0.00000000E+00
  4.50000000E+02  5.40000000E+01  0.00000000E+00
  4.50000000E+02  5.20000000E+01  0.00000000E+00
  4.50000000E+02  5.00000000E+01  0.00000000E+00
  4.50000000E+02  4.80000000E+01  0.00000000E+00
  4.50000000E+02  4.60000000E+01  0.00000000E+00
  4.50000000E+02  4.40000000E+01  0.00000000E+00
  4.50000000E+02  4.20000000E+01  0.00000000E+00
  4.50000000E+02  4.00000000E+01  0.00000000E+00
  4.50000000E+02  3.80000000E+01  0.00000000E+00
  4.50000000E+02  3.60000000E+01  0.00000000E+00
  4.50000000E+02  3.40000000E+01  0.00000000E+00
  4.50000000E+02  3.20000000E+01  0.00000000E+00
  4.50000000E+02  3.00000000E+01  0.00000000E+00
  4.50000000E+02  2.80000000E+01  0.00000000E+00
  4.50000000E+02  2.60000000E+01  0.00000000E+00
  4.50000000E+02  2.40000000E+01  0.00000000E+00
  4.50000000E+02  2.20000000E+01  0.00000000E+00
  4.50000000E+02  2.00000000E+01  0.00000000E+00
  4.50000000E+02  1.80000000E+01  0.00000000E+00
  4.50000000E+02  1.60000000E+01  0.00000000E+00
  4.50000000E+02  1.40000000E+01  0.00000000E+00
  4.50000000E+02  1.20000000E+01  0.00000000E+00
  4.50000000E+02  1.00000000E+01  0.00000000E+00
  4.50000000E+02  8.00000000E+00  0.00000000E+00
  4.50000000E+02  6.00000000E+00  0.00000000E+00
  4.50000000E+02  4.00000000E+00  0.00000000E+00
  4.50000000E+02  2.00000000E+00  0.00000000E+00
  4.50000000E+02 -3.33066907E-14  0.00000000E+00
  4.60000000E+02  1.00000000E+02  0.00000000E+00
  4.60000000E+02  9.80000000E+01  0.00000000E+00
  4.60000000E+02  9.60000000E+01  0.00000000E+00
  4.60000000E+02  9.40000000E+01  0.00000000E+00
  4.60000000E+02  9.20000000E+01  0.00000000E+00
  4.60000000E+02  9.00000000E+01  0.00000000E+00
  4.60000000E+02  8.80000000E+01  0.00000000E+00
  4.60000000E+02  8.60000000E+01  0.00000000E+00
  4.60000000E+02  8.40000000E+01  0.00000000E+00
  4.60000000E+02  8.20000000E+01  0.00000000E+00
  4.60000000E+02  8.00000000E+01  0.00000000E+00
  4.60000000E+02  7.80000000E+01  0.00000000E+00
  4.60000000E+02  7.60000000E+01  0.00000000E+00
  4.60000000E+02  7.40000000E+01  0.00000000E+00
  4.60000000E+02  7.20000000E+01  0.00000000E+00
  4.60000000E+02  7.00000000E+01  0.00000000E+00
  4.60000000E+02  6.80000000E+01  0.00000000E+00
  4.60000000E+02  6.60000000E+01  0.00000000E+00
  4.60000000E+02  6.40000000E+01  0.00000000E+00
  4.60000000E+02  6.20000000E+01  0.00000000E+00
  4.60000000E+02  6.00000000E+01  0.00000000E+00
  4.60000000E+02  5.80000000E+01  0.00000000E+00
  4.60000000E+02  5.60000000E+01  0.00000000E+00
  4.60000000E+02  5.40000000E+01  0.00000000E+00
  4.60000000E+02  5.20000000E+01  0.00000000E+00
  4.60000000E+02  5.00000000E+01  0.00000000E+00
  4.60000000E+02  4.80000000E+01  0.00000000E+00
  4.60000000E+02  4.60000000E+01  0.00000000E+00
  4.60000000E+02  4.40000000E+01  0.00000000E+00
  4.60000000E+02  4.20000000E+01  0.00000000E+00
  4.60000000E+02  4.00000000E+01  0.00000000E+00
  4.60000000E+02  3.80000000E+01  0.00000000E+00
  4.60000000E+02  3.60000000E+01  0.00000000E+00
  4.60000000E+02  3.40000000E+01  0.00000000E+00
  4.60000000E+02  3.20000000E+01  0.00000000E+00
  4.60000000E+02  3.00000000E+01  0.00000000E+00
  4.60000000E+02  2.80000000E+01  0.00000000E+00
  4.60000000E+02  2.60000000E+01  0.00000000E+00
  4.60000000E+02  2.40000000E+01  0.00000000E+00
  4.60000000E+02  2.20000000E+01  0.00000000E+00
  4.60000000E+02  2.00000000E+01  0.00000000E+00
  4.60000000E+02  1.80000000E+01  0.00000000E+00
  4.60000000E+02  1.60000000E+01  0.00000000E+00
  4.60000000E+02  1.40000000E+01  0.00000000E+00
  4.60000000E+02  1.20000000E+01  0.00000000E+00
  4.60000000E+02  1.00000000E+01  0.00000000E+00
  4.60000000E+02  8.00000000E+00  0.00000000E+00
  4.60000000E+02  6.00000000E+00  0.00000000E+00
  4.60000000E+02  4.00000000E+00  0.00000000E+00
  4.60000000E+02  2.00000000E+00  0.00000000E+00
  4.60000000E+02 -3.33066907E-14  0.00000000E+00
  4.70000000E+02  1.00000000E+02  0.00000000E+00
  4.70000000E+02  9.80000000E+01  0.00000000E+00
  4.70000000E+02  9.60000000E+01  0.00000000E+00
  4.70000000E+02  9.40000000E+01  0.00000000E+00
  4.70000000E+02  9.20000000E+01  0.00000000E+00
  4.70000000E+02  9.00000000E+01  0.00000000E+00
  4.70000000E+02  8.80000000E+01  0.00000000E+00
  4.70000000E+02  8.60000000E+01  0.00000000E+00
  4.70000000E+02  8.40000000E+01  0.00000000E+00
  4.70000000E+02  8.20000000E+01  0.00000000E+00
  4.70000000E+02  8.00000000E+01  0.00000000E+00
  4.70000000E+02  7.80000000E+01  0.00000000E+00
  4.70000000E+02  7.60000000E+01  0.00000000E+00
  4.70000000E+02  7.40000000E+01  0.00000000E+00
  4.70000000E+02  7.20000000E+01  0.00000000E+00
  4.70000000E+02  7.00000000E+01  0.00000000E+00
  4.70000000E+02  6.80000000E+01  0.00000000E+00
  4.70000000E+02  6.60000000E+01  0.00000000E+00
  4.70000000E+02  6.40000000E+01  0.00000000E+00
  4.70000000E+02  6.20000000E+01  0.00000000E+00
  4.70000000E+02  6.00000000E+01  0.00000000E+00
  4.70000000E+02  5.80000000E+01  0.00000000E+00
  4.70000000E+02  5.60000000E+01  0.00000000E+00
  4.70000000E+02  5.40000000E+01  0.00000000E+00
  4.70000000E+02  5.20000000E+01  0.00000000E+00
  4.70000000E+02  5.00000000E+01  0.00000000E+00
  4.70000000E+02  4.80000000E+01  0.00000000E+00
  4.70000000E+02  4.60000000E+01  0.00000000E+00
  4.70000000E+02  4.40000000E+01  0.00000000E+00
  4.70000000E+02  4.20000000E+01  0.00000000E+00
  4.70000000E+02  4.00000000E+01  0.00000000E+00
  4.70000000E+02  3.80000000E+01  0.00000000E+00
  4.70000000E+02  3.60000000E+01  0.00000000E+00
  4.70000000E+02  3.40000000E+01  0.00000000E+00
  4.70000000E+02  3.20000000E+01  0.00000000E+00
  4.70000000E+02  3.00000000E+01  0.00000000E+00
  4.70000000E+02  2.80000000E+01  0.00000000E+00
  4.70000000E+02  2.60000000E+01  0.00000000E+00
  4.70000000E+02  2.40000000E+01  0.00000000E+00
  4.70000000E+02  2.20000000E+01  0.00000000E+00
  4.70000000E+02  2.00000000E+01  0.00000000E+00
  4.70000000E+02  1.80000000E+01  0.00000000E+00
  4.70000000E+02  1.60000000E+01  0.00000000E+00
  4.70000000E+02  1.40000000E+01  0.00000000E+00
  4.70000000E+02  1.20000000E+01  0.00000000E+00
  4.70000000E+02  1.00000000E+01  0.00000000E+00
  4.70000000E+02  8.00000000E+00  0.00000000E+00
  4.70000000E+02  6.00000000E+00  0.00000000E+00
  4.70000000E+02  4.00000000E+00  0.00000000E+00
  4.70000000E+02  2.00000000E+00  0.00000000E+00
  4.70000000E+02 -3.33066907E-14  0.00000000E+00
  4.80000000E+02  1.00000000E+02  0.00000000E+00
  4.80000000E+02  9.80000000E+01  0.00000000E+00
  4.80000000E+02  9.60000000E+01  0.00000000E+00
  4.80000000E+02  9.40000000E+01  0.00000000E+00
  4.80000000E+02  9.20000000E+01  0.00000000E+00
  4.80000000E+02  9.00000000E+01  0.00000000E+00
  4.80000000E+02  8.80000000E+01  0.00000000E+00
  4.80000000E+02  8.60000000E+01  0.00000000E+00
  4.80000000E+02  8.40000000E+01  0.00000000E+00
  4.80000000E+02  8.20000000E+01  0.00000000E+00
  4.80000000E+02  8.00000000E+01  0.00000000E+00
  4.80000000E+02  7.80000000E+01  0.00000000E+00
  4.80000000E+02  7.60000000E+01  0.00000000E+00
  4.80000000E+02  7.40000000E+01  0.00000000E+00
  4.80000000E+02  7.20000000E+01  0.00000000E+00
  4.80000000E+02  7.00000000E+01  0.00000000E+00
  4.80000000E+02  6.80000000E+01  0.00000000E+00
  4.80000000E+02  6.60000000E+01  0.00000000E+00
  4.80000000E+02  6.40000000E+01  0.00000000E+00
  4.80000000E+02  6.20000000E+01  0.00000000E+00
  4.80000000E+02  6.00000000E+01  0.00000000E+00
  4.80000000E+02  5.80000000E+01  0.00000000E+00
  4.80000000E+02  5.60000000E+01  0.00000000E+00
  4.80000000E+02  5.40000000E+01  0.00000000E+00
  4.80000000E+02  5.20000000E+01  0.00000000E+00
  4.80000000E+02  5.00000000E+01  0.00000000E+00
  4.80000000E+02  4.80000000E+01  0.00000000E+00
  4.80000000E+02  4.60000000E+01  0.00000000E+00
  4.80000000E+02  4.40000000E+01  0.00000000E+00
  4.80000000E+02  4.20000000E+01  0.00000000E+00
  4.80000000E+02  4.00000000E+01  0.00000000E+00
  4.80000000E+02  3.80000000E+01  0.00000000E+00
  4.80000000E+02  3.60000000E+01  0.00000000E+00
  4.80000000E+02  3.40000000E+01  0.00000000E+00
  4.80000000E+02  3.20000000E+01  0.00000000E+00
  4.80000000E+02  3.00000000E+01  0.00000000E+00
  4.80000000E+02  2.80000000E+01  0.00000000E+00
  4.80000000E+02  2.60000000E+01  0.00000000E+00
  4.80000000E+02  2.40000000E+01  0.00000000E+00
  4.80000000E+02  2.20000000E+01  0.00000000E+00
  4.80000000E+02  2.00000000E+01  0.00000000E+00
  4.80000000E+02  1.80000000E+01  0.00000000E+00
  4.80000000E+02  1.60000000E+01  0.00000000E+00
  4.80000000E+02  1.40000000E+01  0.00000000E+00
  4.80000000E+02  1.20000000E+01  0.00000000E+00
  4.80000000E+02  1.00000000E+01  0.00000000E+00
  4.80000000E+02  8.00000000E+00  0.00000000E+00
  4.80000000E+02  6.00000000E+00  0.00000000E+00
  4.80000000E+02  4.00000000E+00  0.00000000E+00
  4.80000000E+02  2.00000000E+00  0.00000000E+00
  4.80000000E+02 -3.33066907E-14  0.00000000E+00
  4.90000000E+02  1.00000000E+02  0.00000000E+00
  4.90000000E+02  9.80000000E+01  0.00000000E+00
  4.90000000E+02  9.60000000E+01  0.00000000E+00
  4.90000000E+02  9.40000000E+01  0.00000000E+00
  4.90000000E+02  9.20000000E+01  0.00000000E+00
  4.90000000E+02  9.00000000E+01  0.00000000E+00
  4.90000000E+02  8.80000000E+01  0.00000000E+00
  4.90000000E+02  8.60000000E+01  0.00000000E+00
  4.90000000E+02  8.40000000E+01  0.00000000E+00
  4.90000000E+02  8.20000000E+01  0.00000000E+00
  4.90000000E+02  8.00000000E+01  0.00000000E+00
  4.90000000E+02  7.80000000E+01  0.00000000E+00
  4.90000000E+02  7.60000000E+01  0.00000000E+00
  4.90000000E+02  7.40000000E+01  0.00000000E+00
  4.90000000E+02  7.20000000E+01  0.00000000E+00
  4.90000000E+02  7.00000000E+01  0.00000000E+00
  4.90000000E+02  6.80000000E+01  0.00000000E+00
  4.90000000E+02  6.60000000E+01  0.00000000E+00
  4.90000000E+02  6.40000000E+01  0.00000000E+00
  4.90000000E+02  6.20000000E+01  0.00000000E+00
  4.90000000E+02  6.00000000E+01  0.00000000E+00
  4.90000000E+02  5.80000000E+01  0.00000000E+00
  4.90000000E+02  5.60000000E+01  0.00000000E+00
  4.90000000E+02  5.40000000E+01  0.00000000E+00
  4.90000000E+02  5.20000000E+01  0.00000000E+00
  4.90000000E+02  5.00000000E+01  0.00000000E+00
  4.90000000E+02  4.80000000E+01  0.00000000E+00
  4.90000000E+02  4.60000000E+01  0.00000000E+00
  4.90000000E+02  4.40000000E+01  0.00000000E+00
  4.90000000E+02  4.20000000E+01  0.00000000E+00
  4.90000000E+02  4.00000000E+01  0.00000000E+00
  4.90000000E+02  3.80000000E+01  0.00000000E+00
  4.90000000E+02  3.60000000E+01  0.00000000E+00
  4.90000000E+02  3.40000000E+01  0.00000000E+00
  4.90000000E+02  3.20000000E+01  0.00000000E+00
  4.90000000E+02  3.00000000E+01  0.00000000E+00
  4.90000000E+02  2.80000000E+01  0.00000000E+00
  4.90000000E+02  2.60000000E+01  0.00000000E+00
  4.90000000E+02  2.40000000E+01  0.00000000E+00
  4.90000000E+02  2.20000000E+01  0.00000000E+00
  4.90000000E+02  2.00000000E+01  0.00000000E+00
  4.90000000E+02  1.80000000E+01  0.00000000E+00
  4.90000000E+02  1.60000000E+01  0.00000000E+00
  4.90000000E+02  1.40000000E+01  0.00000000E+00
  4.90000000E+02  1.20000000E+01  0.00000000E+00
  4.90000000E+02  1.00000000E+01  0.00000000E+00
  4.90000000E+02  8.00000000E+00  0.00000000E+00
  4.90000000E+02  6.00000000E+00  0.00000000E+00
  4.90000000E+02  4.00000000E+00  0.00000000E+00
  4.90000000E+02  2.00000000E+00  0.00000000E+00
  4.90000000E+02 -3.33066907E-14  0.00000000E+00
  5.00000000E+02  1.00000000E+02  0.00000000E+00
  5.00000000E+02  9.80000000E+01  0.00000000E+00
  5.00000000E+02  9.60000000E+01  0.00000000E+00
  5.00000000E+02  9.40000000E+01  0.00000000E+00
  5.00000000E+02  9.20000000E+01  0.00000000E+00
  5.00000000E+02  9.00000000E+01  0.00000000E+00
  5.00000000E+02  8.80000000E+01  0.00000000E+00
  5.00000000E+02  8.60000000E+01  0.00000000E+00
  5.00000000E+02  8.40000000E+01  0.00000000E+00
  5.00000000E+02  8.20000000E+01  0.00000000E+00
  5.00000000E+02  8.00000000E+01  0.00000000E+00
  5.00000000E+02  7.80000000E+01  0.00000000E+00
  5.00000000E+02  7.60000000E+01  0.00000000E+00
  5.00000000E+02  7.40000000E+01  0.00000000E+00
  5.00000000E+02  7.20000000E+01  0.00000000E+00
  5.00000000E+02  7.00000000E+01  0.00000000E+00
  5.00000000E+02  6.80000000E+01  0.00000000E+00
  5.00000000E+02  6.60000000E+01  0.00000000E+00
  5.00000000E+02  6.40000000E+01  0.00000000E+00
  5.00000000E+02  6.20000000E+01  0.00000000E+00
  5.00000000E+02  6.00000000E+01  0.00000000E+00
  5.00000000E+02  5.80000000E+01  0.00000000E+00
  5.00000000E+02  5.60000000E+01  0.00000000E+00
  5.00000000E+02  5.40000000E+01  0.00000000E+00
  5.00000000E+02  5.20000000E+01  0.00000000E+00
  5.00000000E+02  5.00000000E+01  0.00000000E+00
  5.00000000E+02  4.80000000E+01  0.00000000E+00
  5.00000000E+02  4.60000000E+01  0.00000000E+00
  5.00000000E+02  4.40000000E+01  0.00000000E+00
  5.00000000E+02  4.20000000E+01  0.00000000E+00
  5.00000000E+02  4.00000000E+01  0.00000000E+00
  5.00000000E+02  3.80000000E+01  0.00000000E+00
  5.00000000E+02  3.60000000E+01  0.00000000E+00
  5.00000000E+02  3.40000000E+01  0.00000000E+00
  5.00000000E+02  3.20000000E+01  0.00000000E+00
  5.00000000E+02  3.00000000E+01  0.00000000E+00
  5.00000000E+02  2.80000000E+01  0.00000000E+00
  5.00000000E+02  2.60000000E+01  0.00000000E+00
  5.00000000E+02  2.40000000E+01  0.00000000E+00
  5.00000000E+02  2.20000000E+01  0.00000000E+00
  5.00000000E+02  2.00000000E+01  0.00000000E+00
  5.00000000E+02  1.80000000E+01  0.00000000E+00
  5.00000000E+02  1.60000000E+01  0.00000000E+00
  5.00000000E+02  1.40000000E+01  0.00000000E+00
  5.00000000E+02  1.20000000E+01  0.00000000E+00
  5.00000000E+02  1.00000000E+01  0.00000000E+00
  5.00000000E+02  8.00000000E+00  0.00000000E+00
  5.00000000E+02  6.00000000E+00  0.00000000E+00
  5.00000000E+02  4.00000000E+00  0.00000000E+00
  5.00000000E+02  2.00000000E+00  0.00000000E+00
  5.00000000E+02 -3.33066907E-14  0.00000000E+00
  5.10000000E+02  1.00000000E+02  0.00000000E+00
  5.10000000E+02  9.80000000E+01  0.00000000E+00
  5.10000000E+02  9.60000000E+01  0.00000000E+00
  5.10000000E+02  9.40000000E+01  0.00000000E+00
  5.10000000E+02  9.20000000E+01  0.00000000E+00
  5.10000000E+02  9.00000000E+01  0.00000000E+00
  5.10000000E+02  8.80000000E+01  0.00000000E+00
  5.10000000E+02  8.60000000E+01  0.00000000E+00
  5.10000000E+02  8.40000000E+01  0.00000000E+00
  5.10000000E+02  8.20000000E+01  0.00000000E+00
  5.10000000E+02  8.00000000E+01  0.00000000E+00
  5.10000000E+02  7.80000000E+01  0.00000000E+00
  5.10000000E+02  7.60000000E+01  0.00000000E+00
  5.10000000E+02  7.40000000E+01  0.00000000E+00
  5.10000000E+02  7.20000000E+01  0.00000000E+00
  5.10000000E+02  7.00000000E+01  0.00000000E+00
  5.10000000E+02  6.80000000E+01  0.00000000E+00
  5.10000000E+02  6.60000000E+01  0.00000000E+00
  5.10000000E+02  6.40000000E+01  0.00000000E+00
  5.10000000E+02  6.20000000E+01  0.00000000E+00
  5.10000000E+02  6.00000000E+01  0.00000000E+00
  5.10000000E+02  5.80000000E+01  0.00000000E+00
  5.10000000E+02  5.60000000E+01  0.00000000E+00
  5.10000000E+02  5.40000000E+01  0.00000000E+00
  5.10000000E+02  5.20000000E+01  0.00000000E+00
  5.10000000E+02  5.00000000E+01  0.00000000E+00
  5.10000000E+02  4.80000000E+01  0.00000000E+00
  5.10000000E+02  4.60000000E+01  0.00000000E+00
  5.10000000E+02  4.40000000E+01  0.00000000E+00
  5.10000000E+02  4.20000000E+01  0.00000000E+00
  5.10000000E+02  4.00000000E+01  0.00000000E+00
  5.10000000E+02  3.80000000E+01  0.00000000E+00
  5.10000000E+02  3.60000000E+01  0.00000000E+00
  5.10000000E+02  3.40000000E+01  0.00000000E+00
  5.10000000E+02  3.20000000E+01  0.00000000E+00
  5.10000000E+02  3.00000000E+01  0.00000000E+00
  5.10000000E+02  2.80000000E+01  0.00000000E+00
  5.10000000E+02  2.60000000E+01  0.00000000E+00
  5.10000000E+02  2.40000000E+01  0.00000000E+00
  5.10000000E+02  2.20000000E+01  0.00000000E+00
  5.10000000E+02  2.00000000E+01  0.00000000E+00
  5.10000000E+02  1.80000000E+01  0.00000000E+00
  5.10000000E+02  1.60000000E+01  0.00000000E+00
  5.10000000E+02  1.40000000E+01  0.00000000E+00
  5.10000000E+02  1.20000000E+01  0.00000000E+00
  5.10000000E+02  1.00000000E+01  0.00000000E+00
  5.10000000E+02  8.00000000E+00  0.00000000E+00
  5.10000000E+02  6.00000000E+00  0.00000000E+00
  5.10000000E+02  4.00000000E+00  0.00000000E+00
  5.10000000E+02  2.00000000E+00  0.00000000E+00
  5.10000000E+02 -3.33066907E-14  0.00000000E+00
  5.20000000E+02  1.00000000E+02  0.00000000E+00
  5.20000000E+02  9.80000000E+01  0.00000000E+00
  5.20000000E+02  9.60000000E+01  0.00000000E+00
  5.20000000E+02  9.40000000E+01  0.00000000E+00
  5.20000000E+02  9.20000000E+01  0.00000000E+00
  5.20000000E+02  9.00000000E+01  0.00000000E+00
  5.20000000E+02  8.80000000E+01  0.00000000E+00
  5.20000000E+02  8.60000000E+01  0.00000000E+00
  5.20000000E+02  8.40000000E+01  0.00000000E+00
  5.20000000E+02  8.20000000E+01  0.00000000E+00
  5.20000000E+02  8.00000000E+01  0.00000000E+00
  5.20000000E+02  7.80000000E+01  0.00000000E+00
  5.20000000E+02  7.60000000E+01  0.00000000E+00
  5.20000000E+02  7.40000000E+01  0.00000000E+00
  5.20000000E+02  7.20000000E+01  0.00000000E+00
  5.20000000E+02  7.00000000E+01  0.00000000E+00
  5.20000000E+02  6.80000000E+01  0.00000000E+00
  5.20000000E+02  6.60000000E+01  0.00000000E+00
  5.20000000E+02  6.40000000E+01  0.00000000E+00
  5.20000000E+02  6.20000000E+01  0.00000000E+00
  5.20000000E+02  6.00000000E+01  0.00000000E+00
  5.20000000E+02  5.80000000E+01  0.00000000E+00
  5.20000000E+02  5.60000000E+01  0.00000000E+00
  5.20000000E+02  5.40000000E+01  0.00000000E+00
  5.20000000E+02  5.20000000E+01  0.00000000E+00
  5.20000000E+02  5.00000000E+01  0.00000000E+00
  5.20000000E+02  4.80000000E+01  0.00000000E+00
  5.20000000E+02  4.60000000E+01  0.00000000E+00
  5.20000000E+02  4.40000000E+01  0.00000000E+00
  5.20000000E+02  4.20000000E+01  0.00000000E+00
  5.20000000E+02  4.00000000E+01  0.00000000E+00
  5.20000000E+02  3.80000000E+01  0.00000000E+00
  5.20000000E+02  3.60000000E+01  0.00000000E+00
  5.20000000E+02  3.40000000E+01  0.00000000E+00
  5.20000000E+02  3.20000000E+01  0.00000000E+00
  5.20000000E+02  3.00000000E+01  0.00000000E+00
  5.20000000E+02  2.80000000E+01  0.00000000E+00
  5.20000000E+02  2.60000000E+01  0.00000000E+00
  5.20000000E+02  2.40000000E+01  0.00000000E+00
  5.20000000E+02  2.20000000E+01  0.00000000E+00
  5.20000000E+02  2.00000000E+01  0.00000000E+00
  5.20000000E+02  1.80000000E+01  0.00000000E+00
  5.20000000E+02  1.60000000E+01  0.00000000E+00
  5.20000000E+02  1.40000000E+01  0.00000000E+00
  5.20000000E+02  1.20000000E+01  0.00000000E+00
  5.20000000E+02  1.00000000E+01  0.00000000E+00
  5.20000000E+02  8.00000000E+00  0.00000000E+00
  5.20000000E+02  6.00000000E+00  0.00000000E+00
  5.20000000E+02  4.00000000E+00  0.00000000E+00
  5.20000000E+02  2.00000000E+00  0.00000000E+00
  5.20000000E+02 -3.33066907E-14  0.00000000E+00
  5.30000000E+02  1.00000000E+02  0.00000000E+00
  5.30000000E+02  9.80000000E+01  0.00000000E+00
  5.30000000E+02  9.60000000E+01  0.00000000E+00
  5.30000000E+02  9.40000000E+01  0.00000000E+00
  5.30000000E+02  9.20000000E+01  0.00000000E+00
  5.30000000E+02  9.00000000E+01  0.00000000E+00
  5.30000000E+02  8.80000000E+01  0.00000000E+00
  5.30000000E+02  8.60000000E+01  0.00000000E+00
  5.30000000E+02  8.40000000E+01  0.00000000E+00
  5.30000000E+02  8.20000000E+01  0.00000000E+00
  5.30000000E+02  8.00000000E+01  0.00000000E+00
  5.30000000E+02  7.80000000E+01  0.00000000E+00
  5.30000000E+02  7.60000000E+01  0.00000000E+00
  5.30000000E+02  7.40000000E+01  0.00000000E+00
  5.30000000E+02  7.20000000E+01  0.00000000E+00
  5.30000000E+02  7.00000000E+01  0.00000000E+00
  5.30000000E+02  6.80000000E+01  0.00000000E+00
  5.30000000E+02  6.60000000E+01  0.00000000E+00
  5.30000000E+02  6.40000000E+01  0.00000000E+00
  5.30000000E+02  6.20000000E+01  0.00000000E+00
  5.30000000E+02  6.00000000E+01  0.00000000E+00
  5.30000000E+02  5.80000000E+01  0.00000000E+00
  5.30000000E+02  5.60000000E+01  0.00000000E+00
  5.30000000E+02  5.40000000E+01  0.00000000E+00
  5.30000000E+02  5.20000000E+01  0.00000000E+00
  5.30000000E+02  5.00000000E+01  0.00000000E+00
  5.30000000E+02  4.80000000E+01  0.00000000E+00
  5.30000000E+02  4.60000000E+01  0.00000000E+00
  5.30000000E+02  4.40000000E+01  0.00000000E+00
  5.30000000E+02  4.20000000E+01  0.00000000E+00
  5.30000000E+02  4.00000000E+01  0.00000000E+00
  5.30000000E+02  3.80000000E+01  0.00000000E+00
  5.30000000E+02  3.60000000E+01  0.00000000E+00
  5.30000000E+02  3.40000000E+01  0.00000000E+00
  5.30000000E+02  3.20000000E+01  0.00000000E+00
  5.30000000E+02  3.00000000E+01  0.00000000E+00
  5.30000000E+02  2.80000000E+01  0.00000000E+00
  5.30000000E+02  2.60000000E+01  0.00000000E+00
  5.30000000E+02  2.40000000E+01  0.00000000E+00
  5.30000000E+02  2.20000000E+01  0.00000000E+00
  5.30000000E+02  2.00000000E+01  0.00000000E+00
  5.30000000E+02  1.80000000E+01  0.00000000E+00
  5.30000000E+02  1.60000000E+01  0.00000000E+00
  5.30000000E+02  1.40000000E+01  0.00000000E+00
  5.30000000E+02  1.20000000E+01  0.00000000E+00
  5.30000000E+02  1.00000000E+01  0.00000000E+00
  5.30000000E+02  8.00000000E+00  0.00000000E+00
  5.30000000E+02  6.00000000E+00  0.00000000E+00
  5.30000000E+02  4.00000000E+00  0.00000000E+00
  5.30000000E+02  2.00000000E+00  0.00000000E+00
  5.30000000E+02 -3.33066907E-14  0.00000000E+00
  5.40000000E+02  1.00000000E+02  0.00000000E+00
  5.40000000E+02  9.80000000E+01  0.00000000E+00
  5.40000000E+02  9.60000000E+01  0.00000000E+00
  5.40000000E+02  9.40000000E+01  0.00000000E+00
  5.40000000E+02  9.20000000E+01  0.00000000E+00
  5.40000000E+02  9.00000000E+01  0.00000000E+00
  5.40000000E+02  8.80000000E+01  0.00000000E+00
  5.40000000E+02  8.60000000E+01  0.00000000E+00
  5.40000000E+02  8.40000000E+01  0.00000000E+00
  5.40000000E+02  8.20000000E+01  0.00000000E+00
  5.40000000E+02  8.00000000E+01  0.00000000E+00
  5.40000000E+02  7.80000000E+01  0.00000000E+00
  5.40000000E+02  7.60000000E+01  0.00000000E+00
  5.40000000E+02  7.40000000E+01  0.00000000E+00
  5.40000000E+02  7.20000000E+01  0.00000000E+00
  5.40000000E+02  7.00000000E+01  0.00000000E+00
  5.40000000E+02  6.80000000E+01  0.00000000E+00
  5.40000000E+02  6.60000000E+01  0.00000000E+00
  5.40000000E+02  6.40000000E+01  0.00000000E+00
  5.40000000E+02  6.20000000E+01  0.00000000E+00
  5.40000000E+02  6.00000000E+01  0.00000000E+00
  5.40000000E+02  5.80000000E+01  0.00000000E+00
  5.40000000E+02  5.60000000E+01  0.00000000E+00
  5.40000000E+02  5.40000000E+01  0.00000000E+00
  5.40000000E+02  5.20000000E+01  0.00000000E+00
  5.40000000E+02  5.00000000E+01  0.00000000E+00
  5.40000000E+02  4.80000000E+01  0.00000000E+00
  5.40000000E+02  4.60000000E+01  0.00000000E+00
  5.40000000E+02  4.40000000E+01  0.00000000E+00
  5.40000000E+02  4.20000000E+01  0.00000000E+00
  5.40000000E+02  4.00000000E+01  0.00000000E+00
  5.40000000E+02  3.80000000E+01  0.00000000E+00
  5.40000000E+02  3.60000000E+01  0.00000000E+00
  5.40000000E+02  3.40000000E+01  0.00000000E+00
  5.40000000E+02  3.20000000E+01  0.00000000E+00
  5.40000000E+02  3.00000000E+01  0.00000000E+00
  5.40000000E+02  2.80000000E+01  0.00000000E+00
  5.40000000E+02  2.60000000E+01  0.00000000E+00
  5.40000000E+02  2.40000000E+01  0.00000000E+00
  5.40000000E+02  2.20000000E+01  0.00000000E+00
  5.40000000E+02  2.00000000E+01  0.00000000E+00
  5.40000000E+02  1.80000000E+01  0.00000000E+00
  5.40000000E+02  1.60000000E+01  0.00000000E+00
  5.40000000E+02  1.40000000E+01  0.00000000E+00
  5.40000000E+02  1.20000000E+01  0.00000000E+00
  5.40000000E+02  1.00000000E+01  0.00000000E+00
  5.40000000E+02  8.00000000E+00  0.00000000E+00
  5.40000000E+02  6.00000000E+00  0.00000000E+00
  5.40000000E+02  4.00000000E+00  0.00000000E+00
  5.40000000E+02  2.00000000E+00  0.00000000E+00
  5.40000000E+02 -3.33066907E-14  0.00000000E+00
  5.50000000E+02  1.00000000E+02  0.00000000E+00
  5.50000000E+02  9.80000000E+01  0.00000000E+00
  5.50000000E+02  9.60000000E+01  0.00000000E+00
  5.50000000E+02  9.40000000E+01  0.00000000E+00
  5.50000000E+02  9.20000000E+01  0.00000000E+00
  5.50000000E+02  9.00000000E+01  0.00000000E+00
  5.50000000E+02  8.80000000E+01  0.00000000E+00
  5.50000000E+02  8.60000000E+01  0.00000000E+00
  5.50000000E+02  8.40000000E+01  0.00000000E+00
  5.50000000E+02  8.20000000E+01  0.00000000E+00
  5.50000000E+02  8.00000000E+01  0.00000000E+00
  5.50000000E+02  7.80000000E+01  0.00000000E+00
  5.50000000E+02  7.60000000E+01  0.00000000E+00
  5.50000000E+02  7.40000000E+01  0.00000000E+00
  5.50000000E+02  7.20000000E+01  0.00000000E+00
  5.50000000E+02  7.00000000E+01  0.00000000E+00
  5.50000000E+02  6.80000000E+01  0.00000000E+00
  5.50000000E+02  6.60000000E+01  0.00000000E+00
  5.50000000E+02  6.40000000E+01  0.00000000E+00
  5.50000000E+02  6.20000000E+01  0.00000000E+00
  5.50000000E+02  6.00000000E+01  0.00000000E+00
  5.50000000E+02  5.80000000E+01  0.00000000E+00
  5.50000000E+02  5.60000000E+01  0.00000000E+00
  5.50000000E+02  5.40000000E+01  0.00000000E+00
  5.50000000E+02  5.20000000E+01  0.00000000E+00
  5.50000000E+02  5.00000000E+01  0.00000000E+00
  5.50000000E+02  4.80000000E+01  0.00000000E+00
  5.50000000E+02  4.60000000E+01  0.00000000E+00
  5.50000000E+02  4.40000000E+01  0.00000000E+00
  5.50000000E+02  4.20000000E+01  0.00000000E+00
  5.50000000E+02  4.00000000E+01  0.00000000E+00
  5.50000000E+02  3.80000000E+01  0.00000000E+00
  5.50000000E+02  3.60000000E+01  0.00000000E+00
  5.50000000E+02  3.40000000E+01  0.00000000E+00
  5.50000000E+02  3.20000000E+01  0.00000000E+00
  5.50000000E+02  3.00000000E+01  0.00000000E+00
  5.50000000E+02  2.80000000E+01  0.00000000E+00
  5.50000000E+02  2.60000000E+01  0.00000000E+00
  5.50000000E+02  2.40000000E+01  0.00000000E+00
  5.50000000E+02  2.20000000E+01  0.00000000E+00
  5.50000000E+02  2.00000000E+01  0.00000000E+00
  5.50000000E+02  1.80000000E+01  0.00000000E+00
  5.50000000E+02  1.60000000E+01  0.00000000E+00
  5.50000000E+02  1.40000000E+01  0.00000000E+00
  5.50000000E+02  1.20000000E+01  0.00000000E+00
  5.50000000E+02  1.00000000E+01  0.00000000E+00
  5.50000000E+02  8.00000000E+00  0.00000000E+00
  5.50000000E+02  6.00000000E+00  0.00000000E+00
  5.50000000E+02  4.00000000E+00  0.00000000E+00
  5.50000000E+02  2.00000000E+00  0.00000000E+00
  5.50000000E+02 -3.33066907E-14  0.00000000E+00
  5.60000000E+02  1.00000000E+02  0.00000000E+00
  5.60000000E+02  9.80000000E+01  0.00000000E+00
  5.60000000E+02  9.60000000E+01  0.00000000E+00
  5.60000000E+02  9.40000000E+01  0.00000000E+00
  5.60000000E+02  9.20000000E+01  0.00000000E+00
  5.60000000E+02  9.00000000E+01  0.00000000E+00
  5.60000000E+02  8.80000000E+01  0.00000000E+00
  5.60000000E+02  8.60000000E+01  0.00000000E+00
  5.60000000E+02  8.40000000E+01  0.00000000E+00
  5.60000000E+02  8.20000000E+01  0.00000000E+00
  5.60000000E+02  8.00000000E+01  0.00000000E+00
  5.60000000E+02  7.80000000E+01  0.00000000E+00
  5.60000000E+02  7.60000000E+01  0.00000000E+00
  5.60000000E+02  7.40000000E+01  0.00000000E+00
  5.60000000E+02  7.20000000E+01  0.00000000E+00
  5.60000000E+02  7.00000000E+01  0.00000000E+00
  5.60000000E+02  6.80000000E+01  0.00000000E+00
  5.60000000E+02  6.60000000E+01  0.00000000E+00
  5.60000000E+02  6.40000000E+01  0.00000000E+00
  5.60000000E+02  6.20000000E+01  0.00000000E+00
  5.60000000E+02  6.00000000E+01  0.00000000E+00
  5.60000000E+02  5.80000000E+01  0.00000000E+00
  5.60000000E+02  5.60000000E+01  0.00000000E+00
  5.60000000E+02  5.40000000E+01  0.00000000E+00
  5.60000000E+02  5.20000000E+01  0.00000000E+00
  5.60000000E+02  5.00000000E+01  0.00000000E+00
  5.60000000E+02  4.80000000E+01  0.00000000E+00
  5.60000000E+02  4.60000000E+01  0.00000000E+00
  5.60000000E+02  4.40000000E+01  0.00000000E+00
  5.60000000E+02  4.20000000E+01  0.00000000E+00
  5.60000000E+02  4.00000000E+01  0.00000000E+00
  5.60000000E+02  3.80000000E+01  0.00000000E+00
  5.60000000E+02  3.60000000E+01  0.00000000E+00
  5.60000000E+02  3.40000000E+01  0.00000000E+00
  5.60000000E+02  3.20000000E+01  0.00000000E+00
  5.60000000E+02  3.00000000E+01  0.00000000E+00
  5.60000000E+02  2.80000000E+01  0.00000000E+00
  5.60000000E+02  2.60000000E+01  0.00000000E+00
  5.60000000E+02  2.40000000E+01  0.00000000E+00
  5.60000000E+02  2.20000000E+01  0.00000000E+00
  5.60000000E+02  2.00000000E+01  0.00000000E+00
  5.60000000E+02  1.80000000E+01  0.00000000E+00
  5.60000000E+02  1.60000000E+01  0.00000000E+00
  5.60000000E+02  1.40000000E+01  0.00000000E+00
  5.60000000E+02  1.20000000E+01  0.00000000E+00
  5.60000000E+02  1.00000000E+01  0.00000000E+00
  5.60000000E+02  8.00000000E+00  0.00000000E+00
  5.60000000E+02  6.00000000E+00  0.00000000E+00
  5.60000000E+02  4.00000000E+00  0.00000000E+00
  5.60000000E+02  2.00000000E+00  0.00000000E+00
  5.60000000E+02 -3.33066907E-14  0.00000000E+00
  5.70000000E+02  1.00000000E+02  0.00000000E+00
  5.70000000E+02  9.80000000E+01  0.00000000E+00
  5.70000000E+02  9.60000000E+01  0.00000000E+00
  5.70000000E+02  9.40000000E+01  0.00000000E+00
  5.70000000E+02  9.20000000E+01  0.00000000E+00
  5.70000000E+02  9.00000000E+01  0.00000000E+00
  5.70000000E+02  8.80000000E+01  0.00000000E+00
  5.70000000E+02  8.60000000E+01  0.00000000E+00
  5.70000000E+02  8.40000000E+01  0.00000000E+00
  5.70000000E+02  8.20000000E+01  0.00000000E+00
  5.70000000E+02  8.00000000E+01  0.00000000E+00
  5.70000000E+02  7.80000000E+01  0.00000000E+00
  5.70000000E+02  7.60000000E+01  0.00000000E+00
  5.70000000E+02  7.40000000E+01  0.00000000E+00
  5.70000000E+02  7.20000000E+01  0.00000000E+00
  5.70000000E+02  7.00000000E+01  0.00000000E+00
  5.70000000E+02  6.80000000E+01  0.00000000E+00
  5.70000000E+02  6.60000000E+01  0.00000000E+00
  5.70000000E+02  6.40000000E+01  0.00000000E+00
  5.70000000E+02  6.20000000E+01  0.00000000E+00
  5.70000000E+02  6.00000000E+01  0.00000000E+00
  5.70000000E+02  5.80000000E+01  0.00000000E+00
  5.70000000E+02  5.60000000E+01  0.00000000E+00
  5.70000000E+02  5.40000000E+01  0.00000000E+00
  5.70000000E+02  5.20000000E+01  0.00000000E+00
  5.70000000E+02  5.00000000E+01  0.00000000E+00
  5.70000000E+02  4.80000000E+01  0.00000000E+00
  5.70000000E+02  4.60000000E+01  0.00000000E+00
  5.70000000E+02  4.40000000E+01  0.00000000E+00
  5.70000000E+02  4.20000000E+01  0.00000000E+00
  5.70000000E+02  4.00000000E+01  0.00000000E+00
  5.70000000E+02  3.80000000E+01  0.00000000E+00
  5.70000000E+02  3.60000000E+01  0.00000000E+00
  5.70000000E+02  3.40000000E+01  0.00000000E+00
  5.70000000E+02  3.20000000E+01  0.00000000E+00
  5.70000000E+02  3.00000000E+01  0.00000000E+00
  5.70000000E+02  2.80000000E+01  0.00000000E+00
  5.70000000E+02  2.60000000E+01  0.00000000E+00
  5.70000000E+02  2.40000000E+01  0.00000000E+00
  5.70000000E+02  2.20000000E+01  0.00000000E+00
  5.70000000E+02  2.00000000E+01  0.00000000E+00
  5.70000000E+02  1.80000000E+01  0.00000000E+00
  5.70000000E+02  1.60000000E+01  0.00000000E+00
  5.70000000E+02  1.40000000E+01  0.00000000E+00
  5.70000000E+02  1.20000000E+01  0.00000000E+00
  5.70000000E+02  1.00000000E+01  0.00000000E+00
  5.70000000E+02  8.00000000E+00  0.00000000E+00
  5.70000000E+02  6.00000000E+00  0.00000000E+00
  5.70000000E+02  4.00000000E+00  0.00000000E+00
  5.70000000E+02  2.00000000E+00  0.00000000E+00
  5.70000000E+02 -3.33066907E-14  0.00000000E+00
  5.80000000E+02  1.00000000E+02  0.00000000E+00
  5.80000000E+02  9.80000000E+01  0.00000000E+00
  5.80000000E+02  9.60000000E+01  0.00000000E+00
  5.80000000E+02  9.40000000E+01  0.00000000E+00
  5.80000000E+02  9.20000000E+01  0.00000000E+00
  5.80000000E+02  9.00000000E+01  0.00000000E+00
  5.80000000E+02  8.80000000E+01  0.00000000E+00
  5.80000000E+02  8.60000000E+01  0.00000000E+00
  5.80000000E+02  8.40000000E+01  0.00000000E+00
  5.80000000E+02  8.20000000E+01  0.00000000E+00
  5.80000000E+02  8.00000000E+01  0.00000000E+00
  5.80000000E+02  7.80000000E+01  0.00000000E+00
  5.80000000E+02  7.60000000E+01  0.00000000E+00
  5.80000000E+02  7.40000000E+01  0.00000000E+00
  5.80000000E+02  7.20000000E+01  0.00000000E+00
  5.80000000E+02  7.00000000E+01  0.00000000E+00
  5.80000000E+02  6.80000000E+01  0.00000000E+00
  5.80000000E+02  6.60000000E+01  0.00000000E+00
  5.80000000E+02  6.40000000E+01  0.00000000E+00
  5.80000000E+02  6.20000000E+01  0.00000000E+00
  5.80000000E+02  6.00000000E+01  0.00000000E+00
  5.80000000E+02  5.80000000E+01  0.00000000E+00
  5.80000000E+02  5.60000000E+01  0.00000000E+00
  5.80000000E+02  5.40000000E+01  0.00000000E+00
  5.80000000E+02  5.20000000E+01  0.00000000E+00
  5.80000000E+02  5.00000000E+01  0.00000000E+00
  5.80000000E+02  4.80000000E+01  0.00000000E+00
  5.80000000E+02  4.60000000E+01  0.00000000E+00
  5.80000000E+02  4.40000000E+01  0.00000000E+00
  5.80000000E+02  4.20000000E+01  0.00000000E+00
  5.80000000E+02  4.00000000E+01  0.00000000E+00
  5.80000000E+02  3.80000000E+01  0.00000000E+00
  5.80000000E+02  3.60000000E+01  0.00000000E+00
  5.80000000E+02  3.40000000E+01  0.00000000E+00
  5.80000000E+02  3.20000000E+01  0.00000000E+00
  5.80000000E+02  3.00000000E+01  0.00000000E+00
  5.80000000E+02  2.80000000E+01  0.00000000E+00
  5.80000000E+02  2.60000000E+01  0.00000000E+00
  5.80000000E+02  2.40000000E+01  0.00000000E+00
  5.80000000E+02  2.20000000E+01  0.00000000E+00
  5.80000000E+02  2.00000000E+01  0.00000000E+00
  5.80000000E+02  1.80000000E+01  0.00000000E+00
  5.80000000E+02  1.60000000E+01  0.00000000E+00
  5.80000000E+02  1.40000000E+01  0.00000000E+00
  5.80000000E+02  1.20000000E+01  0.00000000E+00
  5.80000000E+02  1.00000000E+01  0.00000000E+00
  5.80000000E+02  8.00000000E+00  0.00000000E+00
  5.80000000E+02  6.00000000E+00  0.00000000E+00
  5.80000000E+02  4.00000000E+00  0.00000000E+00
  5.80000000E+02  2.00000000E+00  0.00000000E+00
  5.80000000E+02 -3.33066907E-14  0.00000000E+00
  5.90000000E+02  1.00000000E+02  0.00000000E+00
  5.90000000E+02  9.80000000E+01  0.00000000E+00
  5.90000000E+02  9.60000000E+01  0.00000000E+00
  5.90000000E+02  9.40000000E+01  0.00000000E+00
  5.90000000E+02  9.20000000E+01  0.00000000E+00
  5.90000000E+02  9.00000000E+01  0.00000000E+00
  5.90000000E+02  8.80000000E+01  0.00000000E+00
  5.90000000E+02  8.60000000E+01  0.00000000E+00
  5.90000000E+02  8.40000000E+01  0.00000000E+00
  5.90000000E+02  8.20000000E+01  0.00000000E+00
  5.90000000E+02  8.00000000E+01  0.00000000E+00
  5.90000000E+02  7.80000000E+01  0.00000000E+00
  5.90000000E+02  7.60000000E+01  0.00000000E+00
  5.90000000E+02  7.40000000E+01  0.00000000E+00
  5.90000000E+02  7.20000000E+01  0.00000000E+00
  5.90000000E+02  7.00000000E+01  0.00000000E+00
  5.90000000E+02  6.80000000E+01  0.00000000E+00
  5.90000000E+02  6.60000000E+01  0.00000000E+00
  5.90000000E+02  6.40000000E+01  0.00000000E+00
  5.90000000E+02  6.20000000E+01  0.00000000E+00
  5.90000000E+02  6.00000000E+01  0.00000000E+00
  5.90000000E+02  5.80000000E+01  0.00000000E+00
  5.90000000E+02  5.60000000E+01  0.00000000E+00
  5.90000000E+02  5.40000000E+01  0.00000000E+00
  5.90000000E+02  5.20000000E+01  0.00000000E+00
  5.90000000E+02  5.00000000E+01  0.00000000E+00
  5.90000000E+02  4.80000000E+01  0.00000000E+00
  5.90000000E+02  4.60000000E+01  0.00000000E+00
  5.90000000E+02  4.40000000E+01  0.00000000E+00
  5.90000000E+02  4.20000000E+01  0.00000000E+00
  5.90000000E+02  4.00000000E+01  0.00000000E+00
  5.90000000E+02  3.80000000E+01  0.00000000E+00
  5.90000000E+02  3.60000000E+01  0.00000000E+00
  5.90000000E+02  3.40000000E+01  0.00000000E+00
  5.90000000E+02  3.20000000E+01  0.00000000E+00
  5.90000000E+02  3.00000000E+01  0.00000000E+00
  5.90000000E+02  2.80000000E+01  0.00000000E+00
  5.90000000E+02  2.60000000E+01  0.00000000E+00
  5.90000000E+02  2.40000000E+01  0.00000000E+00
  5.90000000E+02  2.20000000E+01  0.00000000E+00
  5.90000000E+02  2.00000000E+01  0.00000000E+00
  5.90000000E+02  1.80000000E+01  0.00000000E+00
  5.90000000E+02  1.60000000E+01  0.00000000E+00
  5.90000000E+02  1.40000000E+01  0.00000000E+00
  5.90000000E+02  1.20000000E+01  0.00000000E+00
  5.90000000E+02  1.00000000E+01  0.00000000E+00
  5.90000000E+02  8.00000000E+00  0.00000000E+00
  5.90000000E+02  6.00000000E+00  0.00000000E+00
  5.90000000E+02  4.00000000E+00  0.00000000E+00
  5.90000000E+02  2.00000000E+00  0.00000000E+00
  5.90000000E+02 -3.33066907E-14  0.00000000E+00
  6.00000000E+02  1.00000000E+02  0.00000000E+00
  6.00000000E+02  9.80000000E+01  0.00000000E+00
  6.00000000E+02  9.60000000E+01  0.00000000E+00
  6.00000000E+02  9.40000000E+01  0.00000000E+00
  6.00000000E+02  9.20000000E+01  0.00000000E+00
  6.00000000E+02  9.00000000E+01  0.00000000E+00
  6.00000000E+02  8.80000000E+01  0.00000000E+00
  6.00000000E+02  8.60000000E+01  0.00000000E+00
  6.00000000E+02  8.40000000E+01  0.00000000E+00
  6.00000000E+02  8.20000000E+01  0.00000000E+00
  6.00000000E+02  8.00000000E+01  0.00000000E+00
  6.00000000E+02  7.80000000E+01  0.00000000E+00
  6.00000000E+02  7.60000000E+01  0.00000000E+00
  6.00000000E+02  7.40000000E+01  0.00000000E+00
  6.00000000E+02  7.20000000E+01  0.00000000E+00
  6.00000000E+02  7.00000000E+01  0.00000000E+00
  6.00000000E+02  6.80000000E+01  0.00000000E+00
  6.00000000E+02  6.60000000E+01  0.00000000E+00
  6.00000000E+02  6.40000000E+01  0.00000000E+00
  6.00000000E+02  6.20000000E+01  0.00000000E+00
  6.00000000E+02  6.00000000E+01  0.00000000E+00
  6.00000000E+02  5.80000000E+01  0.00000000E+00
  6.00000000E+02  5.60000000E+01  0.00000000E+00
  6.00000000E+02  5.40000000E+01  0.00000000E+00
  6.00000000E+02  5.20000000E+01  0.00000000E+00
  6.00000000E+02  5.00000000E+01  0.00000000E+00
  6.00000000E+02  4.80000000E+01  0.00000000E+00
  6.00000000E+02  4.60000000E+01  0.00000000E+00
  6.00000000E+02  4.40000000E+01  0.00000000E+00
  6.00000000E+02  4.20000000E+01  0.00000000E+00
  6.00000000E+02  4.00000000E+01  0.00000000E+00
  6.00000000E+02  3.80000000E+01  0.00000000E+00
  6.00000000E+02  3.60000000E+01  0.00000000E+00
  6.00000000E+02  3.40000000E+01  0.00000000E+00
  6.00000000E+02  3.20000000E+01  0.00000000E+00
  6.00000000E+02  3.00000000E+01  0.00000000E+00
  6.00000000E+02  2.80000000E+01  0.00000000E+00
  6.00000000E+02  2.60000000E+01  0.00000000E+00
  6.00000000E+02  2.40000000E+01  0.00000000E+00
  6.00000000E+02  2.20000000E+01  0.00000000E+00
  6.00000000E+02  2.00000000E+01  0.00000000E+00
  6.00000000E+02  1.80000000E+01  0.00000000E+00
  6.00000000E+02  1.60000000E+01  0.00000000E+00
  6.00000000E+02  1.40000000E+01  0.00000000E+00
  6.00000000E+02  1.20000000E+01  0.00000000E+00
  6.00000000E+02  1.00000000E+01  0.00000000E+00
  6.00000000E+02  8.00000000E+00  0.00000000E+00
  6.00000000E+02  6.00000000E+00  0.00000000E+00
  6.00000000E+02  4.00000000E+00  0.00000000E+00
  6.00000000E+02  2.00000000E+00  0.00000000E+00
  6.00000000E+02 -3.33066907E-14  0.00000000E+00
  6.10000000E+02  1.00000000E+02  0.00000000E+00
  6.10000000E+02  9.80000000E+01  0.00000000E+00
  6.10000000E+02  9.60000000E+01  0.00000000E+00
  6.10000000E+02  9.40000000E+01  0.00000000E+00
  6.10000000E+02  9.20000000E+01  0.00000000E+00
  6.10000000E+02  9.00000000E+01  0.00000000E+00
  6.10000000E+02  8.80000000E+01  0.00000000E+00
  6.10000000E+02  8.60000000E+01  0.00000000E+00
  6.10000000E+02  8.40000000E+01  0.00000000E+00
  6.10000000E+02  8.20000000E+01  0.00000000E+00
  6.10000000E+02  8.00000000E+01  0.00000000E+00
  6.10000000E+02  7.80000000E+01  0.00000000E+00
  6.10000000E+02  7.60000000E+01  0.00000000E+00
  6.10000000E+02  7.40000000E+01  0.00000000E+00
  6.10000000E+02  7.20000000E+01  0.00000000E+00
  6.10000000E+02  7.00000000E+01  0.00000000E+00
  6.10000000E+02  6.80000000E+01  0.00000000E+00
  6.10000000E+02  6.60000000E+01  0.00000000E+00
  6.10000000E+02  6.40000000E+01  0.00000000E+00
  6.10000000E+02  6.20000000E+01  0.00000000E+00
  6.10000000E+02  6.00000000E+01  0.00000000E+00
  6.10000000E+02  5.80000000E+01  0.00000000E+00
  6.10000000E+02  5.60000000E+01  0.00000000E+00
  6.10000000E+02  5.40000000E+01  0.00000000E+00
  6.10000000E+02  5.20000000E+01  0.00000000E+00
  6.10000000E+02  5.00000000E+01  0.00000000E+00
  6.10000000E+02  4.80000000E+01  0.00000000E+00
  6.10000000E+02  4.60000000E+01  0.00000000E+00
  6.10000000E+02  4.40000000E+01  0.00000000E+00
  6.10000000E+02  4.20000000E+01  0.00000000E+00
  6.10000000E+02  4.00000000E+01  0.00000000E+00
  6.10000000E+02  3.80000000E+01  0.00000000E+00
  6.10000000E+02  3.60000000E+01  0.00000000E+00
  6.10000000E+02  3.40000000E+01  0.00000000E+00
  6.10000000E+02  3.20000000E+01  0.00000000E+00
  6.10000000E+02  3.00000000E+01  0.00000000E+00
  6.10000000E+02  2.80000000E+01  0.00000000E+00
  6.10000000E+02  2.60000000E+01  0.00000000E+00
  6.10000000E+02  2.40000000E+01  0.00000000E+00
  6.10000000E+02  2.20000000E+01  0.00000000E+00
  6.10000000E+02  2.00000000E+01  0.00000000E+00
  6.10000000E+02  1.80000000E+01  0.00000000E+00
  6.10000000E+02  1.60000000E+01  0.00000000E+00
  6.10000000E+02  1.40000000E+01  0.00000000E+00
  6.10000000E+02  1.20000000E+01  0.00000000E+00
  6.10000000E+02  1.00000000E+01  0.00000000E+00
  6.10000000E+02  8.00000000E+00  0.00000000E+00
  6.10000000E+02  6.00000000E+00  0.00000000E+00
  6.10000000E+02  4.00000000E+00  0.00000000E+00
  6.10000000E+02  2.00000000E+00  0.00000000E+00
  6.10000000E+02 -3.33066907E-14  0.00000000E+00
  6.20000000E+02  1.00000000E+02  0.00000000E+00
  6.20000000E+02  9.80000000E+01  0.00000000E+00
  6.20000000E+02  9.60000000E+01  0.00000000E+00
  6.20000000E+02  9.40000000E+01  0.00000000E+00
  6.20000000E+02  9.20000000E+01  0.00000000E+00
  6.20000000E+02  9.00000000E+01  0.00000000E+00
  6.20000000E+02  8.80000000E+01  0.00000000E+00
  6.20000000E+02  8.60000000E+01  0.00000000E+00
  6.20000000E+02  8.40000000E+01  0.00000000E+00
  6.20000000E+02  8.20000000E+01  0.00000000E+00
  6.20000000E+02  8.00000000E+01  0.00000000E+00
  6.20000000E+02  7.80000000E+01  0.00000000E+00
  6.20000000E+02  7.60000000E+01  0.00000000E+00
  6.20000000E+02  7.40000000E+01  0.00000000E+00
  6.20000000E+02  7.20000000E+01  0.00000000E+00
  6.20000000E+02  7.00000000E+01  0.00000000E+00
  6.20000000E+02  6.80000000E+01  0.00000000E+00
  6.20000000E+02  6.60000000E+01  0.00000000E+00
  6.20000000E+02  6.40000000E+01  0.00000000E+00
  6.20000000E+02  6.20000000E+01  0.00000000E+00
  6.20000000E+02  6.00000000E+01  0.00000000E+00
  6.20000000E+02  5.80000000E+01  0.00000000E+00
  6.20000000E+02  5.60000000E+01  0.00000000E+00
  6.20000000E+02  5.40000000E+01  0.00000000E+00
  6.20000000E+02  5.20000000E+01  0.00000000E+00
  6.20000000E+02  5.00000000E+01  0.00000000E+00
  6.20000000E+02  4.80000000E+01  0.00000000E+00
  6.20000000E+02  4.60000000E+01  0.00000000E+00
  6.20000000E+02  4.40000000E+01  0.00000000E+00
  6.20000000E+02  4.20000000E+01  0.00000000E+00
  6.20000000E+02  4.00000000E+01  0.00000000E+00
  6.20000000E+02  3.80000000E+01  0.00000000E+00
  6.20000000E+02  3.60000000E+01  0.00000000E+00
  6.20000000E+02  3.40000000E+01  0.00000000E+00
  6.20000000E+02  3.20000000E+01  0.00000000E+00
  6.20000000E+02  3.00000000E+01  0.00000000E+00
  6.20000000E+02  2.80000000E+01  0.00000000E+00
  6.20000000E+02  2.60000000E+01  0.00000000E+00
  6.20000000E+02  2.40000000E+01  0.00000000E+00
  6.20000000E+02  2.20000000E+01  0.00000000E+00
  6.20000000E+02  2.00000000E+01  0.00000000E+00
  6.20000000E+02  1.80000000E+01  0.00000000E+00
  6.20000000E+02  1.60000000E+01  0.00000000E+00
  6.20000000E+02  1.40000000E+01  0.00000000E+00
  6.20000000E+02  1.20000000E+01  0.00000000E+00
  6.20000000E+02  1.00000000E+01  0.00000000E+00
  6.20000000E+02  8.00000000E+00  0.00000000E+00
  6.20000000E+02  6.00000000E+00  0.00000000E+00
  6.20000000E+02  4.00000000E+00  0.00000000E+00
  6.20000000E+02  2.00000000E+00  0.00000000E+00
  6.20000000E+02 -3.33066907E-14  0.00000000E+00
  6.30000000E+02  1.00000000E+02  0.00000000E+00
  6.30000000E+02  9.80000000E+01  0.00000000E+00
  6.30000000E+02  9.60000000E+01  0.00000000E+00
  6.30000000E+02  9.40000000E+01  0.00000000E+00
  6.30000000E+02  9.20000000E+01  0.00000000E+00
  6.30000000E+02  9.00000000E+01  0.00000000E+00
  6.30000000E+02  8.80000000E+01  0.00000000E+00
  6.30000000E+02  8.60000000E+01  0.00000000E+00
  6.30000000E+02  8.40000000E+01  0.00000000E+00
  6.30000000E+02  8.20000000E+01  0.00000000E+00
  6.30000000E+02  8.00000000E+01  0.00000000E+00
  6.30000000E+02  7.80000000E+01  0.00000000E+00
  6.30000000E+02  7.60000000E+01  0.00000000E+00
  6.30000000E+02  7.40000000E+01  0.00000000E+00
  6.30000000E+02  7.20000000E+01  0.00000000E+00
  6.30000000E+02  7.00000000E+01  0.00000000E+00
  6.30000000E+02  6.80000000E+01  0.00000000E+00
  6.30000000E+02  6.60000000E+01  0.00000000E+00
  6.30000000E+02  6.40000000E+01  0.00000000E+00
  6.30000000E+02  6.20000000E+01  0.00000000E+00
  6.30000000E+02  6.00000000E+01  0.00000000E+00
  6.30000000E+02  5.80000000E+01  0.00000000E+00
  6.30000000E+02  5.60000000E+01  0.00000000E+00
  6.30000000E+02  5.40000000E+01  0.00000000E+00
  6.30000000E+02  5.20000000E+01  0.00000000E+00
  6.30000000E+02  5.00000000E+01  0.00000000E+00
  6.30000000E+02  4.80000000E+01  0.00000000E+00
  6.30000000E+02  4.60000000E+01  0.00000000E+00
  6.30000000E+02  4.40000000E+01  0.00000000E+00
  6.30000000E+02  4.20000000E+01  0.00000000E+00
  6.30000000E+02  4.00000000E+01  0.00000000E+00
  6.30000000E+02  3.80000000E+01  0.00000000E+00
  6.30000000E+02  3.60000000E+01  0.00000000E+00
  6.30000000E+02  3.40000000E+01  0.00000000E+00
  6.30000000E+02  3.20000000E+01  0.00000000E+00
  6.30000000E+02  3.00000000E+01  0.00000000E+00
  6.30000000E+02  2.80000000E+01  0.00000000E+00
  6.30000000E+02  2.60000000E+01  0.00000000E+00
  6.30000000E+02  2.40000000E+01  0.00000000E+00
  6.30000000E+02  2.20000000E+01  0.00000000E+00
  6.30000000E+02  2.00000000E+01  0.00000000E+00
  6.30000000E+02  1.80000000E+01  0.00000000E+00
  6.30000000E+02  1.60000000E+01  0.00000000E+00
  6.30000000E+02  1.40000000E+01  0.00000000E+00
  6.30000000E+02  1.20000000E+01  0.00000000E+00
  6.30000000E+02  1.00000000E+01  0.00000000E+00
  6.30000000E+02  8.00000000E+00  0.00000000E+00
  6.30000000E+02  6.00000000E+00  0.00000000E+00
  6.30000000E+02  4.00000000E+00  0.00000000E+00
  6.30000000E+02  2.00000000E+00  0.00000000E+00
  6.30000000E+02 -3.33066907E-14  0.00000000E+00
  6.40000000E+02  1.00000000E+02  0.00000000E+00
  6.40000000E+02  9.80000000E+01  0.00000000E+00
  6.40000000E+02  9.60000000E+01  0.00000000E+00
  6.40000000E+02  9.40000000E+01  0.00000000E+00
  6.40000000E+02  9.20000000E+01  0.00000000E+00
  6.40000000E+02  9.00000000E+01  0.00000000E+00
  6.40000000E+02  8.80000000E+01  0.00000000E+00
  6.40000000E+02  8.60000000E+01  0.00000000E+00
  6.40000000E+02  8.40000000E+01  0.00000000E+00
  6.40000000E+02  8.20000000E+01  0.00000000E+00
  6.40000000E+02  8.00000000E+01  0.00000000E+00
  6.40000000E+02  7.80000000E+01  0.00000000E+00
  6.40000000E+02  7.60000000E+01  0.00000000E+00
  6.40000000E+02  7.40000000E+01  0.00000000E+00
  6.40000000E+02  7.20000000E+01  0.00000000E+00
  6.40000000E+02  7.00000000E+01  0.00000000E+00
  6.40000000E+02  6.80000000E+01  0.00000000E+00
  6.40000000E+02  6.60000000E+01  0.00000000E+00
  6.40000000E+02  6.40000000E+01  0.00000000E+00
  6.40000000E+02  6.20000000E+01  0.00000000E+00
  6.40000000E+02  6.00000000E+01  0.00000000E+00
  6.40000000E+02  5.80000000E+01  0.00000000E+00
  6.40000000E+02  5.60000000E+01  0.00000000E+00
  6.40000000E+02  5.40000000E+01  0.00000000E+00
  6.40000000E+02  5.20000000E+01  0.00000000E+00
  6.40000000E+02  5.00000000E+01  0.00000000E+00
  6.40000000E+02  4.80000000E+01  0.00000000E+00
  6.40000000E+02  4.60000000E+01  0.00000000E+00
  6.40000000E+02  4.40000000E+01  0.00000000E+00
  6.40000000E+02  4.20000000E+01  0.00000000E+00
  6.40000000E+02  4.00000000E+01  0.00000000E+00
  6.40000000E+02  3.80000000E+01  0.00000000E+00
  6.40000000E+02  3.60000000E+01  0.00000000E+00
  6.40000000E+02  3.40000000E+01  0.00000000E+00
  6.40000000E+02  3.20000000E+01  0.00000000E+00
  6.40000000E+02  3.00000000E+01  0.00000000E+00
  6.40000000E+02  2.80000000E+01  0.00000000E+00
  6.40000000E+02  2.60000000E+01  0.00000000E+00
  6.40000000E+02  2.40000000E+01  0.00000000E+00
  6.40000000E+02  2.20000000E+01  0.00000000E+00
  6.40000000E+02  2.00000000E+01  0.00000000E+00
  6.40000000E+02  1.80000000E+01  0.00000000E+00
  6.40000000E+02  1.60000000E+01  0.00000000E+00
  6.40000000E+02  1.40000000E+01  0.00000000E+00
  6.40000000E+02  1.20000000E+01  0.00000000E+00
  6.40000000E+02  1.00000000E+01  0.00000000E+00
  6.40000000E+02  8.00000000E+00  0.00000000E+00
  6.40000000E+02  6.00000000E+00  0.00000000E+00
  6.40000000E+02  4.00000000E+00  0.00000000E+00
  6.40000000E+02  2.00000000E+00  0.00000000E+00
  6.40000000E+02 -3.33066907E-14  0.00000000E+00
  6.50000000E+02  1.00000000E+02  0.00000000E+00
  6.50000000E+02  9.80000000E+01  0.00000000E+00
  6.50000000E+02  9.60000000E+01  0.00000000E+00
  6.50000000E+02  9.40000000E+01  0.00000000E+00
  6.50000000E+02  9.20000000E+01  0.00000000E+00
  6.50000000E+02  9.00000000E+01  0.00000000E+00
  6.50000000E+02  8.80000000E+01  0.00000000E+00
  6.50000000E+02  8.60000000E+01  0.00000000E+00
  6.50000000E+02  8.40000000E+01  0.00000000E+00
  6.50000000E+02  8.20000000E+01  0.00000000E+00
  6.50000000E+02  8.00000000E+01  0.00000000E+00
  6.50000000E+02  7.80000000E+01  0.00000000E+00
  6.50000000E+02  7.60000000E+01  0.00000000E+00
  6.50000000E+02  7.40000000E+01  0.00000000E+00
  6.50000000E+02  7.20000000E+01  0.00000000E+00
  6.50000000E+02  7.00000000E+01  0.00000000E+00
  6.50000000E+02  6.80000000E+01  0.00000000E+00
  6.50000000E+02  6.60000000E+01  0.00000000E+00
  6.50000000E+02  6.40000000E+01  0.00000000E+00
  6.50000000E+02  6.20000000E+01  0.00000000E+00
  6.50000000E+02  6.00000000E+01  0.00000000E+00
  6.50000000E+02  5.80000000E+01  0.00000000E+00
  6.50000000E+02  5.60000000E+01  0.00000000E+00
  6.50000000E+02  5.40000000E+01  0.00000000E+00
  6.50000000E+02  5.20000000E+01  0.00000000E+00
  6.50000000E+02  5.00000000E+01  0.00000000E+00
  6.50000000E+02  4.80000000E+01  0.00000000E+00
  6.50000000E+02  4.60000000E+01  0.00000000E+00
  6.50000000E+02  4.40000000E+01  0.00000000E+00
  6.50000000E+02  4.20000000E+01  0.00000000E+00
  6.50000000E+02  4.00000000E+01  0.00000000E+00
  6.50000000E+02  3.80000000E+01  0.00000000E+00
  6.50000000E+02  3.60000000E+01  0.00000000E+00
  6.50000000E+02  3.40000000E+01  0.00000000E+00
  6.50000000E+02  3.20000000E+01  0.00000000E+00
  6.50000000E+02  3.00000000E+01  0.00000000E+00
  6.50000000E+02  2.80000000E+01  0.00000000E+00
  6.50000000E+02  2.60000000E+01  0.00000000E+00
  6.50000000E+02  2.40000000E+01  0.00000000E+00
  6.50000000E+02  2.20000000E+01  0.00000000E+00
  6.50000000E+02  2.00000000E+01  0.00000000E+00
  6.50000000E+02  1.80000000E+01  0.00000000E+00
  6.50000000E+02  1.60000000E+01  0.00000000E+00
  6.50000000E+02  1.40000000E+01  0.00000000E+00
  6.50000000E+02  1.20000000E+01  0.00000000E+00
  6.50000000E+02  1.00000000E+01  0.00000000E+00
  6.50000000E+02  8.00000000E+00  0.00000000E+00
  6.50000000E+02  6.00000000E+00  0.00000000E+00
  6.50000000E+02  4.00000000E+00  0.00000000E+00
  6.50000000E+02  2.00000000E+00  0.00000000E+00
  6.50000000E+02 -3.33066907E-14  0.00000000E+00
  6.60000000E+02  1.00000000E+02  0.00000000E+00
  6.60000000E+02  9.80000000E+01  0.00000000E+00
  6.60000000E+02  9.60000000E+01  0.00000000E+00
  6.60000000E+02  9.40000000E+01  0.00000000E+00
  6.60000000E+02  9.20000000E+01  0.00000000E+00
  6.60000000E+02  9.00000000E+01  0.00000000E+00
  6.60000000E+02  8.80000000E+01  0.00000000E+00
  6.60000000E+02  8.60000000E+01  0.00000000E+00
  6.60000000E+02  8.40000000E+01  0.00000000E+00
  6.60000000E+02  8.20000000E+01  0.00000000E+00
  6.60000000E+02  8.00000000E+01  0.00000000E+00
  6.60000000E+02  7.80000000E+01  0.00000000E+00
  6.60000000E+02  7.60000000E+01  0.00000000E+00
  6.60000000E+02  7.40000000E+01  0.00000000E+00
  6.60000000E+02  7.20000000E+01  0.00000000E+00
  6.60000000E+02  7.00000000E+01  0.00000000E+00
  6.60000000E+02  6.80000000E+01  0.00000000E+00
  6.60000000E+02  6.60000000E+01  0.00000000E+00
  6.60000000E+02  6.40000000E+01  0.00000000E+00
  6.60000000E+02  6.20000000E+01  0.00000000E+00
  6.60000000E+02  6.00000000E+01  0.00000000E+00
  6.60000000E+02  5.80000000E+01  0.00000000E+00
  6.60000000E+02  5.60000000E+01  0.00000000E+00
  6.60000000E+02  5.40000000E+01  0.00000000E+00
  6.60000000E+02  5.20000000E+01  0.00000000E+00
  6.60000000E+02  5.00000000E+01  0.00000000E+00
  6.60000000E+02  4.80000000E+01  0.00000000E+00
  6.60000000E+02  4.60000000E+01  0.00000000E+00
  6.60000000E+02  4.40000000E+01  0.00000000E+00
  6.60000000E+02  4.20000000E+01  0.00000000E+00
  6.60000000E+02  4.00000000E+01  0.00000000E+00
  6.60000000E+02  3.80000000E+01  0.00000000E+00
  6.60000000E+02  3.60000000E+01  0.00000000E+00
  6.60000000E+02  3.40000000E+01  0.00000000E+00
  6.60000000E+02  3.20000000E+01  0.00000000E+00
  6.60000000E+02  3.00000000E+01  0.00000000E+00
  6.60000000E+02  2.80000000E+01  0.00000000E+00
  6.60000000E+02  2.60000000E+01  0.00000000E+00
  6.60000000E+02  2.40000000E+01  0.00000000E+00
  6.60000000E+02  2.20000000E+01  0.00000000E+00
  6.60000000E+02  2.00000000E+01  0.00000000E+00
  6.60000000E+02  1.80000000E+01  0.00000000E+00
  6.60000000E+02  1.60000000E+01  0.00000000E+00
  6.60000000E+02  1.40000000E+01  0.00000000E+00
  6.60000000E+02  1.20000000E+01  0.00000000E+00
  6.60000000E+02  1.00000000E+01  0.00000000E+00
  6.60000000E+02  8.00000000E+00  0.00000000E+00
  6.60000000E+02  6.00000000E+00  0.00000000E+00
  6.60000000E+02  4.00000000E+00  0.00000000E+00
  6.60000000E+02  2.00000000E+00  0.00000000E+00
  6.60000000E+02 -3.33066907E-14  0.00000000E+00
  6.70000000E+02  1.00000000E+02  0.00000000E+00
  6.70000000E+02  9.80000000E+01  0.00000000E+00
  6.70000000E+02  9.60000000E+01  0.00000000E+00
  6.70000000E+02  9.40000000E+01  0.00000000E+00
  6.70000000E+02  9.20000000E+01  0.00000000E+00
  6.70000000E+02  9.00000000E+01  0.00000000E+00
  6.70000000E+02  8.80000000E+01  0.00000000E+00
  6.70000000E+02  8.60000000E+01  0.00000000E+00
  6.70000000E+02  8.40000000E+01  0.00000000E+00
  6.70000000E+02  8.20000000E+01  0.00000000E+00
  6.70000000E+02  8.00000000E+01  0.00000000E+00
  6.70000000E+02  7.80000000E+01  0.00000000E+00
  6.70000000E+02  7.60000000E+01  0.00000000E+00
  6.70000000E+02  7.40000000E+01  0.00000000E+00
  6.70000000E+02  7.20000000E+01  0.00000000E+00
  6.70000000E+02  7.00000000E+01  0.00000000E+00
  6.70000000E+02  6.80000000E+01  0.00000000E+00
  6.70000000E+02  6.60000000E+01  0.00000000E+00
  6.70000000E+02  6.40000000E+01  0.00000000E+00
  6.70000000E+02  6.20000000E+01  0.00000000E+00
  6.70000000E+02  6.00000000E+01  0.00000000E+00
  6.70000000E+02  5.80000000E+01  0.00000000E+00
  6.70000000E+02  5.60000000E+01  0.00000000E+00
  6.70000000E+02  5.40000000E+01  0.00000000E+00
  6.70000000E+02  5.20000000E+01  0.00000000E+00
  6.70000000E+02  5.00000000E+01  0.00000000E+00
  6.70000000E+02  4.80000000E+01  0.00000000E+00
  6.70000000E+02  4.60000000E+01  0.00000000E+00
  6.70000000E+02  4.40000000E+01  0.00000000E+00
  6.70000000E+02  4.20000000E+01  0.00000000E+00
  6.70000000E+02  4.00000000E+01  0.00000000E+00
  6.70000000E+02  3.80000000E+01  0.00000000E+00
  6.70000000E+02  3.60000000E+01  0.00000000E+00
  6.70000000E+02  3.40000000E+01  0.00000000E+00
  6.70000000E+02  3.20000000E+01  0.00000000E+00
  6.70000000E+02  3.00000000E+01  0.00000000E+00
  6.70000000E+02  2.80000000E+01  0.00000000E+00
  6.70000000E+02  2.60000000E+01  0.00000000E+00
  6.70000000E+02  2.40000000E+01  0.00000000E+00
  6.70000000E+02  2.20000000E+01  0.00000000E+00
  6.70000000E+02  2.00000000E+01  0.00000000E+00
  6.70000000E+02  1.80000000E+01  0.00000000E+00
  6.70000000E+02  1.60000000E+01  0.00000000E+00
  6.70000000E+02  1.40000000E+01  0.00000000E+00
  6.70000000E+02  1.20000000E+01  0.00000000E+00
  6.70000000E+02  1.00000000E+01  0.00000000E+00
  6.70000000E+02  8.00000000E+00  0.00000000E+00
  6.70000000E+02  6.00000000E+00  0.00000000E+00
  6.70000000E+02  4.00000000E+00  0.00000000E+00
  6.70000000E+02  2.00000000E+00  0.00000000E+00
  6.70000000E+02 -3.33066907E-14  0.00000000E+00
  6.80000000E+02  1.00000000E+02  0.00000000E+00
  6.80000000E+02  9.80000000E+01  0.00000000E+00
  6.80000000E+02  9.60000000E+01  0.00000000E+00
  6.80000000E+02  9.40000000E+01  0.00000000E+00
  6.80000000E+02  9.20000000E+01  0.00000000E+00
  6.80000000E+02  9.00000000E+01  0.00000000E+00
  6.80000000E+02  8.80000000E+01  0.00000000E+00
  6.80000000E+02  8.60000000E+01  0.00000000E+00
  6.80000000E+02  8.40000000E+01  0.00000000E+00
  6.80000000E+02  8.20000000E+01  0.00000000E+00
  6.80000000E+02  8.00000000E+01  0.00000000E+00
  6.80000000E+02  7.80000000E+01  0.00000000E+00
  6.80000000E+02  7.60000000E+01  0.00000000E+00
  6.80000000E+02  7.40000000E+01  0.00000000E+00
  6.80000000E+02  7.20000000E+01  0.00000000E+00
  6.80000000E+02  7.00000000E+01  0.00000000E+00
  6.80000000E+02  6.80000000E+01  0.00000000E+00
  6.80000000E+02  6.60000000E+01  0.00000000E+00
  6.80000000E+02  6.40000000E+01  0.00000000E+00
  6.80000000E+02  6.20000000E+01  0.00000000E+00
  6.80000000E+02  6.00000000E+01  0.00000000E+00
  6.80000000E+02  5.80000000E+01  0.00000000E+00
  6.80000000E+02  5.60000000E+01  0.00000000E+00
  6.80000000E+02  5.40000000E+01  0.00000000E+00
  6.80000000E+02  5.20000000E+01  0.00000000E+00
  6.80000000E+02  5.00000000E+01  0.00000000E+00
  6.80000000E+02  4.80000000E+01  0.00000000E+00
  6.80000000E+02  4.60000000E+01  0.00000000E+00
  6.80000000E+02  4.40000000E+01  0.00000000E+00
  6.80000000E+02  4.20000000E+01  0.00000000E+00
  6.80000000E+02  4.00000000E+01  0.00000000E+00
  6.80000000E+02  3.80000000E+01  0.00000000E+00
  6.80000000E+02  3.60000000E+01  0.00000000E+00
  6.80000000E+02  3.40000000E+01  0.00000000E+00
  6.80000000E+02  3.20000000E+01  0.00000000E+00
  6.80000000E+02  3.00000000E+01  0.00000000E+00
  6.80000000E+02  2.80000000E+01  0.00000000E+00
  6.80000000E+02  2.60000000E+01  0.00000000E+00
  6.80000000E+02  2.40000000E+01  0.00000000E+00
  6.80000000E+02  2.20000000E+01  0.00000000E+00
  6.80000000E+02  2.00000000E+01  0.00000000E+00
  6.80000000E+02  1.80000000E+01  0.00000000E+00
  6.80000000E+02  1.60000000E+01  0.00000000E+00
  6.80000000E+02  1.40000000E+01  0.00000000E+00
  6.80000000E+02  1.20000000E+01  0.00000000E+00
  6.80000000E+02  1.00000000E+01  0.00000000E+00
  6.80000000E+02  8.00000000E+00  0.00000000E+00
  6.80000000E+02  6.00000000E+00  0.00000000E+00
  6.80000000E+02  4.00000000E+00  0.00000000E+00
  6.80000000E+02  2.00000000E+00  0.00000000E+00
  6.80000000E+02 -3.33066907E-14  0.00000000E+00
  6.90000000E+02  1.00000000E+02  0.00000000E+00
  6.90000000E+02  9.80000000E+01  0.00000000E+00
  6.90000000E+02  9.60000000E+01  0.00000000E+00
  6.90000000E+02  9.40000000E+01  0.00000000E+00
  6.90000000E+02  9.20000000E+01  0.00000000E+00
  6.90000000E+02  9.00000000E+01  0.00000000E+00
  6.90000000E+02  8.80000000E+01  0.00000000E+00
  6.90000000E+02  8.60000000E+01  0.00000000E+00
  6.90000000E+02  8.40000000E+01  0.00000000E+00
  6.90000000E+02  8.20000000E+01  0.00000000E+00
  6.90000000E+02  8.00000000E+01  0.00000000E+00
  6.90000000E+02  7.80000000E+01  0.00000000E+00
  6.90000000E+02  7.60000000E+01  0.00000000E+00
  6.90000000E+02  7.40000000E+01  0.00000000E+00
  6.90000000E+02  7.20000000E+01  0.00000000E+00
  6.90000000E+02  7.00000000E+01  0.00000000E+00
  6.90000000E+02  6.80000000E+01  0.00000000E+00
  6.90000000E+02  6.60000000E+01  0.00000000E+00
  6.90000000E+02  6.40000000E+01  0.00000000E+00
  6.90000000E+02  6.20000000E+01  0.00000000E+00
  6.90000000E+02  6.00000000E+01  0.00000000E+00
  6.90000000E+02  5.80000000E+01  0.00000000E+00
  6.90000000E+02  5.60000000E+01  0.00000000E+00
  6.90000000E+02  5.40000000E+01  0.00000000E+00
  6.90000000E+02  5.20000000E+01  0.00000000E+00
  6.90000000E+02  5.00000000E+01  0.00000000E+00
  6.90000000E+02  4.80000000E+01  0.00000000E+00
  6.90000000E+02  4.60000000E+01  0.00000000E+00
  6.90000000E+02  4.40000000E+01  0.00000000E+00
  6.90000000E+02  4.20000000E+01  0.00000000E+00
  6.90000000E+02  4.00000000E+01  0.00000000E+00
  6.90000000E+02  3.80000000E+01  0.00000000E+00
  6.90000000E+02  3.60000000E+01  0.00000000E+00
  6.90000000E+02  3.40000000E+01  0.00000000E+00
  6.90000000E+02  3.20000000E+01  0.00000000E+00
  6.90000000E+02  3.00000000E+01  0.00000000E+00
  6.90000000E+02  2.80000000E+01  0.00000000E+00
  6.90000000E+02  2.60000000E+01  0.00000000E+00
  6.90000000E+02  2.40000000E+01  0.00000000E+00
  6.90000000E+02  2.20000000E+01  0.00000000E+00
  6.90000000E+02  2.00000000E+01  0.00000000E+00
  6.90000000E+02  1.80000000E+01  0.00000000E+00
  6.90000000E+02  1.60000000E+01  0.00000000E+00
  6.90000000E+02  1.40000000E+01  0.00000000E+00
  6.90000000E+02  1.20000000E+01  0.00000000E+00
  6.90000000E+02  1.00000000E+01  0.00000000E+00
  6.90000000E+02  8.00000000E+00  0.00000000E+00
  6.90000000E+02  6.00000000E+00  0.00000000E+00
  6.90000000E+02  4.00000000E+00  0.00000000E+00
  6.90000000E+02  2.00000000E+00  0.00000000E+00
  6.90000000E+02 -3.33066907E-14  0.00000000E+00
  7.00000000E+02  1.00000000E+02  0.00000000E+00
  7.00000000E+02  9.80000000E+01  0.00000000E+00
  7.00000000E+02  9.60000000E+01  0.00000000E+00
  7.00000000E+02  9.40000000E+01  0.00000000E+00
  7.00000000E+02  9.20000000E+01  0.00000000E+00
  7.00000000E+02  9.00000000E+01  0.00000000E+00
  7.00000000E+02  8.80000000E+01  0.00000000E+00
  7.00000000E+02  8.60000000E+01  0.00000000E+00
  7.00000000E+02  8.40000000E+01  0.00000000E+00
  7.00000000E+02  8.20000000E+01  0.00000000E+00
  7.00000000E+02  8.00000000E+01  0.00000000E+00
  7.00000000E+02  7.80000000E+01  0.00000000E+00
  7.00000000E+02  7.60000000E+01  0.00000000E+00
  7.00000000E+02  7.40000000E+01  0.00000000E+00
  7.00000000E+02  7.20000000E+01  0.00000000E+00
  7.00000000E+02  7.00000000E+01  0.00000000E+00
  7.00000000E+02  6.80000000E+01  0.00000000E+00
  7.00000000E+02  6.60000000E+01  0.00000000E+00
  7.00000000E+02  6.40000000E+01  0.00000000E+00
  7.00000000E+02  6.20000000E+01  0.00000000E+00
  7.00000000E+02  6.00000000E+01  0.00000000E+00
  7.00000000E+02  5.80000000E+01  0.00000000E+00
  7.00000000E+02  5.60000000E+01  0.00000000E+00
  7.00000000E+02  5.40000000E+01  0.00000000E+00
  7.00000000E+02  5.20000000E+01  0.00000000E+00
  7.00000000E+02  5.00000000E+01  0.00000000E+00
  7.00000000E+02  4.80000000E+01  0.00000000E+00
  7.00000000E+02  4.60000000E+01  0.00000000E+00
  7.00000000E+02  4.40000000E+01  0.00000000E+00
  7.00000000E+02  4.20000000E+01  0.00000000E+00
  7.00000000E+02  4.00000000E+01  0.00000000E+00
  7.00000000E+02  3.80000000E+01  0.00000000E+00
  7.00000000E+02  3.60000000E+01  0.00000000E+00
  7.00000000E+02  3.40000000E+01  0.00000000E+00
  7.00000000E+02  3.20000000E+01  0.00000000E+00
  7.00000000E+02  3.00000000E+01  0.00000000E+00
  7.00000000E+02  2.80000000E+01  0.00000000E+00
  7.00000000E+02  2.60000000E+01  0.00000000E+00
  7.00000000E+02  2.40000000E+01  0.00000000E+00
  7.00000000E+02  2.20000000E+01  0.00000000E+00
  7.00000000E+02  2.00000000E+01  0.00000000E+00
  7.00000000E+02  1.80000000E+01  0.00000000E+00
  7.00000000E+02  1.60000000E+01  0.00000000E+00
  7.00000000E+02  1.40000000E+01  0.00000000E+00
  7.00000000E+02  1.20000000E+01  0.00000000E+00
  7.00000000E+02  1.00000000E+01  0.00000000E+00
  7.00000000E+02  8.00000000E+00  0.00000000E+00
  7.00000000E+02  6.00000000E+00  0.00000000E+00
  7.00000000E+02  4.00000000E+00  0.00000000E+00
  7.00000000E+02  2.00000000E+00  0.00000000E+00
  7.00000000E+02 -3.33066907E-14  0.00000000E+00
  7.10000000E+02  1.00000000E+02  0.00000000E+00
  7.10000000E+02  9.80000000E+01  0.00000000E+00
  7.10000000E+02  9.60000000E+01  0.00000000E+00
  7.10000000E+02  9.40000000E+01  0.00000000E+00
  7.10000000E+02  9.20000000E+01  0.00000000E+00
  7.10000000E+02  9.00000000E+01  0.00000000E+00
  7.10000000E+02  8.80000000E+01  0.00000000E+00
  7.10000000E+02  8.60000000E+01  0.00000000E+00
  7.10000000E+02  8.40000000E+01  0.00000000E+00
  7.10000000E+02  8.20000000E+01  0.00000000E+00
  7.10000000E+02  8.00000000E+01  0.00000000E+00
  7.10000000E+02  7.80000000E+01  0.00000000E+00
  7.10000000E+02  7.60000000E+01  0.00000000E+00
  7.10000000E+02  7.40000000E+01  0.00000000E+00
  7.10000000E+02  7.20000000E+01  0.00000000E+00
  7.10000000E+02  7.00000000E+01  0.00000000E+00
  7.10000000E+02  6.80000000E+01  0.00000000E+00
  7.10000000E+02  6.60000000E+01  0.00000000E+00
  7.10000000E+02  6.40000000E+01  0.00000000E+00
  7.10000000E+02  6.20000000E+01  0.00000000E+00
  7.10000000E+02  6.00000000E+01  0.00000000E+00
  7.10000000E+02  5.80000000E+01  0.00000000E+00
  7.10000000E+02  5.60000000E+01  0.00000000E+00
  7.10000000E+02  5.40000000E+01  0.00000000E+00
  7.10000000E+02  5.20000000E+01  0.00000000E+00
  7.10000000E+02  5.00000000E+01  0.00000000E+00
  7.10000000E+02  4.80000000E+01  0.00000000E+00
  7.10000000E+02  4.60000000E+01  0.00000000E+00
  7.10000000E+02  4.40000000E+01  0.00000000E+00
  7.10000000E+02  4.20000000E+01  0.00000000E+00
  7.10000000E+02  4.00000000E+01  0.00000000E+00
  7.10000000E+02  3.80000000E+01  0.00000000E+00
  7.10000000E+02  3.60000000E+01  0.00000000E+00
  7.10000000E+02  3.40000000E+01  0.00000000E+00
  7.10000000E+02  3.20000000E+01  0.00000000E+00
  7.10000000E+02  3.00000000E+01  0.00000000E+00
  7.10000000E+02  2.80000000E+01  0.00000000E+00
  7.10000000E+02  2.60000000E+01  0.00000000E+00
  7.10000000E+02  2.40000000E+01  0.00000000E+00
  7.10000000E+02  2.20000000E+01  0.00000000E+00
  7.10000000E+02  2.00000000E+01  0.00000000E+00
  7.10000000E+02  1.80000000E+01  0.00000000E+00
  7.10000000E+02  1.60000000E+01  0.00000000E+00
  7.10000000E+02  1.40000000E+01  0.00000000E+00
  7.10000000E+02  1.20000000E+01  0.00000000E+00
  7.10000000E+02  1.00000000E+01  0.00000000E+00
  7.10000000E+02  8.00000000E+00  0.00000000E+00
  7.10000000E+02  6.00000000E+00  0.00000000E+00
  7.10000000E+02  4.00000000E+00  0.00000000E+00
  7.10000000E+02  2.00000000E+00  0.00000000E+00
  7.10000000E+02 -3.33066907E-14  0.00000000E+00
  7.20000000E+02  1.00000000E+02  0.00000000E+00
  7.20000000E+02  9.80000000E+01  0.00000000E+00
  7.20000000E+02  9.60000000E+01  0.00000000E+00
  7.20000000E+02  9.40000000E+01  0.00000000E+00
  7.20000000E+02  9.20000000E+01  0.00000000E+00
  7.20000000E+02  9.00000000E+01  0.00000000E+00
  7.20000000E+02  8.80000000E+01  0.00000000E+00
  7.20000000E+02  8.60000000E+01  0.00000000E+00
  7.20000000E+02  8.40000000E+01  0.00000000E+00
  7.20000000E+02  8.20000000E+01  0.00000000E+00
  7.20000000E+02  8.00000000E+01  0.00000000E+00
  7.20000000E+02  7.80000000E+01  0.00000000E+00
  7.20000000E+02  7.60000000E+01  0.00000000E+00
  7.20000000E+02  7.40000000E+01  0.00000000E+00
  7.20000000E+02  7.20000000E+01  0.00000000E+00
  7.20000000E+02  7.00000000E+01  0.00000000E+00
  7.20000000E+02  6.80000000E+01  0.00000000E+00
  7.20000000E+02  6.60000000E+01  0.00000000E+00
  7.20000000E+02  6.40000000E+01  0.00000000E+00
  7.20000000E+02  6.20000000E+01  0.00000000E+00
  7.20000000E+02  6.00000000E+01  0.00000000E+00
  7.20000000E+02  5.80000000E+01  0.00000000E+00
  7.20000000E+02  5.60000000E+01  0.00000000E+00
  7.20000000E+02  5.40000000E+01  0.00000000E+00
  7.20000000E+02  5.20000000E+01  0.00000000E+00
  7.20000000E+02  5.00000000E+01  0.00000000E+00
  7.20000000E+02  4.80000000E+01  0.00000000E+00
  7.20000000E+02  4.60000000E+01  0.00000000E+00
  7.20000000E+02  4.40000000E+01  0.00000000E+00
  7.20000000E+02  4.20000000E+01  0.00000000E+00
  7.20000000E+02  4.00000000E+01  0.00000000E+00
  7.20000000E+02  3.80000000E+01  0.00000000E+00
  7.20000000E+02  3.60000000E+01  0.00000000E+00
  7.20000000E+02  3.40000000E+01  0.00000000E+00
  7.20000000E+02  3.20000000E+01  0.00000000E+00
  7.20000000E+02  3.00000000E+01  0.00000000E+00
  7.20000000E+02  2.80000000E+01  0.00000000E+00
  7.20000000E+02  2.60000000E+01  0.00000000E+00
  7.20000000E+02  2.40000000E+01  0.00000000E+00
  7.20000000E+02  2.20000000E+01  0.00000000E+00
  7.20000000E+02  2.00000000E+01  0.00000000E+00
  7.20000000E+02  1.80000000E+01  0.00000000E+00
  7.20000000E+02  1.60000000E+01  0.00000000E+00
  7.20000000E+02  1.40000000E+01  0.00000000E+00
  7.20000000E+02  1.20000000E+01  0.00000000E+00
  7.20000000E+02  1.00000000E+01  0.00000000E+00
  7.20000000E+02  8.00000000E+00  0.00000000E+00
  7.20000000E+02  6.00000000E+00  0.00000000E+00
  7.20000000E+02  4.00000000E+00  0.00000000E+00
  7.20000000E+02  2.00000000E+00  0.00000000E+00
  7.20000000E+02 -3.33066907E-14  0.00000000E+00
  7.30000000E+02  1.00000000E+02  0.00000000E+00
  7.30000000E+02  9.80000000E+01  0.00000000E+00
  7.30000000E+02  9.60000000E+01  0.00000000E+00
  7.30000000E+02  9.40000000E+01  0.00000000E+00
  7.30000000E+02  9.20000000E+01  0.00000000E+00
  7.30000000E+02  9.00000000E+01  0.00000000E+00
  7.30000000E+02  8.80000000E+01  0.00000000E+00
  7.30000000E+02  8.60000000E+01  0.00000000E+00
  7.30000000E+02  8.40000000E+01  0.00000000E+00
  7.30000000E+02  8.20000000E+01  0.00000000E+00
  7.30000000E+02  8.00000000E+01  0.00000000E+00
  7.30000000E+02  7.80000000E+01  0.00000000E+00
  7.30000000E+02  7.60000000E+01  0.00000000E+00
  7.30000000E+02  7.40000000E+01  0.00000000E+00
  7.30000000E+02  7.20000000E+01  0.00000000E+00
  7.30000000E+02  7.00000000E+01  0.00000000E+00
  7.30000000E+02  6.80000000E+01  0.00000000E+00
  7.30000000E+02  6.60000000E+01  0.00000000E+00
  7.30000000E+02  6.40000000E+01  0.00000000E+00
  7.30000000E+02  6.20000000E+01  0.00000000E+00
  7.30000000E+02  6.00000000E+01  0.00000000E+00
  7.30000000E+02  5.80000000E+01  0.00000000E+00
  7.30000000E+02  5.60000000E+01  0.00000000E+00
  7.30000000E+02  5.40000000E+01  0.00000000E+00
  7.30000000E+02  5.20000000E+01  0.00000000E+00
  7.30000000E+02  5.00000000E+01  0.00000000E+00
  7.30000000E+02  4.80000000E+01  0.00000000E+00
  7.30000000E+02  4.60000000E+01  0.00000000E+00
  7.30000000E+02  4.40000000E+01  0.00000000E+00
  7.30000000E+02  4.20000000E+01  0.00000000E+00
  7.30000000E+02  4.00000000E+01  0.00000000E+00
  7.30000000E+02  3.80000000E+01  0.00000000E+00
  7.30000000E+02  3.60000000E+01  0.00000000E+00
  7.30000000E+02  3.40000000E+01  0.00000000E+00
  7.30000000E+02  3.20000000E+01  0.00000000E+00
  7.30000000E+02  3.00000000E+01  0.00000000E+00
  7.30000000E+02  2.80000000E+01  0.00000000E+00
  7.30000000E+02  2.60000000E+01  0.00000000E+00
  7.30000000E+02  2.40000000E+01  0.00000000E+00
  7.30000000E+02  2.20000000E+01  0.00000000E+00
  7.30000000E+02  2.00000000E+01  0.00000000E+00
  7.30000000E+02  1.80000000E+01  0.00000000E+00
  7.30000000E+02  1.60000000E+01  0.00000000E+00
  7.30000000E+02  1.40000000E+01  0.00000000E+00
  7.30000000E+02  1.20000000E+01  0.00000000E+00
  7.30000000E+02  1.00000000E+01  0.00000000E+00
  7.30000000E+02  8.00000000E+00  0.00000000E+00
  7.30000000E+02  6.00000000E+00  0.00000000E+00
  7.30000000E+02  4.00000000E+00  0.00000000E+00
  7.30000000E+02  2.00000000E+00  0.00000000E+00
  7.30000000E+02 -3.33066907E-14  0.00000000E+00
  7.40000000E+02  1.00000000E+02  0.00000000E+00
  7.40000000E+02  9.80000000E+01  0.00000000E+00
  7.40000000E+02  9.60000000E+01  0.00000000E+00
  7.40000000E+02  9.40000000E+01  0.00000000E+00
  7.40000000E+02  9.20000000E+01  0.00000000E+00
  7.40000000E+02  9.00000000E+01  0.00000000E+00
  7.40000000E+02  8.80000000E+01  0.00000000E+00
  7.40000000E+02  8.60000000E+01  0.00000000E+00
  7.40000000E+02  8.40000000E+01  0.00000000E+00
  7.40000000E+02  8.20000000E+01  0.00000000E+00
  7.40000000E+02  8.00000000E+01  0.00000000E+00
  7.40000000E+02  7.80000000E+01  0.00000000E+00
  7.40000000E+02  7.60000000E+01  0.00000000E+00
  7.40000000E+02  7.40000000E+01  0.00000000E+00
  7.40000000E+02  7.20000000E+01  0.00000000E+00
  7.40000000E+02  7.00000000E+01  0.00000000E+00
  7.40000000E+02  6.80000000E+01  0.00000000E+00
  7.40000000E+02  6.60000000E+01  0.00000000E+00
  7.40000000E+02  6.40000000E+01  0.00000000E+00
  7.40000000E+02  6.20000000E+01  0.00000000E+00
  7.40000000E+02  6.00000000E+01  0.00000000E+00
  7.40000000E+02  5.80000000E+01  0.00000000E+00
  7.40000000E+02  5.60000000E+01  0.00000000E+00
  7.40000000E+02  5.40000000E+01  0.00000000E+00
  7.40000000E+02  5.20000000E+01  0.00000000E+00
  7.40000000E+02  5.00000000E+01  0.00000000E+00
  7.40000000E+02  4.80000000E+01  0.00000000E+00
  7.40000000E+02  4.60000000E+01  0.00000000E+00
  7.40000000E+02  4.40000000E+01  0.00000000E+00
  7.40000000E+02  4.20000000E+01  0.00000000E+00
  7.40000000E+02  4.00000000E+01  0.00000000E+00
  7.40000000E+02  3.80000000E+01  0.00000000E+00
  7.40000000E+02  3.60000000E+01  0.00000000E+00
  7.40000000E+02  3.40000000E+01  0.00000000E+00
  7.40000000E+02  3.20000000E+01  0.00000000E+00
  7.40000000E+02  3.00000000E+01  0.00000000E+00
  7.40000000E+02  2.80000000E+01  0.00000000E+00
  7.40000000E+02  2.60000000E+01  0.00000000E+00
  7.40000000E+02  2.40000000E+01  0.00000000E+00
  7.40000000E+02  2.20000000E+01  0.00000000E+00
  7.40000000E+02  2.00000000E+01  0.00000000E+00
  7.40000000E+02  1.80000000E+01  0.00000000E+00
  7.40000000E+02  1.60000000E+01  0.00000000E+00
  7.40000000E+02  1.40000000E+01  0.00000000E+00
  7.40000000E+02  1.20000000E+01  0.00000000E+00
  7.40000000E+02  1.00000000E+01  0.00000000E+00
  7.40000000E+02  8.00000000E+00  0.00000000E+00
  7.40000000E+02  6.00000000E+00  0.00000000E+00
  7.40000000E+02  4.00000000E+00  0.00000000E+00
  7.40000000E+02  2.00000000E+00  0.00000000E+00
  7.40000000E+02 -3.33066907E-14  0.00000000E+00
  7.50000000E+02  1.00000000E+02  0.00000000E+00
  7.50000000E+02  9.80000000E+01  0.00000000E+00
  7.50000000E+02  9.60000000E+01  0.00000000E+00
  7.50000000E+02  9.40000000E+01  0.00000000E+00
  7.50000000E+02  9.20000000E+01  0.00000000E+00
  7.50000000E+02  9.00000000E+01  0.00000000E+00
  7.50000000E+02  8.80000000E+01  0.00000000E+00
  7.50000000E+02  8.60000000E+01  0.00000000E+00
  7.50000000E+02  8.40000000E+01  0.00000000E+00
  7.50000000E+02  8.20000000E+01  0.00000000E+00
  7.50000000E+02  8.00000000E+01  0.00000000E+00
  7.50000000E+02  7.80000000E+01  0.00000000E+00
  7.50000000E+02  7.60000000E+01  0.00000000E+00
  7.50000000E+02  7.40000000E+01  0.00000000E+00
  7.50000000E+02  7.20000000E+01  0.00000000E+00
  7.50000000E+02  7.00000000E+01  0.00000000E+00
  7.50000000E+02  6.80000000E+01  0.00000000E+00
  7.50000000E+02  6.60000000E+01  0.00000000E+00
  7.50000000E+02  6.40000000E+01  0.00000000E+00
  7.50000000E+02  6.20000000E+01  0.00000000E+00
  7.50000000E+02  6.00000000E+01  0.00000000E+00
  7.50000000E+02  5.80000000E+01  0.00000000E+00
  7.50000000E+02  5.60000000E+01  0.00000000E+00
  7.50000000E+02  5.40000000E+01  0.00000000E+00
  7.50000000E+02  5.20000000E+01  0.00000000E+00
  7.50000000E+02  5.00000000E+01  0.00000000E+00
  7.50000000E+02  4.80000000E+01  0.00000000E+00
  7.50000000E+02  4.60000000E+01  0.00000000E+00
  7.50000000E+02  4.40000000E+01  0.00000000E+00
  7.50000000E+02  4.20000000E+01  0.00000000E+00
  7.50000000E+02  4.00000000E+01  0.00000000E+00
  7.50000000E+02  3.80000000E+01  0.00000000E+00
  7.50000000E+02  3.60000000E+01  0.00000000E+00
  7.50000000E+02  3.40000000E+01  0.00000000E+00
  7.50000000E+02  3.20000000E+01  0.00000000E+00
  7.50000000E+02  3.00000000E+01  0.00000000E+00
  7.50000000E+02  2.80000000E+01  0.00000000E+00
  7.50000000E+02  2.60000000E+01  0.00000000E+00
  7.50000000E+02  2.40000000E+01  0.00000000E+00
  7.50000000E+02  2.20000000E+01  0.00000000E+00
  7.50000000E+02  2.00000000E+01  0.00000000E+00
  7.50000000E+02  1.80000000E+01  0.00000000E+00
  7.50000000E+02  1.60000000E+01  0.00000000E+00
  7.50000000E+02  1.40000000E+01  0.00000000E+00
  7.50000000E+02  1.20000000E+01  0.00000000E+00
  7.50000000E+02  1.00000000E+01  0.00000000E+00
  7.50000000E+02  8.00000000E+00  0.00000000E+00
  7.50000000E+02  6.00000000E+00  0.00000000E+00
  7.50000000E+02  4.00000000E+00  0.00000000E+00
  7.50000000E+02  2.00000000E+00  0.00000000E+00
  7.50000000E+02 -3.33066907E-14  0.00000000E+00
  7.60000000E+02  1.00000000E+02  0.00000000E+00
  7.60000000E+02  9.80000000E+01  0.00000000E+00
  7.60000000E+02  9.60000000E+01  0.00000000E+00
  7.60000000E+02  9.40000000E+01  0.00000000E+00
  7.60000000E+02  9.20000000E+01  0.00000000E+00
  7.60000000E+02  9.00000000E+01  0.00000000E+00
  7.60000000E+02  8.80000000E+01  0.00000000E+00
  7.60000000E+02  8.60000000E+01  0.00000000E+00
  7.60000000E+02  8.40000000E+01  0.00000000E+00
  7.60000000E+02  8.20000000E+01  0.00000000E+00
  7.60000000E+02  8.00000000E+01  0.00000000E+00
  7.60000000E+02  7.80000000E+01  0.00000000E+00
  7.60000000E+02  7.60000000E+01  0.00000000E+00
  7.60000000E+02  7.40000000E+01  0.00000000E+00
  7.60000000E+02  7.20000000E+01  0.00000000E+00
  7.60000000E+02  7.00000000E+01  0.00000000E+00
  7.60000000E+02  6.80000000E+01  0.00000000E+00
  7.60000000E+02  6.60000000E+01  0.00000000E+00
  7.60000000E+02  6.40000000E+01  0.00000000E+00
  7.60000000E+02  6.20000000E+01  0.00000000E+00
  7.60000000E+02  6.00000000E+01  0.00000000E+00
  7.60000000E+02  5.80000000E+01  0.00000000E+00
  7.60000000E+02  5.60000000E+01  0.00000000E+00
  7.60000000E+02  5.40000000E+01  0.00000000E+00
  7.60000000E+02  5.20000000E+01  0.00000000E+00
  7.60000000E+02  5.00000000E+01  0.00000000E+00
  7.60000000E+02  4.80000000E+01  0.00000000E+00
  7.60000000E+02  4.60000000E+01  0.00000000E+00
  7.60000000E+02  4.40000000E+01  0.00000000E+00
  7.60000000E+02  4.20000000E+01  0.00000000E+00
  7.60000000E+02  4.00000000E+01  0.00000000E+00
  7.60000000E+02  3.80000000E+01  0.00000000E+00
  7.60000000E+02  3.60000000E+01  0.00000000E+00
  7.60000000E+02  3.40000000E+01  0.00000000E+00
  7.60000000E+02  3.20000000E+01  0.00000000E+00
  7.60000000E+02  3.00000000E+01  0.00000000E+00
  7.60000000E+02  2.80000000E+01  0.00000000E+00
  7.60000000E+02  2.60000000E+01  0.00000000E+00
  7.60000000E+02  2.40000000E+01  0.00000000E+00
  7.60000000E+02  2.20000000E+01  0.00000000E+00
  7.60000000E+02  2.00000000E+01  0.00000000E+00
  7.60000000E+02  1.80000000E+01  0.00000000E+00
  7.60000000E+02  1.60000000E+01  0.00000000E+00
  7.60000000E+02  1.40000000E+01  0.00000000E+00
  7.60000000E+02  1.20000000E+01  0.00000000E+00
  7.60000000E+02  1.00000000E+01  0.00000000E+00
  7.60000000E+02  8.00000000E+00  0.00000000E+00
  7.60000000E+02  6.00000000E+00  0.00000000E+00
  7.60000000E+02  4.00000000E+00  0.00000000E+00
  7.60000000E+02  2.00000000E+00  0.00000000E+00
  7.60000000E+02 -3.33066907E-14  0.00000000E+00
  7.70000000E+02  1.00000000E+02  0.00000000E+00
  7.70000000E+02  9.80000000E+01  0.00000000E+00
  7.70000000E+02  9.60000000E+01  0.00000000E+00
  7.70000000E+02  9.40000000E+01  0.00000000E+00
  7.70000000E+02  9.20000000E+01  0.00000000E+00
  7.70000000E+02  9.00000000E+01  0.00000000E+00
  7.70000000E+02  8.80000000E+01  0.00000000E+00
  7.70000000E+02  8.60000000E+01  0.00000000E+00
  7.70000000E+02  8.40000000E+01  0.00000000E+00
  7.70000000E+02  8.20000000E+01  0.00000000E+00
  7.70000000E+02  8.00000000E+01  0.00000000E+00
  7.70000000E+02  7.80000000E+01  0.00000000E+00
  7.70000000E+02  7.60000000E+01  0.00000000E+00
  7.70000000E+02  7.40000000E+01  0.00000000E+00
  7.70000000E+02  7.20000000E+01  0.00000000E+00
  7.70000000E+02  7.00000000E+01  0.00000000E+00
  7.70000000E+02  6.80000000E+01  0.00000000E+00
  7.70000000E+02  6.60000000E+01  0.00000000E+00
  7.70000000E+02  6.40000000E+01  0.00000000E+00
  7.70000000E+02  6.20000000E+01  0.00000000E+00
  7.70000000E+02  6.00000000E+01  0.00000000E+00
  7.70000000E+02  5.80000000E+01  0.00000000E+00
  7.70000000E+02  5.60000000E+01  0.00000000E+00
  7.70000000E+02  5.40000000E+01  0.00000000E+00
  7.70000000E+02  5.20000000E+01  0.00000000E+00
  7.70000000E+02  5.00000000E+01  0.00000000E+00
  7.70000000E+02  4.80000000E+01  0.00000000E+00
  7.70000000E+02  4.60000000E+01  0.00000000E+00
  7.70000000E+02  4.40000000E+01  0.00000000E+00
  7.70000000E+02  4.20000000E+01  0.00000000E+00
  7.70000000E+02  4.00000000E+01  0.00000000E+00
  7.70000000E+02  3.80000000E+01  0.00000000E+00
  7.70000000E+02  3.60000000E+01  0.00000000E+00
  7.70000000E+02  3.40000000E+01  0.00000000E+00
  7.70000000E+02  3.20000000E+01  0.00000000E+00
  7.70000000E+02  3.00000000E+01  0.00000000E+00
  7.70000000E+02  2.80000000E+01  0.00000000E+00
  7.70000000E+02  2.60000000E+01  0.00000000E+00
  7.70000000E+02  2.40000000E+01  0.00000000E+00
  7.70000000E+02  2.20000000E+01  0.00000000E+00
  7.70000000E+02  2.00000000E+01  0.00000000E+00
  7.70000000E+02  1.80000000E+01  0.00000000E+00
  7.70000000E+02  1.60000000E+01  0.00000000E+00
  7.70000000E+02  1.40000000E+01  0.00000000E+00
  7.70000000E+02  1.20000000E+01  0.00000000E+00
  7.70000000E+02  1.00000000E+01  0.00000000E+00
  7.70000000E+02  8.00000000E+00  0.00000000E+00
  7.70000000E+02  6.00000000E+00  0.00000000E+00
  7.70000000E+02  4.00000000E+00  0.00000000E+00
  7.70000000E+02  2.00000000E+00  0.00000000E+00
  7.70000000E+02 -3.33066907E-14  0.00000000E+00
  7.80000000E+02  1.00000000E+02  0.00000000E+00
  7.80000000E+02  9.80000000E+01  0.00000000E+00
  7.80000000E+02  9.60000000E+01  0.00000000E+00
  7.80000000E+02  9.40000000E+01  0.00000000E+00
  7.80000000E+02  9.20000000E+01  0.00000000E+00
  7.80000000E+02  9.00000000E+01  0.00000000E+00
  7.80000000E+02  8.80000000E+01  0.00000000E+00
  7.80000000E+02  8.60000000E+01  0.00000000E+00
  7.80000000E+02  8.40000000E+01  0.00000000E+00
  7.80000000E+02  8.20000000E+01  0.00000000E+00
  7.80000000E+02  8.00000000E+01  0.00000000E+00
  7.80000000E+02  7.80000000E+01  0.00000000E+00
  7.80000000E+02  7.60000000E+01  0.00000000E+00
  7.80000000E+02  7.40000000E+01  0.00000000E+00
  7.80000000E+02  7.20000000E+01  0.00000000E+00
  7.80000000E+02  7.00000000E+01  0.00000000E+00
  7.80000000E+02  6.80000000E+01  0.00000000E+00
  7.80000000E+02  6.60000000E+01  0.00000000E+00
  7.80000000E+02  6.40000000E+01  0.00000000E+00
  7.80000000E+02  6.20000000E+01  0.00000000E+00
  7.80000000E+02  6.00000000E+01  0.00000000E+00
  7.80000000E+02  5.80000000E+01  0.00000000E+00
  7.80000000E+02  5.60000000E+01  0.00000000E+00
  7.80000000E+02  5.40000000E+01  0.00000000E+00
  7.80000000E+02  5.20000000E+01  0.00000000E+00
  7.80000000E+02  5.00000000E+01  0.00000000E+00
  7.80000000E+02  4.80000000E+01  0.00000000E+00
  7.80000000E+02  4.60000000E+01  0.00000000E+00
  7.80000000E+02  4.40000000E+01  0.00000000E+00
  7.80000000E+02  4.20000000E+01  0.00000000E+00
  7.80000000E+02  4.00000000E+01  0.00000000E+00
  7.80000000E+02  3.80000000E+01  0.00000000E+00
  7.80000000E+02  3.60000000E+01  0.00000000E+00
  7.80000000E+02  3.40000000E+01  0.00000000E+00
  7.80000000E+02  3.20000000E+01  0.00000000E+00
  7.80000000E+02  3.00000000E+01  0.00000000E+00
  7.80000000E+02  2.80000000E+01  0.00000000E+00
  7.80000000E+02  2.60000000E+01  0.00000000E+00
  7.80000000E+02  2.40000000E+01  0.00000000E+00
  7.80000000E+02  2.20000000E+01  0.00000000E+00
  7.80000000E+02  2.00000000E+01  0.00000000E+00
  7.80000000E+02  1.80000000E+01  0.00000000E+00
  7.80000000E+02  1.60000000E+01  0.00000000E+00
  7.80000000E+02  1.40000000E+01  0.00000000E+00
  7.80000000E+02  1.20000000E+01  0.00000000E+00
  7.80000000E+02  1.00000000E+01  0.00000000E+00
  7.80000000E+02  8.00000000E+00  0.00000000E+00
  7.80000000E+02  6.00000000E+00  0.00000000E+00
  7.80000000E+02  4.00000000E+00  0.00000000E+00
  7.80000000E+02  2.00000000E+00  0.00000000E+00
  7.80000000E+02 -3.33066907E-14  0.00000000E+00
  7.90000000E+02  1.00000000E+02  0.00000000E+00
  7.90000000E+02  9.80000000E+01  0.00000000E+00
  7.90000000E+02  9.60000000E+01  0.00000000E+00
  7.90000000E+02  9.40000000E+01  0.00000000E+00
  7.90000000E+02  9.20000000E+01  0.00000000E+00
  7.90000000E+02  9.00000000E+01  0.00000000E+00
  7.90000000E+02  8.80000000E+01  0.00000000E+00
  7.90000000E+02  8.60000000E+01  0.00000000E+00
  7.90000000E+02  8.40000000E+01  0.00000000E+00
  7.90000000E+02  8.20000000E+01  0.00000000E+00
  7.90000000E+02  8.00000000E+01  0.00000000E+00
  7.90000000E+02  7.80000000E+01  0.00000000E+00
  7.90000000E+02  7.60000000E+01  0.00000000E+00
  7.90000000E+02  7.40000000E+01  0.00000000E+00
  7.90000000E+02  7.20000000E+01  0.00000000E+00
  7.90000000E+02  7.00000000E+01  0.00000000E+00
  7.90000000E+02  6.80000000E+01  0.00000000E+00
  7.90000000E+02  6.60000000E+01  0.00000000E+00
  7.90000000E+02  6.40000000E+01  0.00000000E+00
  7.90000000E+02  6.20000000E+01  0.00000000E+00
  7.90000000E+02  6.00000000E+01  0.00000000E+00
  7.90000000E+02  5.80000000E+01  0.00000000E+00
  7.90000000E+02  5.60000000E+01  0.00000000E+00
  7.90000000E+02  5.40000000E+01  0.00000000E+00
  7.90000000E+02  5.20000000E+01  0.00000000E+00
  7.90000000E+02  5.00000000E+01  0.00000000E+00
  7.90000000E+02  4.80000000E+01  0.00000000E+00
  7.90000000E+02  4.60000000E+01  0.00000000E+00
  7.90000000E+02  4.40000000E+01  0.00000000E+00
  7.90000000E+02  4.20000000E+01  0.00000000E+00
  7.90000000E+02  4.00000000E+01  0.00000000E+00
  7.90000000E+02  3.80000000E+01  0.00000000E+00
  7.90000000E+02  3.60000000E+01  0.00000000E+00
  7.90000000E+02  3.40000000E+01  0.00000000E+00
  7.90000000E+02  3.20000000E+01  0.00000000E+00
  7.90000000E+02  3.00000000E+01  0.00000000E+00
  7.90000000E+02  2.80000000E+01  0.00000000E+00
  7.90000000E+02  2.60000000E+01  0.00000000E+00
  7.90000000E+02  2.40000000E+01  0.00000000E+00
  7.90000000E+02  2.20000000E+01  0.00000000E+00
  7.90000000E+02  2.00000000E+01  0.00000000E+00
  7.90000000E+02  1.80000000E+01  0.00000000E+00
  7.90000000E+02  1.60000000E+01  0.00000000E+00
  7.90000000E+02  1.40000000E+01  0.00000000E+00
  7.90000000E+02  1.20000000E+01  0.00000000E+00
  7.90000000E+02  1.00000000E+01  0.00000000E+00
  7.90000000E+02  8.00000000E+00  0.00000000E+00
  7.90000000E+02  6.00000000E+00  0.00000000E+00
  7.90000000E+02  4.00000000E+00  0.00000000E+00
  7.90000000E+02  2.00000000E+00  0.00000000E+00
  7.90000000E+02 -3.33066907E-14  0.00000000E+00
  8.00000000E+02  1.00000000E+02  0.00000000E+00
  8.00000000E+02  9.80000000E+01  0.00000000E+00
  8.00000000E+02  9.60000000E+01  0.00000000E+00
  8.00000000E+02  9.40000000E+01  0.00000000E+00
  8.00000000E+02  9.20000000E+01  0.00000000E+00
  8.00000000E+02  9.00000000E+01  0.00000000E+00
  8.00000000E+02  8.80000000E+01  0.00000000E+00
  8.00000000E+02  8.60000000E+01  0.00000000E+00
  8.00000000E+02  8.40000000E+01  0.00000000E+00
  8.00000000E+02  8.20000000E+01  0.00000000E+00
  8.00000000E+02  8.00000000E+01  0.00000000E+00
  8.00000000E+02  7.80000000E+01  0.00000000E+00
  8.00000000E+02  7.60000000E+01  0.00000000E+00
  8.00000000E+02  7.40000000E+01  0.00000000E+00
  8.00000000E+02  7.20000000E+01  0.00000000E+00
  8.00000000E+02  7.00000000E+01  0.00000000E+00
  8.00000000E+02  6.80000000E+01  0.00000000E+00
  8.00000000E+02  6.60000000E+01  0.00000000E+00
  8.00000000E+02  6.40000000E+01  0.00000000E+00
  8.00000000E+02  6.20000000E+01  0.00000000E+00
  8.00000000E+02  6.00000000E+01  0.00000000E+00
  8.00000000E+02  5.80000000E+01  0.00000000E+00
  8.00000000E+02  5.60000000E+01  0.00000000E+00
  8.00000000E+02  5.40000000E+01  0.00000000E+00
  8.00000000E+02  5.20000000E+01  0.00000000E+00
  8.00000000E+02  5.00000000E+01  0.00000000E+00
  8.00000000E+02  4.80000000E+01  0.00000000E+00
  8.00000000E+02  4.60000000E+01  0.00000000E+00
  8.00000000E+02  4.40000000E+01  0.00000000E+00
  8.00000000E+02  4.20000000E+01  0.00000000E+00
  8.00000000E+02  4.00000000E+01  0.00000000E+00
  8.00000000E+02  3.80000000E+01  0.00000000E+00
  8.00000000E+02  3.60000000E+01  0.00000000E+00
  8.00000000E+02  3.40000000E+01  0.00000000E+00
  8.00000000E+02  3.20000000E+01  0.00000000E+00
  8.00000000E+02  3.00000000E+01  0.00000000E+00
  8.00000000E+02  2.80000000E+01  0.00000000E+00
  8.00000000E+02  2.60000000E+01  0.00000000E+00
  8.00000000E+02  2.40000000E+01  0.00000000E+00
  8.00000000E+02  2.20000000E+01  0.00000000E+00
  8.00000000E+02  2.00000000E+01  0.00000000E+00
  8.00000000E+02  1.80000000E+01  0.00000000E+00
  8.00000000E+02  1.60000000E+01  0.00000000E+00
  8.00000000E+02  1.40000000E+01  0.00000000E+00
  8.00000000E+02  1.20000000E+01  0.00000000E+00
  8.00000000E+02  1.00000000E+01  0.00000000E+00
  8.00000000E+02  8.00000000E+00  0.00000000E+00
  8.00000000E+02  6.00000000E+00  0.00000000E+00
  8.00000000E+02  4.00000000E+00  0.00000000E+00
  8.00000000E+02  2.00000000E+00  0.00000000E+00
  8.00000000E+02 -3.33066907E-14  0.00000000E+00
  8.10000000E+02  1.00000000E+02  0.00000000E+00
  8.10000000E+02  9.80000000E+01  0.00000000E+00
  8.10000000E+02  9.60000000E+01  0.00000000E+00
  8.10000000E+02  9.40000000E+01  0.00000000E+00
  8.10000000E+02  9.20000000E+01  0.00000000E+00
  8.10000000E+02  9.00000000E+01  0.00000000E+00
  8.10000000E+02  8.80000000E+01  0.00000000E+00
  8.10000000E+02  8.60000000E+01  0.00000000E+00
  8.10000000E+02  8.40000000E+01  0.00000000E+00
  8.10000000E+02  8.20000000E+01  0.00000000E+00
  8.10000000E+02  8.00000000E+01  0.00000000E+00
  8.10000000E+02  7.80000000E+01  0.00000000E+00
  8.10000000E+02  7.60000000E+01  0.00000000E+00
  8.10000000E+02  7.40000000E+01  0.00000000E+00
  8.10000000E+02  7.20000000E+01  0.00000000E+00
  8.10000000E+02  7.00000000E+01  0.00000000E+00
  8.10000000E+02  6.80000000E+01  0.00000000E+00
  8.10000000E+02  6.60000000E+01  0.00000000E+00
  8.10000000E+02  6.40000000E+01  0.00000000E+00
  8.10000000E+02  6.20000000E+01  0.00000000E+00
  8.10000000E+02  6.00000000E+01  0.00000000E+00
  8.10000000E+02  5.80000000E+01  0.00000000E+00
  8.10000000E+02  5.60000000E+01  0.00000000E+00
  8.10000000E+02  5.40000000E+01  0.00000000E+00
  8.10000000E+02  5.20000000E+01  0.00000000E+00
  8.10000000E+02  5.00000000E+01  0.00000000E+00
  8.10000000E+02  4.80000000E+01  0.00000000E+00
  8.10000000E+02  4.60000000E+01  0.00000000E+00
  8.10000000E+02  4.40000000E+01  0.00000000E+00
  8.10000000E+02  4.20000000E+01  0.00000000E+00
  8.10000000E+02  4.00000000E+01  0.00000000E+00
  8.10000000E+02  3.80000000E+01  0.00000000E+00
  8.10000000E+02  3.60000000E+01  0.00000000E+00
  8.10000000E+02  3.40000000E+01  0.00000000E+00
  8.10000000E+02  3.20000000E+01  0.00000000E+00
  8.10000000E+02  3.00000000E+01  0.00000000E+00
  8.10000000E+02  2.80000000E+01  0.00000000E+00
  8.10000000E+02  2.60000000E+01  0.00000000E+00
  8.10000000E+02  2.40000000E+01  0.00000000E+00
  8.10000000E+02  2.20000000E+01  0.00000000E+00
  8.10000000E+02  2.00000000E+01  0.00000000E+00
  8.10000000E+02  1.80000000E+01  0.00000000E+00
  8.10000000E+02  1.60000000E+01  0.00000000E+00
  8.10000000E+02  1.40000000E+01  0.00000000E+00
  8.10000000E+02  1.20000000E+01  0.00000000E+00
  8.10000000E+02  1.00000000E+01  0.00000000E+00
  8.10000000E+02  8.00000000E+00  0.00000000E+00
  8.10000000E+02  6.00000000E+00  0.00000000E+00
  8.10000000E+02  4.00000000E+00  0.00000000E+00
  8.10000000E+02  2.00000000E+00  0.00000000E+00
  8.10000000E+02 -3.33066907E-14  0.00000000E+00
  8.20000000E+02  1.00000000E+02  0.00000000E+00
  8.20000000E+02  9.80000000E+01  0.00000000E+00
  8.20000000E+02  9.60000000E+01  0.00000000E+00
  8.20000000E+02  9.40000000E+01  0.00000000E+00
  8.20000000E+02  9.20000000E+01  0.00000000E+00
  8.20000000E+02  9.00000000E+01  0.00000000E+00
  8.20000000E+02  8.80000000E+01  0.00000000E+00
  8.20000000E+02  8.60000000E+01  0.00000000E+00
  8.20000000E+02  8.40000000E+01  0.00000000E+00
  8.20000000E+02  8.20000000E+01  0.00000000E+00
  8.20000000E+02  8.00000000E+01  0.00000000E+00
  8.20000000E+02  7.80000000E+01  0.00000000E+00
  8.20000000E+02  7.60000000E+01  0.00000000E+00
  8.20000000E+02  7.40000000E+01  0.00000000E+00
  8.20000000E+02  7.20000000E+01  0.00000000E+00
  8.20000000E+02  7.00000000E+01  0.00000000E+00
  8.20000000E+02  6.80000000E+01  0.00000000E+00
  8.20000000E+02  6.60000000E+01  0.00000000E+00
  8.20000000E+02  6.40000000E+01  0.00000000E+00
  8.20000000E+02  6.20000000E+01  0.00000000E+00
  8.20000000E+02  6.00000000E+01  0.00000000E+00
  8.20000000E+02  5.80000000E+01  0.00000000E+00
  8.20000000E+02  5.60000000E+01  0.00000000E+00
  8.20000000E+02  5.40000000E+01  0.00000000E+00
  8.20000000E+02  5.20000000E+01  0.00000000E+00
  8.20000000E+02  5.00000000E+01  0.00000000E+00
  8.20000000E+02  4.80000000E+01  0.00000000E+00
  8.20000000E+02  4.60000000E+01  0.00000000E+00
  8.20000000E+02  4.40000000E+01  0.00000000E+00
  8.20000000E+02  4.20000000E+01  0.00000000E+00
  8.20000000E+02  4.00000000E+01  0.00000000E+00
  8.20000000E+02  3.80000000E+01  0.00000000E+00
  8.20000000E+02  3.60000000E+01  0.00000000E+00
  8.20000000E+02  3.40000000E+01  0.00000000E+00
  8.20000000E+02  3.20000000E+01  0.00000000E+00
  8.20000000E+02  3.00000000E+01  0.00000000E+00
  8.20000000E+02  2.80000000E+01  0.00000000E+00
  8.20000000E+02  2.60000000E+01  0.00000000E+00
  8.20000000E+02  2.40000000E+01  0.00000000E+00
  8.20000000E+02  2.20000000E+01  0.00000000E+00
  8.20000000E+02  2.00000000E+01  0.00000000E+00
  8.20000000E+02  1.80000000E+01  0.00000000E+00
  8.20000000E+02  1.60000000E+01  0.00000000E+00
  8.20000000E+02  1.40000000E+01  0.00000000E+00
  8.20000000E+02  1.20000000E+01  0.00000000E+00
  8.20000000E+02  1.00000000E+01  0.00000000E+00
  8.20000000E+02  8.00000000E+00  0.00000000E+00
  8.20000000E+02  6.00000000E+00  0.00000000E+00
  8.20000000E+02  4.00000000E+00  0.00000000E+00
  8.20000000E+02  2.00000000E+00  0.00000000E+00
  8.20000000E+02 -3.33066907E-14  0.00000000E+00
  8.30000000E+02  1.00000000E+02  0.00000000E+00
  8.30000000E+02  9.80000000E+01  0.00000000E+00
  8.30000000E+02  9.60000000E+01  0.00000000E+00
  8.30000000E+02  9.40000000E+01  0.00000000E+00
  8.30000000E+02  9.20000000E+01  0.00000000E+00
  8.30000000E+02  9.00000000E+01  0.00000000E+00
  8.30000000E+02  8.80000000E+01  0.00000000E+00
  8.30000000E+02  8.60000000E+01  0.00000000E+00
  8.30000000E+02  8.40000000E+01  0.00000000E+00
  8.30000000E+02  8.20000000E+01  0.00000000E+00
  8.30000000E+02  8.00000000E+01  0.00000000E+00
  8.30000000E+02  7.80000000E+01  0.00000000E+00
  8.30000000E+02  7.60000000E+01  0.00000000E+00
  8.30000000E+02  7.40000000E+01  0.00000000E+00
  8.30000000E+02  7.20000000E+01  0.00000000E+00
  8.30000000E+02  7.00000000E+01  0.00000000E+00
  8.30000000E+02  6.80000000E+01  0.00000000E+00
  8.30000000E+02  6.60000000E+01  0.00000000E+00
  8.30000000E+02  6.40000000E+01  0.00000000E+00
  8.30000000E+02  6.20000000E+01  0.00000000E+00
  8.30000000E+02  6.00000000E+01  0.00000000E+00
  8.30000000E+02  5.80000000E+01  0.00000000E+00
  8.30000000E+02  5.60000000E+01  0.00000000E+00
  8.30000000E+02  5.40000000E+01  0.00000000E+00
  8.30000000E+02  5.20000000E+01  0.00000000E+00
  8.30000000E+02  5.00000000E+01  0.00000000E+00
  8.30000000E+02  4.80000000E+01  0.00000000E+00
  8.30000000E+02  4.60000000E+01  0.00000000E+00
  8.30000000E+02  4.40000000E+01  0.00000000E+00
  8.30000000E+02  4.20000000E+01  0.00000000E+00
  8.30000000E+02  4.00000000E+01  0.00000000E+00
  8.30000000E+02  3.80000000E+01  0.00000000E+00
  8.30000000E+02  3.60000000E+01  0.00000000E+00
  8.30000000E+02  3.40000000E+01  0.00000000E+00
  8.30000000E+02  3.20000000E+01  0.00000000E+00
  8.30000000E+02  3.00000000E+01  0.00000000E+00
  8.30000000E+02  2.80000000E+01  0.00000000E+00
  8.30000000E+02  2.60000000E+01  0.00000000E+00
  8.30000000E+02  2.40000000E+01  0.00000000E+00
  8.30000000E+02  2.20000000E+01  0.00000000E+00
  8.30000000E+02  2.00000000E+01  0.00000000E+00
  8.30000000E+02  1.80000000E+01  0.00000000E+00
  8.30000000E+02  1.60000000E+01  0.00000000E+00
  8.30000000E+02  1.40000000E+01  0.00000000E+00
  8.30000000E+02  1.20000000E+01  0.00000000E+00
  8.30000000E+02  1.00000000E+01  0.00000000E+00
  8.30000000E+02  8.00000000E+00  0.00000000E+00
  8.30000000E+02  6.00000000E+00  0.00000000E+00
  8.30000000E+02  4.00000000E+00  0.00000000E+00
  8.30000000E+02  2.00000000E+00  0.00000000E+00
  8.30000000E+02 -3.33066907E-14  0.00000000E+00
  8.40000000E+02  1.00000000E+02  0.00000000E+00
  8.40000000E+02  9.80000000E+01  0.00000000E+00
  8.40000000E+02  9.60000000E+01  0.00000000E+00
  8.40000000E+02  9.40000000E+01  0.00000000E+00
  8.40000000E+02  9.20000000E+01  0.00000000E+00
  8.40000000E+02  9.00000000E+01  0.00000000E+00
  8.40000000E+02  8.80000000E+01  0.00000000E+00
  8.40000000E+02  8.60000000E+01  0.00000000E+00
  8.40000000E+02  8.40000000E+01  0.00000000E+00
  8.40000000E+02  8.20000000E+01  0.00000000E+00
  8.40000000E+02  8.00000000E+01  0.00000000E+00
  8.40000000E+02  7.80000000E+01  0.00000000E+00
  8.40000000E+02  7.60000000E+01  0.00000000E+00
  8.40000000E+02  7.40000000E+01  0.00000000E+00
  8.40000000E+02  7.20000000E+01  0.00000000E+00
  8.40000000E+02  7.00000000E+01  0.00000000E+00
  8.40000000E+02  6.80000000E+01  0.00000000E+00
  8.40000000E+02  6.60000000E+01  0.00000000E+00
  8.40000000E+02  6.40000000E+01  0.00000000E+00
  8.40000000E+02  6.20000000E+01  0.00000000E+00
  8.40000000E+02  6.00000000E+01  0.00000000E+00
  8.40000000E+02  5.80000000E+01  0.00000000E+00
  8.40000000E+02  5.60000000E+01  0.00000000E+00
  8.40000000E+02  5.40000000E+01  0.00000000E+00
  8.40000000E+02  5.20000000E+01  0.00000000E+00
  8.40000000E+02  5.00000000E+01  0.00000000E+00
  8.40000000E+02  4.80000000E+01  0.00000000E+00
  8.40000000E+02  4.60000000E+01  0.00000000E+00
  8.40000000E+02  4.40000000E+01  0.00000000E+00
  8.40000000E+02  4.20000000E+01  0.00000000E+00
  8.40000000E+02  4.00000000E+01  0.00000000E+00
  8.40000000E+02  3.80000000E+01  0.00000000E+00
  8.40000000E+02  3.60000000E+01  0.00000000E+00
  8.40000000E+02  3.40000000E+01  0.00000000E+00
  8.40000000E+02  3.20000000E+01  0.00000000E+00
  8.40000000E+02  3.00000000E+01  0.00000000E+00
  8.40000000E+02  2.80000000E+01  0.00000000E+00
  8.40000000E+02  2.60000000E+01  0.00000000E+00
  8.40000000E+02  2.40000000E+01  0.00000000E+00
  8.40000000E+02  2.20000000E+01  0.00000000E+00
  8.40000000E+02  2.00000000E+01  0.00000000E+00
  8.40000000E+02  1.80000000E+01  0.00000000E+00
  8.40000000E+02  1.60000000E+01  0.00000000E+00
  8.40000000E+02  1.40000000E+01  0.00000000E+00
  8.40000000E+02  1.20000000E+01  0.00000000E+00
  8.40000000E+02  1.00000000E+01  0.00000000E+00
  8.40000000E+02  8.00000000E+00  0.00000000E+00
  8.40000000E+02  6.00000000E+00  0.00000000E+00
  8.40000000E+02  4.00000000E+00  0.00000000E+00
  8.40000000E+02  2.00000000E+00  0.00000000E+00
  8.40000000E+02 -3.33066907E-14  0.00000000E+00
  8.50000000E+02  1.00000000E+02  0.00000000E+00
  8.50000000E+02  9.80000000E+01  0.00000000E+00
  8.50000000E+02  9.60000000E+01  0.00000000E+00
  8.50000000E+02  9.40000000E+01  0.00000000E+00
  8.50000000E+02  9.20000000E+01  0.00000000E+00
  8.50000000E+02  9.00000000E+01  0.00000000E+00
  8.50000000E+02  8.80000000E+01  0.00000000E+00
  8.50000000E+02  8.60000000E+01  0.00000000E+00
  8.50000000E+02  8.40000000E+01  0.00000000E+00
  8.50000000E+02  8.20000000E+01  0.00000000E+00
  8.50000000E+02  8.00000000E+01  0.00000000E+00
  8.50000000E+02  7.80000000E+01  0.00000000E+00
  8.50000000E+02  7.60000000E+01  0.00000000E+00
  8.50000000E+02  7.40000000E+01  0.00000000E+00
  8.50000000E+02  7.20000000E+01  0.00000000E+00
  8.50000000E+02  7.00000000E+01  0.00000000E+00
  8.50000000E+02  6.80000000E+01  0.00000000E+00
  8.50000000E+02  6.60000000E+01  0.00000000E+00
  8.50000000E+02  6.40000000E+01  0.00000000E+00
  8.50000000E+02  6.20000000E+01  0.00000000E+00
  8.50000000E+02  6.00000000E+01  0.00000000E+00
  8.50000000E+02  5.80000000E+01  0.00000000E+00
  8.50000000E+02  5.60000000E+01  0.00000000E+00
  8.50000000E+02  5.40000000E+01  0.00000000E+00
  8.50000000E+02  5.20000000E+01  0.00000000E+00
  8.50000000E+02  5.00000000E+01  0.00000000E+00
  8.50000000E+02  4.80000000E+01  0.00000000E+00
  8.50000000E+02  4.60000000E+01  0.00000000E+00
  8.50000000E+02  4.40000000E+01  0.00000000E+00
  8.50000000E+02  4.20000000E+01  0.00000000E+00
  8.50000000E+02  4.00000000E+01  0.00000000E+00
  8.50000000E+02  3.80000000E+01  0.00000000E+00
  8.50000000E+02  3.60000000E+01  0.00000000E+00
  8.50000000E+02  3.40000000E+01  0.00000000E+00
  8.50000000E+02  3.20000000E+01  0.00000000E+00
  8.50000000E+02  3.00000000E+01  0.00000000E+00
  8.50000000E+02  2.80000000E+01  0.00000000E+00
  8.50000000E+02  2.60000000E+01  0.00000000E+00
  8.50000000E+02  2.40000000E+01  0.00000000E+00
  8.50000000E+02  2.20000000E+01  0.00000000E+00
  8.50000000E+02  2.00000000E+01  0.00000000E+00
  8.50000000E+02  1.80000000E+01  0.00000000E+00
  8.50000000E+02  1.60000000E+01  0.00000000E+00
  8.50000000E+02  1.40000000E+01  0.00000000E+00
  8.50000000E+02  1.20000000E+01  0.00000000E+00
  8.50000000E+02  1.00000000E+01  0.00000000E+00
  8.50000000E+02  8.00000000E+00  0.00000000E+00
  8.50000000E+02  6.00000000E+00  0.00000000E+00
  8.50000000E+02  4.00000000E+00  0.00000000E+00
  8.50000000E+02  2.00000000E+00  0.00000000E+00
  8.50000000E+02 -3.33066907E-14  0.00000000E+00
  8.60000000E+02  1.00000000E+02  0.00000000E+00
  8.60000000E+02  9.80000000E+01  0.00000000E+00
  8.60000000E+02  9.60000000E+01  0.00000000E+00
  8.60000000E+02  9.40000000E+01  0.00000000E+00
  8.60000000E+02  9.20000000E+01  0.00000000E+00
  8.60000000E+02  9.00000000E+01  0.00000000E+00
  8.60000000E+02  8.80000000E+01  0.00000000E+00
  8.60000000E+02  8.60000000E+01  0.00000000E+00
  8.60000000E+02  8.40000000E+01  0.00000000E+00
  8.60000000E+02  8.20000000E+01  0.00000000E+00
  8.60000000E+02  8.00000000E+01  0.00000000E+00
  8.60000000E+02  7.80000000E+01  0.00000000E+00
  8.60000000E+02  7.60000000E+01  0.00000000E+00
  8.60000000E+02  7.40000000E+01  0.00000000E+00
  8.60000000E+02  7.20000000E+01  0.00000000E+00
  8.60000000E+02  7.00000000E+01  0.00000000E+00
  8.60000000E+02  6.80000000E+01  0.00000000E+00
  8.60000000E+02  6.60000000E+01  0.00000000E+00
  8.60000000E+02  6.40000000E+01  0.00000000E+00
  8.60000000E+02  6.20000000E+01  0.00000000E+00
  8.60000000E+02  6.00000000E+01  0.00000000E+00
  8.60000000E+02  5.80000000E+01  0.00000000E+00
  8.60000000E+02  5.60000000E+01  0.00000000E+00
  8.60000000E+02  5.40000000E+01  0.00000000E+00
  8.60000000E+02  5.20000000E+01  0.00000000E+00
  8.60000000E+02  5.00000000E+01  0.00000000E+00
  8.60000000E+02  4.80000000E+01  0.00000000E+00
  8.60000000E+02  4.60000000E+01  0.00000000E+00
  8.60000000E+02  4.40000000E+01  0.00000000E+00
  8.60000000E+02  4.20000000E+01  0.00000000E+00
  8.60000000E+02  4.00000000E+01  0.00000000E+00
  8.60000000E+02  3.80000000E+01  0.00000000E+00
  8.60000000E+02  3.60000000E+01  0.00000000E+00
  8.60000000E+02  3.40000000E+01  0.00000000E+00
  8.60000000E+02  3.20000000E+01  0.00000000E+00
  8.60000000E+02  3.00000000E+01  0.00000000E+00
  8.60000000E+02  2.80000000E+01  0.00000000E+00
  8.60000000E+02  2.60000000E+01  0.00000000E+00
  8.60000000E+02  2.40000000E+01  0.00000000E+00
  8.60000000E+02  2.20000000E+01  0.00000000E+00
  8.60000000E+02  2.00000000E+01  0.00000000E+00
  8.60000000E+02  1.80000000E+01  0.00000000E+00
  8.60000000E+02  1.60000000E+01  0.00000000E+00
  8.60000000E+02  1.40000000E+01  0.00000000E+00
  8.60000000E+02  1.20000000E+01  0.00000000E+00
  8.60000000E+02  1.00000000E+01  0.00000000E+00
  8.60000000E+02  8.00000000E+00  0.00000000E+00
  8.60000000E+02  6.00000000E+00  0.00000000E+00
  8.60000000E+02  4.00000000E+00  0.00000000E+00
  8.60000000E+02  2.00000000E+00  0.00000000E+00
  8.60000000E+02 -3.33066907E-14  0.00000000E+00
  8.70000000E+02  1.00000000E+02  0.00000000E+00
  8.70000000E+02  9.80000000E+01  0.00000000E+00
  8.70000000E+02  9.60000000E+01  0.00000000E+00
  8.70000000E+02  9.40000000E+01  0.00000000E+00
  8.70000000E+02  9.20000000E+01  0.00000000E+00
  8.70000000E+02  9.00000000E+01  0.00000000E+00
  8.70000000E+02  8.80000000E+01  0.00000000E+00
  8.70000000E+02  8.60000000E+01  0.00000000E+00
  8.70000000E+02  8.40000000E+01  0.00000000E+00
  8.70000000E+02  8.20000000E+01  0.00000000E+00
  8.70000000E+02  8.00000000E+01  0.00000000E+00
  8.70000000E+02  7.80000000E+01  0.00000000E+00
  8.70000000E+02  7.60000000E+01  0.00000000E+00
  8.70000000E+02  7.40000000E+01  0.00000000E+00
  8.70000000E+02  7.20000000E+01  0.00000000E+00
  8.70000000E+02  7.00000000E+01  0.00000000E+00
  8.70000000E+02  6.80000000E+01  0.00000000E+00
  8.70000000E+02  6.60000000E+01  0.00000000E+00
  8.70000000E+02  6.40000000E+01  0.00000000E+00
  8.70000000E+02  6.20000000E+01  0.00000000E+00
  8.70000000E+02  6.00000000E+01  0.00000000E+00
  8.70000000E+02  5.80000000E+01  0.00000000E+00
  8.70000000E+02  5.60000000E+01  0.00000000E+00
  8.70000000E+02  5.40000000E+01  0.00000000E+00
  8.70000000E+02  5.20000000E+01  0.00000000E+00
  8.70000000E+02  5.00000000E+01  0.00000000E+00
  8.70000000E+02  4.80000000E+01  0.00000000E+00
  8.70000000E+02  4.60000000E+01  0.00000000E+00
  8.70000000E+02  4.40000000E+01  0.00000000E+00
  8.70000000E+02  4.20000000E+01  0.00000000E+00
  8.70000000E+02  4.00000000E+01  0.00000000E+00
  8.70000000E+02  3.80000000E+01  0.00000000E+00
  8.70000000E+02  3.60000000E+01  0.00000000E+00
  8.70000000E+02  3.40000000E+01  0.00000000E+00
  8.70000000E+02  3.20000000E+01  0.00000000E+00
  8.70000000E+02  3.00000000E+01  0.00000000E+00
  8.70000000E+02  2.80000000E+01  0.00000000E+00
  8.70000000E+02  2.60000000E+01  0.00000000E+00
  8.70000000E+02  2.40000000E+01  0.00000000E+00
  8.70000000E+02  2.20000000E+01  0.00000000E+00
  8.70000000E+02  2.00000000E+01  0.00000000E+00
  8.70000000E+02  1.80000000E+01  0.00000000E+00
  8.70000000E+02  1.60000000E+01  0.00000000E+00
  8.70000000E+02  1.40000000E+01  0.00000000E+00
  8.70000000E+02  1.20000000E+01  0.00000000E+00
  8.70000000E+02  1.00000000E+01  0.00000000E+00
  8.70000000E+02  8.00000000E+00  0.00000000E+00
  8.70000000E+02  6.00000000E+00  0.00000000E+00
  8.70000000E+02  4.00000000E+00  0.00000000E+00
  8.70000000E+02  2.00000000E+00  0.00000000E+00
  8.70000000E+02 -3.33066907E-14  0.00000000E+00
  8.80000000E+02  1.00000000E+02  0.00000000E+00
  8.80000000E+02  9.80000000E+01  0.00000000E+00
  8.80000000E+02  9.60000000E+01  0.00000000E+00
  8.80000000E+02  9.40000000E+01  0.00000000E+00
  8.80000000E+02  9.20000000E+01  0.00000000E+00
  8.80000000E+02  9.00000000E+01  0.00000000E+00
  8.80000000E+02  8.80000000E+01  0.00000000E+00
  8.80000000E+02  8.60000000E+01  0.00000000E+00
  8.80000000E+02  8.40000000E+01  0.00000000E+00
  8.80000000E+02  8.20000000E+01  0.00000000E+00
  8.80000000E+02  8.00000000E+01  0.00000000E+00
  8.80000000E+02  7.80000000E+01  0.00000000E+00
  8.80000000E+02  7.60000000E+01  0.00000000E+00
  8.80000000E+02  7.40000000E+01  0.00000000E+00
  8.80000000E+02  7.20000000E+01  0.00000000E+00
  8.80000000E+02  7.00000000E+01  0.00000000E+00
  8.80000000E+02  6.80000000E+01  0.00000000E+00
  8.80000000E+02  6.60000000E+01  0.00000000E+00
  8.80000000E+02  6.40000000E+01  0.00000000E+00
  8.80000000E+02  6.20000000E+01  0.00000000E+00
  8.80000000E+02  6.00000000E+01  0.00000000E+00
  8.80000000E+02  5.80000000E+01  0.00000000E+00
  8.80000000E+02  5.60000000E+01  0.00000000E+00
  8.80000000E+02  5.40000000E+01  0.00000000E+00
  8.80000000E+02  5.20000000E+01  0.00000000E+00
  8.80000000E+02  5.00000000E+01  0.00000000E+00
  8.80000000E+02  4.80000000E+01  0.00000000E+00
  8.80000000E+02  4.60000000E+01  0.00000000E+00
  8.80000000E+02  4.40000000E+01  0.00000000E+00
  8.80000000E+02  4.20000000E+01  0.00000000E+00
  8.80000000E+02  4.00000000E+01  0.00000000E+00
  8.80000000E+02  3.80000000E+01  0.00000000E+00
  8.80000000E+02  3.60000000E+01  0.00000000E+00
  8.80000000E+02  3.40000000E+01  0.00000000E+00
  8.80000000E+02  3.20000000E+01  0.00000000E+00
  8.80000000E+02  3.00000000E+01  0.00000000E+00
  8.80000000E+02  2.80000000E+01  0.00000000E+00
  8.80000000E+02  2.60000000E+01  0.00000000E+00
  8.80000000E+02  2.40000000E+01  0.00000000E+00
  8.80000000E+02  2.20000000E+01  0.00000000E+00
  8.80000000E+02  2.00000000E+01  0.00000000E+00
  8.80000000E+02  1.80000000E+01  0.00000000E+00
  8.80000000E+02  1.60000000E+01  0.00000000E+00
  8.80000000E+02  1.40000000E+01  0.00000000E+00
  8.80000000E+02  1.20000000E+01  0.00000000E+00
  8.80000000E+02  1.00000000E+01  0.00000000E+00
  8.80000000E+02  8.00000000E+00  0.00000000E+00
  8.80000000E+02  6.00000000E+00  0.00000000E+00
  8.80000000E+02  4.00000000E+00  0.00000000E+00
  8.80000000E+02  2.00000000E+00  0.00000000E+00
  8.80000000E+02 -3.33066907E-14  0.00000000E+00
  8.90000000E+02  1.00000000E+02  0.00000000E+00
  8.90000000E+02  9.80000000E+01  0.00000000E+00
  8.90000000E+02  9.60000000E+01  0.00000000E+00
  8.90000000E+02  9.40000000E+01  0.00000000E+00
  8.90000000E+02  9.20000000E+01  0.00000000E+00
  8.90000000E+02  9.00000000E+01  0.00000000E+00
  8.90000000E+02  8.80000000E+01  0.00000000E+00
  8.90000000E+02  8.60000000E+01  0.00000000E+00
  8.90000000E+02  8.40000000E+01  0.00000000E+00
  8.90000000E+02  8.20000000E+01  0.00000000E+00
  8.90000000E+02  8.00000000E+01  0.00000000E+00
  8.90000000E+02  7.80000000E+01  0.00000000E+00
  8.90000000E+02  7.60000000E+01  0.00000000E+00
  8.90000000E+02  7.40000000E+01  0.00000000E+00
  8.90000000E+02  7.20000000E+01  0.00000000E+00
  8.90000000E+02  7.00000000E+01  0.00000000E+00
  8.90000000E+02  6.80000000E+01  0.00000000E+00
  8.90000000E+02  6.60000000E+01  0.00000000E+00
  8.90000000E+02  6.40000000E+01  0.00000000E+00
  8.90000000E+02  6.20000000E+01  0.00000000E+00
  8.90000000E+02  6.00000000E+01  0.00000000E+00
  8.90000000E+02  5.80000000E+01  0.00000000E+00
  8.90000000E+02  5.60000000E+01  0.00000000E+00
  8.90000000E+02  5.40000000E+01  0.00000000E+00
  8.90000000E+02  5.20000000E+01  0.00000000E+00
  8.90000000E+02  5.00000000E+01  0.00000000E+00
  8.90000000E+02  4.80000000E+01  0.00000000E+00
  8.90000000E+02  4.60000000E+01  0.00000000E+00
  8.90000000E+02  4.40000000E+01  0.00000000E+00
  8.90000000E+02  4.20000000E+01  0.00000000E+00
  8.90000000E+02  4.00000000E+01  0.00000000E+00
  8.90000000E+02  3.80000000E+01  0.00000000E+00
  8.90000000E+02  3.60000000E+01  0.00000000E+00
  8.90000000E+02  3.40000000E+01  0.00000000E+00
  8.90000000E+02  3.20000000E+01  0.00000000E+00
  8.90000000E+02  3.00000000E+01  0.00000000E+00
  8.90000000E+02  2.80000000E+01  0.00000000E+00
  8.90000000E+02  2.60000000E+01  0.00000000E+00
  8.90000000E+02  2.40000000E+01  0.00000000E+00
  8.90000000E+02  2.20000000E+01  0.00000000E+00
  8.90000000E+02  2.00000000E+01  0.00000000E+00
  8.90000000E+02  1.80000000E+01  0.00000000E+00
  8.90000000E+02  1.60000000E+01  0.00000000E+00
  8.90000000E+02  1.40000000E+01  0.00000000E+00
  8.90000000E+02  1.20000000E+01  0.00000000E+00
  8.90000000E+02  1.00000000E+01  0.00000000E+00
  8.90000000E+02  8.00000000E+00  0.00000000E+00
  8.90000000E+02  6.00000000E+00  0.00000000E+00
  8.90000000E+02  4.00000000E+00  0.00000000E+00
  8.90000000E+02  2.00000000E+00  0.00000000E+00
  8.90000000E+02 -3.33066907E-14  0.00000000E+00
  9.00000000E+02  1.00000000E+02  0.00000000E+00
  9.00000000E+02  9.80000000E+01  0.00000000E+00
  9.00000000E+02  9.60000000E+01  0.00000000E+00
  9.00000000E+02  9.40000000E+01  0.00000000E+00
  9.00000000E+02  9.20000000E+01  0.00000000E+00
  9.00000000E+02  9.00000000E+01  0.00000000E+00
  9.00000000E+02  8.80000000E+01  0.00000000E+00
  9.00000000E+02  8.60000000E+01  0.00000000E+00
  9.00000000E+02  8.40000000E+01  0.00000000E+00
  9.00000000E+02  8.20000000E+01  0.00000000E+00
  9.00000000E+02  8.00000000E+01  0.00000000E+00
  9.00000000E+02  7.80000000E+01  0.00000000E+00
  9.00000000E+02  7.60000000E+01  0.00000000E+00
  9.00000000E+02  7.40000000E+01  0.00000000E+00
  9.00000000E+02  7.20000000E+01  0.00000000E+00
  9.00000000E+02  7.00000000E+01  0.00000000E+00
  9.00000000E+02  6.80000000E+01  0.00000000E+00
  9.00000000E+02  6.60000000E+01  0.00000000E+00
  9.00000000E+02  6.40000000E+01  0.00000000E+00
  9.00000000E+02  6.20000000E+01  0.00000000E+00
  9.00000000E+02  6.00000000E+01  0.00000000E+00
  9.00000000E+02  5.80000000E+01  0.00000000E+00
  9.00000000E+02  5.60000000E+01  0.00000000E+00
  9.00000000E+02  5.40000000E+01  0.00000000E+00
  9.00000000E+02  5.20000000E+01  0.00000000E+00
  9.00000000E+02  5.00000000E+01  0.00000000E+00
  9.00000000E+02  4.80000000E+01  0.00000000E+00
  9.00000000E+02  4.60000000E+01  0.00000000E+00
  9.00000000E+02  4.40000000E+01  0.00000000E+00
  9.00000000E+02  4.20000000E+01  0.00000000E+00
  9.00000000E+02  4.00000000E+01  0.00000000E+00
  9.00000000E+02  3.80000000E+01  0.00000000E+00
  9.00000000E+02  3.60000000E+01  0.00000000E+00
  9.00000000E+02  3.40000000E+01  0.00000000E+00
  9.00000000E+02  3.20000000E+01  0.00000000E+00
  9.00000000E+02  3.00000000E+01  0.00000000E+00
  9.00000000E+02  2.80000000E+01  0.00000000E+00
  9.00000000E+02  2.60000000E+01  0.00000000E+00
  9.00000000E+02  2.40000000E+01  0.00000000E+00
  9.00000000E+02  2.20000000E+01  0.00000000E+00
  9.00000000E+02  2.00000000E+01  0.00000000E+00
  9.00000000E+02  1.80000000E+01  0.00000000E+00
  9.00000000E+02  1.60000000E+01  0.00000000E+00
  9.00000000E+02  1.40000000E+01  0.00000000E+00
  9.00000000E+02  1.20000000E+01  0.00000000E+00
  9.00000000E+02  1.00000000E+01  0.00000000E+00
  9.00000000E+02  8.00000000E+00  0.00000000E+00
  9.00000000E+02  6.00000000E+00  0.00000000E+00
  9.00000000E+02  4.00000000E+00  0.00000000E+00
  9.00000000E+02  2.00000000E+00  0.00000000E+00
  9.00000000E+02 -3.33066907E-14  0.00000000E+00
  9.10000000E+02  1.00000000E+02  0.00000000E+00
  9.10000000E+02  9.80000000E+01  0.00000000E+00
  9.10000000E+02  9.60000000E+01  0.00000000E+00
  9.10000000E+02  9.40000000E+01  0.00000000E+00
  9.10000000E+02  9.20000000E+01  0.00000000E+00
  9.10000000E+02  9.00000000E+01  0.00000000E+00
  9.10000000E+02  8.80000000E+01  0.00000000E+00
  9.10000000E+02  8.60000000E+01  0.00000000E+00
  9.10000000E+02  8.40000000E+01  0.00000000E+00
  9.10000000E+02  8.20000000E+01  0.00000000E+00
  9.10000000E+02  8.00000000E+01  0.00000000E+00
  9.10000000E+02  7.80000000E+01  0.00000000E+00
  9.10000000E+02  7.60000000E+01  0.00000000E+00
  9.10000000E+02  7.40000000E+01  0.00000000E+00
  9.10000000E+02  7.20000000E+01  0.00000000E+00
  9.10000000E+02  7.00000000E+01  0.00000000E+00
  9.10000000E+02  6.80000000E+01  0.00000000E+00
  9.10000000E+02  6.60000000E+01  0.00000000E+00
  9.10000000E+02  6.40000000E+01  0.00000000E+00
  9.10000000E+02  6.20000000E+01  0.00000000E+00
  9.10000000E+02  6.00000000E+01  0.00000000E+00
  9.10000000E+02  5.80000000E+01  0.00000000E+00
  9.10000000E+02  5.60000000E+01  0.00000000E+00
  9.10000000E+02  5.40000000E+01  0.00000000E+00
  9.10000000E+02  5.20000000E+01  0.00000000E+00
  9.10000000E+02  5.00000000E+01  0.00000000E+00
  9.10000000E+02  4.80000000E+01  0.00000000E+00
  9.10000000E+02  4.60000000E+01  0.00000000E+00
  9.10000000E+02  4.40000000E+01  0.00000000E+00
  9.10000000E+02  4.20000000E+01  0.00000000E+00
  9.10000000E+02  4.00000000E+01  0.00000000E+00
  9.10000000E+02  3.80000000E+01  0.00000000E+00
  9.10000000E+02  3.60000000E+01  0.00000000E+00
  9.10000000E+02  3.40000000E+01  0.00000000E+00
  9.10000000E+02  3.20000000E+01  0.00000000E+00
  9.10000000E+02  3.00000000E+01  0.00000000E+00
  9.10000000E+02  2.80000000E+01  0.00000000E+00
  9.10000000E+02  2.60000000E+01  0.00000000E+00
  9.10000000E+02  2.40000000E+01  0.00000000E+00
  9.10000000E+02  2.20000000E+01  0.00000000E+00
  9.10000000E+02  2.00000000E+01  0.00000000E+00
  9.10000000E+02  1.80000000E+01  0.00000000E+00
  9.10000000E+02  1.60000000E+01  0.00000000E+00
  9.10000000E+02  1.40000000E+01  0.00000000E+00
  9.10000000E+02  1.20000000E+01  0.00000000E+00
  9.10000000E+02  1.00000000E+01  0.00000000E+00
  9.10000000E+02  8.00000000E+00  0.00000000E+00
  9.10000000E+02  6.00000000E+00  0.00000000E+00
  9.10000000E+02  4.00000000E+00  0.00000000E+00
  9.10000000E+02  2.00000000E+00  0.00000000E+00
  9.10000000E+02 -3.33066907E-14  0.00000000E+00
  9.20000000E+02  1.00000000E+02  0.00000000E+00
  9.20000000E+02  9.80000000E+01  0.00000000E+00
  9.20000000E+02  9.60000000E+01  0.00000000E+00
  9.20000000E+02  9.40000000E+01  0.00000000E+00
  9.20000000E+02  9.20000000E+01  0.00000000E+00
  9.20000000E+02  9.00000000E+01  0.00000000E+00
  9.20000000E+02  8.80000000E+01  0.00000000E+00
  9.20000000E+02  8.60000000E+01  0.00000000E+00
  9.20000000E+02  8.40000000E+01  0.00000000E+00
  9.20000000E+02  8.20000000E+01  0.00000000E+00
  9.20000000E+02  8.00000000E+01  0.00000000E+00
  9.20000000E+02  7.80000000E+01  0.00000000E+00
  9.20000000E+02  7.60000000E+01  0.00000000E+00
  9.20000000E+02  7.40000000E+01  0.00000000E+00
  9.20000000E+02  7.20000000E+01  0.00000000E+00
  9.20000000E+02  7.00000000E+01  0.00000000E+00
  9.20000000E+02  6.80000000E+01  0.00000000E+00
  9.20000000E+02  6.60000000E+01  0.00000000E+00
  9.20000000E+02  6.40000000E+01  0.00000000E+00
  9.20000000E+02  6.20000000E+01  0.00000000E+00
  9.20000000E+02  6.00000000E+01  0.00000000E+00
  9.20000000E+02  5.80000000E+01  0.00000000E+00
  9.20000000E+02  5.60000000E+01  0.00000000E+00
  9.20000000E+02  5.40000000E+01  0.00000000E+00
  9.20000000E+02  5.20000000E+01  0.00000000E+00
  9.20000000E+02  5.00000000E+01  0.00000000E+00
  9.20000000E+02  4.80000000E+01  0.00000000E+00
  9.20000000E+02  4.60000000E+01  0.00000000E+00
  9.20000000E+02  4.40000000E+01  0.00000000E+00
  9.20000000E+02  4.20000000E+01  0.00000000E+00
  9.20000000E+02  4.00000000E+01  0.00000000E+00
  9.20000000E+02  3.80000000E+01  0.00000000E+00
  9.20000000E+02  3.60000000E+01  0.00000000E+00
  9.20000000E+02  3.40000000E+01  0.00000000E+00
  9.20000000E+02  3.20000000E+01  0.00000000E+00
  9.20000000E+02  3.00000000E+01  0.00000000E+00
  9.20000000E+02  2.80000000E+01  0.00000000E+00
  9.20000000E+02  2.60000000E+01  0.00000000E+00
  9.20000000E+02  2.40000000E+01  0.00000000E+00
  9.20000000E+02  2.20000000E+01  0.00000000E+00
  9.20000000E+02  2.00000000E+01  0.00000000E+00
  9.20000000E+02  1.80000000E+01  0.00000000E+00
  9.20000000E+02  1.60000000E+01  0.00000000E+00
  9.20000000E+02  1.40000000E+01  0.00000000E+00
  9.20000000E+02  1.20000000E+01  0.00000000E+00
  9.20000000E+02  1.00000000E+01  0.00000000E+00
  9.20000000E+02  8.00000000E+00  0.00000000E+00
  9.20000000E+02  6.00000000E+00  0.00000000E+00
  9.20000000E+02  4.00000000E+00  0.00000000E+00
  9.20000000E+02  2.00000000E+00  0.00000000E+00
  9.20000000E+02 -3.33066907E-14  0.00000000E+00
  9.30000000E+02  1.00000000E+02  0.00000000E+00
  9.30000000E+02  9.80000000E+01  0.00000000E+00
  9.30000000E+02  9.60000000E+01  0.00000000E+00
  9.30000000E+02  9.40000000E+01  0.00000000E+00
  9.30000000E+02  9.20000000E+01  0.00000000E+00
  9.30000000E+02  9.00000000E+01  0.00000000E+00
  9.30000000E+02  8.80000000E+01  0.00000000E+00
  9.30000000E+02  8.60000000E+01  0.00000000E+00
  9.30000000E+02  8.40000000E+01  0.00000000E+00
  9.30000000E+02  8.20000000E+01  0.00000000E+00
  9.30000000E+02  8.00000000E+01  0.00000000E+00
  9.30000000E+02  7.80000000E+01  0.00000000E+00
  9.30000000E+02  7.60000000E+01  0.00000000E+00
  9.30000000E+02  7.40000000E+01  0.00000000E+00
  9.30000000E+02  7.20000000E+01  0.00000000E+00
  9.30000000E+02  7.00000000E+01  0.00000000E+00
  9.30000000E+02  6.80000000E+01  0.00000000E+00
  9.30000000E+02  6.60000000E+01  0.00000000E+00
  9.30000000E+02  6.40000000E+01  0.00000000E+00
  9.30000000E+02  6.20000000E+01  0.00000000E+00
  9.30000000E+02  6.00000000E+01  0.00000000E+00
  9.30000000E+02  5.80000000E+01  0.00000000E+00
  9.30000000E+02  5.60000000E+01  0.00000000E+00
  9.30000000E+02  5.40000000E+01  0.00000000E+00
  9.30000000E+02  5.20000000E+01  0.00000000E+00
  9.30000000E+02  5.00000000E+01  0.00000000E+00
  9.30000000E+02  4.80000000E+01  0.00000000E+00
  9.30000000E+02  4.60000000E+01  0.00000000E+00
  9.30000000E+02  4.40000000E+01  0.00000000E+00
  9.30000000E+02  4.20000000E+01  0.00000000E+00
  9.30000000E+02  4.00000000E+01  0.00000000E+00
  9.30000000E+02  3.80000000E+01  0.00000000E+00
  9.30000000E+02  3.60000000E+01  0.00000000E+00
  9.30000000E+02  3.40000000E+01  0.00000000E+00
  9.30000000E+02  3.20000000E+01  0.00000000E+00
  9.30000000E+02  3.00000000E+01  0.00000000E+00
  9.30000000E+02  2.80000000E+01  0.00000000E+00
  9.30000000E+02  2.60000000E+01  0.00000000E+00
  9.30000000E+02  2.40000000E+01  0.00000000E+00
  9.30000000E+02  2.20000000E+01  0.00000000E+00
  9.30000000E+02  2.00000000E+01  0.00000000E+00
  9.30000000E+02  1.80000000E+01  0.00000000E+00
  9.30000000E+02  1.60000000E+01  0.00000000E+00
  9.30000000E+02  1.40000000E+01  0.00000000E+00
  9.30000000E+02  1.20000000E+01  0.00000000E+00
  9.30000000E+02  1.00000000E+01  0.00000000E+00
  9.30000000E+02  8.00000000E+00  0.00000000E+00
  9.30000000E+02  6.00000000E+00  0.00000000E+00
  9.30000000E+02  4.00000000E+00  0.00000000E+00
  9.30000000E+02  2.00000000E+00  0.00000000E+00
  9.30000000E+02 -3.33066907E-14  0.00000000E+00
  9.40000000E+02  1.00000000E+02  0.00000000E+00
  9.40000000E+02  9.80000000E+01  0.00000000E+00
  9.40000000E+02  9.60000000E+01  0.00000000E+00
  9.40000000E+02  9.40000000E+01  0.00000000E+00
  9.40000000E+02  9.20000000E+01  0.00000000E+00
  9.40000000E+02  9.00000000E+01  0.00000000E+00
  9.40000000E+02  8.80000000E+01  0.00000000E+00
  9.40000000E+02  8.60000000E+01  0.00000000E+00
  9.40000000E+02  8.40000000E+01  0.00000000E+00
  9.40000000E+02  8.20000000E+01  0.00000000E+00
  9.40000000E+02  8.00000000E+01  0.00000000E+00
  9.40000000E+02  7.80000000E+01  0.00000000E+00
  9.40000000E+02  7.60000000E+01  0.00000000E+00
  9.40000000E+02  7.40000000E+01  0.00000000E+00
  9.40000000E+02  7.20000000E+01  0.00000000E+00
  9.40000000E+02  7.00000000E+01  0.00000000E+00
  9.40000000E+02  6.80000000E+01  0.00000000E+00
  9.40000000E+02  6.60000000E+01  0.00000000E+00
  9.40000000E+02  6.40000000E+01  0.00000000E+00
  9.40000000E+02  6.20000000E+01  0.00000000E+00
  9.40000000E+02  6.00000000E+01  0.00000000E+00
  9.40000000E+02  5.80000000E+01  0.00000000E+00
  9.40000000E+02  5.60000000E+01  0.00000000E+00
  9.40000000E+02  5.40000000E+01  0.00000000E+00
  9.40000000E+02  5.20000000E+01  0.00000000E+00
  9.40000000E+02  5.00000000E+01  0.00000000E+00
  9.40000000E+02  4.80000000E+01  0.00000000E+00
  9.40000000E+02  4.60000000E+01  0.00000000E+00
  9.40000000E+02  4.40000000E+01  0.00000000E+00
  9.40000000E+02  4.20000000E+01  0.00000000E+00
  9.40000000E+02  4.00000000E+01  0.00000000E+00
  9.40000000E+02  3.80000000E+01  0.00000000E+00
  9.40000000E+02  3.60000000E+01  0.00000000E+00
  9.40000000E+02  3.40000000E+01  0.00000000E+00
  9.40000000E+02  3.20000000E+01  0.00000000E+00
  9.40000000E+02  3.00000000E+01  0.00000000E+00
  9.40000000E+02  2.80000000E+01  0.00000000E+00
  9.40000000E+02  2.60000000E+01  0.00000000E+00
  9.40000000E+02  2.40000000E+01  0.00000000E+00
  9.40000000E+02  2.20000000E+01  0.00000000E+00
  9.40000000E+02  2.00000000E+01  0.00000000E+00
  9.40000000E+02  1.80000000E+01  0.00000000E+00
  9.40000000E+02  1.60000000E+01  0.00000000E+00
  9.40000000E+02  1.40000000E+01  0.00000000E+00
  9.40000000E+02  1.20000000E+01  0.00000000E+00
  9.40000000E+02  1.00000000E+01  0.00000000E+00
  9.40000000E+02  8.00000000E+00  0.00000000E+00
  9.40000000E+02  6.00000000E+00  0.00000000E+00
  9.40000000E+02  4.00000000E+00  0.00000000E+00
  9.40000000E+02  2.00000000E+00  0.00000000E+00
  9.40000000E+02 -3.33066907E-14  0.00000000E+00
  9.50000000E+02  1.00000000E+02  0.00000000E+00
  9.50000000E+02  9.80000000E+01  0.00000000E+00
  9.50000000E+02  9.60000000E+01  0.00000000E+00
  9.50000000E+02  9.40000000E+01  0.00000000E+00
  9.50000000E+02  9.20000000E+01  0.00000000E+00
  9.50000000E+02  9.00000000E+01  0.00000000E+00
  9.50000000E+02  8.80000000E+01  0.00000000E+00
  9.50000000E+02  8.60000000E+01  0.00000000E+00
  9.50000000E+02  8.40000000E+01  0.00000000E+00
  9.50000000E+02  8.20000000E+01  0.00000000E+00
  9.50000000E+02  8.00000000E+01  0.00000000E+00
  9.50000000E+02  7.80000000E+01  0.00000000E+00
  9.50000000E+02  7.60000000E+01  0.00000000E+00
  9.50000000E+02  7.40000000E+01  0.00000000E+00
  9.50000000E+02  7.20000000E+01  0.00000000E+00
  9.50000000E+02  7.00000000E+01  0.00000000E+00
  9.50000000E+02  6.80000000E+01  0.00000000E+00
  9.50000000E+02  6.60000000E+01  0.00000000E+00
  9.50000000E+02  6.40000000E+01  0.00000000E+00
  9.50000000E+02  6.20000000E+01  0.00000000E+00
  9.50000000E+02  6.00000000E+01  0.00000000E+00
  9.50000000E+02  5.80000000E+01  0.00000000E+00
  9.50000000E+02  5.60000000E+01  0.00000000E+00
  9.50000000E+02  5.40000000E+01  0.00000000E+00
  9.50000000E+02  5.20000000E+01  0.00000000E+00
  9.50000000E+02  5.00000000E+01  0.00000000E+00
  9.50000000E+02  4.80000000E+01  0.00000000E+00
  9.50000000E+02  4.60000000E+01  0.00000000E+00
  9.50000000E+02  4.40000000E+01  0.00000000E+00
  9.50000000E+02  4.20000000E+01  0.00000000E+00
  9.50000000E+02  4.00000000E+01  0.00000000E+00
  9.50000000E+02  3.80000000E+01  0.00000000E+00
  9.50000000E+02  3.60000000E+01  0.00000000E+00
  9.50000000E+02  3.40000000E+01  0.00000000E+00
  9.50000000E+02  3.20000000E+01  0.00000000E+00
  9.50000000E+02  3.00000000E+01  0.00000000E+00
  9.50000000E+02  2.80000000E+01  0.00000000E+00
  9.50000000E+02  2.60000000E+01  0.00000000E+00
  9.50000000E+02  2.40000000E+01  0.00000000E+00
  9.50000000E+02  2.20000000E+01  0.00000000E+00
  9.50000000E+02  2.00000000E+01  0.00000000E+00
  9.50000000E+02  1.80000000E+01  0.00000000E+00
  9.50000000E+02  1.60000000E+01  0.00000000E+00
  9.50000000E+02  1.40000000E+01  0.00000000E+00
  9.50000000E+02  1.20000000E+01  0.00000000E+00
  9.50000000E+02  1.00000000E+01  0.00000000E+00
  9.50000000E+02  8.00000000E+00  0.00000000E+00
  9.50000000E+02  6.00000000E+00  0.00000000E+00
  9.50000000E+02  4.00000000E+00  0.00000000E+00
  9.50000000E+02  2.00000000E+00  0.00000000E+00
  9.50000000E+02 -3.33066907E-14  0.00000000E+00
  9.60000000E+02  1.00000000E+02  0.00000000E+00
  9.60000000E+02  9.80000000E+01  0.00000000E+00
  9.60000000E+02  9.60000000E+01  0.00000000E+00
  9.60000000E+02  9.40000000E+01  0.00000000E+00
  9.60000000E+02  9.20000000E+01  0.00000000E+00
  9.60000000E+02  9.00000000E+01  0.00000000E+00
  9.60000000E+02  8.80000000E+01  0.00000000E+00
  9.60000000E+02  8.60000000E+01  0.00000000E+00
  9.60000000E+02  8.40000000E+01  0.00000000E+00
  9.60000000E+02  8.20000000E+01  0.00000000E+00
  9.60000000E+02  8.00000000E+01  0.00000000E+00
  9.60000000E+02  7.80000000E+01  0.00000000E+00
  9.60000000E+02  7.60000000E+01  0.00000000E+00
  9.60000000E+02  7.40000000E+01  0.00000000E+00
  9.60000000E+02  7.20000000E+01  0.00000000E+00
  9.60000000E+02  7.00000000E+01  0.00000000E+00
  9.60000000E+02  6.80000000E+01  0.00000000E+00
  9.60000000E+02  6.60000000E+01  0.00000000E+00
  9.60000000E+02  6.40000000E+01  0.00000000E+00
  9.60000000E+02  6.20000000E+01  0.00000000E+00
  9.60000000E+02  6.00000000E+01  0.00000000E+00
  9.60000000E+02  5.80000000E+01  0.00000000E+00
  9.60000000E+02  5.60000000E+01  0.00000000E+00
  9.60000000E+02  5.40000000E+01  0.00000000E+00
  9.60000000E+02  5.20000000E+01  0.00000000E+00
  9.60000000E+02  5.00000000E+01  0.00000000E+00
  9.60000000E+02  4.80000000E+01  0.00000000E+00
  9.60000000E+02  4.60000000E+01  0.00000000E+00
  9.60000000E+02  4.40000000E+01  0.00000000E+00
  9.60000000E+02  4.20000000E+01  0.00000000E+00
  9.60000000E+02  4.00000000E+01  0.00000000E+00
  9.60000000E+02  3.80000000E+01  0.00000000E+00
  9.60000000E+02  3.60000000E+01  0.00000000E+00
  9.60000000E+02  3.40000000E+01  0.00000000E+00
  9.60000000E+02  3.20000000E+01  0.00000000E+00
  9.60000000E+02  3.00000000E+01  0.00000000E+00
  9.60000000E+02  2.80000000E+01  0.00000000E+00
  9.60000000E+02  2.60000000E+01  0.00000000E+00
  9.60000000E+02  2.40000000E+01  0.00000000E+00
  9.60000000E+02  2.20000000E+01  0.00000000E+00
  9.60000000E+02  2.00000000E+01  0.00000000E+00
  9.60000000E+02  1.80000000E+01  0.00000000E+00
  9.60000000E+02  1.60000000E+01  0.00000000E+00
  9.60000000E+02  1.40000000E+01  0.00000000E+00
  9.60000000E+02  1.20000000E+01  0.00000000E+00
  9.60000000E+02  1.00000000E+01  0.00000000E+00
  9.60000000E+02  8.00000000E+00  0.00000000E+00
  9.60000000E+02  6.00000000E+00  0.00000000E+00
  9.60000000E+02  4.00000000E+00  0.00000000E+00
  9.60000000E+02  2.00000000E+00  0.00000000E+00
  9.60000000E+02 -3.33066907E-14  0.00000000E+00
  9.70000000E+02  1.00000000E+02  0.00000000E+00
  9.70000000E+02  9.80000000E+01  0.00000000E+00
  9.70000000E+02  9.60000000E+01  0.00000000E+00
  9.70000000E+02  9.40000000E+01  0.00000000E+00
  9.70000000E+02  9.20000000E+01  0.00000000E+00
  9.70000000E+02  9.00000000E+01  0.00000000E+00
  9.70000000E+02  8.80000000E+01  0.00000000E+00
  9.70000000E+02  8.60000000E+01  0.00000000E+00
  9.70000000E+02  8.40000000E+01  0.00000000E+00
  9.70000000E+02  8.20000000E+01  0.00000000E+00
  9.70000000E+02  8.00000000E+01  0.00000000E+00
  9.70000000E+02  7.80000000E+01  0.00000000E+00
  9.70000000E+02  7.60000000E+01  0.00000000E+00
  9.70000000E+02  7.40000000E+01  0.00000000E+00
  9.70000000E+02  7.20000000E+01  0.00000000E+00
  9.70000000E+02  7.00000000E+01  0.00000000E+00
  9.70000000E+02  6.80000000E+01  0.00000000E+00
  9.70000000E+02  6.60000000E+01  0.00000000E+00
  9.70000000E+02  6.40000000E+01  0.00000000E+00
  9.70000000E+02  6.20000000E+01  0.00000000E+00
  9.70000000E+02  6.00000000E+01  0.00000000E+00
  9.70000000E+02  5.80000000E+01  0.00000000E+00
  9.70000000E+02  5.60000000E+01  0.00000000E+00
  9.70000000E+02  5.40000000E+01  0.00000000E+00
  9.70000000E+02  5.20000000E+01  0.00000000E+00
  9.70000000E+02  5.00000000E+01  0.00000000E+00
  9.70000000E+02  4.80000000E+01  0.00000000E+00
  9.70000000E+02  4.60000000E+01  0.00000000E+00
  9.70000000E+02  4.40000000E+01  0.00000000E+00
  9.70000000E+02  4.20000000E+01  0.00000000E+00
  9.70000000E+02  4.00000000E+01  0.00000000E+00
  9.70000000E+02  3.80000000E+01  0.00000000E+00
  9.70000000E+02  3.60000000E+01  0.00000000E+00
  9.70000000E+02  3.40000000E+01  0.00000000E+00
  9.70000000E+02  3.20000000E+01  0.00000000E+00
  9.70000000E+02  3.00000000E+01  0.00000000E+00
  9.70000000E+02  2.80000000E+01  0.00000000E+00
  9.70000000E+02  2.60000000E+01  0.00000000E+00
  9.70000000E+02  2.40000000E+01  0.00000000E+00
  9.70000000E+02  2.20000000E+01  0.00000000E+00
  9.70000000E+02  2.00000000E+01  0.00000000E+00
  9.70000000E+02  1.80000000E+01  0.00000000E+00
  9.70000000E+02  1.60000000E+01  0.00000000E+00
  9.70000000E+02  1.40000000E+01  0.00000000E+00
  9.70000000E+02  1.20000000E+01  0.00000000E+00
  9.70000000E+02  1.00000000E+01  0.00000000E+00
  9.70000000E+02  8.00000000E+00  0.00000000E+00
  9.70000000E+02  6.00000000E+00  0.00000000E+00
  9.70000000E+02  4.00000000E+00  0.00000000E+00
  9.70000000E+02  2.00000000E+00  0.00000000E+00
  9.70000000E+02 -3.33066907E-14  0.00000000E+00
  9.80000000E+02  1.00000000E+02  0.00000000E+00
  9.80000000E+02  9.80000000E+01  0.00000000E+00
  9.80000000E+02  9.60000000E+01  0.00000000E+00
  9.80000000E+02  9.40000000E+01  0.00000000E+00
  9.80000000E+02  9.20000000E+01  0.00000000E+00
  9.80000000E+02  9.00000000E+01  0.00000000E+00
  9.80000000E+02  8.80000000E+01  0.00000000E+00
  9.80000000E+02  8.60000000E+01  0.00000000E+00
  9.80000000E+02  8.40000000E+01  0.00000000E+00
  9.80000000E+02  8.20000000E+01  0.00000000E+00
  9.80000000E+02  8.00000000E+01  0.00000000E+00
  9.80000000E+02  7.80000000E+01  0.00000000E+00
  9.80000000E+02  7.60000000E+01  0.00000000E+00
  9.80000000E+02  7.40000000E+01  0.00000000E+00
  9.80000000E+02  7.20000000E+01  0.00000000E+00
  9.80000000E+02  7.00000000E+01  0.00000000E+00
  9.80000000E+02  6.80000000E+01  0.00000000E+00
  9.80000000E+02  6.60000000E+01  0.00000000E+00
  9.80000000E+02  6.40000000E+01  0.00000000E+00
  9.80000000E+02  6.20000000E+01  0.00000000E+00
  9.80000000E+02  6.00000000E+01  0.00000000E+00
  9.80000000E+02  5.80000000E+01  0.00000000E+00
  9.80000000E+02  5.60000000E+01  0.00000000E+00
  9.80000000E+02  5.40000000E+01  0.00000000E+00
  9.80000000E+02  5.20000000E+01  0.00000000E+00
  9.80000000E+02  5.00000000E+01  0.00000000E+00
  9.80000000E+02  4.80000000E+01  0.00000000E+00
  9.80000000E+02  4.60000000E+01  0.00000000E+00
  9.80000000E+02  4.40000000E+01  0.00000000E+00
  9.80000000E+02  4.20000000E+01  0.00000000E+00
  9.80000000E+02  4.00000000E+01  0.00000000E+00
  9.80000000E+02  3.80000000E+01  0.00000000E+00
  9.80000000E+02  3.60000000E+01  0.00000000E+00
  9.80000000E+02  3.40000000E+01  0.00000000E+00
  9.80000000E+02  3.20000000E+01  0.00000000E+00
  9.80000000E+02  3.00000000E+01  0.00000000E+00
  9.80000000E+02  2.80000000E+01  0.00000000E+00
  9.80000000E+02  2.60000000E+01  0.00000000E+00
  9.80000000E+02  2.40000000E+01  0.00000000E+00
  9.80000000E+02  2.20000000E+01  0.00000000E+00
  9.80000000E+02  2.00000000E+01  0.00000000E+00
  9.80000000E+02  1.80000000E+01  0.00000000E+00
  9.80000000E+02  1.60000000E+01  0.00000000E+00
  9.80000000E+02  1.40000000E+01  0.00000000E+00
  9.80000000E+02  1.20000000E+01  0.00000000E+00
  9.80000000E+02  1.00000000E+01  0.00000000E+00
  9.80000000E+02  8.00000000E+00  0.00000000E+00
  9.80000000E+02  6.00000000E+00  0.00000000E+00
  9.80000000E+02  4.00000000E+00  0.00000000E+00
  9.80000000E+02  2.00000000E+00  0.00000000E+00
  9.80000000E+02 -3.33066907E-14  0.00000000E+00
  9.90000000E+02  1.00000000E+02  0.00000000E+00
  9.90000000E+02  9.80000000E+01  0.00000000E+00
  9.90000000E+02  9.60000000E+01  0.00000000E+00
  9.90000000E+02  9.40000000E+01  0.00000000E+00
  9.90000000E+02  9.20000000E+01  0.00000000E+00
  9.90000000E+02  9.00000000E+01  0.00000000E+00
  9.90000000E+02  8.80000000E+01  0.00000000E+00
  9.90000000E+02  8.60000000E+01  0.00000000E+00
  9.90000000E+02  8.40000000E+01  0.00000000E+00
  9.90000000E+02  8.20000000E+01  0.00000000E+00
  9.90000000E+02  8.00000000E+01  0.00000000E+00
  9.90000000E+02  7.80000000E+01  0.00000000E+00
  9.90000000E+02  7.60000000E+01  0.00000000E+00
  9.90000000E+02  7.40000000E+01  0.00000000E+00
  9.90000000E+02  7.20000000E+01  0.00000000E+00
  9.90000000E+02  7.00000000E+01  0.00000000E+00
  9.90000000E+02  6.80000000E+01  0.00000000E+00
  9.90000000E+02  6.60000000E+01  0.00000000E+00
  9.90000000E+02  6.40000000E+01  0.00000000E+00
  9.90000000E+02  6.20000000E+01  0.00000000E+00
  9.90000000E+02  6.00000000E+01  0.00000000E+00
  9.90000000E+02  5.80000000E+01  0.00000000E+00
  9.90000000E+02  5.60000000E+01  0.00000000E+00
  9.90000000E+02  5.40000000E+01  0.00000000E+00
  9.90000000E+02  5.20000000E+01  0.00000000E+00
  9.90000000E+02  5.00000000E+01  0.00000000E+00
  9.90000000E+02  4.80000000E+01  0.00000000E+00
  9.90000000E+02  4.60000000E+01  0.00000000E+00
  9.90000000E+02  4.40000000E+01  0.00000000E+00
  9.90000000E+02  4.20000000E+01  0.00000000E+00
  9.90000000E+02  4.00000000E+01  0.00000000E+00
  9.90000000E+02  3.80000000E+01  0.00000000E+00
  9.90000000E+02  3.60000000E+01  0.00000000E+00
  9.90000000E+02  3.40000000E+01  0.00000000E+00
  9.90000000E+02  3.20000000E+01  0.00000000E+00
  9.90000000E+02  3.00000000E+01  0.00000000E+00
  9.90000000E+02  2.80000000E+01  0.00000000E+00
  9.90000000E+02  2.60000000E+01  0.00000000E+00
  9.90000000E+02  2.40000000E+01  0.00000000E+00
  9.90000000E+02  2.20000000E+01  0.00000000E+00
  9.90000000E+02  2.00000000E+01  0.00000000E+00
  9.90000000E+02  1.80000000E+01  0.00000000E+00
  9.90000000E+02  1.60000000E+01  0.00000000E+00
  9.90000000E+02  1.40000000E+01  0.00000000E+00
  9.90000000E+02  1.20000000E+01  0.00000000E+00
  9.90000000E+02  1.00000000E+01  0.00000000E+00
  9.90000000E+02  8.00000000E+00  0.00000000E+00
  9.90000000E+02  6.00000000E+00  0.00000000E+00
  9.90000000E+02  4.00000000E+00  0.00000000E+00
  9.90000000E+02  2.00000000E+00  0.00000000E+00
  9.90000000E+02 -3.33066907E-14  0.00000000E+00
  1.00000000E+03  1.00000000E+02  0.00000000E+00
  1.00000000E+03  9.80000000E+01  0.00000000E+00
  1.00000000E+03  9.60000000E+01  0.00000000E+00
  1.00000000E+03  9.40000000E+01  0.00000000E+00
  1.00000000E+03  9.20000000E+01  0.00000000E+00
  1.00000000E+03  9.00000000E+01  0.00000000E+00
  1.00000000E+03  8.80000000E+01  0.00000000E+00
  1.00000000E+03  8.60000000E+01  0.00000000E+00
  1.00000000E+03  8.40000000E+01  0.00000000E+00
  1.00000000E+03  8.20000000E+01  0.00000000E+00
  1.00000000E+03  8.00000000E+01  0.00000000E+00
  1.00000000E+03  7.80000000E+01  0.00000000E+00
  1.00000000E+03  7.60000000E+01  0.00000000E+00
  1.00000000E+03  7.40000000E+01  0.00000000E+00
  1.00000000E+03  7.20000000E+01  0.00000000E+00
  1.00000000E+03  7.00000000E+01  0.00000000E+00
  1.00000000E+03  6.80000000E+01  0.00000000E+00
  1.00000000E+03  6.60000000E+01  0.00000000E+00
  1.00000000E+03  6.40000000E+01  0.00000000E+00
  1.00000000E+03  6.20000000E+01  0.00000000E+00
  1.00000000E+03  6.00000000E+01  0.00000000E+00
  1.00000000E+03  5.80000000E+01  0.00000000E+00
  1.00000000E+03  5.60000000E+01  0.00000000E+00
  1.00000000E+03  5.40000000E+01  0.00000000E+00
  1.00000000E+03  5.20000000E+01  0.00000000E+00
  1.00000000E+03  5.00000000E+01  0.00000000E+00
  1.00000000E+03  4.80000000E+01  0.00000000E+00
  1.00000000E+03  4.60000000E+01  0.00000000E+00
  1.00000000E+03  4.40000000E+01  0.00000000E+00
  1.00000000E+03  4.20000000E+01  0.00000000E+00
  1.00000000E+03  4.00000000E+01  0.00000000E+00
  1.00000000E+03  3.80000000E+01  0.00000000E+00
  1.00000000E+03  3.60000000E+01  0.00000000E+00
  1.00000000E+03  3.40000000E+01  0.00000000E+00
  1.00000000E+03  3.20000000E+01  0.00000000E+00
  1.00000000E+03  3.00000000E+01  0.00000000E+00
  1.00000000E+03  2.80000000E+01  0.00000000E+00
  1.00000000E+03  2.60000000E+01  0.00000000E+00
  1.00000000E+03  2.40000000E+01  0.00000000E+00
  1.00000000E+03  2.20000000E+01  0.00000000E+00
  1.00000000E+03  2.00000000E+01  0.00000000E+00
  1.00000000E+03  1.80000000E+01  0.00000000E+00
  1.00000000E+03  1.60000000E+01  0.00000000E+00
  1.00000000E+03  1.40000000E+01  0.00000000E+00
  1.00000000E+03  1.20000000E+01  0.00000000E+00
  1.00000000E+03  1.00000000E+01  0.00000000E+00
  1.00000000E+03  8.00000000E+00  0.00000000E+00
  1.00000000E+03  6.00000000E+00  0.00000000E+00
  1.00000000E+03  4.00000000E+00  0.00000000E+00
  1.00000000E+03  2.00000000E+00  0.00000000E+00
  1.00000000E+03 -3.33066907E-14  0.00000000E+00
CELLS      5000     25000
         4           0           1          52          51
         4           1           2          53          52
         4           2           3          54          53
         4           3           4          55          54
         4           4           5          56          55
         4           5           6          57          56
         4           6           7          58          57
         4           7           8          59          58
         4           8           9          60          59
         4           9          10          61          60
         4          10          11          62          61
         4          11          12          63          62
         4          12          13          64          63
         4          13          14          65          64
         4          14          15          66          65
         4          15          16          67          66
         4          16          17          68          67
         4          17          18          69          68
         4          18          19          70          69
         4          19          20          71          70
         4          20          21          72          71
         4          21          22          73          72
         4          22          23          74          73
         4          23          24          75          74
         4          24          25          76          75
         4          25          26          77          76
         4          26          27          78          77
         4          27          28          79          78
         4          28          29          80          79
         4          29          30          81          80
         4          30          31          82          81
         4          31          32          83          82
         4          32          33          84          83
         4          33          34          85          84
         4          34          35          86          85
         4          35          36          87          86
         4          36          37          88          87
         4          37          38          89          88
         4          38          39          90          89
         4          39          40          91          90
         4          40          41          92          91
         4          41          42          93          92
         4          42          43          94          93
         4          43          44          95          94
         4          44          45          96          95
         4          45          46          97          96
         4          46          47          98          97
         4          47          48          99          98
         4          48          49         100          99
         4          49          50         101         100
         4          51          52         103         102
         4          52          53         104         103
         4          53          54         105         104
         4          54          55         106         105
         4          55          56         107         106
         4          56          57         108         107
         4          57          58         109         108
         4          58          59         110         109
         4          59          60         111         110
         4          60          61         112         111
         4          61          62         113         112
         4          62          63         114         113
         4          63          64         115         114
         4          64          65         116         115
         4          65          66         117         116
         4          66          67         118         117
         4          67          68         119         118
         4          68          69         120         119
         4          69          70         121         120
         4          70          71         122         121
         4          71          72         123         122
         4          72          73         124         123
         4          73          74         125         124
         4          74          75         126         125
         4          75          76         127         126
         4          76          77         128         127
         4          77          78         129         128
         4          78          79         130         129
         4          79          80         131         130
         4          80          81         132         131
         4          81          82         133         132
         4          82          83         134         133
         4          83          84         135         134
         4          84          85         136         135
         4          85          86         137         136
         4          86          87         138         137
         4          87          88         139         138
         4          88          89         140         139
         4          89          90         141         140
         4          90          91         142         141
         4          91          92         143         142
         4          92          93         144         143
         4          93          94         145         144
         4          94          95         146         145
         4          95          96         147         146
         4          96          97         148         147
         4          97          98         149         148
         4          98          99         150         149
         4          99         100         151         150
         4         100         101         152         151
         4         102         103         154         153
         4         103         104         155         154
         4         104         105         156         155
         4         105         106         157         156
         4         106         107         158         157
         4         107         108         159         158
         4         108         109         160         159
         4         109         110         161         160
         4         110         111         162         161
         4         111         112         163         162
         4         112         113         164         163
         4         113         114         165         164
         4         114         115         166         165
         4         115         116         167         166
         4         116         117         168         167
         4         117         118         169         168
         4         118         119         170         169
         4         119         120         171         170
         4         120         121         172         171
         4         121         122         173         172
         4         122         123         174         173
         4         123         124         175         174
         4         124         125         176         175
         4         125         126         177         176
         4         126         127         178         177
         4         127         128         179         178
         4         128         129         180         179
         4         129         130         181         180
         4         130         131         182         181
         4         131         132         183         182
         4         132         133         184         183
         4         133         134         185         184
         4         134         135         186         185
         4         135         136         187         186
         4         136         137         188         187
         4         137         138         189         188
         4         138         139         190         189
         4         139         140         191         190
         4         140         141         192         191
         4         141         142         193         192
         4         142         143         194         193
         4         143         144         195         194
         4         144         145         196         195
         4         145         146         197         196
         4         146         147         198         197
         4         147         148         199         198
         4         148         149         200         199
         4         149         150         201         200
         4         150         151         202         201
         4         151         152         203         202
         4         153         154         205         204
         4         154         155         206         205
         4         155         156         207         206
         4         156         157         208         207
         4         157         158         209         208
         4         158         159         210         209
         4         159         160         211         210
         4         160         161         212         211
         4         161         162         213         212
         4         162         163         214         213
         4         163         164         215         214
         4         164         165         216         215
         4         165         166         217         216
         4         166         167         218         217
         4         167         168         219         218
         4         168         169         220         219
         4         169         170         221         220
         4         170         171         222         221
         4         171         172         223         222
         4         172         173         224         223
         4         173         174         225         224
         4         174         175         226         225
         4         175         176         227         226
         4         176         177         228         227
         4         177         178         229         228
         4         178         179         230         229
         4         179         180         231         230
         4         180         181         232         231
         4         181         182         233         232
         4         182         183         234         233
         4         183         184         235         234
         4         184         185         236         235
         4         185         186         237         236
         4         186         187         238         237
         4         187         188         239         238
         4         188         189         240         239
         4         189         190         241         240
         4         190         191         242         241
         4         191         192         243         242
         4         192         193         244         243
         4         193         194         245         244
         4         194         195         246         245
         4         195         196         247         246
         4         196         197         248         247
         4         197         198         249         248
         4         198         199         250         249
         4         199         200         251         250
         4         200         201         252         251
         4         201         202         253         252
         4         202         203         254         253
         4         204         205         256         255
         4         205         206         257         256
         4         206         207         258         257
         4         207         208         259         258
         4         208         209         260         259
         4         209         210         261         260
         4         210         211         262         261
         4         211         212         263         262
         4         212         213         264         263
         4         213         214         265         264
         4         214         215         266         265
         4         215         216         267         266
         4         216         217         268         267
         4         217         218         269         268
         4         218         219         270         269
         4         219         220         271         270
         4         220         221         272         271
         4         221         222         273         272
         4         222         223         274         273
         4         223         224         275         274
         4         224         225         276         275
         4         225         226         277         276
         4         226         227         278         277
         4         227         228         279         278
         4         228         229         280         279
         4         229         230         281         280
         4         230         231         282         281
         4         231         232         283         282
         4         232         233         284         283
         4         233         234         285         284
         4         234         235         286         285
         4         235         236         287         286
         4         236         237         288         287
         4         237         238         289         288
         4         238         239         290         289
         4         239         240         291         290
         4         240         241         292         291
         4         241         242         293         292
         4         242         243         294         293
         4         243         244         295         294
         4         244         245         296         295
         4         245         246         297         296
         4         246         247         298         297
         4         247         248         299         298
         4         248         249         300         299
         4         249         250         301         300
         4         250         251         302         301
         4         251         252         303         302
         4         252         253         304         303
         4         253         254         305         304
         4         255         256         307         306
         4         256         257         308         307
         4         257         258         309         308
         4         258         259         310         309
         4         259         260         311         310
         4         260         261         312         311
         4         261         262         313         312
         4         262         263         314         313
         4         263         264         315         314
         4         264         265         316         315
         4         265         266         317         316
         4         266         267         318         317
         4         267         268         319         318
         4         268         269         320         319
         4         269         270         321         320
         4         270         271         322         321
         4         271         272         323         322
         4         272         273         324         323
         4         273         274         325         324
         4         274         275         326         325
         4         275         276         327         326
         4         276         277         328         327
         4         277         278         329         328
         4         278         279         330         329
         4         279         280         331         330
         4         280         281         332         331
         4         281         282         333         332
         4         282         283         334         333
         4         283         284         335         334
         4         284         285         336         335
         4         285         286         337         336
         4         286         287         338         337
         4         287         288         339         338
         4         288         289         340         339
         4         289         290         341         340
         4         290         291         342         341
         4         291         292         343         342
         4         292         293         344         343
         4         293         294         345         344
         4         294         295         346         345
         4         295         296         347         346
         4         296         297         348         347
         4         297         298         349         348
         4         298         299         350         349
         4         299         300         351         350
         4         300         301         352         351
         4         301         302         353         352
         4         302         303         354         353
         4         303         304         355         354
         4         304         305         356         355
         4         306         307         358         357
         4         307         308         359         358
         4         308         309         360         359
         4         309         310         361         360
         4         310         311         362         361
         4         311         312         363         362
         4         312         313         364         363
         4         313         314         365         364
         4         314         315         366         365
         4         315         316         367         366
         4         316         317         368         367
         4         317         318         369         368
         4         318         319         370         369
         4         319         320         371         370
         4         320         321         372         371
         4         321         322         373         372
         4         322         323         374         373
         4         323         324         375         374
         4         324         325         376         375
         4         325         326         377         376
         4         326         327         378         377
         4         327         328         379         378
         4         328         329         380         379
         4         329         330         381         380
         4         330         331         382         381
         4         331         332         383         382
         4         332         333         384         383
         4         333         334         385         384
         4         334         335         386         385
         4         335         336         387         386
         4         336         337         388         387
         4         337         338         389         388
         4         338         339         390         389
         4         339         340         391         390
         4         340         341         392         391
         4         341         342         393         392
         4         342         343         394         393
         4         343         344         395         394
         4         344         345         396         395
         4         345         346         397         396
         4         346         347         398         397
         4         347         348         399         398
         4         348         349         400         399
         4         349         350         401         400
         4         350         351         402         401
         4         351         352         403         402
         4         352         353         404         403
         4         353         354         405         404
         4         354         355         406         405
         4         355         356         407         406
         4         357         358         409         408
         4         358         359         410         409
         4         359         360         411         410
         4         360         361         412         411
         4         361         362         413         412
         4         362         363         414         413
         4         363         364         415         414
         4         364         365         416         415
         4         365         366         417         416
         4         366         367         418         417
         4         367         368         419         418
         4         368         369         420         419
         4         369         370         421         420
         4         370         371         422         421
         4         371         372         423         422
         4         372         373         424         423
         4         373         374         425         424
         4         374         375         426         425
         4         375         376         427         426
         4         376         377         428         427
         4         377         378         429         428
         4         378         379         430         429
         4         379         380         431         430
         4         380         381         432         431
         4         381         382         433         432
         4         382         383         434         433
         4         383         384         435         434
         4         384         385         436         435
         4         385         386         437         436
         4         386         387         438         437
         4         387         388         439         438
         4         388         389         440         439
         4         389         390         441         440
         4         390         391         442         441
         4         391         392         443         442
         4         392         393         444         443
         4         393         394         445         444
         4         394         395         446         445
         4         395         396         447         446
         4         396         397         448         447
         4         397         398         449         448
         4         398         399         450         449
         4         399         400         451         450
         4         400         401         452         451
         4         401         402         453         452
         4         402         403         454         453
         4         403         404         455         454
         4         404         405         456         455
         4         405         406         457         456
         4         406         407         458         457
         4         408         409         460         459
         4         409         410         461         460
         4         410         411         462         461
         4         411         412         463         462
         4         412         413         464         463
         4         413         414         465         464
         4         414         415         466         465
         4         415         416         467         466
         4         416         417         468         467
         4         417         418         469         468
         4         418         419         470         469
         4         419         420         471         470
         4         420         421         472         471
         4         421         422         473         472
         4         422         423         474         473
         4         423         424         475         474
         4         424         425         476         475
         4         425         426         477         476
         4         426         427         478         477
         4         427         428         479         478
         4         428         429         480         479
         4         429         430         481         480
         4         430         431         482         481
         4         431         432         483         482
         4         432         433         484         483
         4         433         434         485         484
         4         434         435         486         485
         4         435         436         487         486
         4         436         437         488         487
         4         437         438         489         488
         4         438         439         490         489
         4         439         440         491         490
         4         440         441         492         491
         4         441         442         493         492
         4         442         443         494         493
         4         443         444         495         494
         4         444         445         496         495
         4         445         446         497         496
         4         446         447         498         497
         4         447         448         499         498
         4         448         449         500         499
         4         449         450         501         500
         4         450         451         502         501
         4         451         452         503         502
         4         452         453         504         503
         4         453         454         505         504
         4         454         455         506         505
         4         455         456         507         506
         4         456         457         508         507
         4         457         458         509         508
         4         459         460         511         510
         4         460         461         512         511
         4         461         462         513         512
         4         462         463         514         513
         4         463         464         515         514
         4         464         465         516         515
         4         465         466         517         516
         4         466         467         518         517
         4         467         468         519         518
         4         468         469         520         519
         4         469         470         521         520
         4         470         471         522         521
         4         471         472         523         522
         4         472         473         524         523
         4         473         474         525         524
         4         474         475         526         525
         4         475         476         527         526
         4         476         477         528         527
         4         477         478         529         528
         4         478         479         530         529
         4         479         480         531         530
         4         480         481         532         531
         4         481         482         533         532
         4         482         483         534         533
         4         483         484         535         534
         4         484         485         536         535
         4         485         486         537         536
         4         486         487         538         537
         4         487         488         539         538
         4         488         489         540         539
         4         489         490         541         540
         4         490         491         542         541
         4         491         492         543         542
         4         492         493         544         543
         4         493         494         545         544
         4         494         495         546         545
         4         495         496         547         546
         4         496         497         548         547
         4         497         498         549         548
         4         498         499         550         549
         4         499         500         551         550
         4         500         501         552         551
         4         501         502         553         552
         4         502         503         554         553
         4         503         504         555         554
         4         504         505         556         555
         4         505         506         557         556
         4         506         507         558         557
         4         507         508         559         558
         4         508         509         560         559
         4         510         511         562         561
         4         511         512         563         562
         4         512         513         564         563
         4         513         514         565         564
         4         514         515         566         565
         4         515         516         567         566
         4         516         517         568         567
         4         517         518         569         568
         4         518         519         570         569
         4         519         520         571         570
         4         520         521         572         571
         4         521         522         573         572
         4         522         523         574         573
         4         523         524         575         574
         4         524         525         576         575
         4         525         526         577         576
         4         526         527         578         577
         4         527         528         579         578
         4         528         529         580         579
         4         529         530         581         580
         4         530         531         582         581
         4         531         532         583         582
         4         532         533         584         583
         4         533         534         585         584
         4         534         535         586         585
         4         535         536         587         586
         4         536         537         588         587
         4         537         538         589         588
         4         538         539         590         589
         4         539         540         591         590
         4         540         541         592         591
         4         541         542         593         592
         4         542         543         594         593
         4         543         544         595         594
         4         544         545         596         595
         4         545         546         597         596
         4         546         547         598         597
         4         547         548         599         598
         4         548         549         600         599
         4         549         550         601         600
         4         550         551         602         601
         4         551         552         603         602
         4         552         553         604         603
         4         553         554         605         604
         4         554         555         606         605
         4         555         556         607         606
         4         556         557         608         607
         4         557         558         609         608
         4         558         559         610         609
         4         559         560         611         610
         4         561         562         613         612
         4         562         563         614         613
         4         563         564         615         614
         4         564         565         616         615
         4         565         566         617         616
         4         566         567         618         617
         4         567         568         619         618
         4         568         569         620         619
         4         569         570         621         620
         4         570         571         622         621
         4         571         572         623         622
         4         572         573         624         623
         4         573         574         625         624
         4         574         575         626         625
         4         575         576         627         626
         4         576         577         628         627
         4         577         578         629         628
         4         578         579         630         629
         4         579         580         631         630
         4         580         581         632         631
         4         581         582         633         632
         4         582         583         634         633
         4         583         584         635         634
         4         584         585         636         635
         4         585         586         637         636
         4         586         587         638         637
         4         587         588         639         638
         4         588         589         640         639
         4         589         590         641         640
         4         590         591         642         641
         4         591         592         643         642
         4         592         593         644         643
         4         593         594         645         644
         4         594         595         646         645
         4         595         596         647         646
         4         596         597         648         647
         4         597         598         649         648
         4         598         599         650         649
         4         599         600         651         650
         4         600         601         652         651
         4         601         602         653         652
         4         602         603         654         653
         4         603         604         655         654
         4         604         605         656         655
         4         605         606         657         656
         4         606         607         658         657
         4         607         608         659         658
         4         608         609         660         659
         4         609         610         661         660
         4         610         611         662         661
         4         612         613         664         663
         4         613         614         665         664
         4         614         615         666         665
         4         615         616         667         666
         4         616         617         668         667
         4         617         618         669         668
         4         618         619         670         669
         4         619         620         671         670
         4         620         621         672         671
         4         621         622         673         672
         4         622         623         674         673
         4         623         624         675         674
         4         624         625         676         675
         4         625         626         677         676
         4         626         627         678         677
         4         627         628         679         678
         4         628         629         680         679
         4         629         630         681         680
         4         630         631         682         681
         4         631         632         683         682
         4         632         633         684         683
         4         633         634         685         684
         4         634         635         686         685
         4         635         636         687         686
         4         636         637         688         687
         4         637         638         689         688
         4         638         639         690         689
         4         639         640         691         690
         4         640         641         692         691
         4         641         642         693         692
         4         642         643         694         693
         4         643         644         695         694
         4         644         645         696         695
         4         645         646         697         696
         4         646         647         698         697
         4         647         648         699         698
         4         648         649         700         699
         4         649         650         701         700
         4         650         651         702         701
         4         651         652         703         702
         4         652         653         704         703
         4         653         654         705         704
         4         654         655         706         705
         4         655         656         707         706
         4         656         657         708         707
         4         657         658         709         708
         4         658         659         710         709
         4         659         660         711         710
         4         660         661         712         711
         4         661         662         713         712
         4         663         664         715         714
         4         664         665         716         715
         4         665         666         717         716
         4         666         667         718         717
         4         667         668         719         718
         4         668         669         720         719
         4         669         670         721         720
         4         670         671         722         721
         4         671         672         723         722
         4         672         673         724         723
         4         673         674         725         724
         4         674         675         726         725
         4         675         676         727         726
         4         676         677         728         727
         4         677         678         729         728
         4         678         679         730         729
         4         679         680         731         730
         4         680         681         732         731
         4         681         682         733         732
         4         682         683         734         733
         4         683         684         735         734
         4         684         685         736         735
         4         685         686         737         736
         4         686         687         738         737
         4         687         688         739         738
         4         688         689         740         739
         4         689         690         741         740
         4         690         691         742         741
         4         691         692         743         742
         4         692         693         744         743
         4         693         694         745         744
         4         694         695         746         745
         4         695         696         747         746
         4         696         697         748         747
         4         697         698         749         748
         4         698         699         750         749
         4         699         700         751         750
         4         700         701         752         751
         4         701         702         753         752
         4         702         703         754         753
         4         703         704         755         754
         4         704         705         756         755
         4         705         706         757         756
         4         706         707         758         757
         4         707         708         759         758
         4         708         709         760         759
         4         709         710         761         760
         4         710         711         762         761
         4         711         712         763         762
         4         712         713         764         763
         4         714         715         766         765
         4         715         716         767         766
         4         716         717         768         767
         4         717         718         769         768
         4         718         719         770         769
         4         719         720         771         770
         4         720         721         772         771
         4         721         722         773         772
         4         722         723         774         773
         4         723         724         775         774
         4         724         725         776         775
         4         725         726         777         776
         4         726         727         778         777
         4         727         728         779         778
         4         728         729         780         779
         4         729         730         781         780
         4         730         731         782         781
         4         731         732         783         782
         4         732         733         784         783
         4         733         734         785         784
         4         734         735         786         785
         4         735         736         787         786
         4         736         737         788         787
         4         737         738         789         788
         4         738         739         790         789
         4         739         740         791         790
         4         740         741         792         791
         4         741         742         793         792
         4         742         743         794         793
         4         743         744         795         794
         4         744         745         796         795
         4         745         746         797         796
         4         746         747         798         797
         4         747         748         799         798
         4         748         749         800         799
         4         749         750         801         800
         4         750         751         802         801
         4         751         752         803         802
         4         752         753         804         803
         4         753         754         805         804
         4         754         755         806         805
         4         755         756         807         806
         4         756         757         808         807
         4         757         758         809         808
         4         758         759         810         809
         4         759         760         811         810
         4         760         761         812         811
         4         761         762         813         812
         4         762         763         814         813
         4         763         764         815         814
         4         765         766         817         816
         4         766         767         818         817
         4         767         768         819         818
         4         768         769         820         819
         4         769         770         821         820
         4         770         771         822         821
         4         771         772         823         822
         4         772         773         824         823
         4         773         774         825         824
         4         774         775         826         825
         4         775         776         827         826
         4         776         777         828         827
         4         777         778         829         828
         4         778         779         830         829
         4         779         780         831         830
         4         780         781         832         831
         4         781         782         833         832
         4         782         783         834         833
         4         783         784         835         834
         4         784         785         836         835
         4         785         786         837         836
         4         786         787         838         837
         4         787         788         839         838
         4         788         789         840         839
         4         789         790         841         840
         4         790         791         842         841
         4         791         792         843         842
         4         792         793         844         843
         4         793         794         845         844
         4         794         795         846         845
         4         795         796         847         846
         4         796         797         848         847
         4         797         798         849         848
         4         798         799         850         849
         4         799         800         851         850
         4         800         801         852         851
         4         801         802         853         852
         4         802         803         854         853
         4         803         804         855         854
         4         804         805         856         855
         4         805         806         857         856
         4         806         807         858         857
         4         807         808         859         858
         4         808         809         860         859
         4         809         810         861         860
         4         810         811         862         861
         4         811         812         863         862
         4         812         813         864         863
         4         813         814         865         864
         4         814         815         866         865
         4         816         817         868         867
         4         817         818         869         868
         4         818         819         870         869
         4         819         820         871         870
         4         820         821         872         871
         4         821         822         873         872
         4         822         823         874         873
         4         823         824         875         874
         4         824         825         876         875
         4         825         826         877         876
         4         826         827         878         877
         4         827         828         879         878
         4         828         829         880         879
         4         829         830         881         880
         4         830         831         882         881
         4         831         832         883         882
         4         832         833         884         883
         4         833         834         885         884
         4         834         835         886         885
         4         835         836         887         886
         4         836         837         888         887
         4         837         838         889         888
         4         838         839         890         889
         4         839         840         891         890
         4         840         841         892         891
         4         841         842         893         892
         4         842         843         894         893
         4         843         844         895         894
         4         844         845         896         895
         4         845         846         897         896
         4         846         847         898         897
         4         847         848         899         898
         4         848         849         900         899
         4         849         850         901         900
         4         850         851         902         901
         4         851         852         903         902
         4         852         853         904         903
         4         853         854         905         904
         4         854         855         906         905
         4         855         856         907         906
         4         856         857         908         907
         4         857         858         909         908
         4         858         859         910         909
         4         859         860         911         910
         4         860         861         912         911
         4         861         862         913         912
         4         862         863         914         913
         4         863         864         915         914
         4         864         865         916         915
         4         865         866         917         916
         4         867         868         919         918
         4         868         869         920         919
         4         869         870         921         920
         4         870         871         922         921
         4         871         872         923         922
         4         872         873         924         923
         4         873         874         925         924
         4         874         875         926         925
         4         875         876         927         926
         4         876         877         928         927
         4         877         878         929         928
         4         878         879         930         929
         4         879         880         931         930
         4         880         881         932         931
         4         881         882         933         932
         4         882         883         934         933
         4         883         884         935         934
         4         884         885         936         935
         4         885         886         937         936
         4         886         887         938         937
         4         887         888         939         938
         4         888         889         940         939
         4         889         890         941         940
         4         890         891         942         941
         4         891         892         943         942
         4         892         893         944         943
         4         893         894         945         944
         4         894         895         946         945
         4         895         896         947         946
         4         896         897         948         947
         4         897         898         949         948
         4         898         899         950         949
         4         899         900         951         950
         4         900         901         952         951
         4         901         902         953         952
         4         902         903         954         953
         4         903         904         955         954
         4         904         905         956         955
         4         905         906         957         956
         4         906         907         958         957
         4         907         908         959         958
         4         908         909         960         959
         4         909         910         961         960
         4         910         911         962         961
         4         911         912         963         962
         4         912         913         964         963
         4         913         914         965         964
         4         914         915         966         965
         4         915         916         967         966
         4         916         917         968         967
         4         918         919         970         969
         4         919         920         971         970
         4         920         921         972         971
         4         921         922         973         972
         4         922         923         974         973
         4         923         924         975         974
         4         924         925         976         975
         4         925         926         977         976
         4         926         927         978         977
         4         927         928         979         978
         4         928         929         980         979
         4         929         930         981         980
         4         930         931         982         981
         4         931         932         983         982
         4         932         933         984         983
         4         933         934         985         984
         4         934         935         986         985
         4         935         936         987         986
         4         936         937         988         987
         4         937         938         989         988
         4         938         939         990         989
         4         939         940         991         990
         4         940         941         992         991
         4         941         942         993         992
         4         942         943         994         993
         4         943         944         995         994
         4         944         945         996         995
         4         945         946         997         996
         4         946         947         998         997
         4         947         948         999         998
         4         948         949        1000         999
         4         949         950        1001        1000
         4         950         951        1002        1001
         4         951         952        1003        1002
         4         952         953        1004        1003
         4         953         954        1005        1004
         4         954         955        1006        1005
         4         955         956        1007        1006
         4         956         957        1008        1007
         4         957         958        1009        1008
         4         958         959        1010        1009
         4         959         960        1011        1010
         4         960         961        1012        1011
         4         961         962        1013        1012
         4         962         963        1014        1013
         4         963         964        1015        1014
         4         964         965        1016        1015
         4         965         966        1017        1016
         4         966         967        1018        1017
         4         967         968        1019        1018
         4         969         970        1021        1020
         4         970         971        1022        1021
         4         971         972        1023        1022
         4         972         973        1024        1023
         4         973         974        1025        1024
         4         974         975        1026        1025
         4         975         976        1027        1026
         4         976         977        1028        1027
         4         977         978        1029        1028
         4         978         979        1030        1029
         4         979         980        1031        1030
         4         980         981        1032        1031
         4         981         982        1033        1032
         4         982         983        1034        1033
         4         983         984        1035        1034
         4         984         985        1036        1035
         4         985         986        1037        1036
         4         986         987        1038        1037
         4         987         988        1039        1038
         4         988         989        1040        1039
         4         989         990        1041        1040
         4         990         991        1042        1041
         4         991         992        1043        1042
         4         992         993        1044        1043
         4         993         994        1045        1044
         4         994         995        1046        1045
         4         995         996        1047        1046
         4         996         997        1048        1047
         4         997         998        1049        1048
         4         998         999        1050        1049
         4         999        1000        1051        1050
         4        1000        1001        1052        1051
         4        1001        1002        1053        1052
         4        1002        1003        1054        1053
         4        1003        1004        1055        1054
         4        1004        1005        1056        1055
         4        1005        1006        1057        1056
         4        1006        1007        1058        1057
         4        1007        1008        1059        1058
         4        1008        1009        1060        1059
         4        1009        1010        1061        1060
         4        1010        1011        1062        1061
         4        1011        1012        1063        1062
         4        1012        1013        1064        1063
         4        1013        1014        1065        1064
         4        1014        1015        1066        1065
         4        1015        1016        1067        1066
         4        1016        1017        1068        1067
         4        1017        1018        1069        1068
         4        1018        1019        1070        1069
         4        1020        1021        1072        1071
         4        1021        1022        1073        1072
         4        1022        1023        1074        1073
         4        1023        1024        1075        1074
         4        1024        1025        1076        1075
         4        1025        1026        1077        1076
         4        1026        1027        1078        1077
         4        1027        1028        1079        1078
         4        1028        1029        1080        1079
         4        1029        1030        1081        1080
         4        1030        1031        1082        1081
         4        1031        1032        1083        1082
         4        1032        1033        1084        1083
         4        1033        1034        1085        1084
         4        1034        1035        1086        1085
         4        1035        1036        1087        1086
         4        1036        1037        1088        1087
         4        1037        1038        1089        1088
         4        1038        1039        1090        1089
         4        1039        1040        1091        1090
         4        1040        1041        1092        1091
         4        1041        1042        1093        1092
         4        1042        1043        1094        1093
         4        1043        1044        1095        1094
         4        1044        1045        1096        1095
         4        1045        1046        1097        1096
         4        1046        1047        1098        1097
         4        1047        1048        1099        1098
         4        1048        1049        1100        1099
         4        1049        1050        1101        1100
         4        1050        1051        1102        1101
         4        1051        1052        1103        1102
         4        1052        1053        1104        1103
         4        1053        1054        1105        1104
         4        1054        1055        1106        1105
         4        1055        1056        1107        1106
         4        1056        1057        1108        1107
         4        1057        1058        1109        1108
         4        1058        1059        1110        1109
         4        1059        1060        1111        1110
         4        1060        1061        1112        1111
         4        1061        1062        1113        1112
         4        1062        1063        1114        1113
         4        1063        1064        1115        1114
         4        1064        1065        1116        1115
         4        1065        1066        1117        1116
         4        1066        1067        1118        1117
         4        1067        1068        1119        1118
         4        1068        1069        1120        1119
         4        1069        1070        1121        1120
         4        1071        1072        1123        1122
         4        1072        1073        1124        1123
         4        1073        1074        1125        1124
         4        1074        1075        1126        1125
         4        1075        1076        1127        1126
         4        1076        1077        1128        1127
         4        1077        1078        1129        1128
         4        1078        1079        1130        1129
         4        1079        1080        1131        1130
         4        1080        1081        1132        1131
         4        1081        1082        1133        1132
         4        1082        1083        1134        1133
         4        1083        1084        1135        1134
         4        1084        1085        1136        1135
         4        1085        1086        1137        1136
         4        1086        1087        1138        1137
         4        1087        1088        1139        1138
         4        1088        1089        1140        1139
         4        1089        1090        1141        1140
         4        1090        1091        1142        1141
         4        1091        1092        1143        1142
         4        1092        1093        1144        1143
         4        1093        1094        1145        1144
         4        1094        1095        1146        1145
         4        1095        1096        1147        1146
         4        1096        1097        1148        1147
         4        1097        1098        1149        1148
         4        1098        1099        1150        1149
         4        1099        1100        1151        1150
         4        1100        1101        1152        1151
         4        1101        1102        1153        1152
         4        1102        1103        1154        1153
         4        1103        1104        1155        1154
         4        1104        1105        1156        1155
         4        1105        1106        1157        1156
         4        1106        1107        1158        1157
         4        1107        1108        1159        1158
         4        1108        1109        1160        1159
         4        1109        1110        1161        1160
         4        1110        1111        1162        1161
         4        1111        1112        1163        1162
         4        1112        1113        1164        1163
         4        1113        1114        1165        1164
         4        1114        1115        1166        1165
         4        1115        1116        1167        1166
         4        1116        1117        1168        1167
         4        1117        1118        1169        1168
         4        1118        1119        1170        1169
         4        1119        1120        1171        1170
         4        1120        1121        1172        1171
         4        1122        1123        1174        1173
         4        1123        1124        1175        1174
         4        1124        1125        1176        1175
         4        1125        1126        1177        1176
         4        1126        1127        1178        1177
         4        1127        1128        1179        1178
         4        1128        1129        1180        1179
         4        1129        1130        1181        1180
         4        1130        1131        1182        1181
         4        1131        1132        1183        1182
         4        1132        1133        1184        1183
         4        1133        1134        1185        1184
         4        1134        1135        1186        1185
         4        1135        1136        1187        1186
         4        1136        1137        1188        1187
         4        1137        1138        1189        1188
         4        1138        1139        1190        1189
         4        1139        1140        1191        1190
         4        1140        1141        1192        1191
         4        1141        1142        1193        1192
         4        1142        1143        1194        1193
         4        1143        1144        1195        1194
         4        1144        1145        1196        1195
         4        1145        1146        1197        1196
         4        1146        1147        1198        1197
         4        1147        1148        1199        1198
         4        1148        1149        1200        1199
         4        1149        1150        1201        1200
         4        1150        1151        1202        1201
         4        1151        1152        1203        1202
         4        1152        1153        1204        1203
         4        1153        1154        1205        1204
         4        1154        1155        1206        1205
         4        1155        1156        1207        1206
         4        1156        1157        1208        1207
         4        1157        1158        1209        1208
         4        1158        1159        1210        1209
         4        1159        1160        1211        1210
         4        1160        1161        1212        1211
         4        1161        1162        1213        1212
         4        1162        1163        1214        1213
         4        1163        1164        1215        1214
         4        1164        1165        1216        1215
         4        1165        1166        1217        1216
         4        1166        1167        1218        1217
         4        1167        1168        1219        1218
         4        1168        1169        1220        1219
         4        1169        1170        1221        1220
         4        1170        1171        1222        1221
         4        1171        1172        1223        1222
         4        1173        1174        1225        1224
         4        1174        1175        1226        1225
         4        1175        1176        1227        1226
         4        1176        1177        1228        1227
         4        1177        1178        1229        1228
         4        1178        1179        1230        1229
         4        1179        1180        1231        1230
         4        1180        1181        1232        1231
         4        1181        1182        1233        1232
         4        1182        1183        1234        1233
         4        1183        1184        1235        1234
         4        1184        1185        1236        1235
         4        1185        1186        1237        1236
         4        1186        1187        1238        1237
         4        1187        1188        1239        1238
         4        1188        1189        1240        1239
         4        1189        1190        1241        1240
         4        1190        1191        1242        1241
         4        1191        1192        1243        1242
         4        1192        1193        1244        1243
         4        1193        1194        1245        1244
         4        1194        1195        1246        1245
         4        1195        1196        1247        1246
         4        1196        1197        1248        1247
         4        1197        1198        1249        1248
         4        1198        1199        1250        1249
         4        1199        1200        1251        1250
         4        1200        1201        1252        1251
         4        1201        1202        1253        1252
         4        1202        1203        1254        1253
         4        1203        1204        1255        1254
         4        1204        1205        1256        1255
         4        1205        1206        1257        1256
         4        1206        1207        1258        1257
         4        1207        1208        1259        1258
         4        1208        1209        1260        1259
         4        1209        1210        1261        1260
         4        1210        1211        1262        1261
         4        1211        1212        1263        1262
         4        1212        1213        1264        1263
         4        1213        1214        1265        1264
         4        1214        1215        1266        1265
         4        1215        1216        1267        1266
         4        1216        1217        1268        1267
         4        1217        1218        1269        1268
         4        1218        1219        1270        1269
         4        1219        1220        1271        1270
         4        1220        1221        1272        1271
         4        1221        1222        1273        1272
         4        1222        1223        1274        1273
         4        1224        1225        1276        1275
         4        1225        1226        1277        1276
         4        1226        1227        1278        1277
         4        1227        1228        1279        1278
         4        1228        1229        1280        1279
         4        1229        1230        1281        1280
         4        1230        1231        1282        1281
         4        1231        1232        1283        1282
         4        1232        1233        1284        1283
         4        1233        1234        1285        1284
         4        1234        1235        1286        1285
         4        1235        1236        1287        1286
         4        1236        1237        1288        1287
         4        1237        1238        1289        1288
         4        1238        1239        1290        1289
         4        1239        1240        1291        1290
         4        1240        1241        1292        1291
         4        1241        1242        1293        1292
         4        1242        1243        1294        1293
         4        1243        1244        1295        1294
         4        1244        1245        1296        1295
         4        1245        1246        1297        1296
         4        1246        1247        1298        1297
         4        1247        1248        1299        1298
         4        1248        1249        1300        1299
         4        1249        1250        1301        1300
         4        1250        1251        1302        1301
         4        1251        1252        1303        1302
         4        1252        1253        1304        1303
         4        1253        1254        1305        1304
         4        1254        1255        1306        1305
         4        1255        1256        1307        1306
         4        1256        1257        1308        1307
         4        1257        1258        1309        1308
         4        1258        1259        1310        1309
         4        1259        1260        1311        1310
         4        1260        1261        1312        1311
         4        1261        1262        1313        1312
         4        1262        1263        1314        1313
         4        1263        1264        1315        1314
         4        1264        1265        1316        1315
         4        1265        1266        1317        1316
         4        1266        1267        1318        1317
         4        1267        1268        1319        1318
         4        1268        1269        1320        1319
         4        1269        1270        1321        1320
         4        1270        1271        1322        1321
         4        1271        1272        1323        1322
         4        1272        1273        1324        1323
         4        1273        1274        1325        1324
         4        1275        1276        1327        1326
         4        1276        1277        1328        1327
         4        1277        1278        1329        1328
         4        1278        1279        1330        1329
         4        1279        1280        1331        1330
         4        1280        1281        1332        1331
         4        1281        1282        1333        1332
         4        1282        1283        1334        1333
         4        1283        1284        1335        1334
         4        1284        1285        1336        1335
         4        1285        1286        1337        1336
         4        1286        1287        1338        1337
         4        1287        1288        1339        1338
         4        1288        1289        1340        1339
         4        1289        1290        1341        1340
         4        1290        1291        1342        1341
         4        1291        1292        1343        1342
         4        1292        1293        1344        1343
         4        1293        1294        1345        1344
         4        1294        1295        1346        1345
         4        1295        1296        1347        1346
         4        1296        1297        1348        1347
         4        1297        1298        1349        1348
         4        1298        1299        1350        1349
         4        1299        1300        1351        1350
         4        1300        1301        1352        1351
         4        1301        1302        1353        1352
         4        1302        1303        1354        1353
         4        1303        1304        1355        1354
         4        1304        1305        1356        1355
         4        1305        1306        1357        1356
         4        1306        1307        1358        1357
         4        1307        1308        1359        1358
         4        1308        1309        1360        1359
         4        1309        1310        1361        1360
         4        1310        1311        1362        1361
         4        1311        1312        1363        1362
         4        1312        1313        1364        1363
         4        1313        1314        1365        1364
         4        1314        1315        1366        1365
         4        1315        1316        1367        1366
         4        1316        1317        1368        1367
         4        1317        1318        1369        1368
         4        1318        1319        1370        1369
         4        1319        1320        1371        1370
         4        1320        1321        1372        1371
         4        1321        1322        1373        1372
         4        1322        1323        1374        1373
         4        1323        1324        1375        1374
         4        1324        1325        1376        1375
         4        1326        1327        1378        1377
         4        1327        1328        1379        1378
         4        1328        1329        1380        1379
         4        1329        1330        1381        1380
         4        1330        1331        1382        1381
         4        1331        1332        1383        1382
         4        1332        1333        1384        1383
         4        1333        1334        1385        1384
         4        1334        1335        1386        1385
         4        1335        1336        1387        1386
         4        1336        1337        1388        1387
         4        1337        1338        1389        1388
         4        1338        1339        1390        1389
         4        1339        1340        1391        1390
         4        1340        1341        1392        1391
         4        1341        1342        1393        1392
         4        1342        1343        1394        1393
         4        1343        1344        1395        1394
         4        1344        1345        1396        1395
         4        1345        1346        1397        1396
         4        1346        1347        1398        1397
         4        1347        1348        1399        1398
         4        1348        1349        1400        1399
         4        1349        1350        1401        1400
         4        1350        1351        1402        1401
         4        1351        1352        1403        1402
         4        1352        1353        1404        1403
         4        1353        1354        1405        1404
         4        1354        1355        1406        1405
         4        1355        1356        1407        1406
         4        1356        1357        1408        1407
         4        1357        1358        1409        1408
         4        1358        1359        1410        1409
         4        1359        1360        1411        1410
         4        1360        1361        1412        1411
         4        1361        1362        1413        1412
         4        1362        1363        1414        1413
         4        1363        1364        1415        1414
         4        1364        1365        1416        1415
         4        1365        1366        1417        1416
         4        1366        1367        1418        1417
         4        1367        1368        1419        1418
         4        1368        1369        1420        1419
         4        1369        1370        1421        1420
         4        1370        1371        1422        1421
         4        1371        1372        1423        1422
         4        1372        1373        1424        1423
         4        1373        1374        1425        1424
         4        1374        1375        1426        1425
         4        1375        1376        1427        1426
         4        1377        1378        1429        1428
         4        1378        1379        1430        1429
         4        1379        1380        1431        1430
         4        1380        1381        1432        1431
         4        1381        1382        1433        1432
         4        1382        1383        1434        1433
         4        1383        1384        1435        1434
         4        1384        1385        1436        1435
         4        1385        1386        1437        1436
         4        1386        1387        1438        1437
         4        1387        1388        1439        1438
         4        1388        1389        1440        1439
         4        1389        1390        1441        1440
         4        1390        1391        1442        1441
         4        1391        1392        1443        1442
         4        1392        1393        1444        1443
         4        1393        1394        1445        1444
         4        1394        1395        1446        1445
         4        1395        1396        1447        1446
         4        1396        1397        1448        1447
         4        1397        1398        1449        1448
         4        1398        1399        1450        1449
         4        1399        1400        1451        1450
         4        1400        1401        1452        1451
         4        1401        1402        1453        1452
         4        1402        1403        1454        1453
         4        1403        1404        1455        1454
         4        1404        1405        1456        1455
         4        1405        1406        1457        1456
         4        1406        1407        1458        1457
         4        1407        1408        1459        1458
         4        1408        1409        1460        1459
         4        1409        1410        1461        1460
         4        1410        1411        1462        1461
         4        1411        1412        1463        1462
         4        1412        1413        1464        1463
         4        1413        1414        1465        1464
         4        1414        1415        1466        1465
         4        1415        1416        1467        1466
         4        1416        1417        1468        1467
         4        1417        1418        1469        1468
         4        1418        1419        1470        1469
         4        1419        1420        1471        1470
         4        1420        1421        1472        1471
         4        1421        1422        1473        1472
         4        1422        1423        1474        1473
         4        1423        1424        1475        1474
         4        1424        1425        1476        1475
         4        1425        1426        1477        1476
         4        1426        1427        1478        1477
         4        1428        1429        1480        1479
         4        1429        1430        1481        1480
         4        1430        1431        1482        1481
         4        1431        1432        1483        1482
         4        1432        1433        1484        1483
         4        1433        1434        1485        1484
         4        1434        1435        1486        1485
         4        1435        1436        1487        1486
         4        1436        1437        1488        1487
         4        1437        1438        1489        1488
         4        1438        1439        1490        1489
         4        1439        1440        1491        1490
         4        1440        1441        1492        1491
         4        1441        1442        1493        1492
         4        1442        1443        1494        1493
         4        1443        1444        1495        1494
         4        1444        1445        1496        1495
         4        1445        1446        1497        1496
         4        1446        1447        1498        1497
         4        1447        1448        1499        1498
         4        1448        1449        1500        1499
         4        1449        1450        1501        1500
         4        1450        1451        1502        1501
         4        1451        1452        1503        1502
         4        1452        1453        1504        1503
         4        1453        1454        1505        1504
         4        1454        1455        1506        1505
         4        1455        1456        1507        1506
         4        1456        1457        1508        1507
         4        1457        1458        1509        1508
         4        1458        1459        1510        1509
         4        1459        1460        1511        1510
         4        1460        1461        1512        1511
         4        1461        1462        1513        1512
         4        1462        1463        1514        1513
         4        1463        1464        1515        1514
         4        1464        1465        1516        1515
         4        1465        1466        1517        1516
         4        1466        1467        1518        1517
         4        1467        1468        1519        1518
         4        1468        1469        1520        1519
         4        1469        1470        1521        1520
         4        1470        1471        1522        1521
         4        1471        1472        1523        1522
         4        1472        1473        1524        1523
         4        1473        1474        1525        1524
         4        1474        1475        1526        1525
         4        1475        1476        1527        1526
         4        1476        1477        1528        1527
         4        1477        1478        1529        1528
         4        1479        1480        1531        1530
         4        1480        1481        1532        1531
         4        1481        1482        1533        1532
         4        1482        1483        1534        1533
         4        1483        1484        1535        1534
         4        1484        1485        1536        1535
         4        1485        1486        1537        1536
         4        1486        1487        1538        1537
         4        1487        1488        1539        1538
         4        1488        1489        1540        1539
         4        1489        1490        1541        1540
         4        1490        1491        1542        1541
         4        1491        1492        1543        1542
         4        1492        1493        1544        1543
         4        1493        1494        1545        1544
         4        1494        1495        1546        1545
         4        1495        1496        1547        1546
         4        1496        1497        1548        1547
         4        1497        1498        1549        1548
         4        1498        1499        1550        1549
         4        1499        1500        1551        1550
         4        1500        1501        1552        1551
         4        1501        1502        1553        1552
         4        1502        1503        1554        1553
         4        1503        1504        1555        1554
         4        1504        1505        1556        1555
         4        1505        1506        1557        1556
         4        1506        1507        1558        1557
         4        1507        1508        1559        1558
         4        1508        1509        1560        1559
         4        1509        1510        1561        1560
         4        1510        1511        1562        1561
         4        1511        1512        1563        1562
         4        1512        1513        1564        1563
         4        1513        1514        1565        1564
         4        1514        1515        1566        1565
         4        1515        1516        1567        1566
         4        1516        1517        1568        1567
         4        1517        1518        1569        1568
         4        1518        1519        1570        1569
         4        1519        1520        1571        1570
         4        1520        1521        1572        1571
         4        1521        1522        1573        1572
         4        1522        1523        1574        1573
         4        1523        1524        1575        1574
         4        1524        1525        1576        1575
         4        1525        1526        1577        1576
         4        1526        1527        1578        1577
         4        1527        1528        1579        1578
         4        1528        1529        1580        1579
         4        1530        1531        1582        1581
         4        1531        1532        1583        1582
         4        1532        1533        1584        1583
         4        1533        1534        1585        1584
         4        1534        1535        1586        1585
         4        1535        1536        1587        1586
         4        1536        1537        1588        1587
         4        1537        1538        1589        1588
         4        1538        1539        1590        1589
         4        1539        1540        1591        1590
         4        1540        1541        1592        1591
         4        1541        1542        1593        1592
         4        1542        1543        1594        1593
         4        1543        1544        1595        1594
         4        1544        1545        1596        1595
         4        1545        1546        1597        1596
         4        1546        1547        1598        1597
         4        1547        1548        1599        1598
         4        1548        1549        1600        1599
         4        1549        1550        1601        1600
         4        1550        1551        1602        1601
         4        1551        1552        1603        1602
         4        1552        1553        1604        1603
         4        1553        1554        1605        1604
         4        1554        1555        1606        1605
         4        1555        1556        1607        1606
         4        1556        1557        1608        1607
         4        1557        1558        1609        1608
         4        1558        1559        1610        1609
         4        1559        1560        1611        1610
         4        1560        1561        1612        1611
         4        1561        1562        1613        1612
         4        1562        1563        1614        1613
         4        1563        1564        1615        1614
         4        1564        1565        1616        1615
         4        1565        1566        1617        1616
         4        1566        1567        1618        1617
         4        1567        1568        1619        1618
         4        1568        1569        1620        1619
         4        1569        1570        1621        1620
         4        1570        1571        1622        1621
         4        1571        1572        1623        1622
         4        1572        1573        1624        1623
         4        1573        1574        1625        1624
         4        1574        1575        1626        1625
         4        1575        1576        1627        1626
         4        1576        1577        1628        1627
         4        1577        1578        1629        1628
         4        1578        1579        1630        1629
         4        1579        1580        1631        1630
         4        1581        1582        1633        1632
         4        1582        1583        1634        1633
         4        1583        1584        1635        1634
         4        1584        1585        1636        1635
         4        1585        1586        1637        1636
         4        1586        1587        1638        1637
         4        1587        1588        1639        1638
         4        1588        1589        1640        1639
         4        1589        1590        1641        1640
         4        1590        1591        1642        1641
         4        1591        1592        1643        1642
         4        1592        1593        1644        1643
         4        1593        1594        1645        1644
         4        1594        1595        1646        1645
         4        1595        1596        1647        1646
         4        1596        1597        1648        1647
         4        1597        1598        1649        1648
         4        1598        1599        1650        1649
         4        1599        1600        1651        1650
         4        1600        1601        1652        1651
         4        1601        1602        1653        1652
         4        1602        1603        1654        1653
         4        1603        1604        1655        1654
         4        1604        1605        1656        1655
         4        1605        1606        1657        1656
         4        1606        1607        1658        1657
         4        1607        1608        1659        1658
         4        1608        1609        1660        1659
         4        1609        1610        1661        1660
         4        1610        1611        1662        1661
         4        1611        1612        1663        1662
         4        1612        1613        1664        1663
         4        1613        1614        1665        1664
         4        1614        1615        1666        1665
         4        1615        1616        1667        1666
         4        1616        1617        1668        1667
         4        1617        1618        1669        1668
         4        1618        1619        1670        1669
         4        1619        1620        1671        1670
         4        1620        1621        1672        1671
         4        1621        1622        1673        1672
         4        1622        1623        1674        1673
         4        1623        1624        1675        1674
         4        1624        1625        1676        1675
         4        1625        1626        1677        1676
         4        1626        1627        1678        1677
         4        1627        1628        1679        1678
         4        1628        1629        1680        1679
         4        1629        1630        1681        1680
         4        1630        1631        1682        1681
         4        1632        1633        1684        1683
         4        1633        1634        1685        1684
         4        1634        1635        1686        1685
         4        1635        1636        1687        1686
         4        1636        1637        1688        1687
         4        1637        1638        1689        1688
         4        1638        1639        1690        1689
         4        1639        1640        1691        1690
         4        1640        1641        1692        1691
         4        1641        1642        1693        1692
         4        1642        1643        1694        1693
         4        1643        1644        1695        1694
         4        1644        1645        1696        1695
         4        1645        1646        1697        1696
         4        1646        1647        1698        1697
         4        1647        1648        1699        1698
         4        1648        1649        1700        1699
         4        1649        1650        1701        1700
         4        1650        1651        1702        1701
         4        1651        1652        1703        1702
         4        1652        1653        1704        1703
         4        1653        1654        1705        1704
         4        1654        1655        1706        1705
         4        1655        1656        1707        1706
         4        1656        1657        1708        1707
         4        1657        1658        1709        1708
         4        1658        1659        1710        1709
         4        1659        1660        1711        1710
         4        1660        1661        1712        1711
         4        1661        1662        1713        1712
         4        1662        1663        1714        1713
         4        1663        1664        1715        1714
         4        1664        1665        1716        1715
         4        1665        1666        1717        1716
         4        1666        1667        1718        1717
         4        1667        1668        1719        1718
         4        1668        1669        1720        1719
         4        1669        1670        1721        1720
         4        1670        1671        1722        1721
         4        1671        1672        1723        1722
         4        1672        1673        1724        1723
         4        1673        1674        1725        1724
         4        1674        1675        1726        1725
         4        1675        1676        1727        1726
         4        1676        1677        1728        1727
         4        1677        1678        1729        1728
         4        1678        1679        1730        1729
         4        1679        1680        1731        1730
         4        1680        1681        1732        1731
         4        1681        1682        1733        1732
         4        1683        1684        1735        1734
         4        1684        1685        1736        1735
         4        1685        1686        1737        1736
         4        1686        1687        1738        1737
         4        1687        1688        1739        1738
         4        1688        1689        1740        1739
         4        1689        1690        1741        1740
         4        1690        1691        1742        1741
         4        1691        1692        1743        1742
         4        1692        1693        1744        1743
         4        1693        1694        1745        1744
         4        1694        1695        1746        1745
         4        1695        1696        1747        1746
         4        1696        1697        1748        1747
         4        1697        1698        1749        1748
         4        1698        1699        1750        1749
         4        1699        1700        1751        1750
         4        1700        1701        1752        1751
         4        1701        1702        1753        1752
         4        1702        1703        1754        1753
         4        1703        1704        1755        1754
         4        1704        1705        1756        1755
         4        1705        1706        1757        1756
         4        1706        1707        1758        1757
         4        1707        1708        1759        1758
         4        1708        1709        1760        1759
         4        1709        1710        1761        1760
         4        1710        1711        1762        1761
         4        1711        1712        1763        1762
         4        1712        1713        1764        1763
         4        1713        1714        1765        1764
         4        1714        1715        1766        1765
         4        1715        1716        1767        1766
         4        1716        1717        1768        1767
         4        1717        1718        1769        1768
         4        1718        1719        1770        1769
         4        1719        1720        1771        1770
         4        1720        1721        1772        1771
         4        1721        1722        1773        1772
         4        1722        1723        1774        1773
         4        1723        1724        1775        1774
         4        1724        1725        1776        1775
         4        1725        1726        1777        1776
         4        1726        1727        1778        1777
         4        1727        1728        1779        1778
         4        1728        1729        1780        1779
         4        1729        1730        1781        1780
         4        1730        1731        1782        1781
         4        1731        1732        1783        1782
         4        1732        1733        1784        1783
         4        1734        1735        1786        1785
         4        1735        1736        1787        1786
         4        1736        1737        1788        1787
         4        1737        1738        1789        1788
         4        1738        1739        1790        1789
         4        1739        1740        1791        1790
         4        1740        1741        1792        1791
         4        1741        1742        1793        1792
         4        1742        1743        1794        1793
         4        1743        1744        1795        1794
         4        1744        1745        1796        1795
         4        1745        1746        1797        1796
         4        1746        1747        1798        1797
         4        1747        1748        1799        1798
         4        1748        1749        1800        1799
         4        1749        1750        1801        1800
         4        1750        1751        1802        1801
         4        1751        1752        1803        1802
         4        1752        1753        1804        1803
         4        1753        1754        1805        1804
         4        1754        1755        1806        1805
         4        1755        1756        1807        1806
         4        1756        1757        1808        1807
         4        1757        1758        1809        1808
         4        1758        1759        1810        1809
         4        1759        1760        1811        1810
         4        1760        1761        1812        1811
         4        1761        1762        1813        1812
         4        1762        1763        1814        1813
         4        1763        1764        1815        1814
         4        1764        1765        1816        1815
         4        1765        1766        1817        1816
         4        1766        1767        1818        1817
         4        1767        1768        1819        1818
         4        1768        1769        1820        1819
         4        1769        1770        1821        1820
         4        1770        1771        1822        1821
         4        1771        1772        1823        1822
         4        1772        1773        1824        1823
         4        1773        1774        1825        1824
         4        1774        1775        1826        1825
         4        1775        1776        1827        1826
         4        1776        1777        1828        1827
         4        1777        1778        1829        1828
         4        1778        1779        1830        1829
         4        1779        1780        1831        1830
         4        1780        1781        1832        1831
         4        1781        1782        1833        1832
         4        1782        1783        1834        1833
         4        1783        1784        1835        1834
         4        1785        1786        1837        1836
         4        1786        1787        1838        1837
         4        1787        1788        1839        1838
         4        1788        1789        1840        1839
         4        1789        1790        1841        1840
         4        1790        1791        1842        1841
         4        1791        1792        1843        1842
         4        1792        1793        1844        1843
         4        1793        1794        1845        1844
         4        1794        1795        1846        1845
         4        1795        1796        1847        1846
         4        1796        1797        1848        1847
         4        1797        1798        1849        1848
         4        1798        1799        1850        1849
         4        1799        1800        1851        1850
         4        1800        1801        1852        1851
         4        1801        1802        1853        1852
         4        1802        1803        1854        1853
         4        1803        1804        1855        1854
         4        1804        1805        1856        1855
         4        1805        1806        1857        1856
         4        1806        1807        1858        1857
         4        1807        1808        1859        1858
         4        1808        1809        1860        1859
         4        1809        1810        1861        1860
         4        1810        1811        1862        1861
         4        1811        1812        1863        1862
         4        1812        1813        1864        1863
         4        1813        1814        1865        1864
         4        1814        1815        1866        1865
         4        1815        1816        1867        1866
         4        1816        1817        1868        1867
         4        1817        1818        1869        1868
         4        1818        1819        1870        1869
         4        1819        1820        1871        1870
         4        1820        1821        1872        1871
         4        1821        1822        1873        1872
         4        1822        1823        1874        1873
         4        1823        1824        1875        1874
         4        1824        1825        1876        1875
         4        1825        1826        1877        1876
         4        1826        1827        1878        1877
         4        1827        1828        1879        1878
         4        1828        1829        1880        1879
         4        1829        1830        1881        1880
         4        1830        1831        1882        1881
         4        1831        1832        1883        1882
         4        1832        1833        1884        1883
         4        1833        1834        1885        1884
         4        1834        1835        1886        1885
         4        1836        1837        1888        1887
         4        1837        1838        1889        1888
         4        1838        1839        1890        1889
         4        1839        1840        1891        1890
         4        1840        1841        1892        1891
         4        1841        1842        1893        1892
         4        1842        1843        1894        1893
         4        1843        1844        1895        1894
         4        1844        1845        1896        1895
         4        1845        1846        1897        1896
         4        1846        1847        1898        1897
         4        1847        1848        1899        1898
         4        1848        1849        1900        1899
         4        1849        1850        1901        1900
         4        1850        1851        1902        1901
         4        1851        1852        1903        1902
         4        1852        1853        1904        1903
         4        1853        1854        1905        1904
         4        1854        1855        1906        1905
         4        1855        1856        1907        1906
         4        1856        1857        1908        1907
         4        1857        1858        1909        1908
         4        1858        1859        1910        1909
         4        1859        1860        1911        1910
         4        1860        1861        1912        1911
         4        1861        1862        1913        1912
         4        1862        1863        1914        1913
         4        1863        1864        1915        1914
         4        1864        1865        1916        1915
         4        1865        1866        1917        1916
         4        1866        1867        1918        1917
         4        1867        1868        1919        1918
         4        1868        1869        1920        1919
         4        1869        1870        1921        1920
         4        1870        1871        1922        1921
         4        1871        1872        1923        1922
         4        1872        1873        1924        1923
         4        1873        1874        1925        1924
         4        1874        1875        1926        1925
         4        1875        1876        1927        1926
         4        1876        1877        1928        1927
         4        1877        1878        1929        1928
         4        1878        1879        1930        1929
         4        1879        1880        1931        1930
         4        1880        1881        1932        1931
         4        1881        1882        1933        1932
         4        1882        1883        1934        1933
         4        1883        1884        1935        1934
         4        1884        1885        1936        1935
         4        1885        1886        1937        1936
         4        1887        1888        1939        1938
         4        1888        1889        1940        1939
         4        1889        1890        1941        1940
         4        1890        1891        1942        1941
         4        1891        1892        1943        1942
         4        1892        1893        1944        1943
         4        1893        1894        1945        1944
         4        1894        1895        1946        1945
         4        1895        1896        1947        1946
         4        1896        1897        1948        1947
         4        1897        1898        1949        1948
         4        1898        1899        1950        1949
         4        1899        1900        1951        1950
         4        1900        1901        1952        1951
         4        1901        1902        1953        1952
         4        1902        1903        1954        1953
         4        1903        1904        1955        1954
         4        1904        1905        1956        1955
         4        1905        1906        1957        1956
         4        1906        1907        1958        1957
         4        1907        1908        1959        1958
         4        1908        1909        1960        1959
         4        1909        1910        1961        1960
         4        1910        1911        1962        1961
         4        1911        1912        1963        1962
         4        1912        1913        1964        1963
         4        1913        1914        1965        1964
         4        1914        1915        1966        1965
         4        1915        1916        1967        1966
         4        1916        1917        1968        1967
         4        1917        1918        1969        1968
         4        1918        1919        1970        1969
         4        1919        1920        1971        1970
         4        1920        1921        1972        1971
         4        1921        1922        1973        1972
         4        1922        1923        1974        1973
         4        1923        1924        1975        1974
         4        1924        1925        1976        1975
         4        1925        1926        1977        1976
         4        1926        1927        1978        1977
         4        1927        1928        1979        1978
         4        1928        1929        1980        1979
         4        1929        1930        1981        1980
         4        1930        1931        1982        1981
         4        1931        1932        1983        1982
         4        1932        1933        1984        1983
         4        1933        1934        1985        1984
         4        1934        1935        1986        1985
         4        1935        1936        1987        1986
         4        1936        1937        1988        1987
         4        1938        1939        1990        1989
         4        1939        1940        1991        1990
         4        1940        1941        1992        1991
         4        1941        1942        1993        1992
         4        1942        1943        1994        1993
         4        1943        1944        1995        1994
         4        1944        1945        1996        1995
         4        1945        1946        1997        1996
         4        1946        1947        1998        1997
         4        1947        1948        1999        1998
         4        1948        1949        2000        1999
         4        1949        1950        2001        2000
         4        1950        1951        2002        2001
         4        1951        1952        2003        2002
         4        1952        1953        2004        2003
         4        1953        1954        2005        2004
         4        1954        1955        2006        2005
         4        1955        1956        2007        2006
         4        1956        1957        2008        2007
         4        1957        1958        2009        2008
         4        1958        1959        2010        2009
         4        1959        1960        2011        2010
         4        1960        1961        2012        2011
         4        1961        1962        2013        2012
         4        1962        1963        2014        2013
         4        1963        1964        2015        2014
         4        1964        1965        2016        2015
         4        1965        1966        2017        2016
         4        1966        1967        2018        2017
         4        1967        1968        2019        2018
         4        1968        1969        2020        2019
         4        1969        1970        2021        2020
         4        1970        1971        2022        2021
         4        1971        1972        2023        2022
         4        1972        1973        2024        2023
         4        1973        1974        2025        2024
         4        1974        1975        2026        2025
         4        1975        1976        2027        2026
         4        1976        1977        2028        2027
         4        1977        1978        2029        2028
         4        1978        1979        2030        2029
         4        1979        1980        2031        2030
         4        1980        1981        2032        2031
         4        1981        1982        2033        2032
         4        1982        1983        2034        2033
         4        1983        1984        2035        2034
         4        1984        1985        2036        2035
         4        1985        1986        2037        2036
         4        1986        1987        2038        2037
         4        1987        1988        2039        2038
         4        1989        1990        2041        2040
         4        1990        1991        2042        2041
         4        1991        1992        2043        2042
         4        1992        1993        2044        2043
         4        1993        1994        2045        2044
         4        1994        1995        2046        2045
         4        1995        1996        2047        2046
         4        1996        1997        2048        2047
         4        1997        1998        2049        2048
         4        1998        1999        2050        2049
         4        1999        2000        2051        2050
         4        2000        2001        2052        2051
         4        2001        2002        2053        2052
         4        2002        2003        2054        2053
         4        2003        2004        2055        2054
         4        2004        2005        2056        2055
         4        2005        2006        2057        2056
         4        2006        2007        2058        2057
         4        2007        2008        2059        2058
         4        2008        2009        2060        2059
         4        2009        2010        2061        2060
         4        2010        2011        2062        2061
         4        2011        2012        2063        2062
         4        2012        2013        2064        2063
         4        2013        2014        2065        2064
         4        2014        2015        2066        2065
         4        2015        2016        2067        2066
         4        2016        2017        2068        2067
         4        2017        2018        2069        2068
         4        2018        2019        2070        2069
         4        2019        2020        2071        2070
         4        2020        2021        2072        2071
         4        2021        2022        2073        2072
         4        2022        2023        2074        2073
         4        2023        2024        2075        2074
         4        2024        2025        2076        2075
         4        2025        2026        2077        2076
         4        2026        2027        2078        2077
         4        2027        2028        2079        2078
         4        2028        2029        2080        2079
         4        2029        2030        2081        2080
         4        2030        2031        2082        2081
         4        2031        2032        2083        2082
         4        2032        2033        2084        2083
         4        2033        2034        2085        2084
         4        2034        2035        2086        2085
         4        2035        2036        2087        2086
         4        2036        2037        2088        2087
         4        2037        2038        2089        2088
         4        2038        2039        2090        2089
         4        2040        2041        2092        2091
         4        2041        2042        2093        2092
         4        2042        2043        2094        2093
         4        2043        2044        2095        2094
         4        2044        2045        2096        2095
         4        2045        2046        2097        2096
         4        2046        2047        2098        2097
         4        2047        2048        2099        2098
         4        2048        2049        2100        2099
         4        2049        2050        2101        2100
         4        2050        2051        2102        2101
         4        2051        2052        2103        2102
         4        2052        2053        2104        2103
         4        2053        2054        2105        2104
         4        2054        2055        2106        2105
         4        2055        2056        2107        2106
         4        2056        2057        2108        2107
         4        2057        2058        2109        2108
         4        2058        2059        2110        2109
         4        2059        2060        2111        2110
         4        2060        2061        2112        2111
         4        2061        2062        2113        2112
         4        2062        2063        2114        2113
         4        2063        2064        2115        2114
         4        2064        2065        2116        2115
         4        2065        2066        2117        2116
         4        2066        2067        2118        2117
         4        2067        2068        2119        2118
         4        2068        2069        2120        2119
         4        2069        2070        2121        2120
         4        2070        2071        2122        2121
         4        2071        2072        2123        2122
         4        2072        2073        2124        2123
         4        2073        2074        2125        2124
         4        2074        2075        2126        2125
         4        2075        2076        2127        2126
         4        2076        2077        2128        2127
         4        2077        2078        2129        2128
         4        2078        2079        2130        2129
         4        2079        2080        2131        2130
         4        2080        2081        2132        2131
         4        2081        2082        2133        2132
         4        2082        2083        2134        2133
         4        2083        2084        2135        2134
         4        2084        2085        2136        2135
         4        2085        2086        2137        2136
         4        2086        2087        2138        2137
         4        2087        2088        2139        2138
         4        2088        2089        2140        2139
         4        2089        2090        2141        2140
         4        2091        2092        2143        2142
         4        2092        2093        2144        2143
         4        2093        2094        2145        2144
         4        2094        2095        2146        2145
         4        2095        2096        2147        2146
         4        2096        2097        2148        2147
         4        2097        2098        2149        2148
         4        2098        2099        2150        2149
         4        2099        2100        2151        2150
         4        2100        2101        2152        2151
         4        2101        2102        2153        2152
         4        2102        2103        2154        2153
         4        2103        2104        2155        2154
         4        2104        2105        2156        2155
         4        2105        2106        2157        2156
         4        2106        2107        2158        2157
         4        2107        2108        2159        2158
         4        2108        2109        2160        2159
         4        2109        2110        2161        2160
         4        2110        2111        2162        2161
         4        2111        2112        2163        2162
         4        2112        2113        2164        2163
         4        2113        2114        2165        2164
         4        2114        2115        2166        2165
         4        2115        2116        2167        2166
         4        2116        2117        2168        2167
         4        2117        2118        2169        2168
         4        2118        2119        2170        2169
         4        2119        2120        2171        2170
         4        2120        2121        2172        2171
         4        2121        2122        2173        2172
         4        2122        2123        2174        2173
         4        2123        2124        2175        2174
         4        2124        2125        2176        2175
         4        2125        2126        2177        2176
         4        2126        2127        2178        2177
         4        2127        2128        2179        2178
         4        2128        2129        2180        2179
         4        2129        2130        2181        2180
         4        2130        2131        2182        2181
         4        2131        2132        2183        2182
         4        2132        2133        2184        2183
         4        2133        2134        2185        2184
         4        2134        2135        2186        2185
         4        2135        2136        2187        2186
         4        2136        2137        2188        2187
         4        2137        2138        2189        2188
         4        2138        2139        2190        2189
         4        2139        2140        2191        2190
         4        2140        2141        2192        2191
         4        2142        2143        2194        2193
         4        2143        2144        2195        2194
         4        2144        2145        2196        2195
         4        2145        2146        2197        2196
         4        2146        2147        2198        2197
         4        2147        2148        2199        2198
         4        2148        2149        2200        2199
         4        2149        2150        2201        2200
         4        2150        2151        2202        2201
         4        2151        2152        2203        2202
         4        2152        2153        2204        2203
         4        2153        2154        2205        2204
         4        2154        2155        2206        2205
         4        2155        2156        2207        2206
         4        2156        2157        2208        2207
         4        2157        2158        2209        2208
         4        2158        2159        2210        2209
         4        2159        2160        2211        2210
         4        2160        2161        2212        2211
         4        2161        2162        2213        2212
         4        2162        2163        2214        2213
         4        2163        2164        2215        2214
         4        2164        2165        2216        2215
         4        2165        2166        2217        2216
         4        2166        2167        2218        2217
         4        2167        2168        2219        2218
         4        2168        2169        2220        2219
         4        2169        2170        2221        2220
         4        2170        2171        2222        2221
         4        2171        2172        2223        2222
         4        2172        2173        2224        2223
         4        2173        2174        2225        2224
         4        2174        2175        2226        2225
         4        2175        2176        2227        2226
         4        2176        2177        2228        2227
         4        2177        2178        2229        2228
         4        2178        2179        2230        2229
         4        2179        2180        2231        2230
         4        2180        2181        2232        2231
         4        2181        2182        2233        2232
         4        2182        2183        2234        2233
         4        2183        2184        2235        2234
         4        2184        2185        2236        2235
         4        2185        2186        2237        2236
         4        2186        2187        2238        2237
         4        2187        2188        2239        2238
         4        2188        2189        2240        2239
         4        2189        2190        2241        2240
         4        2190        2191        2242        2241
         4        2191        2192        2243        2242
         4        2193        2194        2245        2244
         4        2194        2195        2246        2245
         4        2195        2196        2247        2246
         4        2196        2197        2248        2247
         4        2197        2198        2249        2248
         4        2198        2199        2250        2249
         4        2199        2200        2251        2250
         4        2200        2201        2252        2251
         4        2201        2202        2253        2252
         4        2202        2203        2254        2253
         4        2203        2204        2255        2254
         4        2204        2205        2256        2255
         4        2205        2206        2257        2256
         4        2206        2207        2258        2257
         4        2207        2208        2259        2258
         4        2208        2209        2260        2259
         4        2209        2210        2261        2260
         4        2210        2211        2262        2261
         4        2211        2212        2263        2262
         4        2212        2213        2264        2263
         4        2213        2214        2265        2264
         4        2214        2215        2266        2265
         4        2215        2216        2267        2266
         4        2216        2217        2268        2267
         4        2217        2218        2269        2268
         4        2218        2219        2270        2269
         4        2219        2220        2271        2270
         4        2220        2221        2272        2271
         4        2221        2222        2273        2272
         4        2222        2223        2274        2273
         4        2223        2224        2275        2274
         4        2224        2225        2276        2275
         4        2225        2226        2277        2276
         4        2226        2227        2278        2277
         4        2227        2228        2279        2278
         4        2228        2229        2280        2279
         4        2229        2230        2281        2280
         4        2230        2231        2282        2281
         4        2231        2232        2283        2282
         4        2232        2233        2284        2283
         4        2233        2234        2285        2284
         4        2234        2235        2286        2285
         4        2235        2236        2287        2286
         4        2236        2237        2288        2287
         4        2237        2238        2289        2288
         4        2238        2239        2290        2289
         4        2239        2240        2291        2290
         4        2240        2241        2292        2291
         4        2241        2242        2293        2292
         4        2242        2243        2294        2293
         4        2244        2245        2296        2295
         4        2245        2246        2297        2296
         4        2246        2247        2298        2297
         4        2247        2248        2299        2298
         4        2248        2249        2300        2299
         4        2249        2250        2301        2300
         4        2250        2251        2302        2301
         4        2251        2252        2303        2302
         4        2252        2253        2304        2303
         4        2253        2254        2305        2304
         4        2254        2255        2306        2305
         4        2255        2256        2307        2306
         4        2256        2257        2308        2307
         4        2257        2258        2309        2308
         4        2258        2259        2310        2309
         4        2259        2260        2311        2310
         4        2260        2261        2312        2311
         4        2261        2262        2313        2312
         4        2262        2263        2314        2313
         4        2263        2264        2315        2314
         4        2264        2265        2316        2315
         4        2265        2266        2317        2316
         4        2266        2267        2318        2317
         4        2267        2268        2319        2318
         4        2268        2269        2320        2319
         4        2269        2270        2321        2320
         4        2270        2271        2322        2321
         4        2271        2272        2323        2322
         4        2272        2273        2324        2323
         4        2273        2274        2325        2324
         4        2274        2275        2326        2325
         4        2275        2276        2327        2326
         4        2276        2277        2328        2327
         4        2277        2278        2329        2328
         4        2278        2279        2330        2329
         4        2279        2280        2331        2330
         4        2280        2281        2332        2331
         4        2281        2282        2333        2332
         4        2282        2283        2334        2333
         4        2283        2284        2335        2334
         4        2284        2285        2336        2335
         4        2285        2286        2337        2336
         4        2286        2287        2338        2337
         4        2287        2288        2339        2338
         4        2288        2289        2340        2339
         4        2289        2290        2341        2340
         4        2290        2291        2342        2341
         4        2291        2292        2343        2342
         4        2292        2293        2344        2343
         4        2293        2294        2345        2344
         4        2295        2296        2347        2346
         4        2296        2297        2348        2347
         4        2297        2298        2349        2348
         4        2298        2299        2350        2349
         4        2299        2300        2351        2350
         4        2300        2301        2352        2351
         4        2301        2302        2353        2352
         4        2302        2303        2354        2353
         4        2303        2304        2355        2354
         4        2304        2305        2356        2355
         4        2305        2306        2357        2356
         4        2306        2307        2358        2357
         4        2307        2308        2359        2358
         4        2308        2309        2360        2359
         4        2309        2310        2361        2360
         4        2310        2311        2362        2361
         4        2311        2312        2363        2362
         4        2312        2313        2364        2363
         4        2313        2314        2365        2364
         4        2314        2315        2366        2365
         4        2315        2316        2367        2366
         4        2316        2317        2368        2367
         4        2317        2318        2369        2368
         4        2318        2319        2370        2369
         4        2319        2320        2371        2370
         4        2320        2321        2372        2371
         4        2321        2322        2373        2372
         4        2322        2323        2374        2373
         4        2323        2324        2375        2374
         4        2324        2325        2376        2375
         4        2325        2326        2377        2376
         4        2326        2327        2378        2377
         4        2327        2328        2379        2378
         4        2328        2329        2380        2379
         4        2329        2330        2381        2380
         4        2330        2331        2382        2381
         4        2331        2332        2383        2382
         4        2332        2333        2384        2383
         4        2333        2334        2385        2384
         4        2334        2335        2386        2385
         4        2335        2336        2387        2386
         4        2336        2337        2388        2387
         4        2337        2338        2389        2388
         4        2338        2339        2390        2389
         4        2339        2340        2391        2390
         4        2340        2341        2392        2391
         4        2341        2342        2393        2392
         4        2342        2343        2394        2393
         4        2343        2344        2395        2394
         4        2344        2345        2396        2395
         4        2346        2347        2398        2397
         4        2347        2348        2399        2398
         4        2348        2349        2400        2399
         4        2349        2350        2401        2400
         4        2350        2351        2402        2401
         4        2351        2352        2403        2402
         4        2352        2353        2404        2403
         4        2353        2354        2405        2404
         4        2354        2355        2406        2405
         4        2355        2356        2407        2406
         4        2356        2357        2408        2407
         4        2357        2358        2409        2408
         4        2358        2359        2410        2409
         4        2359        2360        2411        2410
         4        2360        2361        2412        2411
         4        2361        2362        2413        2412
         4        2362        2363        2414        2413
         4        2363        2364        2415        2414
         4        2364        2365        2416        2415
         4        2365        2366        2417        2416
         4        2366        2367        2418        2417
         4        2367        2368        2419        2418
         4        2368        2369        2420        2419
         4        2369        2370        2421        2420
         4        2370        2371        2422        2421
         4        2371        2372        2423        2422
         4        2372        2373        2424        2423
         4        2373        2374        2425        2424
         4        2374        2375        2426        2425
         4        2375        2376        2427        2426
         4        2376        2377        2428        2427
         4        2377        2378        2429        2428
         4        2378        2379        2430        2429
         4        2379        2380        2431        2430
         4        2380        2381        2432        2431
         4        2381        2382        2433        2432
         4        2382        2383        2434        2433
         4        2383        2384        2435        2434
         4        2384        2385        2436        2435
         4        2385        2386        2437        2436
         4        2386        2387        2438        2437
         4        2387        2388        2439        2438
         4        2388        2389        2440        2439
         4        2389        2390        2441        2440
         4        2390        2391        2442        2441
         4        2391        2392        2443        2442
         4        2392        2393        2444        2443
         4        2393        2394        2445        2444
         4        2394        2395        2446        2445
         4        2395        2396        2447        2446
         4        2397        2398        2449        2448
         4        2398        2399        2450        2449
         4        2399        2400        2451        2450
         4        2400        2401        2452        2451
         4        2401        2402        2453        2452
         4        2402        2403        2454        2453
         4        2403        2404        2455        2454
         4        2404        2405        2456        2455
         4        2405        2406        2457        2456
         4        2406        2407        2458        2457
         4        2407        2408        2459        2458
         4        2408        2409        2460        2459
         4        2409        2410        2461        2460
         4        2410        2411        2462        2461
         4        2411        2412        2463        2462
         4        2412        2413        2464        2463
         4        2413        2414        2465        2464
         4        2414        2415        2466        2465
         4        2415        2416        2467        2466
         4        2416        2417        2468        2467
         4        2417        2418        2469        2468
         4        2418        2419        2470        2469
         4        2419        2420        2471        2470
         4        2420        2421        2472        2471
         4        2421        2422        2473        2472
         4        2422        2423        2474        2473
         4        2423        2424        2475        2474
         4        2424        2425        2476        2475
         4        2425        2426        2477        2476
         4        2426        2427        2478        2477
         4        2427        2428        2479        2478
         4        2428        2429        2480        2479
         4        2429        2430        2481        2480
         4        2430        2431        2482        2481
         4        2431        2432        2483        2482
         4        2432        2433        2484        2483
         4        2433        2434        2485        2484
         4        2434        2435        2486        2485
         4        2435        2436        2487        2486
         4        2436        2437        2488        2487
         4        2437        2438        2489        2488
         4        2438        2439        2490        2489
         4        2439        2440        2491        2490
         4        2440        2441        2492        2491
         4        2441        2442        2493        2492
         4        2442        2443        2494        2493
         4        2443        2444        2495        2494
         4        2444        2445        2496        2495
         4        2445        2446        2497        2496
         4        2446        2447        2498        2497
         4        2448        2449        2500        2499
         4        2449        2450        2501        2500
         4        2450        2451        2502        2501
         4        2451        2452        2503        2502
         4        2452        2453        2504        2503
         4        2453        2454        2505        2504
         4        2454        2455        2506        2505
         4        2455        2456        2507        2506
         4        2456        2457        2508        2507
         4        2457        2458        2509        2508
         4        2458        2459        2510        2509
         4        2459        2460        2511        2510
         4        2460        2461        2512        2511
         4        2461        2462        2513        2512
         4        2462        2463        2514        2513
         4        2463        2464        2515        2514
         4        2464        2465        2516        2515
         4        2465        2466        2517        2516
         4        2466        2467        2518        2517
         4        2467        2468        2519        2518
         4        2468        2469        2520        2519
         4        2469        2470        2521        2520
         4        2470        2471        2522        2521
         4        2471        2472        2523        2522
         4        2472        2473        2524        2523
         4        2473        2474        2525        2524
         4        2474        2475        2526        2525
         4        2475        2476        2527        2526
         4        2476        2477        2528        2527
         4        2477        2478        2529        2528
         4        2478        2479        2530        2529
         4        2479        2480        2531        2530
         4        2480        2481        2532        2531
         4        2481        2482        2533        2532
         4        2482        2483        2534        2533
         4        2483        2484        2535        2534
         4        2484        2485        2536        2535
         4        2485        2486        2537        2536
         4        2486        2487        2538        2537
         4        2487        2488        2539        2538
         4        2488        2489        2540        2539
         4        2489        2490        2541        2540
         4        2490        2491        2542        2541
         4        2491        2492        2543        2542
         4        2492        2493        2544        2543
         4        2493        2494        2545        2544
         4        2494        2495        2546        2545
         4        2495        2496        2547        2546
         4        2496        2497        2548        2547
         4        2497        2498        2549        2548
         4        2499        2500        2551        2550
         4        2500        2501        2552        2551
         4        2501        2502        2553        2552
         4        2502        2503        2554        2553
         4        2503        2504        2555        2554
         4        2504        2505        2556        2555
         4        2505        2506        2557        2556
         4        2506        2507        2558        2557
         4        2507        2508        2559        2558
         4        2508        2509        2560        2559
         4        2509        2510        2561        2560
         4        2510        2511        2562        2561
         4        2511        2512        2563        2562
         4        2512        2513        2564        2563
         4        2513        2514        2565        2564
         4        2514        2515        2566        2565
         4        2515        2516        2567        2566
         4        2516        2517        2568        2567
         4        2517        2518        2569        2568
         4        2518        2519        2570        2569
         4        2519        2520        2571        2570
         4        2520        2521        2572        2571
         4        2521        2522        2573        2572
         4        2522        2523        2574        2573
         4        2523        2524        2575        2574
         4        2524        2525        2576        2575
         4        2525        2526        2577        2576
         4        2526        2527        2578        2577
         4        2527        2528        2579        2578
         4        2528        2529        2580        2579
         4        2529        2530        2581        2580
         4        2530        2531        2582        2581
         4        2531        2532        2583        2582
         4        2532        2533        2584        2583
         4        2533        2534        2585        2584
         4        2534        2535        2586        2585
         4        2535        2536        2587        2586
         4        2536        2537        2588        2587
         4        2537        2538        2589        2588
         4        2538        2539        2590        2589
         4        2539        2540        2591        2590
         4        2540        2541        2592        2591
         4        2541        2542        2593        2592
         4        2542        2543        2594        2593
         4        2543        2544        2595        2594
         4        2544        2545        2596        2595
         4        2545        2546        2597        2596
         4        2546        2547        2598        2597
         4        2547        2548        2599        2598
         4        2548        2549        2600        2599
         4        2550        2551        2602        2601
         4        2551        2552        2603        2602
         4        2552        2553        2604        2603
         4        2553        2554        2605        2604
         4        2554        2555        2606        2605
         4        2555        2556        2607        2606
         4        2556        2557        2608        2607
         4        2557        2558        2609        2608
         4        2558        2559        2610        2609
         4        2559        2560        2611        2610
         4        2560        2561        2612        2611
         4        2561        2562        2613        2612
         4        2562        2563        2614        2613
         4        2563        2564        2615        2614
         4        2564        2565        2616        2615
         4        2565        2566        2617        2616
         4        2566        2567        2618        2617
         4        2567        2568        2619        2618
         4        2568        2569        2620        2619
         4        2569        2570        2621        2620
         4        2570        2571        2622        2621
         4        2571        2572        2623        2622
         4        2572        2573        2624        2623
         4        2573        2574        2625        2624
         4        2574        2575        2626        2625
         4        2575        2576        2627        2626
         4        2576        2577        2628        2627
         4        2577        2578        2629        2628
         4        2578        2579        2630        2629
         4        2579        2580        2631        2630
         4        2580        2581        2632        2631
         4        2581        2582        2633        2632
         4        2582        2583        2634        2633
         4        2583        2584        2635        2634
         4        2584        2585        2636        2635
         4        2585        2586        2637        2636
         4        2586        2587        2638        2637
         4        2587        2588        2639        2638
         4        2588        2589        2640        2639
         4        2589        2590        2641        2640
         4        2590        2591        2642        2641
         4        2591        2592        2643        2642
         4        2592        2593        2644        2643
         4        2593        2594        2645        2644
         4        2594        2595        2646        2645
         4        2595        2596        2647        2646
         4        2596        2597        2648        2647
         4        2597        2598        2649        2648
         4        2598        2599        2650        2649
         4        2599        2600        2651        2650
         4        2601        2602        2653        2652
         4        2602        2603        2654        2653
         4        2603        2604        2655        2654
         4        2604        2605        2656        2655
         4        2605        2606        2657        2656
         4        2606        2607        2658        2657
         4        2607        2608        2659        2658
         4        2608        2609        2660        2659
         4        2609        2610        2661        2660
         4        2610        2611        2662        2661
         4        2611        2612        2663        2662
         4        2612        2613        2664        2663
         4        2613        2614        2665        2664
         4        2614        2615        2666        2665
         4        2615        2616        2667        2666
         4        2616        2617        2668        2667
         4        2617        2618        2669        2668
         4        2618        2619        2670        2669
         4        2619        2620        2671        2670
         4        2620        2621        2672        2671
         4        2621        2622        2673        2672
         4        2622        2623        2674        2673
         4        2623        2624        2675        2674
         4        2624        2625        2676        2675
         4        2625        2626        2677        2676
         4        2626        2627        2678        2677
         4        2627        2628        2679        2678
         4        2628        2629        2680        2679
         4        2629        2630        2681        2680
         4        2630        2631        2682        2681
         4        2631        2632        2683        2682
         4        2632        2633        2684        2683
         4        2633        2634        2685        2684
         4        2634        2635        2686        2685
         4        2635        2636        2687        2686
         4        2636        2637        2688        2687
         4        2637        2638        2689        2688
         4        2638        2639        2690        2689
         4        2639        2640        2691        2690
         4        2640        2641        2692        2691
         4        2641        2642        2693        2692
         4        2642        2643        2694        2693
         4        2643        2644        2695        2694
         4        2644        2645        2696        2695
         4        2645        2646        2697        2696
         4        2646        2647        2698        2697
         4        2647        2648        2699        2698
         4        2648        2649        2700        2699
         4        2649        2650        2701        2700
         4        2650        2651        2702        2701
         4        2652        2653        2704        2703
         4        2653        2654        2705        2704
         4        2654        2655        2706        2705
         4        2655        2656        2707        2706
         4        2656        2657        2708        2707
         4        2657        2658        2709        2708
         4        2658        2659        2710        2709
         4        2659        2660        2711        2710
         4        2660        2661        2712        2711
         4        2661        2662        2713        2712
         4        2662        2663        2714        2713
         4        2663        2664        2715        2714
         4        2664        2665        2716        2715
         4        2665        2666        2717        2716
         4        2666        2667        2718        2717
         4        2667        2668        2719        2718
         4        2668        2669        2720        2719
         4        2669        2670        2721        2720
         4        2670        2671        2722        2721
         4        2671        2672        2723        2722
         4        2672        2673        2724        2723
         4        2673        2674        2725        2724
         4        2674        2675        2726        2725
         4        2675        2676        2727        2726
         4        2676        2677        2728        2727
         4        2677        2678        2729        2728
         4        2678        2679        2730        2729
         4        2679        2680        2731        2730
         4        2680        2681        2732        2731
         4        2681        2682        2733        2732
         4        2682        2683        2734        2733
         4        2683        2684        2735        2734
         4        2684        2685        2736        2735
         4        2685        2686        2737        2736
         4        2686        2687        2738        2737
         4        2687        2688        2739        2738
         4        2688        2689        2740        2739
         4        2689        2690        2741        2740
         4        2690        2691        2742        2741
         4        2691        2692        2743        2742
         4        2692        2693        2744        2743
         4        2693        2694        2745        2744
         4        2694        2695        2746        2745
         4        2695        2696        2747        2746
         4        2696        2697        2748        2747
         4        2697        2698        2749        2748
         4        2698        2699        2750        2749
         4        2699        2700        2751        2750
         4        2700        2701        2752        2751
         4        2701        2702        2753        2752
         4        2703        2704        2755        2754
         4        2704        2705        2756        2755
         4        2705        2706        2757        2756
         4        2706        2707        2758        2757
         4        2707        2708        2759        2758
         4        2708        2709        2760        2759
         4        2709        2710        2761        2760
         4        2710        2711        2762        2761
         4        2711        2712        2763        2762
         4        2712        2713        2764        2763
         4        2713        2714        2765        2764
         4        2714        2715        2766        2765
         4        2715        2716        2767        2766
         4        2716        2717        2768        2767
         4        2717        2718        2769        2768
         4        2718        2719        2770        2769
         4        2719        2720        2771        2770
         4        2720        2721        2772        2771
         4        2721        2722        2773        2772
         4        2722        2723        2774        2773
         4        2723        2724        2775        2774
         4        2724        2725        2776        2775
         4        2725        2726        2777        2776
         4        2726        2727        2778        2777
         4        2727        2728        2779        2778
         4        2728        2729        2780        2779
         4        2729        2730        2781        2780
         4        2730        2731        2782        2781
         4        2731        2732        2783        2782
         4        2732        2733        2784        2783
         4        2733        2734        2785        2784
         4        2734        2735        2786        2785
         4        2735        2736        2787        2786
         4        2736        2737        2788        2787
         4        2737        2738        2789        2788
         4        2738        2739        2790        2789
         4        2739        2740        2791        2790
         4        2740        2741        2792        2791
         4        2741        2742        2793        2792
         4        2742        2743        2794        2793
         4        2743        2744        2795        2794
         4        2744        2745        2796        2795
         4        2745        2746        2797        2796
         4        2746        2747        2798        2797
         4        2747        2748        2799        2798
         4        2748        2749        2800        2799
         4        2749        2750        2801        2800
         4        2750        2751        2802        2801
         4        2751        2752        2803        2802
         4        2752        2753        2804        2803
         4        2754        2755        2806        2805
         4        2755        2756        2807        2806
         4        2756        2757        2808        2807
         4        2757        2758        2809        2808
         4        2758        2759        2810        2809
         4        2759        2760        2811        2810
         4        2760        2761        2812        2811
         4        2761        2762        2813        2812
         4        2762        2763        2814        2813
         4        2763        2764        2815        2814
         4        2764        2765        2816        2815
         4        2765        2766        2817        2816
         4        2766        2767        2818        2817
         4        2767        2768        2819        2818
         4        2768        2769        2820        2819
         4        2769        2770        2821        2820
         4        2770        2771        2822        2821
         4        2771        2772        2823        2822
         4        2772        2773        2824        2823
         4        2773        2774        2825        2824
         4        2774        2775        2826        2825
         4        2775        2776        2827        2826
         4        2776        2777        2828        2827
         4        2777        2778        2829        2828
         4        2778        2779        2830        2829
         4        2779        2780        2831        2830
         4        2780        2781        2832        2831
         4        2781        2782        2833        2832
         4        2782        2783        2834        2833
         4        2783        2784        2835        2834
         4        2784        2785        2836        2835
         4        2785        2786        2837        2836
         4        2786        2787        2838        2837
         4        2787        2788        2839        2838
         4        2788        2789        2840        2839
         4        2789        2790        2841        2840
         4        2790        2791        2842        2841
         4        2791        2792        2843        2842
         4        2792        2793        2844        2843
         4        2793        2794        2845        2844
         4        2794        2795        2846        2845
         4        2795        2796        2847        2846
         4        2796        2797        2848        2847
         4        2797        2798        2849        2848
         4        2798        2799        2850        2849
         4        2799        2800        2851        2850
         4        2800        2801        2852        2851
         4        2801        2802        2853        2852
         4        2802        2803        2854        2853
         4        2803        2804        2855        2854
         4        2805        2806        2857        2856
         4        2806        2807        2858        2857
         4        2807        2808        2859        2858
         4        2808        2809        2860        2859
         4        2809        2810        2861        2860
         4        2810        2811        2862        2861
         4        2811        2812        2863        2862
         4        2812        2813        2864        2863
         4        2813        2814        2865        2864
         4        2814        2815        2866        2865
         4        2815        2816        2867        2866
         4        2816        2817        2868        2867
         4        2817        2818        2869        2868
         4        2818        2819        2870        2869
         4        2819        2820        2871        2870
         4        2820        2821        2872        2871
         4        2821        2822        2873        2872
         4        2822        2823        2874        2873
         4        2823        2824        2875        2874
         4        2824        2825        2876        2875
         4        2825        2826        2877        2876
         4        2826        2827        2878        2877
         4        2827        2828        2879        2878
         4        2828        2829        2880        2879
         4        2829        2830        2881        2880
         4        2830        2831        2882        2881
         4        2831        2832        2883        2882
         4        2832        2833        2884        2883
         4        2833        2834        2885        2884
         4        2834        2835        2886        2885
         4        2835        2836        2887        2886
         4        2836        2837        2888        2887
         4        2837        2838        2889        2888
         4        2838        2839        2890        2889
         4        2839        2840        2891        2890
         4        2840        2841        2892        2891
         4        2841        2842        2893        2892
         4        2842        2843        2894        2893
         4        2843        2844        2895        2894
         4        2844        2845        2896        2895
         4        2845        2846        2897        2896
         4        2846        2847        2898        2897
         4        2847        2848        2899        2898
         4        2848        2849        2900        2899
         4        2849        2850        2901        2900
         4        2850        2851        2902        2901
         4        2851        2852        2903        2902
         4        2852        2853        2904        2903
         4        2853        2854        2905        2904
         4        2854        2855        2906        2905
         4        2856        2857        2908        2907
         4        2857        2858        2909        2908
         4        2858        2859        2910        2909
         4        2859        2860        2911        2910
         4        2860        2861        2912        2911
         4        2861        2862        2913        2912
         4        2862        2863        2914        2913
         4        2863        2864        2915        2914
         4        2864        2865        2916        2915
         4        2865        2866        2917        2916
         4        2866        2867        2918        2917
         4        2867        2868        2919        2918
         4        2868        2869        2920        2919
         4        2869        2870        2921        2920
         4        2870        2871        2922        2921
         4        2871        2872        2923        2922
         4        2872        2873        2924        2923
         4        2873        2874        2925        2924
         4        2874        2875        2926        2925
         4        2875        2876        2927        2926
         4        2876        2877        2928        2927
         4        2877        2878        2929        2928
         4        2878        2879        2930        2929
         4        2879        2880        2931        2930
         4        2880        2881        2932        2931
         4        2881        2882        2933        2932
         4        2882        2883        2934        2933
         4        2883        2884        2935        2934
         4        2884        2885        2936        2935
         4        2885        2886        2937        2936
         4        2886        2887        2938        2937
         4        2887        2888        2939        2938
         4        2888        2889        2940        2939
         4        2889        2890        2941        2940
         4        2890        2891        2942        2941
         4        2891        2892        2943        2942
         4        2892        2893        2944        2943
         4        2893        2894        2945        2944
         4        2894        2895        2946        2945
         4        2895        2896        2947        2946
         4        2896        2897        2948        2947
         4        2897        2898        2949        2948
         4        2898        2899        2950        2949
         4        2899        2900        2951        2950
         4        2900        2901        2952        2951
         4        2901        2902        2953        2952
         4        2902        2903        2954        2953
         4        2903        2904        2955        2954
         4        2904        2905        2956        2955
         4        2905        2906        2957        2956
         4        2907        2908        2959        2958
         4        2908        2909        2960        2959
         4        2909        2910        2961        2960
         4        2910        2911        2962        2961
         4        2911        2912        2963        2962
         4        2912        2913        2964        2963
         4        2913        2914        2965        2964
         4        2914        2915        2966        2965
         4        2915        2916        2967        2966
         4        2916        2917        2968        2967
         4        2917        2918        2969        2968
         4        2918        2919        2970        2969
         4        2919        2920        2971        2970
         4        2920        2921        2972        2971
         4        2921        2922        2973        2972
         4        2922        2923        2974        2973
         4        2923        2924        2975        2974
         4        2924        2925        2976        2975
         4        2925        2926        2977        2976
         4        2926        2927        2978        2977
         4        2927        2928        2979        2978
         4        2928        2929        2980        2979
         4        2929        2930        2981        2980
         4        2930        2931        2982        2981
         4        2931        2932        2983        2982
         4        2932        2933        2984        2983
         4        2933        2934        2985        2984
         4        2934        2935        2986        2985
         4        2935        2936        2987        2986
         4        2936        2937        2988        2987
         4        2937        2938        2989        2988
         4        2938        2939        2990        2989
         4        2939        2940        2991        2990
         4        2940        2941        2992        2991
         4        2941        2942        2993        2992
         4        2942        2943        2994        2993
         4        2943        2944        2995        2994
         4        2944        2945        2996        2995
         4        2945        2946        2997        2996
         4        2946        2947        2998        2997
         4        2947        2948        2999        2998
         4        2948        2949        3000        2999
         4        2949        2950        3001        3000
         4        2950        2951        3002        3001
         4        2951        2952        3003        3002
         4        2952        2953        3004        3003
         4        2953        2954        3005        3004
         4        2954        2955        3006        3005
         4        2955        2956        3007        3006
         4        2956        2957        3008        3007
         4        2958        2959        3010        3009
         4        2959        2960        3011        3010
         4        2960        2961        3012        3011
         4        2961        2962        3013        3012
         4        2962        2963        3014        3013
         4        2963        2964        3015        3014
         4        2964        2965        3016        3015
         4        2965        2966        3017        3016
         4        2966        2967        3018        3017
         4        2967        2968        3019        3018
         4        2968        2969        3020        3019
         4        2969        2970        3021        3020
         4        2970        2971        3022        3021
         4        2971        2972        3023        3022
         4        2972        2973        3024        3023
         4        2973        2974        3025        3024
         4        2974        2975        3026        3025
         4        2975        2976        3027        3026
         4        2976        2977        3028        3027
         4        2977        2978        3029        3028
         4        2978        2979        3030        3029
         4        2979        2980        3031        3030
         4        2980        2981        3032        3031
         4        2981        2982        3033        3032
         4        2982        2983        3034        3033
         4        2983        2984        3035        3034
         4        2984        2985        3036        3035
         4        2985        2986        3037        3036
         4        2986        2987        3038        3037
         4        2987        2988        3039        3038
         4        2988        2989        3040        3039
         4        2989        2990        3041        3040
         4        2990        2991        3042        3041
         4        2991        2992        3043        3042
         4        2992        2993        3044        3043
         4        2993        2994        3045        3044
         4        2994        2995        3046        3045
         4        2995        2996        3047        3046
         4        2996        2997        3048        3047
         4        2997        2998        3049        3048
         4        2998        2999        3050        3049
         4        2999        3000        3051        3050
         4        3000        3001        3052        3051
         4        3001        3002        3053        3052
         4        3002        3003        3054        3053
         4        3003        3004        3055        3054
         4        3004        3005        3056        3055
         4        3005        3006        3057        3056
         4        3006        3007        3058        3057
         4        3007        3008        3059        3058
         4        3009        3010        3061        3060
         4        3010        3011        3062        3061
         4        3011        3012        3063        3062
         4        3012        3013        3064        3063
         4        3013        3014        3065        3064
         4        3014        3015        3066        3065
         4        3015        3016        3067        3066
         4        3016        3017        3068        3067
         4        3017        3018        3069        3068
         4        3018        3019        3070        3069
         4        3019        3020        3071        3070
         4        3020        3021        3072        3071
         4        3021        3022        3073        3072
         4        3022        3023        3074        3073
         4        3023        3024        3075        3074
         4        3024        3025        3076        3075
         4        3025        3026        3077        3076
         4        3026        3027        3078        3077
         4        3027        3028        3079        3078
         4        3028        3029        3080        3079
         4        3029        3030        3081        3080
         4        3030        3031        3082        3081
         4        3031        3032        3083        3082
         4        3032        3033        3084        3083
         4        3033        3034        3085        3084
         4        3034        3035        3086        3085
         4        3035        3036        3087        3086
         4        3036        3037        3088        3087
         4        3037        3038        3089        3088
         4        3038        3039        3090        3089
         4        3039        3040        3091        3090
         4        3040        3041        3092        3091
         4        3041        3042        3093        3092
         4        3042        3043        3094        3093
         4        3043        3044        3095        3094
         4        3044        3045        3096        3095
         4        3045        3046        3097        3096
         4        3046        3047        3098        3097
         4        3047        3048        3099        3098
         4        3048        3049        3100        3099
         4        3049        3050        3101        3100
         4        3050        3051        3102        3101
         4        3051        3052        3103        3102
         4        3052        3053        3104        3103
         4        3053        3054        3105        3104
         4        3054        3055        3106        3105
         4        3055        3056        3107        3106
         4        3056        3057        3108        3107
         4        3057        3058        3109        3108
         4        3058        3059        3110        3109
         4        3060        3061        3112        3111
         4        3061        3062        3113        3112
         4        3062        3063        3114        3113
         4        3063        3064        3115        3114
         4        3064        3065        3116        3115
         4        3065        3066        3117        3116
         4        3066        3067        3118        3117
         4        3067        3068        3119        3118
         4        3068        3069        3120        3119
         4        3069        3070        3121        3120
         4        3070        3071        3122        3121
         4        3071        3072        3123        3122
         4        3072        3073        3124        3123
         4        3073        3074        3125        3124
         4        3074        3075        3126        3125
         4        3075        3076        3127        3126
         4        3076        3077        3128        3127
         4        3077        3078        3129        3128
         4        3078        3079        3130        3129
         4        3079        3080        3131        3130
         4        3080        3081        3132        3131
         4        3081        3082        3133        3132
         4        3082        3083        3134        3133
         4        3083        3084        3135        3134
         4        3084        3085        3136        3135
         4        3085        3086        3137        3136
         4        3086        3087        3138        3137
         4        3087        3088        3139        3138
         4        3088        3089        3140        3139
         4        3089        3090        3141        3140
         4        3090        3091        3142        3141
         4        3091        3092        3143        3142
         4        3092        3093        3144        3143
         4        3093        3094        3145        3144
         4        3094        3095        3146        3145
         4        3095        3096        3147        3146
         4        3096        3097        3148        3147
         4        3097        3098        3149        3148
         4        3098        3099        3150        3149
         4        3099        3100        3151        3150
         4        3100        3101        3152        3151
         4        3101        3102        3153        3152
         4        3102        3103        3154        3153
         4        3103        3104        3155        3154
         4        3104        3105        3156        3155
         4        3105        3106        3157        3156
         4        3106        3107        3158        3157
         4        3107        3108        3159        3158
         4        3108        3109        3160        3159
         4        3109        3110        3161        3160
         4        3111        3112        3163        3162
         4        3112        3113        3164        3163
         4        3113        3114        3165        3164
         4        3114        3115        3166        3165
         4        3115        3116        3167        3166
         4        3116        3117        3168        3167
         4        3117        3118        3169        3168
         4        3118        3119        3170        3169
         4        3119        3120        3171        3170
         4        3120        3121        3172        3171
         4        3121        3122        3173        3172
         4        3122        3123        3174        3173
         4        3123        3124        3175        3174
         4        3124        3125        3176        3175
         4        3125        3126        3177        3176
         4        3126        3127        3178        3177
         4        3127        3128        3179        3178
         4        3128        3129        3180        3179
         4        3129        3130        3181        3180
         4        3130        3131        3182        3181
         4        3131        3132        3183        3182
         4        3132        3133        3184        3183
         4        3133        3134        3185        3184
         4        3134        3135        3186        3185
         4        3135        3136        3187        3186
         4        3136        3137        3188        3187
         4        3137        3138        3189        3188
         4        3138        3139        3190        3189
         4        3139        3140        3191        3190
         4        3140        3141        3192        3191
         4        3141        3142        3193        3192
         4        3142        3143        3194        3193
         4        3143        3144        3195        3194
         4        3144        3145        3196        3195
         4        3145        3146        3197        3196
         4        3146        3147        3198        3197
         4        3147        3148        3199        3198
         4        3148        3149        3200        3199
         4        3149        3150        3201        3200
         4        3150        3151        3202        3201
         4        3151        3152        3203        3202
         4        3152        3153        3204        3203
         4        3153        3154        3205        3204
         4        3154        3155        3206        3205
         4        3155        3156        3207        3206
         4        3156        3157        3208        3207
         4        3157        3158        3209        3208
         4        3158        3159        3210        3209
         4        3159        3160        3211        3210
         4        3160        3161        3212        3211
         4        3162        3163        3214        3213
         4        3163        3164        3215        3214
         4        3164        3165        3216        3215
         4        3165        3166        3217        3216
         4        3166        3167        3218        3217
         4        3167        3168        3219        3218
         4        3168        3169        3220        3219
         4        3169        3170        3221        3220
         4        3170        3171        3222        3221
         4        3171        3172        3223        3222
         4        3172        3173        3224        3223
         4        3173        3174        3225        3224
         4        3174        3175        3226        3225
         4        3175        3176        3227        3226
         4        3176        3177        3228        3227
         4        3177        3178        3229        3228
         4        3178        3179        3230        3229
         4        3179        3180        3231        3230
         4        3180        3181        3232        3231
         4        3181        3182        3233        3232
         4        3182        3183        3234        3233
         4        3183        3184        3235        3234
         4        3184        3185        3236        3235
         4        3185        3186        3237        3236
         4        3186        3187        3238        3237
         4        3187        3188        3239        3238
         4        3188        3189        3240        3239
         4        3189        3190        3241        3240
         4        3190        3191        3242        3241
         4        3191        3192        3243        3242
         4        3192        3193        3244        3243
         4        3193        3194        3245        3244
         4        3194        3195        3246        3245
         4        3195        3196        3247        3246
         4        3196        3197        3248        3247
         4        3197        3198        3249        3248
         4        3198        3199        3250        3249
         4        3199        3200        3251        3250
         4        3200        3201        3252        3251
         4        3201        3202        3253        3252
         4        3202        3203        3254        3253
         4        3203        3204        3255        3254
         4        3204        3205        3256        3255
         4        3205        3206        3257        3256
         4        3206        3207        3258        3257
         4        3207        3208        3259        3258
         4        3208        3209        3260        3259
         4        3209        3210        3261        3260
         4        3210        3211        3262        3261
         4        3211        3212        3263        3262
         4        3213        3214        3265        3264
         4        3214        3215        3266        3265
         4        3215        3216        3267        3266
         4        3216        3217        3268        3267
         4        3217        3218        3269        3268
         4        3218        3219        3270        3269
         4        3219        3220        3271        3270
         4        3220        3221        3272        3271
         4        3221        3222        3273        3272
         4        3222        3223        3274        3273
         4        3223        3224        3275        3274
         4        3224        3225        3276        3275
         4        3225        3226        3277        3276
         4        3226        3227        3278        3277
         4        3227        3228        3279        3278
         4        3228        3229        3280        3279
         4        3229        3230        3281        3280
         4        3230        3231        3282        3281
         4        3231        3232        3283        3282
         4        3232        3233        3284        3283
         4        3233        3234        3285        3284
         4        3234        3235        3286        3285
         4        3235        3236        3287        3286
         4        3236        3237        3288        3287
         4        3237        3238        3289        3288
         4        3238        3239        3290        3289
         4        3239        3240        3291        3290
         4        3240        3241        3292        3291
         4        3241        3242        3293        3292
         4        3242        3243        3294        3293
         4        3243        3244        3295        3294
         4        3244        3245        3296        3295
         4        3245        3246        3297        3296
         4        3246        3247        3298        3297
         4        3247        3248        3299        3298
         4        3248        3249        3300        3299
         4        3249        3250        3301        3300
         4        3250        3251        3302        3301
         4        3251        3252        3303        3302
         4        3252        3253        3304        3303
         4        3253        3254        3305        3304
         4        3254        3255        3306        3305
         4        3255        3256        3307        3306
         4        3256        3257        3308        3307
         4        3257        3258        3309        3308
         4        3258        3259        3310        3309
         4        3259        3260        3311        3310
         4        3260        3261        3312        3311
         4        3261        3262        3313        3312
         4        3262        3263        3314        3313
         4        3264        3265        3316        3315
         4        3265        3266        3317        3316
         4        3266        3267        3318        3317
         4        3267        3268        3319        3318
         4        3268        3269        3320        3319
         4        3269        3270        3321        3320
         4        3270        3271        3322        3321
         4        3271        3272        3323        3322
         4        3272        3273        3324        3323
         4        3273        3274        3325        3324
         4        3274        3275        3326        3325
         4        3275        3276        3327        3326
         4        3276        3277        3328        3327
         4        3277        3278        3329        3328
         4        3278        3279        3330        3329
         4        3279        3280        3331        3330
         4        3280        3281        3332        3331
         4        3281        3282        3333        3332
         4        3282        3283        3334        3333
         4        3283        3284        3335        3334
         4        3284        3285        3336        3335
         4        3285        3286        3337        3336
         4        3286        3287        3338        3337
         4        3287        3288        3339        3338
         4        3288        3289        3340        3339
         4        3289        3290        3341        3340
         4        3290        3291        3342        3341
         4        3291        3292        3343        3342
         4        3292        3293        3344        3343
         4        3293        3294        3345        3344
         4        3294        3295        3346        3345
         4        3295        3296        3347        3346
         4        3296        3297        3348        3347
         4        3297        3298        3349        3348
         4        3298        3299        3350        3349
         4        3299        3300        3351        3350
         4        3300        3301        3352        3351
         4        3301        3302        3353        3352
         4        3302        3303        3354        3353
         4        3303        3304        3355        3354
         4        3304        3305        3356        3355
         4        3305        3306        3357        3356
         4        3306        3307        3358        3357
         4        3307        3308        3359        3358
         4        3308        3309        3360        3359
         4        3309        3310        3361        3360
         4        3310        3311        3362        3361
         4        3311        3312        3363        3362
         4        3312        3313        3364        3363
         4        3313        3314        3365        3364
         4        3315        3316        3367        3366
         4        3316        3317        3368        3367
         4        3317        3318        3369        3368
         4        3318        3319        3370        3369
         4        3319        3320        3371        3370
         4        3320        3321        3372        3371
         4        3321        3322        3373        3372
         4        3322        3323        3374        3373
         4        3323        3324        3375        3374
         4        3324        3325        3376        3375
         4        3325        3326        3377        3376
         4        3326        3327        3378        3377
         4        3327        3328        3379        3378
         4        3328        3329        3380        3379
         4        3329        3330        3381        3380
         4        3330        3331        3382        3381
         4        3331        3332        3383        3382
         4        3332        3333        3384        3383
         4        3333        3334        3385        3384
         4        3334        3335        3386        3385
         4        3335        3336        3387        3386
         4        3336        3337        3388        3387
         4        3337        3338        3389        3388
         4        3338        3339        3390        3389
         4        3339        3340        3391        3390
         4        3340        3341        3392        3391
         4        3341        3342        3393        3392
         4        3342        3343        3394        3393
         4        3343        3344        3395        3394
         4        3344        3345        3396        3395
         4        3345        3346        3397        3396
         4        3346        3347        3398        3397
         4        3347        3348        3399        3398
         4        3348        3349        3400        3399
         4        3349        3350        3401        3400
         4        3350        3351        3402        3401
         4        3351        3352        3403        3402
         4        3352        3353        3404        3403
         4        3353        3354        3405        3404
         4        3354        3355        3406        3405
         4        3355        3356        3407        3406
         4        3356        3357        3408        3407
         4        3357        3358        3409        3408
         4        3358        3359        3410        3409
         4        3359        3360        3411        3410
         4        3360        3361        3412        3411
         4        3361        3362        3413        3412
         4        3362        3363        3414        3413
         4        3363        3364        3415        3414
         4        3364        3365        3416        3415
         4        3366        3367        3418        3417
         4        3367        3368        3419        3418
         4        3368        3369        3420        3419
         4        3369        3370        3421        3420
         4        3370        3371        3422        3421
         4        3371        3372        3423        3422
         4        3372        3373        3424        3423
         4        3373        3374        3425        3424
         4        3374        3375        3426        3425
         4        3375        3376        3427        3426
         4        3376        3377        3428        3427
         4        3377        3378        3429        3428
         4        3378        3379        3430        3429
         4        3379        3380        3431        3430
         4        3380        3381        3432        3431
         4        3381        3382        3433        3432
         4        3382        3383        3434        3433
         4        3383        3384        3435        3434
         4        3384        3385        3436        3435
         4        3385        3386        3437        3436
         4        3386        3387        3438        3437
         4        3387        3388        3439        3438
         4        3388        3389        3440        3439
         4        3389        3390        3441        3440
         4        3390        3391        3442        3441
         4        3391        3392        3443        3442
         4        3392        3393        3444        3443
         4        3393        3394        3445        3444
         4        3394        3395        3446        3445
         4        3395        3396        3447        3446
         4        3396        3397        3448        3447
         4        3397        3398        3449        3448
         4        3398        3399        3450        3449
         4        3399        3400        3451        3450
         4        3400        3401        3452        3451
         4        3401        3402        3453        3452
         4        3402        3403        3454        3453
         4        3403        3404        3455        3454
         4        3404        3405        3456        3455
         4        3405        3406        3457        3456
         4        3406        3407        3458        3457
         4        3407        3408        3459        3458
         4        3408        3409        3460        3459
         4        3409        3410        3461        3460
         4        3410        3411        3462        3461
         4        3411        3412        3463        3462
         4        3412        3413        3464        3463
         4        3413        3414        3465        3464
         4        3414        3415        3466        3465
         4        3415        3416        3467        3466
         4        3417        3418        3469        3468
         4        3418        3419        3470        3469
         4        3419        3420        3471        3470
         4        3420        3421        3472        3471
         4        3421        3422        3473        3472
         4        3422        3423        3474        3473
         4        3423        3424        3475        3474
         4        3424        3425        3476        3475
         4        3425        3426        3477        3476
         4        3426        3427        3478        3477
         4        3427        3428        3479        3478
         4        3428        3429        3480        3479
         4        3429        3430        3481        3480
         4        3430        3431        3482        3481
         4        3431        3432        3483        3482
         4        3432        3433        3484        3483
         4        3433        3434        3485        3484
         4        3434        3435        3486        3485
         4        3435        3436        3487        3486
         4        3436        3437        3488        3487
         4        3437        3438        3489        3488
         4        3438        3439        3490        3489
         4        3439        3440        3491        3490
         4        3440        3441        3492        3491
         4        3441        3442        3493        3492
         4        3442        3443        3494        3493
         4        3443        3444        3495        3494
         4        3444        3445        3496        3495
         4        3445        3446        3497        3496
         4        3446        3447        3498        3497
         4        3447        3448        3499        3498
         4        3448        3449        3500        3499
         4        3449        3450        3501        3500
         4        3450        3451        3502        3501
         4        3451        3452        3503        3502
         4        3452        3453        3504        3503
         4        3453        3454        3505        3504
         4        3454        3455        3506        3505
         4        3455        3456        3507        3506
         4        3456        3457        3508        3507
         4        3457        3458        3509        3508
         4        3458        3459        3510        3509
         4        3459        3460        3511        3510
         4        3460        3461        3512        3511
         4        3461        3462        3513        3512
         4        3462        3463        3514        3513
         4        3463        3464        3515        3514
         4        3464        3465        3516        3515
         4        3465        3466        3517        3516
         4        3466        3467        3518        3517
         4        3468        3469        3520        3519
         4        3469        3470        3521        3520
         4        3470        3471        3522        3521
         4        3471        3472        3523        3522
         4        3472        3473        3524        3523
         4        3473        3474        3525        3524
         4        3474        3475        3526        3525
         4        3475        3476        3527        3526
         4        3476        3477        3528        3527
         4        3477        3478        3529        3528
         4        3478        3479        3530        3529
         4        3479        3480        3531        3530
         4        3480        3481        3532        3531
         4        3481        3482        3533        3532
         4        3482        3483        3534        3533
         4        3483        3484        3535        3534
         4        3484        3485        3536        3535
         4        3485        3486        3537        3536
         4        3486        3487        3538        3537
         4        3487        3488        3539        3538
         4        3488        3489        3540        3539
         4        3489        3490        3541        3540
         4        3490        3491        3542        3541
         4        3491        3492        3543        3542
         4        3492        3493        3544        3543
         4        3493        3494        3545        3544
         4        3494        3495        3546        3545
         4        3495        3496        3547        3546
         4        3496        3497        3548        3547
         4        3497        3498        3549        3548
         4        3498        3499        3550        3549
         4        3499        3500        3551        3550
         4        3500        3501        3552        3551
         4        3501        3502        3553        3552
         4        3502        3503        3554        3553
         4        3503        3504        3555        3554
         4        3504        3505        3556        3555
         4        3505        3506        3557        3556
         4        3506        3507        3558        3557
         4        3507        3508        3559        3558
         4        3508        3509        3560        3559
         4        3509        3510        3561        3560
         4        3510        3511        3562        3561
         4        3511        3512        3563        3562
         4        3512        3513        3564        3563
         4        3513        3514        3565        3564
         4        3514        3515        3566        3565
         4        3515        3516        3567        3566
         4        3516        3517        3568        3567
         4        3517        3518        3569        3568
         4        3519        3520        3571        3570
         4        3520        3521        3572        3571
         4        3521        3522        3573        3572
         4        3522        3523        3574        3573
         4        3523        3524        3575        3574
         4        3524        3525        3576        3575
         4        3525        3526        3577        3576
         4        3526        3527        3578        3577
         4        3527        3528        3579        3578
         4        3528        3529        3580        3579
         4        3529        3530        3581        3580
         4        3530        3531        3582        3581
         4        3531        3532        3583        3582
         4        3532        3533        3584        3583
         4        3533        3534        3585        3584
         4        3534        3535        3586        3585
         4        3535        3536        3587        3586
         4        3536        3537        3588        3587
         4        3537        3538        3589        3588
         4        3538        3539        3590        3589
         4        3539        3540        3591        3590
         4        3540        3541        3592        3591
         4        3541        3542        3593        3592
         4        3542        3543        3594        3593
         4        3543        3544        3595        3594
         4        3544        3545        3596        3595
         4        3545        3546        3597        3596
         4        3546        3547        3598        3597
         4        3547        3548        3599        3598
         4        3548        3549        3600        3599
         4        3549        3550        3601        3600
         4        3550        3551        3602        3601
         4        3551        3552        3603        3602
         4        3552        3553        3604        3603
         4        3553        3554        3605        3604
         4        3554        3555        3606        3605
         4        3555        3556        3607        3606
         4        3556        3557        3608        3607
         4        3557        3558        3609        3608
         4        3558        3559        3610        3609
         4        3559        3560        3611        3610
         4        3560        3561        3612        3611
         4        3561        3562        3613        3612
         4        3562        3563        3614        3613
         4        3563        3564        3615        3614
         4        3564        3565        3616        3615
         4        3565        3566        3617        3616
         4        3566        3567        3618        3617
         4        3567        3568        3619        3618
         4        3568        3569        3620        3619
         4        3570        3571        3622        3621
         4        3571        3572        3623        3622
         4        3572        3573        3624        3623
         4        3573        3574        3625        3624
         4        3574        3575        3626        3625
         4        3575        3576        3627        3626
         4        3576        3577        3628        3627
         4        3577        3578        3629        3628
         4        3578        3579        3630        3629
         4        3579        3580        3631        3630
         4        3580        3581        3632        3631
         4        3581        3582        3633        3632
         4        3582        3583        3634        3633
         4        3583        3584        3635        3634
         4        3584        3585        3636        3635
         4        3585        3586        3637        3636
         4        3586        3587        3638        3637
         4        3587        3588        3639        3638
         4        3588        3589        3640        3639
         4        3589        3590        3641        3640
         4        3590        3591        3642        3641
         4        3591        3592        3643        3642
         4        3592        3593        3644        3643
         4        3593        3594        3645        3644
         4        3594        3595        3646        3645
         4        3595        3596        3647        3646
         4        3596        3597        3648        3647
         4        3597        3598        3649        3648
         4        3598        3599        3650        3649
         4        3599        3600        3651        3650
         4        3600        3601        3652        3651
         4        3601        3602        3653        3652
         4        3602        3603        3654        3653
         4        3603        3604        3655        3654
         4        3604        3605        3656        3655
         4        3605        3606        3657        3656
         4        3606        3607        3658        3657
         4        3607        3608        3659        3658
         4        3608        3609        3660        3659
         4        3609        3610        3661        3660
         4        3610        3611        3662        3661
         4        3611        3612        3663        3662
         4        3612        3613        3664        3663
         4        3613        3614        3665        3664
         4        3614        3615        3666        3665
         4        3615        3616        3667        3666
         4        3616        3617        3668        3667
         4        3617        3618        3669        3668
         4        3618        3619        3670        3669
         4        3619        3620        3671        3670
         4        3621        3622        3673        3672
         4        3622        3623        3674        3673
         4        3623        3624        3675        3674
         4        3624        3625        3676        3675
         4        3625        3626        3677        3676
         4        3626        3627        3678        3677
         4        3627        3628        3679        3678
         4        3628        3629        3680        3679
         4        3629        3630        3681        3680
         4        3630        3631        3682        3681
         4        3631        3632        3683        3682
         4        3632        3633        3684        3683
         4        3633        3634        3685        3684
         4        3634        3635        3686        3685
         4        3635        3636        3687        3686
         4        3636        3637        3688        3687
         4        3637        3638        3689        3688
         4        3638        3639        3690        3689
         4        3639        3640        3691        3690
         4        3640        3641        3692        3691
         4        3641        3642        3693        3692
         4        3642        3643        3694        3693
         4        3643        3644        3695        3694
         4        3644        3645        3696        3695
         4        3645        3646        3697        3696
         4        3646        3647        3698        3697
         4        3647        3648        3699        3698
         4        3648        3649        3700        3699
         4        3649        3650        3701        3700
         4        3650        3651        3702        3701
         4        3651        3652        3703        3702
         4        3652        3653        3704        3703
         4        3653        3654        3705        3704
         4        3654        3655        3706        3705
         4        3655        3656        3707        3706
         4        3656        3657        3708        3707
         4        3657        3658        3709        3708
         4        3658        3659        3710        3709
         4        3659        3660        3711        3710
         4        3660        3661        3712        3711
         4        3661        3662        3713        3712
         4        3662        3663        3714        3713
         4        3663        3664        3715        3714
         4        3664        3665        3716        3715
         4        3665        3666        3717        3716
         4        3666        3667        3718        3717
         4        3667        3668        3719        3718
         4        3668        3669        3720        3719
         4        3669        3670        3721        3720
         4        3670        3671        3722        3721
         4        3672        3673        3724        3723
         4        3673        3674        3725        3724
         4        3674        3675        3726        3725
         4        3675        3676        3727        3726
         4        3676        3677        3728        3727
         4        3677        3678        3729        3728
         4        3678        3679        3730        3729
         4        3679        3680        3731        3730
         4        3680        3681        3732        3731
         4        3681        3682        3733        3732
         4        3682        3683        3734        3733
         4        3683        3684        3735        3734
         4        3684        3685        3736        3735
         4        3685        3686        3737        3736
         4        3686        3687        3738        3737
         4        3687        3688        3739        3738
         4        3688        3689        3740        3739
         4        3689        3690        3741        3740
         4        3690        3691        3742        3741
         4        3691        3692        3743        3742
         4        3692        3693        3744        3743
         4        3693        3694        3745        3744
         4        3694        3695        3746        3745
         4        3695        3696        3747        3746
         4        3696        3697        3748        3747
         4        3697        3698        3749        3748
         4        3698        3699        3750        3749
         4        3699        3700        3751        3750
         4        3700        3701        3752        3751
         4        3701        3702        3753        3752
         4        3702        3703        3754        3753
         4        3703        3704        3755        3754
         4        3704        3705        3756        3755
         4        3705        3706        3757        3756
         4        3706        3707        3758        3757
         4        3707        3708        3759        3758
         4        3708        3709        3760        3759
         4        3709        3710        3761        3760
         4        3710        3711        3762        3761
         4        3711        3712        3763        3762
         4        3712        3713        3764        3763
         4        3713        3714        3765        3764
         4        3714        3715        3766        3765
         4        3715        3716        3767        3766
         4        3716        3717        3768        3767
         4        3717        3718        3769        3768
         4        3718        3719        3770        3769
         4        3719        3720        3771        3770
         4        3720        3721        3772        3771
         4        3721        3722        3773        3772
         4        3723        3724        3775        3774
         4        3724        3725        3776        3775
         4        3725        3726        3777        3776
         4        3726        3727        3778        3777
         4        3727        3728        3779        3778
         4        3728        3729        3780        3779
         4        3729        3730        3781        3780
         4        3730        3731        3782        3781
         4        3731        3732        3783        3782
         4        3732        3733        3784        3783
         4        3733        3734        3785        3784
         4        3734        3735        3786        3785
         4        3735        3736        3787        3786
         4        3736        3737        3788        3787
         4        3737        3738        3789        3788
         4        3738        3739        3790        3789
         4        3739        3740        3791        3790
         4        3740        3741        3792        3791
         4        3741        3742        3793        3792
         4        3742        3743        3794        3793
         4        3743        3744        3795        3794
         4        3744        3745        3796        3795
         4        3745        3746        3797        3796
         4        3746        3747        3798        3797
         4        3747        3748        3799        3798
         4        3748        3749        3800        3799
         4        3749        3750        3801        3800
         4        3750        3751        3802        3801
         4        3751        3752        3803        3802
         4        3752        3753        3804        3803
         4        3753        3754        3805        3804
         4        3754        3755        3806        3805
         4        3755        3756        3807        3806
         4        3756        3757        3808        3807
         4        3757        3758        3809        3808
         4        3758        3759        3810        3809
         4        3759        3760        3811        3810
         4        3760        3761        3812        3811
         4        3761        3762        3813        3812
         4        3762        3763        3814        3813
         4        3763        3764        3815        3814
         4        3764        3765        3816        3815
         4        3765        3766        3817        3816
         4        3766        3767        3818        3817
         4        3767        3768        3819        3818
         4        3768        3769        3820        3819
         4        3769        3770        3821        3820
         4        3770        3771        3822        3821
         4        3771        3772        3823        3822
         4        3772        3773        3824        3823
         4        3774        3775        3826        3825
         4        3775        3776        3827        3826
         4        3776        3777        3828        3827
         4        3777        3778        3829        3828
         4        3778        3779        3830        3829
         4        3779        3780        3831        3830
         4        3780        3781        3832        3831
         4        3781        3782        3833        3832
         4        3782        3783        3834        3833
         4        3783        3784        3835        3834
         4        3784        3785        3836        3835
         4        3785        3786        3837        3836
         4        3786        3787        3838        3837
         4        3787        3788        3839        3838
         4        3788        3789        3840        3839
         4        3789        3790        3841        3840
         4        3790        3791        3842        3841
         4        3791        3792        3843        3842
         4        3792        3793        3844        3843
         4        3793        3794        3845        3844
         4        3794        3795        3846        3845
         4        3795        3796        3847        3846
         4        3796        3797        3848        3847
         4        3797        3798        3849        3848
         4        3798        3799        3850        3849
         4        3799        3800        3851        3850
         4        3800        3801        3852        3851
         4        3801        3802        3853        3852
         4        3802        3803        3854        3853
         4        3803        3804        3855        3854
         4        3804        3805        3856        3855
         4        3805        3806        3857        3856
         4        3806        3807        3858        3857
         4        3807        3808        3859        3858
         4        3808        3809        3860        3859
         4        3809        3810        3861        3860
         4        3810        3811        3862        3861
         4        3811        3812        3863        3862
         4        3812        3813        3864        3863
         4        3813        3814        3865        3864
         4        3814        3815        3866        3865
         4        3815        3816        3867        3866
         4        3816        3817        3868        3867
         4        3817        3818        3869        3868
         4        3818        3819        3870        3869
         4        3819        3820        3871        3870
         4        3820        3821        3872        3871
         4        3821        3822        3873        3872
         4        3822        3823        3874        3873
         4        3823        3824        3875        3874
         4        3825        3826        3877        3876
         4        3826        3827        3878        3877
         4        3827        3828        3879        3878
         4        3828        3829        3880        3879
         4        3829        3830        3881        3880
         4        3830        3831        3882        3881
         4        3831        3832        3883        3882
         4        3832        3833        3884        3883
         4        3833        3834        3885        3884
         4        3834        3835        3886        3885
         4        3835        3836        3887        3886
         4        3836        3837        3888        3887
         4        3837        3838        3889        3888
         4        3838        3839        3890        3889
         4        3839        3840        3891        3890
         4        3840        3841        3892        3891
         4        3841        3842        3893        3892
         4        3842        3843        3894        3893
         4        3843        3844        3895        3894
         4        3844        3845        3896        3895
         4        3845        3846        3897        3896
         4        3846        3847        3898        3897
         4        3847        3848        3899        3898
         4        3848        3849        3900        3899
         4        3849        3850        3901        3900
         4        3850        3851        3902        3901
         4        3851        3852        3903        3902
         4        3852        3853        3904        3903
         4        3853        3854        3905        3904
         4        3854        3855        3906        3905
         4        3855        3856        3907        3906
         4        3856        3857        3908        3907
         4        3857        3858        3909        3908
         4        3858        3859        3910        3909
         4        3859        3860        3911        3910
         4        3860        3861        3912        3911
         4        3861        3862        3913        3912
         4        3862        3863        3914        3913
         4        3863        3864        3915        3914
         4        3864        3865        3916        3915
         4        3865        3866        3917        3916
         4        3866        3867        3918        3917
         4        3867        3868        3919        3918
         4        3868        3869        3920        3919
         4        3869        3870        3921        3920
         4        3870        3871        3922        3921
         4        3871        3872        3923        3922
         4        3872        3873        3924        3923
         4        3873        3874        3925        3924
         4        3874        3875        3926        3925
         4        3876        3877        3928        3927
         4        3877        3878        3929        3928
         4        3878        3879        3930        3929
         4        3879        3880        3931        3930
         4        3880        3881        3932        3931
         4        3881        3882        3933        3932
         4        3882        3883        3934        3933
         4        3883        3884        3935        3934
         4        3884        3885        3936        3935
         4        3885        3886        3937        3936
         4        3886        3887        3938        3937
         4        3887        3888        3939        3938
         4        3888        3889        3940        3939
         4        3889        3890        3941        3940
         4        3890        3891        3942        3941
         4        3891        3892        3943        3942
         4        3892        3893        3944        3943
         4        3893        3894        3945        3944
         4        3894        3895        3946        3945
         4        3895        3896        3947        3946
         4        3896        3897        3948        3947
         4        3897        3898        3949        3948
         4        3898        3899        3950        3949
         4        3899        3900        3951        3950
         4        3900        3901        3952        3951
         4        3901        3902        3953        3952
         4        3902        3903        3954        3953
         4        3903        3904        3955        3954
         4        3904        3905        3956        3955
         4        3905        3906        3957        3956
         4        3906        3907        3958        3957
         4        3907        3908        3959        3958
         4        3908        3909        3960        3959
         4        3909        3910        3961        3960
         4        3910        3911        3962        3961
         4        3911        3912        3963        3962
         4        3912        3913        3964        3963
         4        3913        3914        3965        3964
         4        3914        3915        3966        3965
         4        3915        3916        3967        3966
         4        3916        3917        3968        3967
         4        3917        3918        3969        3968
         4        3918        3919        3970        3969
         4        3919        3920        3971        3970
         4        3920        3921        3972        3971
         4        3921        3922        3973        3972
         4        3922        3923        3974        3973
         4        3923        3924        3975        3974
         4        3924        3925        3976        3975
         4        3925        3926        3977        3976
         4        3927        3928        3979        3978
         4        3928        3929        3980        3979
         4        3929        3930        3981        3980
         4        3930        3931        3982        3981
         4        3931        3932        3983        3982
         4        3932        3933        3984        3983
         4        3933        3934        3985        3984
         4        3934        3935        3986        3985
         4        3935        3936        3987        3986
         4        3936        3937        3988        3987
         4        3937        3938        3989        3988
         4        3938        3939        3990        3989
         4        3939        3940        3991        3990
         4        3940        3941        3992        3991
         4        3941        3942        3993        3992
         4        3942        3943        3994        3993
         4        3943        3944        3995        3994
         4        3944        3945        3996        3995
         4        3945        3946        3997        3996
         4        3946        3947        3998        3997
         4        3947        3948        3999        3998
         4        3948        3949        4000        3999
         4        3949        3950        4001        4000
         4        3950        3951        4002        4001
         4        3951        3952        4003        4002
         4        3952        3953        4004        4003
         4        3953        3954        4005        4004
         4        3954        3955        4006        4005
         4        3955        3956        4007        4006
         4        3956        3957        4008        4007
         4        3957        3958        4009        4008
         4        3958        3959        4010        4009
         4        3959        3960        4011        4010
         4        3960        3961        4012        4011
         4        3961        3962        4013        4012
         4        3962        3963        4014        4013
         4        3963        3964        4015        4014
         4        3964        3965        4016        4015
         4        3965        3966        4017        4016
         4        3966        3967        4018        4017
         4        3967        3968        4019        4018
         4        3968        3969        4020        4019
         4        3969        3970        4021        4020
         4        3970        3971        4022        4021
         4        3971        3972        4023        4022
         4        3972        3973        4024        4023
         4        3973        3974        4025        4024
         4        3974        3975        4026        4025
         4        3975        3976        4027        4026
         4        3976        3977        4028        4027
         4        3978        3979        4030        4029
         4        3979        3980        4031        4030
         4        3980        3981        4032        4031
         4        3981        3982        4033        4032
         4        3982        3983        4034        4033
         4        3983        3984        4035        4034
         4        3984        3985        4036        4035
         4        3985        3986        4037        4036
         4        3986        3987        4038        4037
         4        3987        3988        4039        4038
         4        3988        3989        4040        4039
         4        3989        3990        4041        4040
         4        3990        3991        4042        4041
         4        3991        3992        4043        4042
         4        3992        3993        4044        4043
         4        3993        3994        4045        4044
         4        3994        3995        4046        4045
         4        3995        3996        4047        4046
         4        3996        3997        4048        4047
         4        3997        3998        4049        4048
         4        3998        3999        4050        4049
         4        3999        4000        4051        4050
         4        4000        4001        4052        4051
         4        4001        4002        4053        4052
         4        4002        4003        4054        4053
         4        4003        4004        4055        4054
         4        4004        4005        4056        4055
         4        4005        4006        4057        4056
         4        4006        4007        4058        4057
         4        4007        4008        4059        4058
         4        4008        4009        4060        4059
         4        4009        4010        4061        4060
         4        4010        4011        4062        4061
         4        4011        4012        4063        4062
         4        4012        4013        4064        4063
         4        4013        4014        4065        4064
         4        4014        4015        4066        4065
         4        4015        4016        4067        4066
         4        4016        4017        4068        4067
         4        4017        4018        4069        4068
         4        4018        4019        4070        4069
         4        4019        4020        4071        4070
         4        4020        4021        4072        4071
         4        4021        4022        4073        4072
         4        4022        4023        4074        4073
         4        4023        4024        4075        4074
         4        4024        4025        4076        4075
         4        4025        4026        4077        4076
         4        4026        4027        4078        4077
         4        4027        4028        4079        4078
         4        4029        4030        4081        4080
         4        4030        4031        4082        4081
         4        4031        4032        4083        4082
         4        4032        4033        4084        4083
         4        4033        4034        4085        4084
         4        4034        4035        4086        4085
         4        4035        4036        4087        4086
         4        4036        4037        4088        4087
         4        4037        4038        4089        4088
         4        4038        4039        4090        4089
         4        4039        4040        4091        4090
         4        4040        4041        4092        4091
         4        4041        4042        4093        4092
         4        4042        4043        4094        4093
         4        4043        4044        4095        4094
         4        4044        4045        4096        4095
         4        4045        4046        4097        4096
         4        4046        4047        4098        4097
         4        4047        4048        4099        4098
         4        4048        4049        4100        4099
         4        4049        4050        4101        4100
         4        4050        4051        4102        4101
         4        4051        4052        4103        4102
         4        4052        4053        4104        4103
         4        4053        4054        4105        4104
         4        4054        4055        4106        4105
         4        4055        4056        4107        4106
         4        4056        4057        4108        4107
         4        4057        4058        4109        4108
         4        4058        4059        4110        4109
         4        4059        4060        4111        4110
         4        4060        4061        4112        4111
         4        4061        4062        4113        4112
         4        4062        4063        4114        4113
         4        4063        4064        4115        4114
         4        4064        4065        4116        4115
         4        4065        4066        4117        4116
         4        4066        4067        4118        4117
         4        4067        4068        4119        4118
         4        4068        4069        4120        4119
         4        4069        4070        4121        4120
         4        4070        4071        4122        4121
         4        4071        4072        4123        4122
         4        4072        4073        4124        4123
         4        4073        4074        4125        4124
         4        4074        4075        4126        4125
         4        4075        4076        4127        4126
         4        4076        4077        4128        4127
         4        4077        4078        4129        4128
         4        4078        4079        4130        4129
         4        4080        4081        4132        4131
         4        4081        4082        4133        4132
         4        4082        4083        4134        4133
         4        4083        4084        4135        4134
         4        4084        4085        4136        4135
         4        4085        4086        4137        4136
         4        4086        4087        4138        4137
         4        4087        4088        4139        4138
         4        4088        4089        4140        4139
         4        4089        4090        4141        4140
         4        4090        4091        4142        4141
         4        4091        4092        4143        4142
         4        4092        4093        4144        4143
         4        4093        4094        4145        4144
         4        4094        4095        4146        4145
         4        4095        4096        4147        4146
         4        4096        4097        4148        4147
         4        4097        4098        4149        4148
         4        4098        4099        4150        4149
         4        4099        4100        4151        4150
         4        4100        4101        4152        4151
         4        4101        4102        4153        4152
         4        4102        4103        4154        4153
         4        4103        4104        4155        4154
         4        4104        4105        4156        4155
         4        4105        4106        4157        4156
         4        4106        4107        4158        4157
         4        4107        4108        4159        4158
         4        4108        4109        4160        4159
         4        4109        4110        4161        4160
         4        4110        4111        4162        4161
         4        4111        4112        4163        4162
         4        4112        4113        4164        4163
         4        4113        4114        4165        4164
         4        4114        4115        4166        4165
         4        4115        4116        4167        4166
         4        4116        4117        4168        4167
         4        4117        4118        4169        4168
         4        4118        4119        4170        4169
         4        4119        4120        4171        4170
         4        4120        4121        4172        4171
         4        4121        4122        4173        4172
         4        4122        4123        4174        4173
         4        4123        4124        4175        4174
         4        4124        4125        4176        4175
         4        4125        4126        4177        4176
         4        4126        4127        4178        4177
         4        4127        4128        4179        4178
         4        4128        4129        4180        4179
         4        4129        4130        4181        4180
         4        4131        4132        4183        4182
         4        4132        4133        4184        4183
         4        4133        4134        4185        4184
         4        4134        4135        4186        4185
         4        4135        4136        4187        4186
         4        4136        4137        4188        4187
         4        4137        4138        4189        4188
         4        4138        4139        4190        4189
         4        4139        4140        4191        4190
         4        4140        4141        4192        4191
         4        4141        4142        4193        4192
         4        4142        4143        4194        4193
         4        4143        4144        4195        4194
         4        4144        4145        4196        4195
         4        4145        4146        4197        4196
         4        4146        4147        4198        4197
         4        4147        4148        4199        4198
         4        4148        4149        4200        4199
         4        4149        4150        4201        4200
         4        4150        4151        4202        4201
         4        4151        4152        4203        4202
         4        4152        4153        4204        4203
         4        4153        4154        4205        4204
         4        4154        4155        4206        4205
         4        4155        4156        4207        4206
         4        4156        4157        4208        4207
         4        4157        4158        4209        4208
         4        4158        4159        4210        4209
         4        4159        4160        4211        4210
         4        4160        4161        4212        4211
         4        4161        4162        4213        4212
         4        4162        4163        4214        4213
         4        4163        4164        4215        4214
         4        4164        4165        4216        4215
         4        4165        4166        4217        4216
         4        4166        4167        4218        4217
         4        4167        4168        4219        4218
         4        4168        4169        4220        4219
         4        4169        4170        4221        4220
         4        4170        4171        4222        4221
         4        4171        4172        4223        4222
         4        4172        4173        4224        4223
         4        4173        4174        4225        4224
         4        4174        4175        4226        4225
         4        4175        4176        4227        4226
         4        4176        4177        4228        4227
         4        4177        4178        4229        4228
         4        4178        4179        4230        4229
         4        4179        4180        4231        4230
         4        4180        4181        4232        4231
         4        4182        4183        4234        4233
         4        4183        4184        4235        4234
         4        4184        4185        4236        4235
         4        4185        4186        4237        4236
         4        4186        4187        4238        4237
         4        4187        4188        4239        4238
         4        4188        4189        4240        4239
         4        4189        4190        4241        4240
         4        4190        4191        4242        4241
         4        4191        4192        4243        4242
         4        4192        4193        4244        4243
         4        4193        4194        4245        4244
         4        4194        4195        4246        4245
         4        4195        4196        4247        4246
         4        4196        4197        4248        4247
         4        4197        4198        4249        4248
         4        4198        4199        4250        4249
         4        4199        4200        4251        4250
         4        4200        4201        4252        4251
         4        4201        4202        4253        4252
         4        4202        4203        4254        4253
         4        4203        4204        4255        4254
         4        4204        4205        4256        4255
         4        4205        4206        4257        4256
         4        4206        4207        4258        4257
         4        4207        4208        4259        4258
         4        4208        4209        4260        4259
         4        4209        4210        4261        4260
         4        4210        4211        4262        4261
         4        4211        4212        4263        4262
         4        4212        4213        4264        4263
         4        4213        4214        4265        4264
         4        4214        4215        4266        4265
         4        4215        4216        4267        4266
         4        4216        4217        4268        4267
         4        4217        4218        4269        4268
         4        4218        4219        4270        4269
         4        4219        4220        4271        4270
         4        4220        4221        4272        4271
         4        4221        4222        4273        4272
         4        4222        4223        4274        4273
         4        4223        4224        4275        4274
         4        4224        4225        4276        4275
         4        4225        4226        4277        4276
         4        4226        4227        4278        4277
         4        4227        4228        4279        4278
         4        4228        4229        4280        4279
         4        4229        4230        4281        4280
         4        4230        4231        4282        4281
         4        4231        4232        4283        4282
         4        4233        4234        4285        4284
         4        4234        4235        4286        4285
         4        4235        4236        4287        4286
         4        4236        4237        4288        4287
         4        4237        4238        4289        4288
         4        4238        4239        4290        4289
         4        4239        4240        4291        4290
         4        4240        4241        4292        4291
         4        4241        4242        4293        4292
         4        4242        4243        4294        4293
         4        4243        4244        4295        4294
         4        4244        4245        4296        4295
         4        4245        4246        4297        4296
         4        4246        4247        4298        4297
         4        4247        4248        4299        4298
         4        4248        4249        4300        4299
         4        4249        4250        4301        4300
         4        4250        4251        4302        4301
         4        4251        4252        4303        4302
         4        4252        4253        4304        4303
         4        4253        4254        4305        4304
         4        4254        4255        4306        4305
         4        4255        4256        4307        4306
         4        4256        4257        4308        4307
         4        4257        4258        4309        4308
         4        4258        4259        4310        4309
         4        4259        4260        4311        4310
         4        4260        4261        4312        4311
         4        4261        4262        4313        4312
         4        4262        4263        4314        4313
         4        4263        4264        4315        4314
         4        4264        4265        4316        4315
         4        4265        4266        4317        4316
         4        4266        4267        4318        4317
         4        4267        4268        4319        4318
         4        4268        4269        4320        4319
         4        4269        4270        4321        4320
         4        4270        4271        4322        4321
         4        4271        4272        4323        4322
         4        4272        4273        4324        4323
         4        4273        4274        4325        4324
         4        4274        4275        4326        4325
         4        4275        4276        4327        4326
         4        4276        4277        4328        4327
         4        4277        4278        4329        4328
         4        4278        4279        4330        4329
         4        4279        4280        4331        4330
         4        4280        4281        4332        4331
         4        4281        4282        4333        4332
         4        4282        4283        4334        4333
         4        4284        4285        4336        4335
         4        4285        4286        4337        4336
         4        4286        4287        4338        4337
         4        4287        4288        4339        4338
         4        4288        4289        4340        4339
         4        4289        4290        4341        4340
         4        4290        4291        4342        4341
         4        4291        4292        4343        4342
         4        4292        4293        4344        4343
         4        4293        4294        4345        4344
         4        4294        4295        4346        4345
         4        4295        4296        4347        4346
         4        4296        4297        4348        4347
         4        4297        4298        4349        4348
         4        4298        4299        4350        4349
         4        4299        4300        4351        4350
         4        4300        4301        4352        4351
         4        4301        4302        4353        4352
         4        4302        4303        4354        4353
         4        4303        4304        4355        4354
         4        4304        4305        4356        4355
         4        4305        4306        4357        4356
         4        4306        4307        4358        4357
         4        4307        4308        4359        4358
         4        4308        4309        4360        4359
         4        4309        4310        4361        4360
         4        4310        4311        4362        4361
         4        4311        4312        4363        4362
         4        4312        4313        4364        4363
         4        4313        4314        4365        4364
         4        4314        4315        4366        4365
         4        4315        4316        4367        4366
         4        4316        4317        4368        4367
         4        4317        4318        4369        4368
         4        4318        4319        4370        4369
         4        4319        4320        4371        4370
         4        4320        4321        4372        4371
         4        4321        4322        4373        4372
         4        4322        4323        4374        4373
         4        4323        4324        4375        4374
         4        4324        4325        4376        4375
         4        4325        4326        4377        4376
         4        4326        4327        4378        4377
         4        4327        4328        4379        4378
         4        4328        4329        4380        4379
         4        4329        4330        4381        4380
         4        4330        4331        4382        4381
         4        4331        4332        4383        4382
         4        4332        4333        4384        4383
         4        4333        4334        4385        4384
         4        4335        4336        4387        4386
         4        4336        4337        4388        4387
         4        4337        4338        4389        4388
         4        4338        4339        4390        4389
         4        4339        4340        4391        4390
         4        4340        4341        4392        4391
         4        4341        4342        4393        4392
         4        4342        4343        4394        4393
         4        4343        4344        4395        4394
         4        4344        4345        4396        4395
         4        4345        4346        4397        4396
         4        4346        4347        4398        4397
         4        4347        4348        4399        4398
         4        4348        4349        4400        4399
         4        4349        4350        4401        4400
         4        4350        4351        4402        4401
         4        4351        4352        4403        4402
         4        4352        4353        4404        4403
         4        4353        4354        4405        4404
         4        4354        4355        4406        4405
         4        4355        4356        4407        4406
         4        4356        4357        4408        4407
         4        4357        4358        4409        4408
         4        4358        4359        4410        4409
         4        4359        4360        4411        4410
         4        4360        4361        4412        4411
         4        4361        4362        4413        4412
         4        4362        4363        4414        4413
         4        4363        4364        4415        4414
         4        4364        4365        4416        4415
         4        4365        4366        4417        4416
         4        4366        4367        4418        4417
         4        4367        4368        4419        4418
         4        4368        4369        4420        4419
         4        4369        4370        4421        4420
         4        4370        4371        4422        4421
         4        4371        4372        4423        4422
         4        4372        4373        4424        4423
         4        4373        4374        4425        4424
         4        4374        4375        4426        4425
         4        4375        4376        4427        4426
         4        4376        4377        4428        4427
         4        4377        4378        4429        4428
         4        4378        4379        4430        4429
         4        4379        4380        4431        4430
         4        4380        4381        4432        4431
         4        4381        4382        4433        4432
         4        4382        4383        4434        4433
         4        4383        4384        4435        4434
         4        4384        4385        4436        4435
         4        4386        4387        4438        4437
         4        4387        4388        4439        4438
         4        4388        4389        4440        4439
         4        4389        4390        4441        4440
         4        4390        4391        4442        4441
         4        4391        4392        4443        4442
         4        4392        4393        4444        4443
         4        4393        4394        4445        4444
         4        4394        4395        4446        4445
         4        4395        4396        4447        4446
         4        4396        4397        4448        4447
         4        4397        4398        4449        4448
         4        4398        4399        4450        4449
         4        4399        4400        4451        4450
         4        4400        4401        4452        4451
         4        4401        4402        4453        4452
         4        4402        4403        4454        4453
         4        4403        4404        4455        4454
         4        4404        4405        4456        4455
         4        4405        4406        4457        4456
         4        4406        4407        4458        4457
         4        4407        4408        4459        4458
         4        4408        4409        4460        4459
         4        4409        4410        4461        4460
         4        4410        4411        4462        4461
         4        4411        4412        4463        4462
         4        4412        4413        4464        4463
         4        4413        4414        4465        4464
         4        4414        4415        4466        4465
         4        4415        4416        4467        4466
         4        4416        4417        4468        4467
         4        4417        4418        4469        4468
         4        4418        4419        4470        4469
         4        4419        4420        4471        4470
         4        4420        4421        4472        4471
         4        4421        4422        4473        4472
         4        4422        4423        4474        4473
         4        4423        4424        4475        4474
         4        4424        4425        4476        4475
         4        4425        4426        4477        4476
         4        4426        4427        4478        4477
         4        4427        4428        4479        4478
         4        4428        4429        4480        4479
         4        4429        4430        4481        4480
         4        4430        4431        4482        4481
         4        4431        4432        4483        4482
         4        4432        4433        4484        4483
         4        4433        4434        4485        4484
         4        4434        4435        4486        4485
         4        4435        4436        4487        4486
         4        4437        4438        4489        4488
         4        4438        4439        4490        4489
         4        4439        4440        4491        4490
         4        4440        4441        4492        4491
         4        4441        4442        4493        4492
         4        4442        4443        4494        4493
         4        4443        4444        4495        4494
         4        4444        4445        4496        4495
         4        4445        4446        4497        4496
         4        4446        4447        4498        4497
         4        4447        4448        4499        4498
         4        4448        4449        4500        4499
         4        4449        4450        4501        4500
         4        4450        4451        4502        4501
         4        4451        4452        4503        4502
         4        4452        4453        4504        4503
         4        4453        4454        4505        4504
         4        4454        4455        4506        4505
         4        4455        4456        4507        4506
         4        4456        4457        4508        4507
         4        4457        4458        4509        4508
         4        4458        4459        4510        4509
         4        4459        4460        4511        4510
         4        4460        4461        4512        4511
         4        4461        4462        4513        4512
         4        4462        4463        4514        4513
         4        4463        4464        4515        4514
         4        4464        4465        4516        4515
         4        4465        4466        4517        4516
         4        4466        4467        4518        4517
         4        4467        4468        4519        4518
         4        4468        4469        4520        4519
         4        4469        4470        4521        4520
         4        4470        4471        4522        4521
         4        4471        4472        4523        4522
         4        4472        4473        4524        4523
         4        4473        4474        4525        4524
         4        4474        4475        4526        4525
         4        4475        4476        4527        4526
         4        4476        4477        4528        4527
         4        4477        4478        4529        4528
         4        4478        4479        4530        4529
         4        4479        4480        4531        4530
         4        4480        4481        4532        4531
         4        4481        4482        4533        4532
         4        4482        4483        4534        4533
         4        4483        4484        4535        4534
         4        4484        4485        4536        4535
         4        4485        4486        4537        4536
         4        4486        4487        4538        4537
         4        4488        4489        4540        4539
         4        4489        4490        4541        4540
         4        4490        4491        4542        4541
         4        4491        4492        4543        4542
         4        4492        4493        4544        4543
         4        4493        4494        4545        4544
         4        4494        4495        4546        4545
         4        4495        4496        4547        4546
         4        4496        4497        4548        4547
         4        4497        4498        4549        4548
         4        4498        4499        4550        4549
         4        4499        4500        4551        4550
         4        4500        4501        4552        4551
         4        4501        4502        4553        4552
         4        4502        4503        4554        4553
         4        4503        4504        4555        4554
         4        4504        4505        4556        4555
         4        4505        4506        4557        4556
         4        4506        4507        4558        4557
         4        4507        4508        4559        4558
         4        4508        4509        4560        4559
         4        4509        4510        4561        4560
         4        4510        4511        4562        4561
         4        4511        4512        4563        4562
         4        4512        4513        4564        4563
         4        4513        4514        4565        4564
         4        4514        4515        4566        4565
         4        4515        4516        4567        4566
         4        4516        4517        4568        4567
         4        4517        4518        4569        4568
         4        4518        4519        4570        4569
         4        4519        4520        4571        4570
         4        4520        4521        4572        4571
         4        4521        4522        4573        4572
         4        4522        4523        4574        4573
         4        4523        4524        4575        4574
         4        4524        4525        4576        4575
         4        4525        4526        4577        4576
         4        4526        4527        4578        4577
         4        4527        4528        4579        4578
         4        4528        4529        4580        4579
         4        4529        4530        4581        4580
         4        4530        4531        4582        4581
         4        4531        4532        4583        4582
         4        4532        4533        4584        4583
         4        4533        4534        4585        4584
         4        4534        4535        4586        4585
         4        4535        4536        4587        4586
         4        4536        4537        4588        4587
         4        4537        4538        4589        4588
         4        4539        4540        4591        4590
         4        4540        4541        4592        4591
         4        4541        4542        4593        4592
         4        4542        4543        4594        4593
         4        4543        4544        4595        4594
         4        4544        4545        4596        4595
         4        4545        4546        4597        4596
         4        4546        4547        4598        4597
         4        4547        4548        4599        4598
         4        4548        4549        4600        4599
         4        4549        4550        4601        4600
         4        4550        4551        4602        4601
         4        4551        4552        4603        4602
         4        4552        4553        4604        4603
         4        4553        4554        4605        4604
         4        4554        4555        4606        4605
         4        4555        4556        4607        4606
         4        4556        4557        4608        4607
         4        4557        4558        4609        4608
         4        4558        4559        4610        4609
         4        4559        4560        4611        4610
         4        4560        4561        4612        4611
         4        4561        4562        4613        4612
         4        4562        4563        4614        4613
         4        4563        4564        4615        4614
         4        4564        4565        4616        4615
         4        4565        4566        4617        4616
         4        4566        4567        4618        4617
         4        4567        4568        4619        4618
         4        4568        4569        4620        4619
         4        4569        4570        4621        4620
         4        4570        4571        4622        4621
         4        4571        4572        4623        4622
         4        4572        4573        4624        4623
         4        4573        4574        4625        4624
         4        4574        4575        4626        4625
         4        4575        4576        4627        4626
         4        4576        4577        4628        4627
         4        4577        4578        4629        4628
         4        4578        4579        4630        4629
         4        4579        4580        4631        4630
         4        4580        4581        4632        4631
         4        4581        4582        4633        4632
         4        4582        4583        4634        4633
         4        4583        4584        4635        4634
         4        4584        4585        4636        4635
         4        4585        4586        4637        4636
         4        4586        4587        4638        4637
         4        4587        4588        4639        4638
         4        4588        4589        4640        4639
         4        4590        4591        4642        4641
         4        4591        4592        4643        4642
         4        4592        4593        4644        4643
         4        4593        4594        4645        4644
         4        4594        4595        4646        4645
         4        4595        4596        4647        4646
         4        4596        4597        4648        4647
         4        4597        4598        4649        4648
         4        4598        4599        4650        4649
         4        4599        4600        4651        4650
         4        4600        4601        4652        4651
         4        4601        4602        4653        4652
         4        4602        4603        4654        4653
         4        4603        4604        4655        4654
         4        4604        4605        4656        4655
         4        4605        4606        4657        4656
         4        4606        4607        4658        4657
         4        4607        4608        4659        4658
         4        4608        4609        4660        4659
         4        4609        4610        4661        4660
         4        4610        4611        4662        4661
         4        4611        4612        4663        4662
         4        4612        4613        4664        4663
         4        4613        4614        4665        4664
         4        4614        4615        4666        4665
         4        4615        4616        4667        4666
         4        4616        4617        4668        4667
         4        4617        4618        4669        4668
         4        4618        4619        4670        4669
         4        4619        4620        4671        4670
         4        4620        4621        4672        4671
         4        4621        4622        4673        4672
         4        4622        4623        4674        4673
         4        4623        4624        4675        4674
         4        4624        4625        4676        4675
         4        4625        4626        4677        4676
         4        4626        4627        4678        4677
         4        4627        4628        4679        4678
         4        4628        4629        4680        4679
         4        4629        4630        4681        4680
         4        4630        4631        4682        4681
         4        4631        4632        4683        4682
         4        4632        4633        4684        4683
         4        4633        4634        4685        4684
         4        4634        4635        4686        4685
         4        4635        4636        4687        4686
         4        4636        4637        4688        4687
         4        4637        4638        4689        4688
         4        4638        4639        4690        4689
         4        4639        4640        4691        4690
         4        4641        4642        4693        4692
         4        4642        4643        4694        4693
         4        4643        4644        4695        4694
         4        4644        4645        4696        4695
         4        4645        4646        4697        4696
         4        4646        4647        4698        4697
         4        4647        4648        4699        4698
         4        4648        4649        4700        4699
         4        4649        4650        4701        4700
         4        4650        4651        4702        4701
         4        4651        4652        4703        4702
         4        4652        4653        4704        4703
         4        4653        4654        4705        4704
         4        4654        4655        4706        4705
         4        4655        4656        4707        4706
         4        4656        4657        4708        4707
         4        4657        4658        4709        4708
         4        4658        4659        4710        4709
         4        4659        4660        4711        4710
         4        4660        4661        4712        4711
         4        4661        4662        4713        4712
         4        4662        4663        4714        4713
         4        4663        4664        4715        4714
         4        4664        4665        4716        4715
         4        4665        4666        4717        4716
         4        4666        4667        4718        4717
         4        4667        4668        4719        4718
         4        4668        4669        4720        4719
         4        4669        4670        4721        4720
         4        4670        4671        4722        4721
         4        4671        4672        4723        4722
         4        4672        4673        4724        4723
         4        4673        4674        4725        4724
         4        4674        4675        4726        4725
         4        4675        4676        4727        4726
         4        4676        4677        4728        4727
         4        4677        4678        4729        4728
         4        4678        4679        4730        4729
         4        4679        4680        4731        4730
         4        4680        4681        4732        4731
         4        4681        4682        4733        4732
         4        4682        4683        4734        4733
         4        4683        4684        4735        4734
         4        4684        4685        4736        4735
         4        4685        4686        4737        4736
         4        4686        4687        4738        4737
         4        4687        4688        4739        4738
         4        4688        4689        4740        4739
         4        4689        4690        4741        4740
         4        4690        4691        4742        4741
         4        4692        4693        4744        4743
         4        4693        4694        4745        4744
         4        4694        4695        4746        4745
         4        4695        4696        4747        4746
         4        4696        4697        4748        4747
         4        4697        4698        4749        4748
         4        4698        4699        4750        4749
         4        4699        4700        4751        4750
         4        4700        4701        4752        4751
         4        4701        4702        4753        4752
         4        4702        4703        4754        4753
         4        4703        4704        4755        4754
         4        4704        4705        4756        4755
         4        4705        4706        4757        4756
         4        4706        4707        4758        4757
         4        4707        4708        4759        4758
         4        4708        4709        4760        4759
         4        4709        4710        4761        4760
         4        4710        4711        4762        4761
         4        4711        4712        4763        4762
         4        4712        4713        4764        4763
         4        4713        4714        4765        4764
         4        4714        4715        4766        4765
         4        4715        4716        4767        4766
         4        4716        4717        4768        4767
         4        4717        4718        4769        4768
         4        4718        4719        4770        4769
         4        4719        4720        4771        4770
         4        4720        4721        4772        4771
         4        4721        4722        4773        4772
         4        4722        4723        4774        4773
         4        4723        4724        4775        4774
         4        4724        4725        4776        4775
         4        4725        4726        4777        4776
         4        4726        4727        4778        4777
         4        4727        4728        4779        4778
         4        4728        4729        4780        4779
         4        4729        4730        4781        4780
         4        4730        4731        4782        4781
         4        4731        4732        4783        4782
         4        4732        4733        4784        4783
         4        4733        4734        4785        4784
         4        4734        4735        4786        4785
         4        4735        4736        4787        4786
         4        4736        4737        4788        4787
         4        4737        4738        4789        4788
         4        4738        4739        4790        4789
         4        4739        4740        4791        4790
         4        4740        4741        4792        4791
         4        4741        4742        4793        4792
         4        4743        4744        4795        4794
         4        4744        4745        4796        4795
         4        4745        4746        4797        4796
         4        4746        4747        4798        4797
         4        4747        4748        4799        4798
         4        4748        4749        4800        4799
         4        4749        4750        4801        4800
         4        4750        4751        4802        4801
         4        4751        4752        4803        4802
         4        4752        4753        4804        4803
         4        4753        4754        4805        4804
         4        4754        4755        4806        4805
         4        4755        4756        4807        4806
         4        4756        4757        4808        4807
         4        4757        4758        4809        4808
         4        4758        4759        4810        4809
         4        4759        4760        4811        4810
         4        4760        4761        4812        4811
         4        4761        4762        4813        4812
         4        4762        4763        4814        4813
         4        4763        4764        4815        4814
         4        4764        4765        4816        4815
         4        4765        4766        4817        4816
         4        4766        4767        4818        4817
         4        4767        4768        4819        4818
         4        4768        4769        4820        4819
         4        4769        4770        4821        4820
         4        4770        4771        4822        4821
         4        4771        4772        4823        4822
         4        4772        4773        4824        4823
         4        4773        4774        4825        4824
         4        4774        4775        4826        4825
         4        4775        4776        4827        4826
         4        4776        4777        4828        4827
         4        4777        4778        4829        4828
         4        4778        4779        4830        4829
         4        4779        4780        4831        4830
         4        4780        4781        4832        4831
         4        4781        4782        4833        4832
         4        4782        4783        4834        4833
         4        4783        4784        4835        4834
         4        4784        4785        4836        4835
         4        4785        4786        4837        4836
         4        4786        4787        4838        4837
         4        4787        4788        4839        4838
         4        4788        4789        4840        4839
         4        4789        4790        4841        4840
         4        4790        4791        4842        4841
         4        4791        4792        4843        4842
         4        4792        4793        4844        4843
         4        4794        4795        4846        4845
         4        4795        4796        4847        4846
         4        4796        4797        4848        4847
         4        4797        4798        4849        4848
         4        4798        4799        4850        4849
         4        4799        4800        4851        4850
         4        4800        4801        4852        4851
         4        4801        4802        4853        4852
         4        4802        4803        4854        4853
         4        4803        4804        4855        4854
         4        4804        4805        4856        4855
         4        4805        4806        4857        4856
         4        4806        4807        4858        4857
         4        4807        4808        4859        4858
         4        4808        4809        4860        4859
         4        4809        4810        4861        4860
         4        4810        4811        4862        4861
         4        4811        4812        4863        4862
         4        4812        4813        4864        4863
         4        4813        4814        4865        4864
         4        4814        4815        4866        4865
         4        4815        4816        4867        4866
         4        4816        4817        4868        4867
         4        4817        4818        4869        4868
         4        4818        4819        4870        4869
         4        4819        4820        4871        4870
         4        4820        4821        4872        4871
         4        4821        4822        4873        4872
         4        4822        4823        4874        4873
         4        4823        4824        4875        4874
         4        4824        4825        4876        4875
         4        4825        4826        4877        4876
         4        4826        4827        4878        4877
         4        4827        4828        4879        4878
         4        4828        4829        4880        4879
         4        4829        4830        4881        4880
         4        4830        4831        4882        4881
         4        4831        4832        4883        4882
         4        4832        4833        4884        4883
         4        4833        4834        4885        4884
         4        4834        4835        4886        4885
         4        4835        4836        4887        4886
         4        4836        4837        4888        4887
         4        4837        4838        4889        4888
         4        4838        4839        4890        4889
         4        4839        4840        4891        4890
         4        4840        4841        4892        4891
         4        4841        4842        4893        4892
         4        4842        4843        4894        4893
         4        4843        4844        4895        4894
         4        4845        4846        4897        4896
         4        4846        4847        4898        4897
         4        4847        4848        4899        4898
         4        4848        4849        4900        4899
         4        4849        4850        4901        4900
         4        4850        4851        4902        4901
         4        4851        4852        4903        4902
         4        4852        4853        4904        4903
         4        4853        4854        4905        4904
         4        4854        4855        4906        4905
         4        4855        4856        4907        4906
         4        4856        4857        4908        4907
         4        4857        4858        4909        4908
         4        4858        4859        4910        4909
         4        4859        4860        4911        4910
         4        4860        4861        4912        4911
         4        4861        4862        4913        4912
         4        4862        4863        4914        4913
         4        4863        4864        4915        4914
         4        4864        4865        4916        4915
         4        4865        4866        4917        4916
         4        4866        4867        4918        4917
         4        4867        4868        4919        4918
         4        4868        4869        4920        4919
         4        4869        4870        4921        4920
         4        4870        4871        4922        4921
         4        4871        4872        4923        4922
         4        4872        4873        4924        4923
         4        4873        4874        4925        4924
         4        4874        4875        4926        4925
         4        4875        4876        4927        4926
         4        4876        4877        4928        4927
         4        4877        4878        4929        4928
         4        4878        4879        4930        4929
         4        4879        4880        4931        4930
         4        4880        4881        4932        4931
         4        4881        4882        4933        4932
         4        4882        4883        4934        4933
         4        4883        4884        4935        4934
         4        4884        4885        4936        4935
         4        4885        4886        4937        4936
         4        4886        4887        4938        4937
         4        4887        4888        4939        4938
         4        4888        4889        4940        4939
         4        4889        4890        4941        4940
         4        4890        4891        4942        4941
         4        4891        4892        4943        4942
         4        4892        4893        4944        4943
         4        4893        4894        4945        4944
         4        4894        4895        4946        4945
         4        4896        4897        4948        4947
         4        4897        4898        4949        4948
         4        4898        4899        4950        4949
         4        4899        4900        4951        4950
         4        4900        4901        4952        4951
         4        4901        4902        4953        4952
         4        4902        4903        4954        4953
         4        4903        4904        4955        4954
         4        4904        4905        4956        4955
         4        4905        4906        4957        4956
         4        4906        4907        4958        4957
         4        4907        4908        4959        4958
         4        4908        4909        4960        4959
         4        4909        4910        4961        4960
         4        4910        4911        4962        4961
         4        4911        4912        4963        4962
         4        4912        4913        4964        4963
         4        4913        4914        4965        4964
         4        4914        4915        4966        4965
         4        4915        4916        4967        4966
         4        4916        4917        4968        4967
         4        4917        4918        4969        4968
         4        4918        4919        4970        4969
         4        4919        4920        4971        4970
         4        4920        4921        4972        4971
         4        4921        4922        4973        4972
         4        4922        4923        4974        4973
         4        4923        4924        4975        4974
         4        4924        4925        4976        4975
         4        4925        4926        4977        4976
         4        4926        4927        4978        4977
         4        4927        4928        4979        4978
         4        4928        4929        4980        4979
         4        4929        4930        4981        4980
         4        4930        4931        4982        4981
         4        4931        4932        4983        4982
         4        4932        4933        4984        4983
         4        4933        4934        4985        4984
         4        4934        4935        4986        4985
         4        4935        4936        4987        4986
         4        4936        4937        4988        4987
         4        4937        4938        4989        4988
         4        4938        4939        4990        4989
         4        4939        4940        4991        4990
         4        4940        4941        4992        4991
         4        4941        4942        4993        4992
         4        4942        4943        4994        4993
         4        4943        4944        4995        4994
         4        4944        4945        4996        4995
         4        4945        4946        4997        4996
         4        4947        4948        4999        4998
         4        4948        4949        5000        4999
         4        4949        4950        5001        5000
         4        4950        4951        5002        5001
         4        4951        4952        5003        5002
         4        4952        4953        5004        5003
         4        4953        4954        5005        5004
         4        4954        4955        5006        5005
         4        4955        4956        5007        5006
         4        4956        4957        5008        5007
         4        4957        4958        5009        5008
         4        4958        4959        5010        5009
         4        4959        4960        5011        5010
         4        4960        4961        5012        5011
         4        4961        4962        5013        5012
         4        4962        4963        5014        5013
         4        4963        4964        5015        5014
         4        4964        4965        5016        5015
         4        4965        4966        5017        5016
         4        4966        4967        5018        5017
         4        4967        4968        5019        5018
         4        4968        4969        5020        5019
         4        4969        4970        5021        5020
         4        4970        4971        5022        5021
         4        4971        4972        5023        5022
         4        4972        4973        5024        5023
         4        4973        4974        5025        5024
         4        4974        4975        5026        5025
         4        4975        4976        5027        5026
         4        4976        4977        5028        5027
         4        4977        4978        5029        5028
         4        4978        4979        5030        5029
         4        4979        4980        5031        5030
         4        4980        4981        5032        5031
         4        4981        4982        5033        5032
         4        4982        4983        5034        5033
         4        4983        4984        5035        5034
         4        4984        4985        5036        5035
         4        4985        4986        5037        5036
         4        4986        4987        5038        5037
         4        4987        4988        5039        5038
         4        4988        4989        5040        5039
         4        4989        4990        5041        5040
         4        4990        4991        5042        5041
         4        4991        4992        5043        5042
         4        4992        4993        5044        5043
         4        4993        4994        5045        5044
         4        4994        4995        5046        5045
         4        4995        4996        5047        5046
         4        4996        4997        5048        5047
         4        4998        4999        5050        5049
         4        4999        5000        5051        5050
         4        5000        5001        5052        5051
         4        5001        5002        5053        5052
         4        5002        5003        5054        5053
         4        5003        5004        5055        5054
         4        5004        5005        5056        5055
         4        5005        5006        5057        5056
         4        5006        5007        5058        5057
         4        5007        5008        5059        5058
         4        5008        5009        5060        5059
         4        5009        5010        5061        5060
         4        5010        5011        5062        5061
         4        5011        5012        5063        5062
         4        5012        5013        5064        5063
         4        5013        5014        5065        5064
         4        5014        5015        5066        5065
         4        5015        5016        5067        5066
         4        5016        5017        5068        5067
         4        5017        5018        5069        5068
         4        5018        5019        5070        5069
         4        5019        5020        5071        5070
         4        5020        5021        5072        5071
         4        5021        5022        5073        5072
         4        5022        5023        5074        5073
         4        5023        5024        5075        5074
         4        5024        5025        5076        5075
         4        5025        5026        5077        5076
         4        5026        5027        5078        5077
         4        5027        5028        5079        5078
         4        5028        5029        5080        5079
         4        5029        5030        5081        5080
         4        5030        5031        5082        5081
         4        5031        5032        5083        5082
         4        5032        5033        5084        5083
         4        5033        5034        5085        5084
         4        5034        5035        5086        5085
         4        5035        5036        5087        5086
         4        5036        5037        5088        5087
         4        5037        5038        5089        5088
         4        5038        5039        5090        5089
         4        5039        5040        5091        5090
         4        5040        5041        5092        5091
         4        5041        5042        5093        5092
         4        5042        5043        5094        5093
         4        5043        5044        5095        5094
         4        5044        5045        5096        5095
         4        5045        5046        5097        5096
         4        5046        5047        5098        5097
         4        5047        5048        5099        5098
         4        5049        5050        5101        5100
         4        5050        5051        5102        5101
         4        5051        5052        5103        5102
         4        5052        5053        5104        5103
         4        5053        5054        5105        5104
         4        5054        5055        5106        5105
         4        5055        5056        5107        5106
         4        5056        5057        5108        5107
         4        5057        5058        5109        5108
         4        5058        5059        5110        5109
         4        5059        5060        5111        5110
         4        5060        5061        5112        5111
         4        5061        5062        5113        5112
         4        5062        5063        5114        5113
         4        5063        5064        5115        5114
         4        5064        5065        5116        5115
         4        5065        5066        5117        5116
         4        5066        5067        5118        5117
         4        5067        5068        5119        5118
         4        5068        5069        5120        5119
         4        5069        5070        5121        5120
         4        5070        5071        5122        5121
         4        5071        5072        5123        5122
         4        5072        5073        5124        5123
         4        5073        5074        5125        5124
         4        5074        5075        5126        5125
         4        5075        5076        5127        5126
         4        5076        5077        5128        5127
         4        5077        5078        5129        5128
         4        5078        5079        5130        5129
         4        5079        5080        5131        5130
         4        5080        5081        5132        5131
         4        5081        5082        5133        5132
         4        5082        5083        5134        5133
         4        5083        5084        5135        5134
         4        5084        5085        5136        5135
         4        5085        5086        5137        5136
         4        5086        5087        5138        5137
         4        5087        5088        5139        5138
         4        5088        5089        5140        5139
         4        5089        5090        5141        5140
         4        5090        5091        5142        5141
         4        5091        5092        5143        5142
         4        5092        5093        5144        5143
         4        5093        5094        5145        5144
         4        5094        5095        5146        5145
         4        5095        5096        5147        5146
         4        5096        5097        5148        5147
         4        5097        5098        5149        5148
         4        5098        5099        5150        5149
CELL_TYPES       5000
9
9
9
9
9
9
9
9
9
9
9
9
9
9
9
9
9
9
9
9
9
9
9
9
9
9
9
9
9
9
9
9
9
9
9
9
9
9
9
9
9
9
9
9
9
9
9
9
9
9
9
9
9
9
9
9
9
9
9
9
9
9
9
9
9
9
9
9
9
9
9
9
9
9
9
9
9
9
9
9
9
9
9
9
9
9
9
9
9
9
9
9
9
9
9
9
9
9
9
9
9
9
9
9
9
9
9
9
9
9
9
9
9
9
9
9
9
9
9
9
9
9
9
9
9
9
9
9
9
9
9
9
9
9
9
9
9
9
9
9
9
9
9
9
9
9
9
9
9
9
9
9
9
9
9
9
9
9
9
9
9
9
9
9
9
9
9
9
9
9
9
9
9
9
9
9
9
9
9
9
9
9
9
9
9
9
9
9
9
9
9
9
9
9
9
9
9
9
9
9
9
9
9
9
9
9
9
9
9
9
9
9
9
9
9
9
9
9
9
9
9
9
9
9
9
9
9
9
9
9
9
9
9
9
9
9
9
9
9
9
9
9
9
9
9
9
9
9
9
9
9
9
9
9
9
9
9
9
9
9
9
9
9
9
9
9
9
9
9
9
9
9
9
9
9
9
9
9
9
9
9
9
9
9
9
9
9
9
9
9
9
9
9
9
9
9
9
9
9
9
9
9
9
9
9
9
9
9
9
9
9
9
9
9
9
9
9
9
9
9
9
9
9
9
9
9
9
9
9
9
9
9
9
9
9
9
9
9
9
9
9
9
9
9
9
9
9
9
9
9
9
9
9
9
9
9
9
9
9
9
9
9
9
9
9
9
9
9
9
9
9
9
9
9
9
9
9
9
9
9
9
9
9
9
9
9
9
9
9
9
9
9
9
9
9
9
9
9
9
9
9
9
9
9
9
9
9
9
9
9
9
9
9
9
9
9
9
9
9
9
9
9
9
9
9
9
9
9
9
9
9
9
9
9
9
9
9
9
9
9
9
9
9
9
9
9
9
9
9
9
9
9
9
9
9
9
9
9
9
9
9
9
9
9
9
9
9
9
9
9
9
9
9
9
9
9
9
9
9
9
9
9
9
9
9
9
9
9
9
9
9
9
9
9
9
9
9
9
9
9
9
9
9
9
9
9
9
9
9
9
9
9
9
9
9
9
9
9
9
9
9
9
9
9
9
9
9
9
9
9
9
9
9
9
9
9
9
9
9
9
9
9
9
9
9
9
9
9
9
9
9
9
9
9
9
9
9
9
9
9
9
9
9
9
9
9
9
9
9
9
9
9
9
9
9
9
9
9
9
9
9
9
9
9
9
9
9
9
9
9
9
9
9
9
9
9
9
9
9
9
9
9
9
9
9
9
9
9
9
9
9
9
9
9
9
9
9
9
9
9
9
9
9
9
9
9
9
9
9
9
9
9
9
9
9
9
9
9
9
9
9
9
9
9
9
9
9
9
9
9
9
9
9
9
9
9
9
9
9
9
9
9
9
9
9
9
9
9
9
9
9
9
9
9
9
9
9
9
9
9
9
9
9
9
9
9
9
9
9
9
9
9
9
9
9
9
9
9
9
9
9
9
9
9
9
9
9
9
9
9
9
9
9
9
9
9
9
9
9
9
9
9
9
9
9
9
9
9
9
9
9
9
9
9
9
9
9
9
9
9
9
9
9
9
9
9
9
9
9
9
9
9
9
9
9
9
9
9
9
9
9
9
9
9
9
9
9
9
9
9
9
9
9
9
9
9
9
9
9
9
9
9
9
9
9
9
9
9
9
9
9
9
9
9
9
9
9
9
9
9
9
9
9
9
9
9
9
9
9
9
9
9
9
9
9
9
9
9
9
9
9
9
9
9
9
9
9
9
9
9
9
9
9
9
9
9
9
9
9
9
9
9
9
9
9
9
9
9
9
9
9
9
9
9
9
9
9
9
9
9
9
9
9
9
9
9
9
9
9
9
9
9
9
9
9
9
9
9
9
9
9
9
9
9
9
9
9
9
9
9
9
9
9
9
9
9
9
9
9
9
9
9
9
9
9
9
9
9
9
9
9
9
9
9
9
9
9
9
9
9
9
9
9
9
9
9
9
9
9
9
9
9
9
9
9
9
9
9
9
9
9
9
9
9
9
9
9
9
9
9
9
9
9
9
9
9
9
9
9
9
9
9
9
9
9
9
9
9
9
9
9
9
9
9
9
9
9
9
9
9
9
9
9
9
9
9
9
9
9
9
9
9
9
9
9
9
9
9
9
9
9
9
9
9
9
9
9
9
9
9
9
9
9
9
9
9
9
9
9
9
9
9
9
9
9
9
9
9
9
9
9
9
9
9
9
9
9
9
9
9
9
9
9
9
9
9
9
9
9
9
9
9
9
9
9
9
9
9
9
9
9
9
9
9
9
9
9
9
9
9
9
9
9
9
9
9
9
9
9
9
9
9
9
9
9
9
9
9
9
9
9
9
9
9
9
9
9
9
9
9
9
9
9
9
9
9
9
9
9
9
9
9
9
9
9
9
9
9
9
9
9
9
9
9
9
9
9
9
9
9
9
9
9
9
9
9
9
9
9
9
9
9
9
9
9
9
9
9
9
9
9
9
9
9
9
9
9
9
9
9
9
9
9
9
9
9
9
9
9
9
9
9
9
9
9
9
9
9
9
9
9
9
9
9
9
9
9
9
9
9
9
9
9
9
9
9
9
9
9
9
9
9
9
9
9
9
9
9
9
9
9
9
9
9
9
9
9
9
9
9
9
9
9
9
9
9
9
9
9
9
9
9
9
9
9
9
9
9
9
9
9
9
9
9
9
9
9
9
9
9
9
9
9
9
9
9
9
9
9
9
9
9
9
9
9
9
9
9
9
9
9
9
9
9
9
9
9
9
9
9
9
9
9
9
9
9
9
9
9
9
9
9
9
9
9
9
9
9
9
9
9
9
9
9
9
9
9
9
9
9
9
9
9
9
9
9
9
9
9
9
9
9
9
9
9
9
9
9
9
9
9
9
9
9
9
9
9
9
9
9
9
9
9
9
9
9
9
9
9
9
9
9
9
9
9
9
9
9
9
9
9
9
9
9
9
9
9
9
9
9
9
9
9
9
9
9
9
9
9
9
9
9
9
9
9
9
9
9
9
9
9
9
9
9
9
9
9
9
9
9
9
9
9
9
9
9
9
9
9
9
9
9
9
9
9
9
9
9
9
9
9
9
9
9
9
9
9
9
9
9
9
9
9
9
9
9
9
9
9
9
9
9
9
9
9
9
9
9
9
9
9
9
9
9
9
9
9
9
9
9
9
9
9
9
9
9
9
9
9
9
9
9
9
9
9
9
9
9
9
9
9
9
9
9
9
9
9
9
9
9
9
9
9
9
9
9
9
9
9
9
9
9
9
9
9
9
9
9
9
9
9
9
9
9
9
9
9
9
9
9
9
9
9
9
9
9
9
9
9
9
9
9
9
9
9
9
9
9
9
9
9
9
9
9
9
9
9
9
9
9
9
9
9
9
9
9
9
9
9
9
9
9
9
9
9
9
9
9
9
9
9
9
9
9
9
9
9
9
9
9
9
9
9
9
9
9
9
9
9
9
9
9
9
9
9
9
9
9
9
9
9
9
9
9
9
9
9
9
9
9
9
9
9
9
9
9
9
9
9
9
9
9
9
9
9
9
9
9
9
9
9
9
9
9
9
9
9
9
9
9
9
9
9
9
9
9
9
9
9
9
9
9
9
9
9
9
9
9
9
9
9
9
9
9
9
9
9
9
9
9
9
9
9
9
9
9
9
9
9
9
9
9
9
9
9
9
9
9
9
9
9
9
9
9
9
9
9
9
9
9
9
9
9
9
9
9
9
9
9
9
9
9
9
9
9
9
9
9
9
9
9
9
9
9
9
9
9
9
9
9
9
9
9
9
9
9
9
9
9
9
9
9
9
9
9
9
9
9
9
9
9
9
9
9
9
9
9
9
9
9
9
9
9
9
9
9
9
9
9
9
9
9
9
9
9
9
9
9
9
9
9
9
9
9
9
9
9
9
9
9
9
9
9
9
9
9
9
9
9
9
9
9
9
9
9
9
9
9
9
9
9
9
9
9
9
9
9
9
9
9
9
9
9
9
9
9
9
9
9
9
9
9
9
9
9
9
9
9
9
9
9
9
9
9
9
9
9
9
9
9
9
9
9
9
9
9
9
9
9
9
9
9
9
9
9
9
9
9
9
9
9
9
9
9
9
9
9
9
9
9
9
9
9
9
9
9
9
9
9
9
9
9
9
9
9
9
9
9
9
9
9
9
9
9
9
9
9
9
9
9
9
9
9
9
9
9
9
9
9
9
9
9
9
9
9
9
9
9
9
9
9
9
9
9
9
9
9
9
9
9
9
9
9
9
9
9
9
9
9
9
9
9
9
9
9
9
9
9
9
9
9
9
9
9
9
9
9
9
9
9
9
9
9
9
9
9
9
9
9
9
9
9
9
9
9
9
9
9
9
9
9
9
9
9
9
9
9
9
9
9
9
9
9
9
9
9
9
9
9
9
9
9
9
9
9
9
9
9
9
9
9
9
9
9
9
9
9
9
9
9
9
9
9
9
9
9
9
9
9
9
9
9
9
9
9
9
9
9
9
9
9
9
9
9
9
9
9
9
9
9
9
9
9
9
9
9
9
9
9
9
9
9
9
9
9
9
9
9
9
9
9
9
9
9
9
9
9
9
9
9
9
9
9
9
9
9
9
9
9
9
9
9
9
9
9
9
9
9
9
9
9
9
9
9
9
9
9
9
9
9
9
9
9
9
9
9
9
9
9
9
9
9
9
9
9
9
9
9
9
9
9
9
9
9
9
9
9
9
9
9
9
9
9
9
9
9
9
9
9
9
9
9
9
9
9
9
9
9
9
9
9
9
9
9
9
9
9
9
9
9
9
9
9
9
9
9
9
9
9
9
9
9
9
9
9
9
9
9
9
9
9
9
9
9
9
9
9
9
9
9
9
9
9
9
9
9
9
9
9
9
9
9
9
9
9
9
9
9
9
9
9
9
9
9
9
9
9
9
9
9
9
9
9
9
9
9
9
9
9
9
9
9
9
9
9
9
9
9
9
9
9
9
9
9
9
9
9
9
9
9
9
9
9
9
9
9
9
9
9
9
9
9
9
9
9
9
9
9
9
9
9
9
9
9
9
9
9
9
9
9
9
9
9
9
9
9
9
9
9
9
9
9
9
9
9
9
9
9
9
9
9
9
9
9
9
9
9
9
9
9
9
9
9
9
9
9
9
9
9
9
9
9
9
9
9
9
9
9
9
9
9
9
9
9
9
9
9
9
9
9
9
9
9
9
9
9
9
9
9
9
9
9
9
9
9
9
9
9
9
9
9
9
9
9
9
9
9
9
9
9
9
9
9
9
9
9
9
9
9
9
9
9
9
9
9
9
9
9
9
9
9
9
9
9
9
9
9
9
9
9
9
9
9
9
9
9
9
9
9
9
9
9
9
9
9
9
9
9
9
9
9
9
9
9
9
9
9
9
9
9
9
9
9
9
9
9
9
9
9
9
9
9
9
9
9
9
9
9
9
9
9
9
9
9
9
9
9
9
9
9
9
9
9
9
9
9
9
9
9
9
9
9
9
9
9
9
9
9
9
9
9
9
9
9
9
9
9
9
9
9
9
9
9
9
9
9
9
9
9
9
9
9
9
9
9
9
9
9
9
9
9
9
9
9
9
9
9
9
9
9
9
9
9
9
9
9
9
9
9
9
9
9
9
9
9
9
9
9
9
9
9
9
9
9
9
9
9
9
9
9
9
9
9
9
9
9
9
9
9
9
9
9
9
9
9
9
9
9
9
9
9
9
9
9
9
9
9
9
9
9
9
9
9
9
9
9
9
9
9
9
9
9
9
9
9
9
9
9
9
9
9
9
9
9
9
9
9
9
9
9
9
9
9
9
9
9
9
9
9
9
9
9
9
9
9
9
9
9
9
9
9
9
9
9
9
9
9
9
9
9
9
9
9
9
9
9
9
9
9
9
9
9
9
9
9
9
9
9
9
9
9
9
9
9
9
9
9
9
9
9
9
9
9
9
9
9
9
9
9
9
9
9
9
9
9
9
9
9
9
9
9
9
9
9
9
9
9
9
9
9
9
9
9
9
9
9
9
9
9
9
9
9
9
9
9
9
9
9
9
9
9
9
9
9
9
9
9
9
9
9
9
9
9
9
9
9
9
9
9
9
9
9
9
9
9
9
9
9
9
9
9
9
9
9
9
9
9
9
9
9
9
9
9
9
9
9
9
9
9
9
9
9
9
9
9
9
9
9
9
9
9
9
9
9
9
9
9
9
9
9
9
9
9
9
9
9
9
9
9
9
9
9
9
9
9
9
9
9
9
9
9
9
9
9
9
9
9
9
9
9
9
9
9
9
9
9
9
9
9
9
9
9
9
9
9
9
9
9
9
9
9
9
9
9
9
9
9
9
9
9
9
9
9
9
9
9
9
9
9
9
9
9
9
9
9
9
9
9
9
9
9
9
9
9
9
9
9
9
9
9
9
9
9
9
9
9
9
9
9
9
9
9
9
9
9
9
9
9
9
9
9
9
9
9
9
9
9
9
9
9
9
9
9
9
9
9
9
9
9
9
9
9
9
9
9
9
9
9
9
9
9
9
9
9
9
9
9
9
9
9
9
9
9
9
9
9
9
9
9
9
9
9
9
9
9
9
9
9
9
9
9
9
9
9
9
9
9
9
9
9
9
9
9
9
9
9
9
9
9
9
9
9
9
9
9
9
9
9
9
9
9
9
9
9
9
9
9
9
9
9
9
9
9
9
9
9
9
9
9
9
9
9
9
9
9
9
9
9
9
9
9
9
9
9
9
9
9
9
9
9
9
9
9
9
9
9
9
9
9
9
9
9
9
9
9
9
9
9
9
9
9
9
9
9
9
9
9
9
9
9
9
9
9
9
9
9
9
9
9
9
9
9
9
9
9
9
9
9
9
9
9
9
9
9
9
9
9
9
9
9
9
9
9
9
9
9
9
9
9
9
9
9
9
9
9
9
9
9
9
9
9
9
9
9
9
9
9
9
9
9
9
9
9
9
9
9
9
9
9
9
9
9
9
9
9
9
9
9
9
9
9
9
9
9
9
9
9
9
9
9
9
9
9
9
9
9
9
9
9
9
9
9
9
9
9
9
9
9
9
9
9
9
9
9
9
9
9
9
9
9
9
9
9
9
9
9
9
9
9
9
9
9
9
9
9
9
9
9
9
9
9
9
9
9
9
9
9
9
9
9
9
9
9
9
9
9
9
9
9
9
9
9
9
9
9
9
9
9
9
9
9
9
9
9
9
9
9
9
9
9
9
9
9
9
9
9
9
9
9
9
9
9
9
9
9
9
9
9
9
9
9
9
9
9
9
9
9
9
9
9
9
9
9
9
9
9
9
9
9
9
9
9
9
9
9
9
9
9
9
9
9
9
9
9
9
9
9
9
9
9
9
9
9
9
9
9
9
9
9
9
9
9
9
9
9
9
9
9
9
9
9
9
9
9
9
9
9
9
9
9
9
9
9
9
9
9
9
9
9
9
9
9
9
9
9
9
9
9
9
9
9
9
9
9
9
9
9
9
9
9
9
9
9
9
9
9
9
9
9
9
9
9
9
9
9
9
9
9
9
9
9
9
9
9
9
9
9
9
9
9
9
9
9
9
9
9
9
9
9
9
9
9
9
9
9
9
9
9
9
9
9
9
9
9
9
9
9
9
9
9
9
9
9
9
9
9
9
9
9
9
9
9
9
9
9
9
9
9
9
9
9
9
9
9
9
9
9
9
9
9
9
9
9
9
9
9
9
9
9
9
9
9
9
9
9
9
9
9
9
9
9
9
9
9
9
9
9
9
9
9
9
9
9
9
9
9
9
9
9
9
9
9
9
9
9
9
9
9
9
9
9
9
9
9
9
9
9
9
9
9
9
9
9
9
9
9
9
9
9
9
9
9
9
9
9
9
9
9
9
9
9
9
9
9
9
9
9
9
9
9
9
9
9
9
9
9
9
9
9
9
9
9
9
9
9
9
9
9
9
9
9
9
9
9
9
9
9
9
9
9
9
9
9
9
9
9
9
9
9
9
9
9
9
9
9
9
9
9
9
9
9
9
9
9
9
9
9
9
9
9
9
9
9
9
9
9
9
9
9
9
9
9
9
9
9
9
9
9
9
9
9
9
9
9
9
9
9
9
9
9
9
9
9
9
9
9
9
9
9
9
9
9
9
9
9
9
9
9
9
9
9
9
9
9
9
9
9
9
9
9
9
9
9
9
9
9
9
9
9
9
9
9
9
9
9
9
9
9
9
9
9
9
9
9
9
9
9
9
9
9
9
9
9
9
9
9
9
9
9
9
9
9
9
9
9
9
9
9
9
9
9
9
9
9
9
9
9
9
9
9
9
9
9
9
9
9
9
9
9
9
9
9
9
9
9
9
9
9
9
9
9
9
9
9
9
9
9
9
9
9
9
9
9
9
9
9
9
9
9
9
9
9
9
9
9
9
9
9
9
9
9
9
9
9
9
9
9
9
9
9
9
9
9
9
9
9
9
9
9
9
9
9
9
9
9
9
9
9
9
9
9
9
9
9
9
9
9
9
9
9
9
9
9
9
9
9
9
9
9
9
9
9
9
9
9
9
9
9
9
9
9
9
9
9
9
9
9
9
9
9
9
9
9
9
9
9
9
9
9
9
9
9
9
9
9
9
9
9
9
9
9
9
9
9
9
9
9
9
9
9
9
9
9
9
9
9
9
9
9
9
9
9
9
9
9
9
9
9
9
9
9
9
9
9
9
9
9
9
9
9
9
9
9
9
9
9
9
9
9
9
9
9
9
9
9
9
9
9
9
9
9
9
9
9
9
9
9
9
9
9
9
9
9
9
9
9
9
9
9
9
9
9
9
9
9
9
9
9
9
9
9
9
9
9
9
9
9
9
9
9
9
9
9
9
9
9
9
9
9
9
9
9
9
9
9
9
9
9
9
9
9
9
9
9
9
9
9
9
9
9
9
9
9
9
9
9
9
9
9
9
9
9
9
9
9
9
9
9
9
9
9
9
9
9
9
9
9
9
9
9
9
9
9
9
9
9
9
9
9
9
9
9
9
9
9
9
9
9
9
9
9
9
9
9
9
9
9
9
9
9
9
9
9
9
9
9
9
9
9
9
9
9
9
9
9
9
9
9
9
9
9
9
9
9
9
9
9
9
9
9
9
9
9
9
9
9
9
9
9
9
9
9
9
9
9
9
9
9
9
9
9
9
9
9
9
9
9
9
9
9
9
9
9
9
9
9
9
9
9
9
9
9
9
9
9
9
9
9
9
9
9
9
9
9
9
9
9
9
9
9
9
9
9
9
9
9
9
9
9
9
9
9
9
9
9
9
9
9
9
9
9
9
9
9
9
9
9
9
9
9
9
9
9
9
9
9
9
9
9
9
9
9
9
9
9
9
9
9
9
9
9
9
9
9
9
9
9
9
9
9
9
9
9
9
9
9
9
9
9
9
9
9
9
9
9
9
9
9
9
9
9
9
9
9
9
9
9
9
9
9
9
9
9
9
9
9
9
9
9
9
9
9
9
9
9
9
9
9
9
9
9
9
9
9
9
9
9
9
9
9
9
9
9
9
9
9
9
9
9
9
9
9
9
9
9
9
9
9
9
9
9
9
9
9
9
9
9
9
9
9
9
9
9
9
9
9
9
9
9
9
9
9
9
9
9
9
9
9
9
9
9
9
9
9
9
9
9
9
9
9
9
9
9
9
9
9
9
9
9
9
9
9
9
9
9
9
9
9
9
9
9
9
9
9
9
9
9
9
9
9
9
9
9
9
9
9
9
9
9
9
9
9
9
9
9
9
9
9
9
9
9
9
9
9
9
9
9
9
9
9
9
9
9
9
9
9
9
9
9
9
9
9
9
9
9
9
9
9
9
9
9
9
9
9
9
9
9
9
9
9
9
9
9
9
9
9
9
9
9
9
9
9
9
9
9
9
9
9
9
9
9
9
9
9
9
9
9
9
9
9
9
9
9
9
9
9
9
9
9
9
9
9
9
9
9
9
9
9
9
9
9
9
9
9
9
9
9
9
9
9
9
9
9
9
9
9
9
9
9
9
9
9
9
9
9
9
9
9
9
9
9
9
9
9
9
9
9
9
9
9
9
9
9
9
9
9
9
9
9
9
9
9
9
9
9
9
9
9
9
9
9
9
9
9
9
9
9
9
9
9
9
9
9
9
9
9
9
9
9
9
9
9
9
9
9
9
9
9
9
9
9
9
9
9
9
9
9
9
9
9
9
9
9
9
9
9
9
9
9
9
9
9
9
9
9
9
9
9
9
9
9
9
9
9
9
9
9
9
9
9
9
9
9
9
9
9
9
9
9
9
9
9
9
9
9
9
9
9
9
9
9
9
9
9
9
9
9
9
9
9
9
9
9
9
9
9
9
9
9
9
9
9
9
9
9
9
9
9
9
9
9
9
9
9
9
9
9
9
9
9
9
9
9
9
9
9
9
9
9
9
9
9
9
9
9
9
9
9
9
9
9
9
9
9
9
9
9
9
9
9
9
9
9
9
9
9
9
9
9
9
9
9
9
9
9
9
9
9
9
9
9
9
9
9
9
9
9
9
9
9
9
9
9
9
9
9
9
9
9
9
9
9
9
9
9
9
9
9
9
9
9
9
9
9
9
9
9
9
9
9
9
9
9
9
9
9
9
9
9
9
9
9
9
9
9
9
9
9
9
9
9
9
9
9
9
9
9
9
9
9
9
9
9
9
9
9
9
9
9
9
9
9
9
9
9
9
9
9
9
9
9
9
9
9
9
9
9
9
9
9
9
9
9
9
9
9
9
9
9
9
9
9
9
9
9
9
9
9
9
9
9
9
9
9
9
9
9
9
9
9
9
9
9
9
9
9
9
9
9
9
9
9
9
9
9
9
9
9
9
9
9
9
9
9
9
9
9
9
9
9
9
9
9
9
9
9
9
9
9
9
9
9
9
9
9
9
9
9
9
9
9
9
9
9
9
9
9
9
9
9
9
9
9
9
9
9
9
9
9
9
9
9
9
9
9
9
9
9
9
9
9
9
9
9
9
9
9
9
9
9
9
9
9
9
9
9
9
9
9
9
9
9
9
9
9
9
9
9
9
9
9
9
9
9
9
9
9
9
9
9
9
9
9
9
9
9
9
9
9
9
9
9
9
9
9
9
9
9
9
9
9
9
9
9
9
9
9
9
9
9
POINT_DATA      5151
SCALARS p double 
LOOKUP_TABLE default
   50000000.0000000     
   50000000.0000000     
   50000000.0000000     
   50000000.0000000     
   50000000.0000000     
   50000000.0000000     
   50000000.0000000     
   50000000.0000000     
   50000000.0000000     
   50000000.0000000     
   50000000.0000000     
   50000000.0000000     
   50000000.0000000     
   50000000.0000000     
   50000000.0000000     
   50000000.0000000     
   50000000.0000000     
   50000000.0000000     
   50000000.0000000     
   50000000.0000000     
   50000000.0000000     
   50000000.0000000     
   50000000.0000000     
   50000000.0000000     
   50000000.0000000     
   50000000.0000000     
   50000000.0000000     
   50000000.0000000     
   50000000.0000000     
   50000000.0000000     
   50000000.0000000     
   50000000.0000000     
   50000000.0000000     
   50000000.0000000     
   50000000.0000000     
   50000000.0000000     
   50000000.0000000     
   50000000.0000000     
   50000000.0000000     
   50000000.0000000     
   50000000.0000000     
   50000000.0000000     
   50000000.0000000     
   50000000.0000000     
   50000000.0000000     
   50000000.0000000     
   50000000.0000000     
   50000000.0000000     
   50000000.0000000     
   50000000.0000000     
   50000000.0000000     
   49999992.1278423     
   49999992.1278423     
   49999992.1278423     
   49999992.1278423     
   49999992.1278423     
   49999992.1278423     
   49999992.1278423     
   49999992.1278424     
   49999992.1278424     
   49999992.1278424     
   49999992.1278424     
   49999992.1278424     
   49999992.1278424     
   49999992.1278424     
   49999992.1278424     
   49999992.1278424     
   49999992.1278424     
   49999992.1278424     
   49999992.1278424     
   49999992.1278424     
   49999992.1278424     
   49999992.1278424     
   49999992.1278424     
   49999992.1278424     
   49999992.1278424     
   49999992.1278424     
   49999992.1278424     
   49999992.1278424     
   49999992.1278424     
   49999992.1278424     
   49999992.1278424     
   49999992.1278424     
   49999992.1278425     
   49999992.1278425     
   49999992.1278425     
   49999992.1278425     
   49999992.1278425     
   49999992.1278425     
   49999992.1278425     
   49999992.1278425     
   49999992.1278425     
   49999992.1278425     
   49999992.1278425     
   49999992.1278425     
   49999992.1278425     
   49999992.1278425     
   49999992.1278425     
   49999992.1278425     
   49999992.1278426     
   49999992.1278426     
   49999992.1278426     
   49999984.0054040     
   49999984.0054040     
   49999984.0054040     
   49999984.0054041     
   49999984.0054042     
   49999984.0054042     
   49999984.0054042     
   49999984.0054042     
   49999984.0054042     
   49999984.0054042     
   49999984.0054042     
   49999984.0054042     
   49999984.0054042     
   49999984.0054042     
   49999984.0054042     
   49999984.0054043     
   49999984.0054043     
   49999984.0054043     
   49999984.0054043     
   49999984.0054043     
   49999984.0054043     
   49999984.0054044     
   49999984.0054045     
   49999984.0054045     
   49999984.0054044     
   49999984.0054045     
   49999984.0054045     
   49999984.0054045     
   49999984.0054045     
   49999984.0054044     
   49999984.0054044     
   49999984.0054044     
   49999984.0054044     
   49999984.0054044     
   49999984.0054044     
   49999984.0054044     
   49999984.0054044     
   49999984.0054044     
   49999984.0054044     
   49999984.0054044     
   49999984.0054044     
   49999984.0054044     
   49999984.0054044     
   49999984.0054044     
   49999984.0054044     
   49999984.0054044     
   49999984.0054044     
   49999984.0054044     
   49999984.0054044     
   49999984.0054045     
   49999984.0054045     
   49999975.3748702     
   49999975.3748702     
   49999975.3748702     
   49999975.3748702     
   49999975.3748703     
   49999975.3748703     
   49999975.3748704     
   49999975.3748704     
   49999975.3748704     
   49999975.3748704     
   49999975.3748704     
   49999975.3748704     
   49999975.3748704     
   49999975.3748704     
   49999975.3748704     
   49999975.3748704     
   49999975.3748703     
   49999975.3748704     
   49999975.3748704     
   49999975.3748704     
   49999975.3748704     
   49999975.3748704     
   49999975.3748704     
   49999975.3748704     
   49999975.3748704     
   49999975.3748704     
   49999975.3748704     
   49999975.3748704     
   49999975.3748704     
   49999975.3748704     
   49999975.3748704     
   49999975.3748704     
   49999975.3748705     
   49999975.3748705     
   49999975.3748705     
   49999975.3748705     
   49999975.3748705     
   49999975.3748705     
   49999975.3748705     
   49999975.3748705     
   49999975.3748705     
   49999975.3748705     
   49999975.3748705     
   49999975.3748705     
   49999975.3748705     
   49999975.3748705     
   49999975.3748705     
   49999975.3748704     
   49999975.3748704     
   49999975.3748704     
   49999975.3748704     
   49999965.9631451     
   49999965.9631451     
   49999965.9631450     
   49999965.9631451     
   49999965.9631451     
   49999965.9631451     
   49999965.9631450     
   49999965.9631451     
   49999965.9631451     
   49999965.9631451     
   49999965.9631451     
   49999965.9631450     
   49999965.9631450     
   49999965.9631450     
   49999965.9631450     
   49999965.9631450     
   49999965.9631451     
   49999965.9631451     
   49999965.9631451     
   49999965.9631451     
   49999965.9631452     
   49999965.9631452     
   49999965.9631452     
   49999965.9631452     
   49999965.9631452     
   49999965.9631452     
   49999965.9631452     
   49999965.9631452     
   49999965.9631452     
   49999965.9631452     
   49999965.9631452     
   49999965.9631452     
   49999965.9631453     
   49999965.9631453     
   49999965.9631452     
   49999965.9631452     
   49999965.9631452     
   49999965.9631452     
   49999965.9631452     
   49999965.9631452     
   49999965.9631452     
   49999965.9631452     
   49999965.9631453     
   49999965.9631453     
   49999965.9631453     
   49999965.9631453     
   49999965.9631454     
   49999965.9631454     
   49999965.9631454     
   49999965.9631454     
   49999965.9631454     
   49999955.4736800     
   49999955.4736800     
   49999955.4736799     
   49999955.4736799     
   49999955.4736798     
   49999955.4736798     
   49999955.4736799     
   49999955.4736799     
   49999955.4736799     
   49999955.4736799     
   49999955.4736799     
   49999955.4736798     
   49999955.4736798     
   49999955.4736798     
   49999955.4736798     
   49999955.4736798     
   49999955.4736798     
   49999955.4736798     
   49999955.4736798     
   49999955.4736799     
   49999955.4736799     
   49999955.4736799     
   49999955.4736799     
   49999955.4736799     
   49999955.4736799     
   49999955.4736800     
   49999955.4736800     
   49999955.4736800     
   49999955.4736800     
   49999955.4736800     
   49999955.4736800     
   49999955.4736800     
   49999955.4736800     
   49999955.4736800     
   49999955.4736800     
   49999955.4736800     
   49999955.4736800     
   49999955.4736800     
   49999955.4736800     
   49999955.4736800     
   49999955.4736800     
   49999955.4736801     
   49999955.4736801     
   49999955.4736802     
   49999955.4736802     
   49999955.4736802     
   49999955.4736802     
   49999955.4736802     
   49999955.4736802     
   49999955.4736802     
   49999955.4736802     
   49999943.5776471     
   49999943.5776471     
   49999943.5776471     
   49999943.5776472     
   49999943.5776472     
   49999943.5776472     
   49999943.5776472     
   49999943.5776472     
   49999943.5776471     
   49999943.5776471     
   49999943.5776470     
   49999943.5776470     
   49999943.5776470     
   49999943.5776470     
   49999943.5776470     
   49999943.5776469     
   49999943.5776469     
   49999943.5776469     
   49999943.5776468     
   49999943.5776468     
   49999943.5776468     
   49999943.5776468     
   49999943.5776468     
   49999943.5776468     
   49999943.5776467     
   49999943.5776467     
   49999943.5776468     
   49999943.5776468     
   49999943.5776468     
   49999943.5776468     
   49999943.5776469     
   49999943.5776469     
   49999943.5776469     
   49999943.5776469     
   49999943.5776469     
   49999943.5776469     
   49999943.5776469     
   49999943.5776470     
   49999943.5776470     
   49999943.5776469     
   49999943.5776469     
   49999943.5776470     
   49999943.5776470     
   49999943.5776470     
   49999943.5776471     
   49999943.5776471     
   49999943.5776472     
   49999943.5776471     
   49999943.5776472     
   49999943.5776471     
   49999943.5776471     
   49999929.9042159     
   49999929.9042159     
   49999929.9042159     
   49999929.9042159     
   49999929.9042159     
   49999929.9042158     
   49999929.9042158     
   49999929.9042158     
   49999929.9042157     
   49999929.9042156     
   49999929.9042156     
   49999929.9042156     
   49999929.9042155     
   49999929.9042155     
   49999929.9042155     
   49999929.9042155     
   49999929.9042154     
   49999929.9042154     
   49999929.9042154     
   49999929.9042153     
   49999929.9042152     
   49999929.9042152     
   49999929.9042152     
   49999929.9042152     
   49999929.9042152     
   49999929.9042152     
   49999929.9042152     
   49999929.9042152     
   49999929.9042152     
   49999929.9042153     
   49999929.9042153     
   49999929.9042153     
   49999929.9042153     
   49999929.9042153     
   49999929.9042152     
   49999929.9042152     
   49999929.9042153     
   49999929.9042153     
   49999929.9042153     
   49999929.9042153     
   49999929.9042154     
   49999929.9042154     
   49999929.9042154     
   49999929.9042155     
   49999929.9042155     
   49999929.9042155     
   49999929.9042155     
   49999929.9042155     
   49999929.9042155     
   49999929.9042155     
   49999929.9042154     
   49999914.0296663     
   49999914.0296663     
   49999914.0296663     
   49999914.0296662     
   49999914.0296662     
   49999914.0296662     
   49999914.0296662     
   49999914.0296661     
   49999914.0296661     
   49999914.0296661     
   49999914.0296660     
   49999914.0296660     
   49999914.0296660     
   49999914.0296659     
   49999914.0296660     
   49999914.0296660     
   49999914.0296659     
   49999914.0296659     
   49999914.0296659     
   49999914.0296659     
   49999914.0296659     
   49999914.0296659     
   49999914.0296658     
   49999914.0296658     
   49999914.0296658     
   49999914.0296658     
   49999914.0296659     
   49999914.0296659     
   49999914.0296658     
   49999914.0296658     
   49999914.0296658     
   49999914.0296658     
   49999914.0296658     
   49999914.0296658     
   49999914.0296659     
   49999914.0296659     
   49999914.0296659     
   49999914.0296659     
   49999914.0296659     
   49999914.0296659     
   49999914.0296659     
   49999914.0296659     
   49999914.0296659     
   49999914.0296659     
   49999914.0296659     
   49999914.0296659     
   49999914.0296658     
   49999914.0296659     
   49999914.0296659     
   49999914.0296659     
   49999914.0296659     
   49999895.4650471     
   49999895.4650471     
   49999895.4650471     
   49999895.4650471     
   49999895.4650471     
   49999895.4650471     
   49999895.4650471     
   49999895.4650470     
   49999895.4650470     
   49999895.4650470     
   49999895.4650470     
   49999895.4650469     
   49999895.4650470     
   49999895.4650470     
   49999895.4650469     
   49999895.4650469     
   49999895.4650469     
   49999895.4650469     
   49999895.4650469     
   49999895.4650469     
   49999895.4650469     
   49999895.4650469     
   49999895.4650469     
   49999895.4650469     
   49999895.4650469     
   49999895.4650470     
   49999895.4650470     
   49999895.4650470     
   49999895.4650470     
   49999895.4650470     
   49999895.4650470     
   49999895.4650470     
   49999895.4650470     
   49999895.4650470     
   49999895.4650470     
   49999895.4650470     
   49999895.4650470     
   49999895.4650470     
   49999895.4650471     
   49999895.4650471     
   49999895.4650470     
   49999895.4650470     
   49999895.4650470     
   49999895.4650470     
   49999895.4650470     
   49999895.4650470     
   49999895.4650470     
   49999895.4650470     
   49999895.4650470     
   49999895.4650470     
   49999895.4650470     
   49999873.6420449     
   49999873.6420450     
   49999873.6420450     
   49999873.6420450     
   49999873.6420450     
   49999873.6420450     
   49999873.6420450     
   49999873.6420450     
   49999873.6420450     
   49999873.6420450     
   49999873.6420450     
   49999873.6420450     
   49999873.6420450     
   49999873.6420450     
   49999873.6420450     
   49999873.6420450     
   49999873.6420450     
   49999873.6420449     
   49999873.6420449     
   49999873.6420449     
   49999873.6420450     
   49999873.6420450     
   49999873.6420451     
   49999873.6420451     
   49999873.6420451     
   49999873.6420451     
   49999873.6420451     
   49999873.6420451     
   49999873.6420451     
   49999873.6420451     
   49999873.6420450     
   49999873.6420450     
   49999873.6420450     
   49999873.6420450     
   49999873.6420451     
   49999873.6420451     
   49999873.6420451     
   49999873.6420451     
   49999873.6420451     
   49999873.6420451     
   49999873.6420451     
   49999873.6420451     
   49999873.6420451     
   49999873.6420451     
   49999873.6420451     
   49999873.6420451     
   49999873.6420452     
   49999873.6420452     
   49999873.6420452     
   49999873.6420452     
   49999873.6420452     
   49999847.8966925     
   49999847.8966925     
   49999847.8966925     
   49999847.8966925     
   49999847.8966925     
   49999847.8966925     
   49999847.8966925     
   49999847.8966925     
   49999847.8966925     
   49999847.8966925     
   49999847.8966925     
   49999847.8966925     
   49999847.8966925     
   49999847.8966925     
   49999847.8966924     
   49999847.8966925     
   49999847.8966925     
   49999847.8966925     
   49999847.8966924     
   49999847.8966924     
   49999847.8966924     
   49999847.8966924     
   49999847.8966924     
   49999847.8966925     
   49999847.8966925     
   49999847.8966925     
   49999847.8966925     
   49999847.8966925     
   49999847.8966925     
   49999847.8966925     
   49999847.8966925     
   49999847.8966925     
   49999847.8966926     
   49999847.8966926     
   49999847.8966926     
   49999847.8966927     
   49999847.8966927     
   49999847.8966927     
   49999847.8966927     
   49999847.8966928     
   49999847.8966928     
   49999847.8966927     
   49999847.8966927     
   49999847.8966927     
   49999847.8966927     
   49999847.8966927     
   49999847.8966927     
   49999847.8966927     
   49999847.8966927     
   49999847.8966927     
   49999847.8966927     
   49999817.4504895     
   49999817.4504895     
   49999817.4504895     
   49999817.4504895     
   49999817.4504895     
   49999817.4504894     
   49999817.4504894     
   49999817.4504894     
   49999817.4504894     
   49999817.4504894     
   49999817.4504894     
   49999817.4504894     
   49999817.4504894     
   49999817.4504895     
   49999817.4504895     
   49999817.4504894     
   49999817.4504894     
   49999817.4504894     
   49999817.4504894     
   49999817.4504895     
   49999817.4504895     
   49999817.4504895     
   49999817.4504895     
   49999817.4504895     
   49999817.4504895     
   49999817.4504895     
   49999817.4504895     
   49999817.4504895     
   49999817.4504895     
   49999817.4504895     
   49999817.4504896     
   49999817.4504896     
   49999817.4504896     
   49999817.4504896     
   49999817.4504896     
   49999817.4504896     
   49999817.4504897     
   49999817.4504897     
   49999817.4504897     
   49999817.4504897     
   49999817.4504897     
   49999817.4504898     
   49999817.4504898     
   49999817.4504898     
   49999817.4504898     
   49999817.4504898     
   49999817.4504898     
   49999817.4504898     
   49999817.4504898     
   49999817.4504897     
   49999817.4504897     
   49999781.3884493     
   49999781.3884493     
   49999781.3884494     
   49999781.3884494     
   49999781.3884494     
   49999781.3884493     
   49999781.3884493     
   49999781.3884493     
   49999781.3884493     
   49999781.3884493     
   49999781.3884493     
   49999781.3884493     
   49999781.3884493     
   49999781.3884493     
   49999781.3884493     
   49999781.3884493     
   49999781.3884493     
   49999781.3884493     
   49999781.3884493     
   49999781.3884493     
   49999781.3884494     
   49999781.3884493     
   49999781.3884493     
   49999781.3884493     
   49999781.3884493     
   49999781.3884493     
   49999781.3884494     
   49999781.3884494     
   49999781.3884494     
   49999781.3884495     
   49999781.3884495     
   49999781.3884495     
   49999781.3884495     
   49999781.3884495     
   49999781.3884495     
   49999781.3884495     
   49999781.3884495     
   49999781.3884495     
   49999781.3884496     
   49999781.3884496     
   49999781.3884497     
   49999781.3884497     
   49999781.3884496     
   49999781.3884496     
   49999781.3884497     
   49999781.3884497     
   49999781.3884497     
   49999781.3884497     
   49999781.3884497     
   49999781.3884497     
   49999781.3884497     
   49999738.6335082     
   49999738.6335082     
   49999738.6335082     
   49999738.6335082     
   49999738.6335081     
   49999738.6335081     
   49999738.6335081     
   49999738.6335081     
   49999738.6335081     
   49999738.6335080     
   49999738.6335081     
   49999738.6335081     
   49999738.6335081     
   49999738.6335081     
   49999738.6335081     
   49999738.6335081     
   49999738.6335081     
   49999738.6335082     
   49999738.6335081     
   49999738.6335081     
   49999738.6335081     
   49999738.6335081     
   49999738.6335081     
   49999738.6335081     
   49999738.6335080     
   49999738.6335080     
   49999738.6335081     
   49999738.6335081     
   49999738.6335082     
   49999738.6335082     
   49999738.6335082     
   49999738.6335082     
   49999738.6335082     
   49999738.6335082     
   49999738.6335082     
   49999738.6335082     
   49999738.6335082     
   49999738.6335082     
   49999738.6335082     
   49999738.6335083     
   49999738.6335083     
   49999738.6335083     
   49999738.6335083     
   49999738.6335084     
   49999738.6335084     
   49999738.6335084     
   49999738.6335084     
   49999738.6335084     
   49999738.6335084     
   49999738.6335083     
   49999738.6335083     
   49999687.9166513     
   49999687.9166513     
   49999687.9166513     
   49999687.9166513     
   49999687.9166513     
   49999687.9166512     
   49999687.9166512     
   49999687.9166512     
   49999687.9166512     
   49999687.9166512     
   49999687.9166512     
   49999687.9166512     
   49999687.9166512     
   49999687.9166512     
   49999687.9166512     
   49999687.9166512     
   49999687.9166512     
   49999687.9166511     
   49999687.9166511     
   49999687.9166512     
   49999687.9166512     
   49999687.9166512     
   49999687.9166512     
   49999687.9166512     
   49999687.9166512     
   49999687.9166512     
   49999687.9166512     
   49999687.9166512     
   49999687.9166512     
   49999687.9166513     
   49999687.9166512     
   49999687.9166512     
   49999687.9166513     
   49999687.9166513     
   49999687.9166513     
   49999687.9166513     
   49999687.9166513     
   49999687.9166512     
   49999687.9166513     
   49999687.9166513     
   49999687.9166512     
   49999687.9166513     
   49999687.9166513     
   49999687.9166513     
   49999687.9166514     
   49999687.9166515     
   49999687.9166515     
   49999687.9166515     
   49999687.9166515     
   49999687.9166515     
   49999687.9166515     
   49999627.7420133     
   49999627.7420133     
   49999627.7420133     
   49999627.7420133     
   49999627.7420133     
   49999627.7420133     
   49999627.7420132     
   49999627.7420132     
   49999627.7420132     
   49999627.7420132     
   49999627.7420132     
   49999627.7420132     
   49999627.7420132     
   49999627.7420132     
   49999627.7420132     
   49999627.7420131     
   49999627.7420132     
   49999627.7420132     
   49999627.7420132     
   49999627.7420132     
   49999627.7420132     
   49999627.7420132     
   49999627.7420132     
   49999627.7420132     
   49999627.7420132     
   49999627.7420132     
   49999627.7420133     
   49999627.7420133     
   49999627.7420133     
   49999627.7420133     
   49999627.7420132     
   49999627.7420132     
   49999627.7420132     
   49999627.7420132     
   49999627.7420132     
   49999627.7420133     
   49999627.7420133     
   49999627.7420133     
   49999627.7420133     
   49999627.7420133     
   49999627.7420133     
   49999627.7420133     
   49999627.7420133     
   49999627.7420133     
   49999627.7420133     
   49999627.7420133     
   49999627.7420133     
   49999627.7420133     
   49999627.7420133     
   49999627.7420133     
   49999627.7420134     
   49999556.3460910     
   49999556.3460910     
   49999556.3460910     
   49999556.3460910     
   49999556.3460909     
   49999556.3460909     
   49999556.3460909     
   49999556.3460908     
   49999556.3460908     
   49999556.3460908     
   49999556.3460908     
   49999556.3460908     
   49999556.3460908     
   49999556.3460908     
   49999556.3460909     
   49999556.3460909     
   49999556.3460909     
   49999556.3460909     
   49999556.3460908     
   49999556.3460908     
   49999556.3460908     
   49999556.3460907     
   49999556.3460908     
   49999556.3460907     
   49999556.3460907     
   49999556.3460907     
   49999556.3460907     
   49999556.3460908     
   49999556.3460908     
   49999556.3460908     
   49999556.3460908     
   49999556.3460908     
   49999556.3460908     
   49999556.3460908     
   49999556.3460908     
   49999556.3460908     
   49999556.3460908     
   49999556.3460907     
   49999556.3460907     
   49999556.3460907     
   49999556.3460906     
   49999556.3460906     
   49999556.3460906     
   49999556.3460906     
   49999556.3460906     
   49999556.3460906     
   49999556.3460907     
   49999556.3460907     
   49999556.3460908     
   49999556.3460908     
   49999556.3460907     
   49999471.6500767     
   49999471.6500767     
   49999471.6500767     
   49999471.6500767     
   49999471.6500767     
   49999471.6500768     
   49999471.6500767     
   49999471.6500767     
   49999471.6500767     
   49999471.6500767     
   49999471.6500766     
   49999471.6500766     
   49999471.6500766     
   49999471.6500766     
   49999471.6500766     
   49999471.6500766     
   49999471.6500766     
   49999471.6500766     
   49999471.6500766     
   49999471.6500767     
   49999471.6500766     
   49999471.6500766     
   49999471.6500766     
   49999471.6500766     
   49999471.6500766     
   49999471.6500766     
   49999471.6500766     
   49999471.6500766     
   49999471.6500766     
   49999471.6500766     
   49999471.6500766     
   49999471.6500766     
   49999471.6500766     
   49999471.6500767     
   49999471.6500766     
   49999471.6500767     
   49999471.6500766     
   49999471.6500766     
   49999471.6500765     
   49999471.6500764     
   49999471.6500764     
   49999471.6500764     
   49999471.6500764     
   49999471.6500763     
   49999471.6500764     
   49999471.6500763     
   49999471.6500763     
   49999471.6500763     
   49999471.6500763     
   49999471.6500764     
   49999471.6500764     
   49999371.2041708     
   49999371.2041708     
   49999371.2041708     
   49999371.2041708     
   49999371.2041708     
   49999371.2041708     
   49999371.2041708     
   49999371.2041708     
   49999371.2041708     
   49999371.2041708     
   49999371.2041708     
   49999371.2041707     
   49999371.2041707     
   49999371.2041707     
   49999371.2041707     
   49999371.2041707     
   49999371.2041707     
   49999371.2041707     
   49999371.2041707     
   49999371.2041707     
   49999371.2041707     
   49999371.2041708     
   49999371.2041708     
   49999371.2041708     
   49999371.2041707     
   49999371.2041707     
   49999371.2041707     
   49999371.2041707     
   49999371.2041707     
   49999371.2041707     
   49999371.2041707     
   49999371.2041707     
   49999371.2041707     
   49999371.2041706     
   49999371.2041707     
   49999371.2041706     
   49999371.2041706     
   49999371.2041706     
   49999371.2041705     
   49999371.2041705     
   49999371.2041704     
   49999371.2041704     
   49999371.2041704     
   49999371.2041705     
   49999371.2041705     
   49999371.2041705     
   49999371.2041705     
   49999371.2041705     
   49999371.2041705     
   49999371.2041704     
   49999371.2041704     
   49999252.1225511     
   49999252.1225511     
   49999252.1225511     
   49999252.1225511     
   49999252.1225512     
   49999252.1225512     
   49999252.1225512     
   49999252.1225512     
   49999252.1225512     
   49999252.1225512     
   49999252.1225512     
   49999252.1225512     
   49999252.1225512     
   49999252.1225512     
   49999252.1225512     
   49999252.1225512     
   49999252.1225512     
   49999252.1225512     
   49999252.1225512     
   49999252.1225512     
   49999252.1225512     
   49999252.1225512     
   49999252.1225512     
   49999252.1225512     
   49999252.1225512     
   49999252.1225512     
   49999252.1225512     
   49999252.1225511     
   49999252.1225511     
   49999252.1225511     
   49999252.1225511     
   49999252.1225511     
   49999252.1225511     
   49999252.1225511     
   49999252.1225511     
   49999252.1225511     
   49999252.1225510     
   49999252.1225510     
   49999252.1225510     
   49999252.1225509     
   49999252.1225509     
   49999252.1225509     
   49999252.1225510     
   49999252.1225510     
   49999252.1225510     
   49999252.1225509     
   49999252.1225509     
   49999252.1225509     
   49999252.1225509     
   49999252.1225509     
   49999252.1225509     
   49999111.0074854     
   49999111.0074854     
   49999111.0074854     
   49999111.0074854     
   49999111.0074854     
   49999111.0074854     
   49999111.0074854     
   49999111.0074855     
   49999111.0074855     
   49999111.0074855     
   49999111.0074855     
   49999111.0074856     
   49999111.0074855     
   49999111.0074855     
   49999111.0074855     
   49999111.0074855     
   49999111.0074856     
   49999111.0074856     
   49999111.0074856     
   49999111.0074856     
   49999111.0074856     
   49999111.0074856     
   49999111.0074856     
   49999111.0074856     
   49999111.0074856     
   49999111.0074855     
   49999111.0074855     
   49999111.0074855     
   49999111.0074855     
   49999111.0074854     
   49999111.0074854     
   49999111.0074853     
   49999111.0074853     
   49999111.0074853     
   49999111.0074854     
   49999111.0074853     
   49999111.0074854     
   49999111.0074854     
   49999111.0074854     
   49999111.0074854     
   49999111.0074853     
   49999111.0074853     
   49999111.0074853     
   49999111.0074852     
   49999111.0074852     
   49999111.0074852     
   49999111.0074852     
   49999111.0074852     
   49999111.0074851     
   49999111.0074852     
   49999111.0074852     
   49998943.8608366     
   49998943.8608366     
   49998943.8608366     
   49998943.8608366     
   49998943.8608366     
   49998943.8608366     
   49998943.8608367     
   49998943.8608367     
   49998943.8608367     
   49998943.8608368     
   49998943.8608368     
   49998943.8608368     
   49998943.8608368     
   49998943.8608368     
   49998943.8608368     
   49998943.8608368     
   49998943.8608368     
   49998943.8608368     
   49998943.8608369     
   49998943.8608369     
   49998943.8608369     
   49998943.8608369     
   49998943.8608369     
   49998943.8608369     
   49998943.8608369     
   49998943.8608369     
   49998943.8608368     
   49998943.8608368     
   49998943.8608367     
   49998943.8608367     
   49998943.8608366     
   49998943.8608366     
   49998943.8608366     
   49998943.8608366     
   49998943.8608366     
   49998943.8608365     
   49998943.8608365     
   49998943.8608365     
   49998943.8608365     
   49998943.8608364     
   49998943.8608364     
   49998943.8608364     
   49998943.8608364     
   49998943.8608365     
   49998943.8608364     
   49998943.8608364     
   49998943.8608364     
   49998943.8608364     
   49998943.8608364     
   49998943.8608365     
   49998943.8608365     
   49998745.9809592     
   49998745.9809592     
   49998745.9809592     
   49998745.9809592     
   49998745.9809592     
   49998745.9809593     
   49998745.9809593     
   49998745.9809593     
   49998745.9809593     
   49998745.9809592     
   49998745.9809593     
   49998745.9809593     
   49998745.9809593     
   49998745.9809593     
   49998745.9809593     
   49998745.9809593     
   49998745.9809593     
   49998745.9809593     
   49998745.9809593     
   49998745.9809593     
   49998745.9809593     
   49998745.9809593     
   49998745.9809593     
   49998745.9809592     
   49998745.9809592     
   49998745.9809592     
   49998745.9809592     
   49998745.9809591     
   49998745.9809591     
   49998745.9809590     
   49998745.9809590     
   49998745.9809589     
   49998745.9809589     
   49998745.9809589     
   49998745.9809589     
   49998745.9809589     
   49998745.9809589     
   49998745.9809589     
   49998745.9809589     
   49998745.9809589     
   49998745.9809589     
   49998745.9809589     
   49998745.9809589     
   49998745.9809589     
   49998745.9809589     
   49998745.9809589     
   49998745.9809590     
   49998745.9809590     
   49998745.9809589     
   49998745.9809589     
   49998745.9809589     
   49998511.8426827     
   49998511.8426827     
   49998511.8426827     
   49998511.8426827     
   49998511.8426827     
   49998511.8426827     
   49998511.8426827     
   49998511.8426827     
   49998511.8426828     
   49998511.8426828     
   49998511.8426828     
   49998511.8426828     
   49998511.8426828     
   49998511.8426828     
   49998511.8426827     
   49998511.8426828     
   49998511.8426827     
   49998511.8426828     
   49998511.8426827     
   49998511.8426827     
   49998511.8426827     
   49998511.8426827     
   49998511.8426826     
   49998511.8426826     
   49998511.8426825     
   49998511.8426825     
   49998511.8426824     
   49998511.8426824     
   49998511.8426824     
   49998511.8426824     
   49998511.8426824     
   49998511.8426824     
   49998511.8426823     
   49998511.8426823     
   49998511.8426823     
   49998511.8426823     
   49998511.8426823     
   49998511.8426823     
   49998511.8426823     
   49998511.8426823     
   49998511.8426823     
   49998511.8426823     
   49998511.8426823     
   49998511.8426823     
   49998511.8426823     
   49998511.8426823     
   49998511.8426822     
   49998511.8426823     
   49998511.8426823     
   49998511.8426823     
   49998511.8426823     
   49998234.9577507     
   49998234.9577507     
   49998234.9577507     
   49998234.9577507     
   49998234.9577507     
   49998234.9577507     
   49998234.9577508     
   49998234.9577508     
   49998234.9577507     
   49998234.9577507     
   49998234.9577507     
   49998234.9577507     
   49998234.9577507     
   49998234.9577507     
   49998234.9577507     
   49998234.9577506     
   49998234.9577506     
   49998234.9577505     
   49998234.9577504     
   49998234.9577504     
   49998234.9577504     
   49998234.9577504     
   49998234.9577503     
   49998234.9577503     
   49998234.9577502     
   49998234.9577501     
   49998234.9577501     
   49998234.9577501     
   49998234.9577501     
   49998234.9577501     
   49998234.9577501     
   49998234.9577500     
   49998234.9577500     
   49998234.9577500     
   49998234.9577499     
   49998234.9577499     
   49998234.9577499     
   49998234.9577500     
   49998234.9577500     
   49998234.9577500     
   49998234.9577500     
   49998234.9577499     
   49998234.9577499     
   49998234.9577499     
   49998234.9577499     
   49998234.9577498     
   49998234.9577499     
   49998234.9577499     
   49998234.9577499     
   49998234.9577499     
   49998234.9577499     
   49997907.7127013     
   49997907.7127013     
   49997907.7127013     
   49997907.7127013     
   49997907.7127013     
   49997907.7127013     
   49997907.7127013     
   49997907.7127012     
   49997907.7127012     
   49997907.7127012     
   49997907.7127012     
   49997907.7127012     
   49997907.7127012     
   49997907.7127011     
   49997907.7127011     
   49997907.7127010     
   49997907.7127010     
   49997907.7127009     
   49997907.7127009     
   49997907.7127009     
   49997907.7127008     
   49997907.7127008     
   49997907.7127007     
   49997907.7127007     
   49997907.7127007     
   49997907.7127007     
   49997907.7127006     
   49997907.7127006     
   49997907.7127005     
   49997907.7127004     
   49997907.7127004     
   49997907.7127004     
   49997907.7127003     
   49997907.7127003     
   49997907.7127003     
   49997907.7127002     
   49997907.7127002     
   49997907.7127002     
   49997907.7127002     
   49997907.7127002     
   49997907.7127002     
   49997907.7127002     
   49997907.7127003     
   49997907.7127003     
   49997907.7127002     
   49997907.7127001     
   49997907.7127001     
   49997907.7127000     
   49997907.7127000     
   49997907.7127000     
   49997907.7127000     
   49997521.1807541     
   49997521.1807541     
   49997521.1807541     
   49997521.1807541     
   49997521.1807541     
   49997521.1807541     
   49997521.1807540     
   49997521.1807540     
   49997521.1807540     
   49997521.1807539     
   49997521.1807539     
   49997521.1807538     
   49997521.1807538     
   49997521.1807538     
   49997521.1807538     
   49997521.1807538     
   49997521.1807537     
   49997521.1807537     
   49997521.1807536     
   49997521.1807536     
   49997521.1807536     
   49997521.1807535     
   49997521.1807534     
   49997521.1807534     
   49997521.1807533     
   49997521.1807533     
   49997521.1807532     
   49997521.1807532     
   49997521.1807532     
   49997521.1807531     
   49997521.1807531     
   49997521.1807531     
   49997521.1807530     
   49997521.1807530     
   49997521.1807529     
   49997521.1807529     
   49997521.1807529     
   49997521.1807528     
   49997521.1807528     
   49997521.1807528     
   49997521.1807528     
   49997521.1807527     
   49997521.1807527     
   49997521.1807527     
   49997521.1807527     
   49997521.1807527     
   49997521.1807527     
   49997521.1807527     
   49997521.1807527     
   49997521.1807527     
   49997521.1807527     
   49997064.9037888     
   49997064.9037888     
   49997064.9037888     
   49997064.9037888     
   49997064.9037888     
   49997064.9037887     
   49997064.9037887     
   49997064.9037886     
   49997064.9037886     
   49997064.9037885     
   49997064.9037885     
   49997064.9037885     
   49997064.9037884     
   49997064.9037884     
   49997064.9037884     
   49997064.9037883     
   49997064.9037883     
   49997064.9037883     
   49997064.9037883     
   49997064.9037883     
   49997064.9037883     
   49997064.9037882     
   49997064.9037881     
   49997064.9037880     
   49997064.9037880     
   49997064.9037880     
   49997064.9037879     
   49997064.9037879     
   49997064.9037878     
   49997064.9037878     
   49997064.9037877     
   49997064.9037877     
   49997064.9037877     
   49997064.9037876     
   49997064.9037876     
   49997064.9037876     
   49997064.9037876     
   49997064.9037875     
   49997064.9037874     
   49997064.9037874     
   49997064.9037874     
   49997064.9037873     
   49997064.9037873     
   49997064.9037872     
   49997064.9037871     
   49997064.9037871     
   49997064.9037871     
   49997064.9037871     
   49997064.9037871     
   49997064.9037870     
   49997064.9037871     
   49996526.6399668     
   49996526.6399668     
   49996526.6399668     
   49996526.6399668     
   49996526.6399667     
   49996526.6399667     
   49996526.6399667     
   49996526.6399667     
   49996526.6399667     
   49996526.6399667     
   49996526.6399666     
   49996526.6399666     
   49996526.6399666     
   49996526.6399666     
   49996526.6399666     
   49996526.6399666     
   49996526.6399665     
   49996526.6399665     
   49996526.6399665     
   49996526.6399664     
   49996526.6399663     
   49996526.6399663     
   49996526.6399663     
   49996526.6399662     
   49996526.6399662     
   49996526.6399661     
   49996526.6399661     
   49996526.6399660     
   49996526.6399661     
   49996526.6399661     
   49996526.6399661     
   49996526.6399660     
   49996526.6399660     
   49996526.6399659     
   49996526.6399658     
   49996526.6399658     
   49996526.6399657     
   49996526.6399657     
   49996526.6399657     
   49996526.6399656     
   49996526.6399656     
   49996526.6399656     
   49996526.6399655     
   49996526.6399655     
   49996526.6399654     
   49996526.6399653     
   49996526.6399653     
   49996526.6399653     
   49996526.6399653     
   49996526.6399652     
   49996526.6399652     
   49995892.0719530     
   49995892.0719530     
   49995892.0719529     
   49995892.0719529     
   49995892.0719530     
   49995892.0719530     
   49995892.0719530     
   49995892.0719530     
   49995892.0719531     
   49995892.0719530     
   49995892.0719530     
   49995892.0719530     
   49995892.0719530     
   49995892.0719529     
   49995892.0719529     
   49995892.0719529     
   49995892.0719528     
   49995892.0719528     
   49995892.0719527     
   49995892.0719527     
   49995892.0719527     
   49995892.0719527     
   49995892.0719526     
   49995892.0719525     
   49995892.0719525     
   49995892.0719525     
   49995892.0719525     
   49995892.0719525     
   49995892.0719525     
   49995892.0719524     
   49995892.0719523     
   49995892.0719523     
   49995892.0719523     
   49995892.0719523     
   49995892.0719522     
   49995892.0719522     
   49995892.0719522     
   49995892.0719522     
   49995892.0719522     
   49995892.0719522     
   49995892.0719522     
   49995892.0719522     
   49995892.0719522     
   49995892.0719521     
   49995892.0719521     
   49995892.0719520     
   49995892.0719520     
   49995892.0719520     
   49995892.0719520     
   49995892.0719520     
   49995892.0719520     
   49995144.4700285     
   49995144.4700285     
   49995144.4700285     
   49995144.4700285     
   49995144.4700284     
   49995144.4700284     
   49995144.4700284     
   49995144.4700285     
   49995144.4700284     
   49995144.4700284     
   49995144.4700284     
   49995144.4700284     
   49995144.4700284     
   49995144.4700284     
   49995144.4700284     
   49995144.4700284     
   49995144.4700283     
   49995144.4700284     
   49995144.4700283     
   49995144.4700283     
   49995144.4700282     
   49995144.4700282     
   49995144.4700281     
   49995144.4700281     
   49995144.4700281     
   49995144.4700280     
   49995144.4700280     
   49995144.4700280     
   49995144.4700280     
   49995144.4700280     
   49995144.4700280     
   49995144.4700280     
   49995144.4700280     
   49995144.4700280     
   49995144.4700280     
   49995144.4700280     
   49995144.4700280     
   49995144.4700279     
   49995144.4700279     
   49995144.4700279     
   49995144.4700279     
   49995144.4700279     
   49995144.4700279     
   49995144.4700279     
   49995144.4700279     
   49995144.4700278     
   49995144.4700278     
   49995144.4700278     
   49995144.4700278     
   49995144.4700278     
   49995144.4700277     
   49994264.3036559     
   49994264.3036558     
   49994264.3036558     
   49994264.3036558     
   49994264.3036559     
   49994264.3036559     
   49994264.3036560     
   49994264.3036559     
   49994264.3036560     
   49994264.3036559     
   49994264.3036559     
   49994264.3036558     
   49994264.3036558     
   49994264.3036558     
   49994264.3036558     
   49994264.3036557     
   49994264.3036558     
   49994264.3036557     
   49994264.3036557     
   49994264.3036557     
   49994264.3036557     
   49994264.3036556     
   49994264.3036556     
   49994264.3036555     
   49994264.3036555     
   49994264.3036555     
   49994264.3036555     
   49994264.3036555     
   49994264.3036555     
   49994264.3036554     
   49994264.3036554     
   49994264.3036554     
   49994264.3036554     
   49994264.3036553     
   49994264.3036553     
   49994264.3036553     
   49994264.3036553     
   49994264.3036554     
   49994264.3036555     
   49994264.3036555     
   49994264.3036555     
   49994264.3036555     
   49994264.3036555     
   49994264.3036555     
   49994264.3036555     
   49994264.3036555     
   49994264.3036554     
   49994264.3036554     
   49994264.3036554     
   49994264.3036554     
   49994264.3036555     
   49993228.7942481     
   49993228.7942481     
   49993228.7942481     
   49993228.7942481     
   49993228.7942480     
   49993228.7942480     
   49993228.7942480     
   49993228.7942481     
   49993228.7942481     
   49993228.7942480     
   49993228.7942480     
   49993228.7942480     
   49993228.7942480     
   49993228.7942480     
   49993228.7942480     
   49993228.7942479     
   49993228.7942479     
   49993228.7942479     
   49993228.7942478     
   49993228.7942478     
   49993228.7942478     
   49993228.7942478     
   49993228.7942477     
   49993228.7942476     
   49993228.7942476     
   49993228.7942476     
   49993228.7942476     
   49993228.7942476     
   49993228.7942476     
   49993228.7942476     
   49993228.7942476     
   49993228.7942476     
   49993228.7942477     
   49993228.7942477     
   49993228.7942478     
   49993228.7942478     
   49993228.7942478     
   49993228.7942478     
   49993228.7942477     
   49993228.7942477     
   49993228.7942477     
   49993228.7942477     
   49993228.7942477     
   49993228.7942476     
   49993228.7942476     
   49993228.7942476     
   49993228.7942476     
   49993228.7942476     
   49993228.7942476     
   49993228.7942476     
   49993228.7942476     
   49992011.4010050     
   49992011.4010050     
   49992011.4010050     
   49992011.4010050     
   49992011.4010051     
   49992011.4010051     
   49992011.4010051     
   49992011.4010051     
   49992011.4010051     
   49992011.4010051     
   49992011.4010051     
   49992011.4010050     
   49992011.4010049     
   49992011.4010049     
   49992011.4010049     
   49992011.4010048     
   49992011.4010049     
   49992011.4010049     
   49992011.4010049     
   49992011.4010048     
   49992011.4010048     
   49992011.4010047     
   49992011.4010047     
   49992011.4010047     
   49992011.4010047     
   49992011.4010047     
   49992011.4010047     
   49992011.4010047     
   49992011.4010047     
   49992011.4010047     
   49992011.4010047     
   49992011.4010047     
   49992011.4010047     
   49992011.4010048     
   49992011.4010048     
   49992011.4010048     
   49992011.4010048     
   49992011.4010048     
   49992011.4010048     
   49992011.4010048     
   49992011.4010048     
   49992011.4010048     
   49992011.4010048     
   49992011.4010048     
   49992011.4010047     
   49992011.4010046     
   49992011.4010046     
   49992011.4010046     
   49992011.4010046     
   49992011.4010046     
   49992011.4010046     
   49990581.2307189     
   49990581.2307189     
   49990581.2307189     
   49990581.2307189     
   49990581.2307189     
   49990581.2307190     
   49990581.2307191     
   49990581.2307190     
   49990581.2307190     
   49990581.2307189     
   49990581.2307189     
   49990581.2307189     
   49990581.2307189     
   49990581.2307189     
   49990581.2307188     
   49990581.2307188     
   49990581.2307188     
   49990581.2307188     
   49990581.2307188     
   49990581.2307188     
   49990581.2307187     
   49990581.2307187     
   49990581.2307186     
   49990581.2307186     
   49990581.2307186     
   49990581.2307186     
   49990581.2307186     
   49990581.2307186     
   49990581.2307187     
   49990581.2307187     
   49990581.2307187     
   49990581.2307187     
   49990581.2307187     
   49990581.2307187     
   49990581.2307187     
   49990581.2307187     
   49990581.2307187     
   49990581.2307187     
   49990581.2307187     
   49990581.2307187     
   49990581.2307186     
   49990581.2307185     
   49990581.2307185     
   49990581.2307185     
   49990581.2307184     
   49990581.2307184     
   49990581.2307184     
   49990581.2307183     
   49990581.2307183     
   49990581.2307184     
   49990581.2307183     
   49988902.3613946     
   49988902.3613946     
   49988902.3613946     
   49988902.3613946     
   49988902.3613946     
   49988902.3613946     
   49988902.3613946     
   49988902.3613947     
   49988902.3613946     
   49988902.3613946     
   49988902.3613946     
   49988902.3613946     
   49988902.3613945     
   49988902.3613945     
   49988902.3613945     
   49988902.3613945     
   49988902.3613944     
   49988902.3613944     
   49988902.3613943     
   49988902.3613943     
   49988902.3613943     
   49988902.3613943     
   49988902.3613943     
   49988902.3613943     
   49988902.3613944     
   49988902.3613943     
   49988902.3613943     
   49988902.3613944     
   49988902.3613943     
   49988902.3613943     
   49988902.3613944     
   49988902.3613943     
   49988902.3613943     
   49988902.3613944     
   49988902.3613944     
   49988902.3613944     
   49988902.3613944     
   49988902.3613943     
   49988902.3613943     
   49988902.3613942     
   49988902.3613942     
   49988902.3613942     
   49988902.3613942     
   49988902.3613942     
   49988902.3613941     
   49988902.3613940     
   49988902.3613940     
   49988902.3613940     
   49988902.3613940     
   49988902.3613940     
   49988902.3613940     
   49986933.0684097     
   49986933.0684097     
   49986933.0684097     
   49986933.0684097     
   49986933.0684097     
   49986933.0684097     
   49986933.0684097     
   49986933.0684096     
   49986933.0684096     
   49986933.0684096     
   49986933.0684095     
   49986933.0684096     
   49986933.0684096     
   49986933.0684096     
   49986933.0684096     
   49986933.0684096     
   49986933.0684096     
   49986933.0684096     
   49986933.0684096     
   49986933.0684095     
   49986933.0684094     
   49986933.0684094     
   49986933.0684094     
   49986933.0684094     
   49986933.0684094     
   49986933.0684095     
   49986933.0684095     
   49986933.0684095     
   49986933.0684095     
   49986933.0684095     
   49986933.0684095     
   49986933.0684095     
   49986933.0684095     
   49986933.0684094     
   49986933.0684095     
   49986933.0684095     
   49986933.0684095     
   49986933.0684094     
   49986933.0684094     
   49986933.0684094     
   49986933.0684095     
   49986933.0684095     
   49986933.0684094     
   49986933.0684094     
   49986933.0684094     
   49986933.0684094     
   49986933.0684094     
   49986933.0684093     
   49986933.0684093     
   49986933.0684092     
   49986933.0684092     
   49984624.9407284     
   49984624.9407285     
   49984624.9407285     
   49984624.9407285     
   49984624.9407285     
   49984624.9407285     
   49984624.9407285     
   49984624.9407286     
   49984624.9407285     
   49984624.9407286     
   49984624.9407286     
   49984624.9407286     
   49984624.9407286     
   49984624.9407286     
   49984624.9407286     
   49984624.9407286     
   49984624.9407285     
   49984624.9407285     
   49984624.9407285     
   49984624.9407285     
   49984624.9407284     
   49984624.9407284     
   49984624.9407284     
   49984624.9407283     
   49984624.9407283     
   49984624.9407283     
   49984624.9407283     
   49984624.9407283     
   49984624.9407283     
   49984624.9407283     
   49984624.9407284     
   49984624.9407284     
   49984624.9407284     
   49984624.9407284     
   49984624.9407284     
   49984624.9407284     
   49984624.9407284     
   49984624.9407285     
   49984624.9407285     
   49984624.9407284     
   49984624.9407284     
   49984624.9407284     
   49984624.9407284     
   49984624.9407284     
   49984624.9407284     
   49984624.9407284     
   49984624.9407284     
   49984624.9407284     
   49984624.9407284     
   49984624.9407284     
   49984624.9407284     
   49981921.8734082     
   49981921.8734082     
   49981921.8734082     
   49981921.8734082     
   49981921.8734083     
   49981921.8734083     
   49981921.8734084     
   49981921.8734084     
   49981921.8734084     
   49981921.8734084     
   49981921.8734084     
   49981921.8734084     
   49981921.8734084     
   49981921.8734084     
   49981921.8734084     
   49981921.8734083     
   49981921.8734083     
   49981921.8734083     
   49981921.8734083     
   49981921.8734082     
   49981921.8734082     
   49981921.8734082     
   49981921.8734082     
   49981921.8734081     
   49981921.8734081     
   49981921.8734081     
   49981921.8734080     
   49981921.8734080     
   49981921.8734080     
   49981921.8734080     
   49981921.8734080     
   49981921.8734080     
   49981921.8734080     
   49981921.8734081     
   49981921.8734082     
   49981921.8734082     
   49981921.8734082     
   49981921.8734082     
   49981921.8734082     
   49981921.8734082     
   49981921.8734082     
   49981921.8734083     
   49981921.8734083     
   49981921.8734082     
   49981921.8734082     
   49981921.8734083     
   49981921.8734083     
   49981921.8734083     
   49981921.8734083     
   49981921.8734083     
   49981921.8734083     
   49978758.9212982     
   49978758.9212982     
   49978758.9212982     
   49978758.9212982     
   49978758.9212982     
   49978758.9212982     
   49978758.9212983     
   49978758.9212983     
   49978758.9212984     
   49978758.9212984     
   49978758.9212984     
   49978758.9212984     
   49978758.9212984     
   49978758.9212985     
   49978758.9212985     
   49978758.9212984     
   49978758.9212984     
   49978758.9212984     
   49978758.9212984     
   49978758.9212983     
   49978758.9212983     
   49978758.9212983     
   49978758.9212982     
   49978758.9212981     
   49978758.9212981     
   49978758.9212981     
   49978758.9212980     
   49978758.9212980     
   49978758.9212980     
   49978758.9212980     
   49978758.9212980     
   49978758.9212981     
   49978758.9212982     
   49978758.9212982     
   49978758.9212982     
   49978758.9212982     
   49978758.9212982     
   49978758.9212982     
   49978758.9212982     
   49978758.9212982     
   49978758.9212982     
   49978758.9212982     
   49978758.9212982     
   49978758.9212982     
   49978758.9212982     
   49978758.9212982     
   49978758.9212982     
   49978758.9212982     
   49978758.9212983     
   49978758.9212983     
   49978758.9212983     
   49975060.9974481     
   49975060.9974481     
   49975060.9974481     
   49975060.9974481     
   49975060.9974481     
   49975060.9974482     
   49975060.9974481     
   49975060.9974482     
   49975060.9974482     
   49975060.9974482     
   49975060.9974483     
   49975060.9974483     
   49975060.9974483     
   49975060.9974483     
   49975060.9974483     
   49975060.9974483     
   49975060.9974482     
   49975060.9974482     
   49975060.9974482     
   49975060.9974482     
   49975060.9974482     
   49975060.9974482     
   49975060.9974482     
   49975060.9974482     
   49975060.9974481     
   49975060.9974481     
   49975060.9974481     
   49975060.9974481     
   49975060.9974481     
   49975060.9974481     
   49975060.9974480     
   49975060.9974480     
   49975060.9974480     
   49975060.9974480     
   49975060.9974480     
   49975060.9974481     
   49975060.9974481     
   49975060.9974481     
   49975060.9974481     
   49975060.9974482     
   49975060.9974482     
   49975060.9974482     
   49975060.9974482     
   49975060.9974482     
   49975060.9974482     
   49975060.9974482     
   49975060.9974482     
   49975060.9974483     
   49975060.9974483     
   49975060.9974483     
   49975060.9974483     
   49970741.3983327     
   49970741.3983327     
   49970741.3983327     
   49970741.3983327     
   49970741.3983327     
   49970741.3983327     
   49970741.3983327     
   49970741.3983327     
   49970741.3983327     
   49970741.3983327     
   49970741.3983327     
   49970741.3983327     
   49970741.3983327     
   49970741.3983327     
   49970741.3983327     
   49970741.3983327     
   49970741.3983328     
   49970741.3983328     
   49970741.3983328     
   49970741.3983328     
   49970741.3983329     
   49970741.3983329     
   49970741.3983329     
   49970741.3983329     
   49970741.3983329     
   49970741.3983329     
   49970741.3983328     
   49970741.3983328     
   49970741.3983328     
   49970741.3983328     
   49970741.3983328     
   49970741.3983327     
   49970741.3983327     
   49970741.3983328     
   49970741.3983328     
   49970741.3983328     
   49970741.3983329     
   49970741.3983329     
   49970741.3983329     
   49970741.3983329     
   49970741.3983329     
   49970741.3983329     
   49970741.3983329     
   49970741.3983329     
   49970741.3983329     
   49970741.3983330     
   49970741.3983330     
   49970741.3983330     
   49970741.3983329     
   49970741.3983330     
   49970741.3983330     
   49965700.1365905     
   49965700.1365905     
   49965700.1365905     
   49965700.1365905     
   49965700.1365904     
   49965700.1365903     
   49965700.1365903     
   49965700.1365903     
   49965700.1365903     
   49965700.1365903     
   49965700.1365903     
   49965700.1365903     
   49965700.1365903     
   49965700.1365903     
   49965700.1365903     
   49965700.1365903     
   49965700.1365903     
   49965700.1365904     
   49965700.1365905     
   49965700.1365905     
   49965700.1365905     
   49965700.1365905     
   49965700.1365905     
   49965700.1365905     
   49965700.1365904     
   49965700.1365904     
   49965700.1365904     
   49965700.1365904     
   49965700.1365904     
   49965700.1365904     
   49965700.1365904     
   49965700.1365904     
   49965700.1365905     
   49965700.1365905     
   49965700.1365905     
   49965700.1365905     
   49965700.1365906     
   49965700.1365907     
   49965700.1365907     
   49965700.1365907     
   49965700.1365907     
   49965700.1365908     
   49965700.1365908     
   49965700.1365908     
   49965700.1365908     
   49965700.1365908     
   49965700.1365908     
   49965700.1365908     
   49965700.1365908     
   49965700.1365907     
   49965700.1365907     
   49959822.0606027     
   49959822.0606027     
   49959822.0606027     
   49959822.0606027     
   49959822.0606027     
   49959822.0606027     
   49959822.0606026     
   49959822.0606026     
   49959822.0606025     
   49959822.0606025     
   49959822.0606025     
   49959822.0606025     
   49959822.0606026     
   49959822.0606026     
   49959822.0606026     
   49959822.0606026     
   49959822.0606026     
   49959822.0606026     
   49959822.0606026     
   49959822.0606027     
   49959822.0606027     
   49959822.0606027     
   49959822.0606027     
   49959822.0606027     
   49959822.0606027     
   49959822.0606027     
   49959822.0606027     
   49959822.0606027     
   49959822.0606028     
   49959822.0606028     
   49959822.0606028     
   49959822.0606028     
   49959822.0606028     
   49959822.0606029     
   49959822.0606029     
   49959822.0606030     
   49959822.0606030     
   49959822.0606030     
   49959822.0606031     
   49959822.0606031     
   49959822.0606031     
   49959822.0606031     
   49959822.0606031     
   49959822.0606031     
   49959822.0606031     
   49959822.0606030     
   49959822.0606030     
   49959822.0606030     
   49959822.0606030     
   49959822.0606030     
   49959822.0606030     
   49952974.7389530     
   49952974.7389529     
   49952974.7389530     
   49952974.7389530     
   49952974.7389530     
   49952974.7389530     
   49952974.7389530     
   49952974.7389530     
   49952974.7389530     
   49952974.7389530     
   49952974.7389529     
   49952974.7389530     
   49952974.7389529     
   49952974.7389529     
   49952974.7389529     
   49952974.7389529     
   49952974.7389529     
   49952974.7389529     
   49952974.7389529     
   49952974.7389529     
   49952974.7389529     
   49952974.7389530     
   49952974.7389530     
   49952974.7389530     
   49952974.7389529     
   49952974.7389529     
   49952974.7389529     
   49952974.7389529     
   49952974.7389529     
   49952974.7389529     
   49952974.7389530     
   49952974.7389531     
   49952974.7389532     
   49952974.7389532     
   49952974.7389533     
   49952974.7389533     
   49952974.7389533     
   49952974.7389534     
   49952974.7389534     
   49952974.7389535     
   49952974.7389535     
   49952974.7389535     
   49952974.7389535     
   49952974.7389536     
   49952974.7389535     
   49952974.7389535     
   49952974.7389535     
   49952974.7389535     
   49952974.7389535     
   49952974.7389535     
   49952974.7389535     
   49945006.0866518     
   49945006.0866518     
   49945006.0866519     
   49945006.0866519     
   49945006.0866519     
   49945006.0866519     
   49945006.0866519     
   49945006.0866519     
   49945006.0866519     
   49945006.0866520     
   49945006.0866520     
   49945006.0866520     
   49945006.0866520     
   49945006.0866519     
   49945006.0866519     
   49945006.0866519     
   49945006.0866519     
   49945006.0866519     
   49945006.0866519     
   49945006.0866519     
   49945006.0866519     
   49945006.0866518     
   49945006.0866518     
   49945006.0866518     
   49945006.0866518     
   49945006.0866518     
   49945006.0866518     
   49945006.0866519     
   49945006.0866519     
   49945006.0866520     
   49945006.0866520     
   49945006.0866521     
   49945006.0866521     
   49945006.0866521     
   49945006.0866522     
   49945006.0866522     
   49945006.0866522     
   49945006.0866523     
   49945006.0866524     
   49945006.0866524     
   49945006.0866524     
   49945006.0866525     
   49945006.0866525     
   49945006.0866525     
   49945006.0866525     
   49945006.0866525     
   49945006.0866525     
   49945006.0866525     
   49945006.0866525     
   49945006.0866525     
   49945006.0866525     
   49935741.7090738     
   49935741.7090738     
   49935741.7090737     
   49935741.7090738     
   49935741.7090738     
   49935741.7090738     
   49935741.7090739     
   49935741.7090739     
   49935741.7090739     
   49935741.7090739     
   49935741.7090739     
   49935741.7090739     
   49935741.7090738     
   49935741.7090738     
   49935741.7090738     
   49935741.7090738     
   49935741.7090738     
   49935741.7090738     
   49935741.7090738     
   49935741.7090737     
   49935741.7090737     
   49935741.7090737     
   49935741.7090737     
   49935741.7090737     
   49935741.7090736     
   49935741.7090736     
   49935741.7090736     
   49935741.7090736     
   49935741.7090737     
   49935741.7090737     
   49935741.7090738     
   49935741.7090738     
   49935741.7090739     
   49935741.7090740     
   49935741.7090741     
   49935741.7090741     
   49935741.7090741     
   49935741.7090741     
   49935741.7090741     
   49935741.7090741     
   49935741.7090742     
   49935741.7090742     
   49935741.7090742     
   49935741.7090742     
   49935741.7090742     
   49935741.7090742     
   49935741.7090742     
   49935741.7090742     
   49935741.7090743     
   49935741.7090743     
   49935741.7090743     
   49924981.9389018     
   49924981.9389018     
   49924981.9389018     
   49924981.9389018     
   49924981.9389018     
   49924981.9389018     
   49924981.9389018     
   49924981.9389018     
   49924981.9389018     
   49924981.9389018     
   49924981.9389018     
   49924981.9389018     
   49924981.9389018     
   49924981.9389018     
   49924981.9389018     
   49924981.9389018     
   49924981.9389018     
   49924981.9389017     
   49924981.9389017     
   49924981.9389016     
   49924981.9389016     
   49924981.9389016     
   49924981.9389016     
   49924981.9389015     
   49924981.9389015     
   49924981.9389015     
   49924981.9389015     
   49924981.9389015     
   49924981.9389015     
   49924981.9389016     
   49924981.9389016     
   49924981.9389017     
   49924981.9389017     
   49924981.9389017     
   49924981.9389017     
   49924981.9389017     
   49924981.9389017     
   49924981.9389017     
   49924981.9389018     
   49924981.9389019     
   49924981.9389019     
   49924981.9389019     
   49924981.9389020     
   49924981.9389020     
   49924981.9389020     
   49924981.9389020     
   49924981.9389020     
   49924981.9389020     
   49924981.9389020     
   49924981.9389020     
   49924981.9389020     
   49912498.5411190     
   49912498.5411190     
   49912498.5411190     
   49912498.5411190     
   49912498.5411190     
   49912498.5411190     
   49912498.5411189     
   49912498.5411189     
   49912498.5411189     
   49912498.5411189     
   49912498.5411189     
   49912498.5411188     
   49912498.5411188     
   49912498.5411188     
   49912498.5411188     
   49912498.5411188     
   49912498.5411189     
   49912498.5411189     
   49912498.5411189     
   49912498.5411189     
   49912498.5411188     
   49912498.5411188     
   49912498.5411188     
   49912498.5411188     
   49912498.5411187     
   49912498.5411187     
   49912498.5411187     
   49912498.5411187     
   49912498.5411187     
   49912498.5411187     
   49912498.5411187     
   49912498.5411187     
   49912498.5411187     
   49912498.5411188     
   49912498.5411188     
   49912498.5411189     
   49912498.5411189     
   49912498.5411188     
   49912498.5411189     
   49912498.5411189     
   49912498.5411189     
   49912498.5411189     
   49912498.5411190     
   49912498.5411190     
   49912498.5411190     
   49912498.5411189     
   49912498.5411190     
   49912498.5411190     
   49912498.5411191     
   49912498.5411191     
   49912498.5411191     
   49898031.0613451     
   49898031.0613451     
   49898031.0613451     
   49898031.0613450     
   49898031.0613450     
   49898031.0613451     
   49898031.0613451     
   49898031.0613451     
   49898031.0613450     
   49898031.0613450     
   49898031.0613450     
   49898031.0613450     
   49898031.0613450     
   49898031.0613450     
   49898031.0613451     
   49898031.0613451     
   49898031.0613451     
   49898031.0613450     
   49898031.0613450     
   49898031.0613450     
   49898031.0613450     
   49898031.0613450     
   49898031.0613450     
   49898031.0613450     
   49898031.0613450     
   49898031.0613450     
   49898031.0613450     
   49898031.0613450     
   49898031.0613450     
   49898031.0613450     
   49898031.0613450     
   49898031.0613451     
   49898031.0613451     
   49898031.0613451     
   49898031.0613452     
   49898031.0613452     
   49898031.0613452     
   49898031.0613452     
   49898031.0613451     
   49898031.0613451     
   49898031.0613451     
   49898031.0613451     
   49898031.0613451     
   49898031.0613451     
   49898031.0613451     
   49898031.0613451     
   49898031.0613451     
   49898031.0613451     
   49898031.0613451     
   49898031.0613452     
   49898031.0613452     
   49881282.7937272     
   49881282.7937272     
   49881282.7937272     
   49881282.7937273     
   49881282.7937273     
   49881282.7937273     
   49881282.7937273     
   49881282.7937274     
   49881282.7937274     
   49881282.7937274     
   49881282.7937274     
   49881282.7937275     
   49881282.7937275     
   49881282.7937275     
   49881282.7937275     
   49881282.7937275     
   49881282.7937275     
   49881282.7937276     
   49881282.7937276     
   49881282.7937276     
   49881282.7937276     
   49881282.7937276     
   49881282.7937276     
   49881282.7937276     
   49881282.7937276     
   49881282.7937276     
   49881282.7937276     
   49881282.7937276     
   49881282.7937276     
   49881282.7937276     
   49881282.7937276     
   49881282.7937276     
   49881282.7937276     
   49881282.7937276     
   49881282.7937276     
   49881282.7937277     
   49881282.7937277     
   49881282.7937277     
   49881282.7937277     
   49881282.7937277     
   49881282.7937277     
   49881282.7937277     
   49881282.7937277     
   49881282.7937277     
   49881282.7937276     
   49881282.7937276     
   49881282.7937276     
   49881282.7937276     
   49881282.7937276     
   49881282.7937276     
   49881282.7937276     
   49861916.3463270     
   49861916.3463270     
   49861916.3463270     
   49861916.3463270     
   49861916.3463270     
   49861916.3463270     
   49861916.3463270     
   49861916.3463270     
   49861916.3463270     
   49861916.3463271     
   49861916.3463271     
   49861916.3463272     
   49861916.3463272     
   49861916.3463272     
   49861916.3463272     
   49861916.3463273     
   49861916.3463273     
   49861916.3463272     
   49861916.3463272     
   49861916.3463272     
   49861916.3463272     
   49861916.3463272     
   49861916.3463272     
   49861916.3463271     
   49861916.3463271     
   49861916.3463271     
   49861916.3463271     
   49861916.3463271     
   49861916.3463271     
   49861916.3463272     
   49861916.3463272     
   49861916.3463272     
   49861916.3463272     
   49861916.3463272     
   49861916.3463272     
   49861916.3463272     
   49861916.3463272     
   49861916.3463272     
   49861916.3463272     
   49861916.3463273     
   49861916.3463272     
   49861916.3463273     
   49861916.3463273     
   49861916.3463272     
   49861916.3463272     
   49861916.3463272     
   49861916.3463271     
   49861916.3463271     
   49861916.3463271     
   49861916.3463271     
   49861916.3463271     
   49839548.7846732     
   49839548.7846732     
   49839548.7846732     
   49839548.7846732     
   49839548.7846732     
   49839548.7846733     
   49839548.7846733     
   49839548.7846733     
   49839548.7846733     
   49839548.7846733     
   49839548.7846733     
   49839548.7846733     
   49839548.7846733     
   49839548.7846732     
   49839548.7846732     
   49839548.7846731     
   49839548.7846732     
   49839548.7846732     
   49839548.7846732     
   49839548.7846732     
   49839548.7846732     
   49839548.7846732     
   49839548.7846732     
   49839548.7846733     
   49839548.7846732     
   49839548.7846732     
   49839548.7846732     
   49839548.7846732     
   49839548.7846732     
   49839548.7846733     
   49839548.7846733     
   49839548.7846733     
   49839548.7846732     
   49839548.7846732     
   49839548.7846733     
   49839548.7846733     
   49839548.7846733     
   49839548.7846732     
   49839548.7846733     
   49839548.7846733     
   49839548.7846733     
   49839548.7846733     
   49839548.7846733     
   49839548.7846733     
   49839548.7846733     
   49839548.7846733     
   49839548.7846733     
   49839548.7846733     
   49839548.7846733     
   49839548.7846733     
   49839548.7846733     
   49813746.3381121     
   49813746.3381121     
   49813746.3381120     
   49813746.3381121     
   49813746.3381121     
   49813746.3381122     
   49813746.3381122     
   49813746.3381122     
   49813746.3381122     
   49813746.3381122     
   49813746.3381122     
   49813746.3381122     
   49813746.3381122     
   49813746.3381122     
   49813746.3381121     
   49813746.3381121     
   49813746.3381121     
   49813746.3381121     
   49813746.3381121     
   49813746.3381121     
   49813746.3381121     
   49813746.3381121     
   49813746.3381122     
   49813746.3381122     
   49813746.3381122     
   49813746.3381122     
   49813746.3381121     
   49813746.3381121     
   49813746.3381121     
   49813746.3381121     
   49813746.3381121     
   49813746.3381121     
   49813746.3381121     
   49813746.3381121     
   49813746.3381121     
   49813746.3381121     
   49813746.3381121     
   49813746.3381121     
   49813746.3381120     
   49813746.3381120     
   49813746.3381120     
   49813746.3381121     
   49813746.3381121     
   49813746.3381121     
   49813746.3381121     
   49813746.3381121     
   49813746.3381121     
   49813746.3381121     
   49813746.3381121     
   49813746.3381121     
   49813746.3381120     
   49784018.6589764     
   49784018.6589764     
   49784018.6589764     
   49784018.6589764     
   49784018.6589764     
   49784018.6589764     
   49784018.6589764     
   49784018.6589764     
   49784018.6589764     
   49784018.6589764     
   49784018.6589765     
   49784018.6589764     
   49784018.6589764     
   49784018.6589763     
   49784018.6589763     
   49784018.6589763     
   49784018.6589763     
   49784018.6589763     
   49784018.6589763     
   49784018.6589763     
   49784018.6589764     
   49784018.6589764     
   49784018.6589764     
   49784018.6589764     
   49784018.6589764     
   49784018.6589764     
   49784018.6589764     
   49784018.6589764     
   49784018.6589764     
   49784018.6589763     
   49784018.6589763     
   49784018.6589764     
   49784018.6589764     
   49784018.6589764     
   49784018.6589764     
   49784018.6589763     
   49784018.6589763     
   49784018.6589763     
   49784018.6589763     
   49784018.6589762     
   49784018.6589762     
   49784018.6589762     
   49784018.6589762     
   49784018.6589762     
   49784018.6589762     
   49784018.6589762     
   49784018.6589763     
   49784018.6589763     
   49784018.6589762     
   49784018.6589762     
   49784018.6589762     
   49749812.6317190     
   49749812.6317190     
   49749812.6317190     
   49749812.6317190     
   49749812.6317190     
   49749812.6317190     
   49749812.6317189     
   49749812.6317189     
   49749812.6317190     
   49749812.6317190     
   49749812.6317190     
   49749812.6317189     
   49749812.6317189     
   49749812.6317189     
   49749812.6317189     
   49749812.6317188     
   49749812.6317188     
   49749812.6317188     
   49749812.6317188     
   49749812.6317188     
   49749812.6317188     
   49749812.6317188     
   49749812.6317187     
   49749812.6317187     
   49749812.6317188     
   49749812.6317188     
   49749812.6317188     
   49749812.6317188     
   49749812.6317188     
   49749812.6317188     
   49749812.6317188     
   49749812.6317188     
   49749812.6317188     
   49749812.6317188     
   49749812.6317189     
   49749812.6317189     
   49749812.6317189     
   49749812.6317189     
   49749812.6317189     
   49749812.6317189     
   49749812.6317188     
   49749812.6317188     
   49749812.6317188     
   49749812.6317188     
   49749812.6317188     
   49749812.6317188     
   49749812.6317188     
   49749812.6317188     
   49749812.6317189     
   49749812.6317189     
   49749812.6317189     
   49710505.7382666     
   49710505.7382666     
   49710505.7382666     
   49710505.7382666     
   49710505.7382666     
   49710505.7382666     
   49710505.7382666     
   49710505.7382666     
   49710505.7382666     
   49710505.7382666     
   49710505.7382667     
   49710505.7382667     
   49710505.7382667     
   49710505.7382667     
   49710505.7382667     
   49710505.7382667     
   49710505.7382666     
   49710505.7382666     
   49710505.7382666     
   49710505.7382666     
   49710505.7382665     
   49710505.7382665     
   49710505.7382665     
   49710505.7382665     
   49710505.7382665     
   49710505.7382664     
   49710505.7382664     
   49710505.7382664     
   49710505.7382665     
   49710505.7382665     
   49710505.7382665     
   49710505.7382665     
   49710505.7382665     
   49710505.7382665     
   49710505.7382665     
   49710505.7382665     
   49710505.7382665     
   49710505.7382666     
   49710505.7382666     
   49710505.7382666     
   49710505.7382665     
   49710505.7382665     
   49710505.7382665     
   49710505.7382665     
   49710505.7382666     
   49710505.7382666     
   49710505.7382666     
   49710505.7382666     
   49710505.7382666     
   49710505.7382666     
   49710505.7382667     
   49665398.9972582     
   49665398.9972582     
   49665398.9972582     
   49665398.9972581     
   49665398.9972581     
   49665398.9972582     
   49665398.9972582     
   49665398.9972582     
   49665398.9972583     
   49665398.9972583     
   49665398.9972583     
   49665398.9972583     
   49665398.9972583     
   49665398.9972583     
   49665398.9972583     
   49665398.9972583     
   49665398.9972582     
   49665398.9972582     
   49665398.9972582     
   49665398.9972582     
   49665398.9972582     
   49665398.9972582     
   49665398.9972583     
   49665398.9972582     
   49665398.9972582     
   49665398.9972582     
   49665398.9972582     
   49665398.9972582     
   49665398.9972582     
   49665398.9972582     
   49665398.9972582     
   49665398.9972582     
   49665398.9972583     
   49665398.9972582     
   49665398.9972582     
   49665398.9972582     
   49665398.9972583     
   49665398.9972583     
   49665398.9972583     
   49665398.9972583     
   49665398.9972583     
   49665398.9972583     
   49665398.9972583     
   49665398.9972582     
   49665398.9972582     
   49665398.9972583     
   49665398.9972583     
   49665398.9972583     
   49665398.9972583     
   49665398.9972583     
   49665398.9972583     
   49613709.5088498     
   49613709.5088498     
   49613709.5088498     
   49613709.5088499     
   49613709.5088499     
   49613709.5088499     
   49613709.5088500     
   49613709.5088500     
   49613709.5088501     
   49613709.5088502     
   49613709.5088502     
   49613709.5088502     
   49613709.5088502     
   49613709.5088502     
   49613709.5088502     
   49613709.5088502     
   49613709.5088502     
   49613709.5088502     
   49613709.5088501     
   49613709.5088501     
   49613709.5088501     
   49613709.5088501     
   49613709.5088501     
   49613709.5088501     
   49613709.5088501     
   49613709.5088501     
   49613709.5088501     
   49613709.5088501     
   49613709.5088502     
   49613709.5088502     
   49613709.5088502     
   49613709.5088502     
   49613709.5088502     
   49613709.5088502     
   49613709.5088502     
   49613709.5088502     
   49613709.5088502     
   49613709.5088502     
   49613709.5088502     
   49613709.5088502     
   49613709.5088502     
   49613709.5088502     
   49613709.5088502     
   49613709.5088503     
   49613709.5088503     
   49613709.5088503     
   49613709.5088503     
   49613709.5088504     
   49613709.5088504     
   49613709.5088504     
   49613709.5088504     
   49554562.6537210     
   49554562.6537210     
   49554562.6537210     
   49554562.6537210     
   49554562.6537211     
   49554562.6537211     
   49554562.6537211     
   49554562.6537212     
   49554562.6537212     
   49554562.6537213     
   49554562.6537213     
   49554562.6537213     
   49554562.6537213     
   49554562.6537213     
   49554562.6537213     
   49554562.6537213     
   49554562.6537213     
   49554562.6537212     
   49554562.6537212     
   49554562.6537212     
   49554562.6537212     
   49554562.6537212     
   49554562.6537212     
   49554562.6537213     
   49554562.6537212     
   49554562.6537213     
   49554562.6537213     
   49554562.6537213     
   49554562.6537213     
   49554562.6537213     
   49554562.6537213     
   49554562.6537213     
   49554562.6537213     
   49554562.6537213     
   49554562.6537213     
   49554562.6537213     
   49554562.6537213     
   49554562.6537213     
   49554562.6537213     
   49554562.6537213     
   49554562.6537213     
   49554562.6537213     
   49554562.6537213     
   49554562.6537213     
   49554562.6537214     
   49554562.6537215     
   49554562.6537215     
   49554562.6537215     
   49554562.6537216     
   49554562.6537215     
   49554562.6537216     
   49486984.0150925     
   49486984.0150925     
   49486984.0150925     
   49486984.0150925     
   49486984.0150925     
   49486984.0150926     
   49486984.0150926     
   49486984.0150926     
   49486984.0150926     
   49486984.0150926     
   49486984.0150926     
   49486984.0150926     
   49486984.0150926     
   49486984.0150925     
   49486984.0150925     
   49486984.0150925     
   49486984.0150924     
   49486984.0150924     
   49486984.0150924     
   49486984.0150924     
   49486984.0150924     
   49486984.0150924     
   49486984.0150925     
   49486984.0150925     
   49486984.0150926     
   49486984.0150926     
   49486984.0150925     
   49486984.0150926     
   49486984.0150926     
   49486984.0150925     
   49486984.0150925     
   49486984.0150925     
   49486984.0150925     
   49486984.0150925     
   49486984.0150925     
   49486984.0150925     
   49486984.0150925     
   49486984.0150925     
   49486984.0150925     
   49486984.0150926     
   49486984.0150926     
   49486984.0150926     
   49486984.0150926     
   49486984.0150927     
   49486984.0150927     
   49486984.0150928     
   49486984.0150928     
   49486984.0150928     
   49486984.0150928     
   49486984.0150928     
   49486984.0150928     
   49409891.1162813     
   49409891.1162813     
   49409891.1162813     
   49409891.1162813     
   49409891.1162814     
   49409891.1162814     
   49409891.1162814     
   49409891.1162814     
   49409891.1162815     
   49409891.1162815     
   49409891.1162815     
   49409891.1162815     
   49409891.1162815     
   49409891.1162814     
   49409891.1162814     
   49409891.1162814     
   49409891.1162813     
   49409891.1162812     
   49409891.1162812     
   49409891.1162812     
   49409891.1162812     
   49409891.1162813     
   49409891.1162813     
   49409891.1162814     
   49409891.1162815     
   49409891.1162815     
   49409891.1162815     
   49409891.1162815     
   49409891.1162815     
   49409891.1162815     
   49409891.1162815     
   49409891.1162815     
   49409891.1162815     
   49409891.1162814     
   49409891.1162814     
   49409891.1162814     
   49409891.1162813     
   49409891.1162813     
   49409891.1162813     
   49409891.1162814     
   49409891.1162814     
   49409891.1162814     
   49409891.1162814     
   49409891.1162815     
   49409891.1162815     
   49409891.1162816     
   49409891.1162816     
   49409891.1162816     
   49409891.1162816     
   49409891.1162816     
   49409891.1162816     
   49322085.0937810     
   49322085.0937810     
   49322085.0937810     
   49322085.0937811     
   49322085.0937811     
   49322085.0937811     
   49322085.0937812     
   49322085.0937812     
   49322085.0937813     
   49322085.0937813     
   49322085.0937813     
   49322085.0937813     
   49322085.0937813     
   49322085.0937813     
   49322085.0937813     
   49322085.0937813     
   49322085.0937813     
   49322085.0937812     
   49322085.0937812     
   49322085.0937812     
   49322085.0937812     
   49322085.0937812     
   49322085.0937813     
   49322085.0937813     
   49322085.0937813     
   49322085.0937813     
   49322085.0937814     
   49322085.0937814     
   49322085.0937814     
   49322085.0937814     
   49322085.0937814     
   49322085.0937814     
   49322085.0937814     
   49322085.0937813     
   49322085.0937812     
   49322085.0937811     
   49322085.0937811     
   49322085.0937811     
   49322085.0937811     
   49322085.0937811     
   49322085.0937811     
   49322085.0937811     
   49322085.0937811     
   49322085.0937812     
   49322085.0937812     
   49322085.0937812     
   49322085.0937812     
   49322085.0937812     
   49322085.0937812     
   49322085.0937812     
   49322085.0937812     
   49222242.4572569     
   49222242.4572569     
   49222242.4572570     
   49222242.4572570     
   49222242.4572569     
   49222242.4572570     
   49222242.4572571     
   49222242.4572571     
   49222242.4572572     
   49222242.4572572     
   49222242.4572572     
   49222242.4572573     
   49222242.4572573     
   49222242.4572573     
   49222242.4572573     
   49222242.4572573     
   49222242.4572573     
   49222242.4572573     
   49222242.4572572     
   49222242.4572573     
   49222242.4572572     
   49222242.4572573     
   49222242.4572573     
   49222242.4572573     
   49222242.4572574     
   49222242.4572574     
   49222242.4572574     
   49222242.4572574     
   49222242.4572574     
   49222242.4572573     
   49222242.4572573     
   49222242.4572573     
   49222242.4572573     
   49222242.4572573     
   49222242.4572572     
   49222242.4572572     
   49222242.4572571     
   49222242.4572570     
   49222242.4572570     
   49222242.4572570     
   49222242.4572569     
   49222242.4572569     
   49222242.4572569     
   49222242.4572570     
   49222242.4572570     
   49222242.4572570     
   49222242.4572570     
   49222242.4572570     
   49222242.4572570     
   49222242.4572570     
   49222242.4572570     
   49108907.1232530     
   49108907.1232530     
   49108907.1232530     
   49108907.1232530     
   49108907.1232531     
   49108907.1232531     
   49108907.1232532     
   49108907.1232533     
   49108907.1232533     
   49108907.1232534     
   49108907.1232534     
   49108907.1232534     
   49108907.1232535     
   49108907.1232535     
   49108907.1232536     
   49108907.1232535     
   49108907.1232535     
   49108907.1232535     
   49108907.1232535     
   49108907.1232535     
   49108907.1232535     
   49108907.1232535     
   49108907.1232535     
   49108907.1232535     
   49108907.1232535     
   49108907.1232536     
   49108907.1232536     
   49108907.1232536     
   49108907.1232536     
   49108907.1232535     
   49108907.1232535     
   49108907.1232535     
   49108907.1232535     
   49108907.1232534     
   49108907.1232534     
   49108907.1232533     
   49108907.1232532     
   49108907.1232532     
   49108907.1232531     
   49108907.1232531     
   49108907.1232530     
   49108907.1232530     
   49108907.1232530     
   49108907.1232531     
   49108907.1232531     
   49108907.1232531     
   49108907.1232532     
   49108907.1232532     
   49108907.1232532     
   49108907.1232532     
   49108907.1232532     
   48980482.9487419     
   48980482.9487419     
   48980482.9487419     
   48980482.9487420     
   48980482.9487420     
   48980482.9487420     
   48980482.9487421     
   48980482.9487422     
   48980482.9487423     
   48980482.9487423     
   48980482.9487424     
   48980482.9487424     
   48980482.9487424     
   48980482.9487425     
   48980482.9487425     
   48980482.9487425     
   48980482.9487425     
   48980482.9487425     
   48980482.9487424     
   48980482.9487424     
   48980482.9487424     
   48980482.9487424     
   48980482.9487424     
   48980482.9487424     
   48980482.9487425     
   48980482.9487425     
   48980482.9487425     
   48980482.9487425     
   48980482.9487425     
   48980482.9487425     
   48980482.9487424     
   48980482.9487424     
   48980482.9487424     
   48980482.9487423     
   48980482.9487423     
   48980482.9487422     
   48980482.9487422     
   48980482.9487421     
   48980482.9487421     
   48980482.9487420     
   48980482.9487420     
   48980482.9487420     
   48980482.9487420     
   48980482.9487421     
   48980482.9487421     
   48980482.9487421     
   48980482.9487421     
   48980482.9487421     
   48980482.9487421     
   48980482.9487421     
   48980482.9487421     
   48835227.0336588     
   48835227.0336588     
   48835227.0336588     
   48835227.0336588     
   48835227.0336588     
   48835227.0336589     
   48835227.0336590     
   48835227.0336591     
   48835227.0336591     
   48835227.0336592     
   48835227.0336592     
   48835227.0336592     
   48835227.0336593     
   48835227.0336593     
   48835227.0336593     
   48835227.0336593     
   48835227.0336593     
   48835227.0336593     
   48835227.0336593     
   48835227.0336593     
   48835227.0336592     
   48835227.0336592     
   48835227.0336592     
   48835227.0336593     
   48835227.0336593     
   48835227.0336593     
   48835227.0336593     
   48835227.0336593     
   48835227.0336593     
   48835227.0336593     
   48835227.0336593     
   48835227.0336593     
   48835227.0336592     
   48835227.0336592     
   48835227.0336591     
   48835227.0336590     
   48835227.0336590     
   48835227.0336590     
   48835227.0336589     
   48835227.0336589     
   48835227.0336589     
   48835227.0336589     
   48835227.0336589     
   48835227.0336589     
   48835227.0336589     
   48835227.0336589     
   48835227.0336589     
   48835227.0336589     
   48835227.0336589     
   48835227.0336589     
   48835227.0336589     
   48671244.1077569     
   48671244.1077569     
   48671244.1077570     
   48671244.1077570     
   48671244.1077570     
   48671244.1077571     
   48671244.1077571     
   48671244.1077572     
   48671244.1077573     
   48671244.1077574     
   48671244.1077574     
   48671244.1077574     
   48671244.1077574     
   48671244.1077575     
   48671244.1077575     
   48671244.1077575     
   48671244.1077575     
   48671244.1077575     
   48671244.1077575     
   48671244.1077576     
   48671244.1077576     
   48671244.1077576     
   48671244.1077575     
   48671244.1077575     
   48671244.1077576     
   48671244.1077575     
   48671244.1077576     
   48671244.1077576     
   48671244.1077575     
   48671244.1077575     
   48671244.1077575     
   48671244.1077575     
   48671244.1077574     
   48671244.1077574     
   48671244.1077573     
   48671244.1077573     
   48671244.1077572     
   48671244.1077572     
   48671244.1077572     
   48671244.1077572     
   48671244.1077571     
   48671244.1077571     
   48671244.1077571     
   48671244.1077571     
   48671244.1077572     
   48671244.1077572     
   48671244.1077572     
   48671244.1077572     
   48671244.1077572     
   48671244.1077571     
   48671244.1077572     
   48486482.3657143     
   48486482.3657143     
   48486482.3657143     
   48486482.3657143     
   48486482.3657144     
   48486482.3657144     
   48486482.3657145     
   48486482.3657146     
   48486482.3657146     
   48486482.3657146     
   48486482.3657147     
   48486482.3657147     
   48486482.3657147     
   48486482.3657148     
   48486482.3657148     
   48486482.3657149     
   48486482.3657149     
   48486482.3657149     
   48486482.3657149     
   48486482.3657149     
   48486482.3657150     
   48486482.3657150     
   48486482.3657150     
   48486482.3657150     
   48486482.3657150     
   48486482.3657150     
   48486482.3657150     
   48486482.3657150     
   48486482.3657149     
   48486482.3657149     
   48486482.3657148     
   48486482.3657148     
   48486482.3657147     
   48486482.3657147     
   48486482.3657146     
   48486482.3657146     
   48486482.3657145     
   48486482.3657145     
   48486482.3657145     
   48486482.3657145     
   48486482.3657144     
   48486482.3657145     
   48486482.3657145     
   48486482.3657145     
   48486482.3657146     
   48486482.3657146     
   48486482.3657146     
   48486482.3657146     
   48486482.3657146     
   48486482.3657146     
   48486482.3657146     
   48278731.1642572     
   48278731.1642573     
   48278731.1642573     
   48278731.1642573     
   48278731.1642574     
   48278731.1642574     
   48278731.1642575     
   48278731.1642576     
   48278731.1642576     
   48278731.1642577     
   48278731.1642578     
   48278731.1642578     
   48278731.1642578     
   48278731.1642579     
   48278731.1642579     
   48278731.1642579     
   48278731.1642580     
   48278731.1642580     
   48278731.1642580     
   48278731.1642580     
   48278731.1642580     
   48278731.1642580     
   48278731.1642581     
   48278731.1642581     
   48278731.1642581     
   48278731.1642581     
   48278731.1642581     
   48278731.1642581     
   48278731.1642581     
   48278731.1642581     
   48278731.1642581     
   48278731.1642580     
   48278731.1642580     
   48278731.1642579     
   48278731.1642579     
   48278731.1642578     
   48278731.1642577     
   48278731.1642577     
   48278731.1642577     
   48278731.1642577     
   48278731.1642576     
   48278731.1642576     
   48278731.1642577     
   48278731.1642577     
   48278731.1642577     
   48278731.1642577     
   48278731.1642577     
   48278731.1642577     
   48278731.1642577     
   48278731.1642577     
   48278731.1642577     
   48045621.0445861     
   48045621.0445861     
   48045621.0445862     
   48045621.0445862     
   48045621.0445862     
   48045621.0445863     
   48045621.0445863     
   48045621.0445864     
   48045621.0445864     
   48045621.0445865     
   48045621.0445866     
   48045621.0445866     
   48045621.0445867     
   48045621.0445867     
   48045621.0445868     
   48045621.0445868     
   48045621.0445867     
   48045621.0445867     
   48045621.0445867     
   48045621.0445868     
   48045621.0445868     
   48045621.0445868     
   48045621.0445868     
   48045621.0445868     
   48045621.0445869     
   48045621.0445869     
   48045621.0445869     
   48045621.0445869     
   48045621.0445869     
   48045621.0445868     
   48045621.0445868     
   48045621.0445867     
   48045621.0445867     
   48045621.0445867     
   48045621.0445866     
   48045621.0445865     
   48045621.0445865     
   48045621.0445865     
   48045621.0445865     
   48045621.0445865     
   48045621.0445865     
   48045621.0445865     
   48045621.0445865     
   48045621.0445865     
   48045621.0445866     
   48045621.0445866     
   48045621.0445866     
   48045621.0445866     
   48045621.0445866     
   48045621.0445866     
   48045621.0445866     
   47784626.5904953     
   47784626.5904953     
   47784626.5904953     
   47784626.5904953     
   47784626.5904953     
   47784626.5904954     
   47784626.5904955     
   47784626.5904956     
   47784626.5904956     
   47784626.5904957     
   47784626.5904957     
   47784626.5904957     
   47784626.5904957     
   47784626.5904958     
   47784626.5904958     
   47784626.5904958     
   47784626.5904959     
   47784626.5904959     
   47784626.5904959     
   47784626.5904959     
   47784626.5904959     
   47784626.5904959     
   47784626.5904959     
   47784626.5904959     
   47784626.5904959     
   47784626.5904959     
   47784626.5904959     
   47784626.5904959     
   47784626.5904959     
   47784626.5904959     
   47784626.5904959     
   47784626.5904958     
   47784626.5904958     
   47784626.5904957     
   47784626.5904957     
   47784626.5904957     
   47784626.5904956     
   47784626.5904956     
   47784626.5904955     
   47784626.5904955     
   47784626.5904955     
   47784626.5904955     
   47784626.5904955     
   47784626.5904956     
   47784626.5904956     
   47784626.5904956     
   47784626.5904956     
   47784626.5904956     
   47784626.5904956     
   47784626.5904956     
   47784626.5904956     
   47493072.6746630     
   47493072.6746631     
   47493072.6746631     
   47493072.6746631     
   47493072.6746631     
   47493072.6746632     
   47493072.6746632     
   47493072.6746633     
   47493072.6746633     
   47493072.6746634     
   47493072.6746634     
   47493072.6746635     
   47493072.6746635     
   47493072.6746635     
   47493072.6746635     
   47493072.6746636     
   47493072.6746635     
   47493072.6746635     
   47493072.6746635     
   47493072.6746635     
   47493072.6746635     
   47493072.6746636     
   47493072.6746636     
   47493072.6746636     
   47493072.6746636     
   47493072.6746637     
   47493072.6746636     
   47493072.6746636     
   47493072.6746637     
   47493072.6746636     
   47493072.6746636     
   47493072.6746636     
   47493072.6746636     
   47493072.6746635     
   47493072.6746635     
   47493072.6746634     
   47493072.6746633     
   47493072.6746633     
   47493072.6746633     
   47493072.6746632     
   47493072.6746632     
   47493072.6746632     
   47493072.6746632     
   47493072.6746632     
   47493072.6746633     
   47493072.6746633     
   47493072.6746633     
   47493072.6746633     
   47493072.6746633     
   47493072.6746633     
   47493072.6746633     
   47168144.6793596     
   47168144.6793596     
   47168144.6793596     
   47168144.6793597     
   47168144.6793597     
   47168144.6793597     
   47168144.6793598     
   47168144.6793598     
   47168144.6793599     
   47168144.6793600     
   47168144.6793600     
   47168144.6793600     
   47168144.6793601     
   47168144.6793602     
   47168144.6793602     
   47168144.6793602     
   47168144.6793602     
   47168144.6793602     
   47168144.6793602     
   47168144.6793602     
   47168144.6793602     
   47168144.6793602     
   47168144.6793602     
   47168144.6793602     
   47168144.6793602     
   47168144.6793603     
   47168144.6793603     
   47168144.6793603     
   47168144.6793603     
   47168144.6793602     
   47168144.6793602     
   47168144.6793602     
   47168144.6793602     
   47168144.6793601     
   47168144.6793601     
   47168144.6793600     
   47168144.6793600     
   47168144.6793599     
   47168144.6793599     
   47168144.6793599     
   47168144.6793598     
   47168144.6793599     
   47168144.6793599     
   47168144.6793599     
   47168144.6793599     
   47168144.6793599     
   47168144.6793598     
   47168144.6793598     
   47168144.6793598     
   47168144.6793598     
   47168144.6793598     
   46806903.2993781     
   46806903.2993781     
   46806903.2993782     
   46806903.2993782     
   46806903.2993782     
   46806903.2993783     
   46806903.2993784     
   46806903.2993785     
   46806903.2993785     
   46806903.2993786     
   46806903.2993787     
   46806903.2993787     
   46806903.2993788     
   46806903.2993788     
   46806903.2993789     
   46806903.2993789     
   46806903.2993789     
   46806903.2993789     
   46806903.2993789     
   46806903.2993789     
   46806903.2993789     
   46806903.2993789     
   46806903.2993789     
   46806903.2993790     
   46806903.2993790     
   46806903.2993790     
   46806903.2993790     
   46806903.2993790     
   46806903.2993790     
   46806903.2993789     
   46806903.2993789     
   46806903.2993789     
   46806903.2993789     
   46806903.2993788     
   46806903.2993788     
   46806903.2993787     
   46806903.2993787     
   46806903.2993786     
   46806903.2993786     
   46806903.2993786     
   46806903.2993785     
   46806903.2993785     
   46806903.2993786     
   46806903.2993786     
   46806903.2993786     
   46806903.2993786     
   46806903.2993786     
   46806903.2993785     
   46806903.2993785     
   46806903.2993785     
   46806903.2993785     
   46406304.5397156     
   46406304.5397156     
   46406304.5397156     
   46406304.5397156     
   46406304.5397156     
   46406304.5397156     
   46406304.5397157     
   46406304.5397158     
   46406304.5397158     
   46406304.5397159     
   46406304.5397160     
   46406304.5397160     
   46406304.5397161     
   46406304.5397162     
   46406304.5397162     
   46406304.5397163     
   46406304.5397163     
   46406304.5397163     
   46406304.5397163     
   46406304.5397163     
   46406304.5397163     
   46406304.5397163     
   46406304.5397163     
   46406304.5397163     
   46406304.5397164     
   46406304.5397164     
   46406304.5397164     
   46406304.5397164     
   46406304.5397164     
   46406304.5397163     
   46406304.5397163     
   46406304.5397163     
   46406304.5397163     
   46406304.5397162     
   46406304.5397161     
   46406304.5397161     
   46406304.5397160     
   46406304.5397160     
   46406304.5397160     
   46406304.5397159     
   46406304.5397159     
   46406304.5397159     
   46406304.5397159     
   46406304.5397159     
   46406304.5397160     
   46406304.5397160     
   46406304.5397160     
   46406304.5397160     
   46406304.5397159     
   46406304.5397159     
   46406304.5397159     
   45963225.5031560     
   45963225.5031560     
   45963225.5031561     
   45963225.5031561     
   45963225.5031561     
   45963225.5031562     
   45963225.5031563     
   45963225.5031564     
   45963225.5031564     
   45963225.5031565     
   45963225.5031565     
   45963225.5031566     
   45963225.5031566     
   45963225.5031567     
   45963225.5031567     
   45963225.5031568     
   45963225.5031568     
   45963225.5031568     
   45963225.5031568     
   45963225.5031568     
   45963225.5031568     
   45963225.5031568     
   45963225.5031569     
   45963225.5031569     
   45963225.5031569     
   45963225.5031569     
   45963225.5031569     
   45963225.5031570     
   45963225.5031569     
   45963225.5031569     
   45963225.5031568     
   45963225.5031568     
   45963225.5031568     
   45963225.5031567     
   45963225.5031566     
   45963225.5031565     
   45963225.5031565     
   45963225.5031565     
   45963225.5031564     
   45963225.5031564     
   45963225.5031564     
   45963225.5031564     
   45963225.5031564     
   45963225.5031564     
   45963225.5031564     
   45963225.5031565     
   45963225.5031565     
   45963225.5031565     
   45963225.5031565     
   45963225.5031565     
   45963225.5031565     
   45474496.5176057     
   45474496.5176058     
   45474496.5176058     
   45474496.5176058     
   45474496.5176059     
   45474496.5176059     
   45474496.5176060     
   45474496.5176061     
   45474496.5176062     
   45474496.5176062     
   45474496.5176063     
   45474496.5176063     
   45474496.5176064     
   45474496.5176064     
   45474496.5176065     
   45474496.5176065     
   45474496.5176065     
   45474496.5176065     
   45474496.5176065     
   45474496.5176066     
   45474496.5176066     
   45474496.5176066     
   45474496.5176067     
   45474496.5176067     
   45474496.5176067     
   45474496.5176067     
   45474496.5176067     
   45474496.5176067     
   45474496.5176066     
   45474496.5176066     
   45474496.5176066     
   45474496.5176065     
   45474496.5176065     
   45474496.5176064     
   45474496.5176064     
   45474496.5176063     
   45474496.5176063     
   45474496.5176063     
   45474496.5176063     
   45474496.5176062     
   45474496.5176062     
   45474496.5176062     
   45474496.5176062     
   45474496.5176062     
   45474496.5176063     
   45474496.5176063     
   45474496.5176063     
   45474496.5176063     
   45474496.5176063     
   45474496.5176063     
   45474496.5176063     
   44936940.0734996     
   44936940.0734996     
   44936940.0734997     
   44936940.0734997     
   44936940.0734997     
   44936940.0734998     
   44936940.0734999     
   44936940.0735000     
   44936940.0735000     
   44936940.0735001     
   44936940.0735002     
   44936940.0735002     
   44936940.0735003     
   44936940.0735003     
   44936940.0735004     
   44936940.0735004     
   44936940.0735004     
   44936940.0735005     
   44936940.0735005     
   44936940.0735005     
   44936940.0735005     
   44936940.0735005     
   44936940.0735005     
   44936940.0735005     
   44936940.0735005     
   44936940.0735005     
   44936940.0735005     
   44936940.0735005     
   44936940.0735005     
   44936940.0735004     
   44936940.0735004     
   44936940.0735004     
   44936940.0735003     
   44936940.0735003     
   44936940.0735002     
   44936940.0735002     
   44936940.0735001     
   44936940.0735001     
   44936940.0735001     
   44936940.0735001     
   44936940.0735000     
   44936940.0735000     
   44936940.0735000     
   44936940.0735000     
   44936940.0735000     
   44936940.0735000     
   44936940.0735000     
   44936940.0735000     
   44936940.0735000     
   44936940.0735000     
   44936940.0735000     
   44347416.9214241     
   44347416.9214241     
   44347416.9214241     
   44347416.9214241     
   44347416.9214242     
   44347416.9214242     
   44347416.9214243     
   44347416.9214244     
   44347416.9214245     
   44347416.9214245     
   44347416.9214246     
   44347416.9214246     
   44347416.9214247     
   44347416.9214248     
   44347416.9214249     
   44347416.9214249     
   44347416.9214249     
   44347416.9214249     
   44347416.9214249     
   44347416.9214249     
   44347416.9214249     
   44347416.9214249     
   44347416.9214249     
   44347416.9214249     
   44347416.9214249     
   44347416.9214249     
   44347416.9214249     
   44347416.9214249     
   44347416.9214249     
   44347416.9214248     
   44347416.9214248     
   44347416.9214248     
   44347416.9214247     
   44347416.9214247     
   44347416.9214246     
   44347416.9214246     
   44347416.9214245     
   44347416.9214245     
   44347416.9214244     
   44347416.9214244     
   44347416.9214244     
   44347416.9214243     
   44347416.9214244     
   44347416.9214244     
   44347416.9214244     
   44347416.9214244     
   44347416.9214243     
   44347416.9214243     
   44347416.9214243     
   44347416.9214243     
   44347416.9214243     
   43702879.5129686     
   43702879.5129686     
   43702879.5129686     
   43702879.5129686     
   43702879.5129686     
   43702879.5129687     
   43702879.5129687     
   43702879.5129688     
   43702879.5129689     
   43702879.5129689     
   43702879.5129690     
   43702879.5129690     
   43702879.5129691     
   43702879.5129691     
   43702879.5129691     
   43702879.5129691     
   43702879.5129692     
   43702879.5129692     
   43702879.5129692     
   43702879.5129692     
   43702879.5129692     
   43702879.5129692     
   43702879.5129692     
   43702879.5129692     
   43702879.5129693     
   43702879.5129693     
   43702879.5129693     
   43702879.5129693     
   43702879.5129693     
   43702879.5129692     
   43702879.5129692     
   43702879.5129692     
   43702879.5129691     
   43702879.5129690     
   43702879.5129690     
   43702879.5129689     
   43702879.5129688     
   43702879.5129688     
   43702879.5129688     
   43702879.5129687     
   43702879.5129687     
   43702879.5129687     
   43702879.5129687     
   43702879.5129687     
   43702879.5129687     
   43702879.5129687     
   43702879.5129687     
   43702879.5129687     
   43702879.5129687     
   43702879.5129687     
   43702879.5129687     
   43000432.7481427     
   43000432.7481427     
   43000432.7481428     
   43000432.7481428     
   43000432.7481428     
   43000432.7481428     
   43000432.7481429     
   43000432.7481429     
   43000432.7481430     
   43000432.7481430     
   43000432.7481430     
   43000432.7481431     
   43000432.7481431     
   43000432.7481432     
   43000432.7481432     
   43000432.7481432     
   43000432.7481433     
   43000432.7481433     
   43000432.7481433     
   43000432.7481433     
   43000432.7481433     
   43000432.7481433     
   43000432.7481433     
   43000432.7481433     
   43000432.7481433     
   43000432.7481433     
   43000432.7481434     
   43000432.7481433     
   43000432.7481433     
   43000432.7481432     
   43000432.7481432     
   43000432.7481432     
   43000432.7481431     
   43000432.7481431     
   43000432.7481430     
   43000432.7481429     
   43000432.7481429     
   43000432.7481428     
   43000432.7481428     
   43000432.7481428     
   43000432.7481428     
   43000432.7481428     
   43000432.7481428     
   43000432.7481428     
   43000432.7481429     
   43000432.7481429     
   43000432.7481429     
   43000432.7481429     
   43000432.7481429     
   43000432.7481429     
   43000432.7481429     
   42237401.7162019     
   42237401.7162019     
   42237401.7162019     
   42237401.7162019     
   42237401.7162019     
   42237401.7162020     
   42237401.7162020     
   42237401.7162021     
   42237401.7162021     
   42237401.7162022     
   42237401.7162022     
   42237401.7162022     
   42237401.7162023     
   42237401.7162023     
   42237401.7162023     
   42237401.7162023     
   42237401.7162023     
   42237401.7162024     
   42237401.7162024     
   42237401.7162024     
   42237401.7162024     
   42237401.7162024     
   42237401.7162024     
   42237401.7162024     
   42237401.7162024     
   42237401.7162024     
   42237401.7162023     
   42237401.7162023     
   42237401.7162023     
   42237401.7162022     
   42237401.7162022     
   42237401.7162022     
   42237401.7162021     
   42237401.7162021     
   42237401.7162020     
   42237401.7162020     
   42237401.7162019     
   42237401.7162019     
   42237401.7162018     
   42237401.7162018     
   42237401.7162018     
   42237401.7162018     
   42237401.7162018     
   42237401.7162019     
   42237401.7162019     
   42237401.7162019     
   42237401.7162020     
   42237401.7162020     
   42237401.7162020     
   42237401.7162020     
   42237401.7162020     
   41411405.7812983     
   41411405.7812983     
   41411405.7812983     
   41411405.7812983     
   41411405.7812983     
   41411405.7812984     
   41411405.7812984     
   41411405.7812985     
   41411405.7812985     
   41411405.7812986     
   41411405.7812986     
   41411405.7812986     
   41411405.7812987     
   41411405.7812987     
   41411405.7812987     
   41411405.7812987     
   41411405.7812987     
   41411405.7812987     
   41411405.7812987     
   41411405.7812987     
   41411405.7812987     
   41411405.7812987     
   41411405.7812987     
   41411405.7812986     
   41411405.7812986     
   41411405.7812986     
   41411405.7812986     
   41411405.7812986     
   41411405.7812986     
   41411405.7812985     
   41411405.7812985     
   41411405.7812984     
   41411405.7812984     
   41411405.7812983     
   41411405.7812983     
   41411405.7812982     
   41411405.7812982     
   41411405.7812982     
   41411405.7812981     
   41411405.7812981     
   41411405.7812981     
   41411405.7812981     
   41411405.7812982     
   41411405.7812982     
   41411405.7812982     
   41411405.7812982     
   41411405.7812982     
   41411405.7812982     
   41411405.7812982     
   41411405.7812982     
   41411405.7812982     
   40520437.9710898     
   40520437.9710898     
   40520437.9710898     
   40520437.9710898     
   40520437.9710898     
   40520437.9710899     
   40520437.9710899     
   40520437.9710900     
   40520437.9710900     
   40520437.9710901     
   40520437.9710901     
   40520437.9710901     
   40520437.9710901     
   40520437.9710902     
   40520437.9710902     
   40520437.9710902     
   40520437.9710902     
   40520437.9710902     
   40520437.9710901     
   40520437.9710901     
   40520437.9710901     
   40520437.9710901     
   40520437.9710901     
   40520437.9710901     
   40520437.9710901     
   40520437.9710901     
   40520437.9710901     
   40520437.9710901     
   40520437.9710901     
   40520437.9710900     
   40520437.9710900     
   40520437.9710900     
   40520437.9710899     
   40520437.9710899     
   40520437.9710898     
   40520437.9710898     
   40520437.9710897     
   40520437.9710897     
   40520437.9710897     
   40520437.9710897     
   40520437.9710896     
   40520437.9710896     
   40520437.9710896     
   40520437.9710896     
   40520437.9710897     
   40520437.9710897     
   40520437.9710897     
   40520437.9710898     
   40520437.9710898     
   40520437.9710898     
   40520437.9710898     
   39562948.1806974     
   39562948.1806974     
   39562948.1806975     
   39562948.1806975     
   39562948.1806975     
   39562948.1806976     
   39562948.1806976     
   39562948.1806977     
   39562948.1806978     
   39562948.1806978     
   39562948.1806979     
   39562948.1806979     
   39562948.1806979     
   39562948.1806979     
   39562948.1806979     
   39562948.1806979     
   39562948.1806979     
   39562948.1806978     
   39562948.1806978     
   39562948.1806978     
   39562948.1806978     
   39562948.1806978     
   39562948.1806978     
   39562948.1806978     
   39562948.1806978     
   39562948.1806978     
   39562948.1806978     
   39562948.1806978     
   39562948.1806978     
   39562948.1806978     
   39562948.1806978     
   39562948.1806978     
   39562948.1806977     
   39562948.1806977     
   39562948.1806976     
   39562948.1806976     
   39562948.1806976     
   39562948.1806976     
   39562948.1806976     
   39562948.1806975     
   39562948.1806975     
   39562948.1806975     
   39562948.1806975     
   39562948.1806975     
   39562948.1806975     
   39562948.1806975     
   39562948.1806975     
   39562948.1806975     
   39562948.1806975     
   39562948.1806975     
   39562948.1806975     
   38537928.2172553     
   38537928.2172554     
   38537928.2172554     
   38537928.2172554     
   38537928.2172554     
   38537928.2172555     
   38537928.2172555     
   38537928.2172556     
   38537928.2172557     
   38537928.2172557     
   38537928.2172557     
   38537928.2172557     
   38537928.2172558     
   38537928.2172558     
   38537928.2172558     
   38537928.2172558     
   38537928.2172558     
   38537928.2172558     
   38537928.2172557     
   38537928.2172557     
   38537928.2172557     
   38537928.2172557     
   38537928.2172557     
   38537928.2172557     
   38537928.2172557     
   38537928.2172557     
   38537928.2172557     
   38537928.2172556     
   38537928.2172556     
   38537928.2172556     
   38537928.2172556     
   38537928.2172556     
   38537928.2172556     
   38537928.2172556     
   38537928.2172555     
   38537928.2172555     
   38537928.2172554     
   38537928.2172554     
   38537928.2172553     
   38537928.2172553     
   38537928.2172553     
   38537928.2172553     
   38537928.2172553     
   38537928.2172554     
   38537928.2172554     
   38537928.2172554     
   38537928.2172554     
   38537928.2172554     
   38537928.2172554     
   38537928.2172554     
   38537928.2172554     
   37444996.1997651     
   37444996.1997651     
   37444996.1997651     
   37444996.1997651     
   37444996.1997651     
   37444996.1997652     
   37444996.1997652     
   37444996.1997653     
   37444996.1997654     
   37444996.1997654     
   37444996.1997654     
   37444996.1997654     
   37444996.1997654     
   37444996.1997654     
   37444996.1997654     
   37444996.1997654     
   37444996.1997654     
   37444996.1997654     
   37444996.1997653     
   37444996.1997653     
   37444996.1997653     
   37444996.1997653     
   37444996.1997653     
   37444996.1997653     
   37444996.1997653     
   37444996.1997653     
   37444996.1997653     
   37444996.1997653     
   37444996.1997652     
   37444996.1997652     
   37444996.1997652     
   37444996.1997652     
   37444996.1997652     
   37444996.1997651     
   37444996.1997651     
   37444996.1997651     
   37444996.1997650     
   37444996.1997650     
   37444996.1997650     
   37444996.1997650     
   37444996.1997650     
   37444996.1997650     
   37444996.1997650     
   37444996.1997650     
   37444996.1997651     
   37444996.1997651     
   37444996.1997650     
   37444996.1997650     
   37444996.1997651     
   37444996.1997651     
   37444996.1997650     
   36284477.3212973     
   36284477.3212973     
   36284477.3212974     
   36284477.3212974     
   36284477.3212974     
   36284477.3212974     
   36284477.3212975     
   36284477.3212975     
   36284477.3212975     
   36284477.3212975     
   36284477.3212976     
   36284477.3212976     
   36284477.3212976     
   36284477.3212976     
   36284477.3212976     
   36284477.3212976     
   36284477.3212976     
   36284477.3212976     
   36284477.3212975     
   36284477.3212975     
   36284477.3212975     
   36284477.3212975     
   36284477.3212975     
   36284477.3212975     
   36284477.3212975     
   36284477.3212975     
   36284477.3212975     
   36284477.3212975     
   36284477.3212975     
   36284477.3212975     
   36284477.3212974     
   36284477.3212974     
   36284477.3212974     
   36284477.3212974     
   36284477.3212973     
   36284477.3212972     
   36284477.3212972     
   36284477.3212972     
   36284477.3212972     
   36284477.3212971     
   36284477.3212971     
   36284477.3212971     
   36284477.3212972     
   36284477.3212972     
   36284477.3212972     
   36284477.3212972     
   36284477.3212972     
   36284477.3212972     
   36284477.3212972     
   36284477.3212972     
   36284477.3212972     
   35057477.5111761     
   35057477.5111762     
   35057477.5111762     
   35057477.5111762     
   35057477.5111762     
   35057477.5111762     
   35057477.5111763     
   35057477.5111763     
   35057477.5111763     
   35057477.5111763     
   35057477.5111763     
   35057477.5111763     
   35057477.5111763     
   35057477.5111764     
   35057477.5111764     
   35057477.5111764     
   35057477.5111764     
   35057477.5111764     
   35057477.5111764     
   35057477.5111764     
   35057477.5111764     
   35057477.5111764     
   35057477.5111764     
   35057477.5111764     
   35057477.5111764     
   35057477.5111764     
   35057477.5111764     
   35057477.5111764     
   35057477.5111763     
   35057477.5111763     
   35057477.5111763     
   35057477.5111763     
   35057477.5111762     
   35057477.5111762     
   35057477.5111761     
   35057477.5111761     
   35057477.5111760     
   35057477.5111760     
   35057477.5111760     
   35057477.5111760     
   35057477.5111760     
   35057477.5111760     
   35057477.5111760     
   35057477.5111760     
   35057477.5111760     
   35057477.5111760     
   35057477.5111760     
   35057477.5111760     
   35057477.5111761     
   35057477.5111761     
   35057477.5111761     
   33765946.1485977     
   33765946.1485977     
   33765946.1485978     
   33765946.1485978     
   33765946.1485978     
   33765946.1485978     
   33765946.1485978     
   33765946.1485979     
   33765946.1485979     
   33765946.1485979     
   33765946.1485980     
   33765946.1485980     
   33765946.1485980     
   33765946.1485980     
   33765946.1485980     
   33765946.1485981     
   33765946.1485981     
   33765946.1485980     
   33765946.1485980     
   33765946.1485980     
   33765946.1485980     
   33765946.1485979     
   33765946.1485979     
   33765946.1485979     
   33765946.1485980     
   33765946.1485980     
   33765946.1485980     
   33765946.1485979     
   33765946.1485979     
   33765946.1485979     
   33765946.1485979     
   33765946.1485978     
   33765946.1485978     
   33765946.1485978     
   33765946.1485977     
   33765946.1485977     
   33765946.1485976     
   33765946.1485976     
   33765946.1485976     
   33765946.1485976     
   33765946.1485975     
   33765946.1485976     
   33765946.1485976     
   33765946.1485976     
   33765946.1485976     
   33765946.1485977     
   33765946.1485976     
   33765946.1485976     
   33765946.1485976     
   33765946.1485976     
   33765946.1485976     
   32412723.7300662     
   32412723.7300662     
   32412723.7300663     
   32412723.7300663     
   32412723.7300663     
   32412723.7300663     
   32412723.7300663     
   32412723.7300664     
   32412723.7300664     
   32412723.7300664     
   32412723.7300664     
   32412723.7300665     
   32412723.7300665     
   32412723.7300665     
   32412723.7300665     
   32412723.7300665     
   32412723.7300666     
   32412723.7300666     
   32412723.7300665     
   32412723.7300665     
   32412723.7300665     
   32412723.7300665     
   32412723.7300665     
   32412723.7300664     
   32412723.7300664     
   32412723.7300664     
   32412723.7300664     
   32412723.7300663     
   32412723.7300663     
   32412723.7300663     
   32412723.7300663     
   32412723.7300663     
   32412723.7300663     
   32412723.7300662     
   32412723.7300661     
   32412723.7300661     
   32412723.7300660     
   32412723.7300660     
   32412723.7300660     
   32412723.7300660     
   32412723.7300660     
   32412723.7300660     
   32412723.7300660     
   32412723.7300660     
   32412723.7300660     
   32412723.7300661     
   32412723.7300661     
   32412723.7300661     
   32412723.7300661     
   32412723.7300661     
   32412723.7300661     
   31001570.3418815     
   31001570.3418815     
   31001570.3418815     
   31001570.3418815     
   31001570.3418816     
   31001570.3418816     
   31001570.3418816     
   31001570.3418816     
   31001570.3418817     
   31001570.3418817     
   31001570.3418817     
   31001570.3418817     
   31001570.3418818     
   31001570.3418818     
   31001570.3418818     
   31001570.3418818     
   31001570.3418818     
   31001570.3418818     
   31001570.3418818     
   31001570.3418818     
   31001570.3418818     
   31001570.3418818     
   31001570.3418818     
   31001570.3418817     
   31001570.3418817     
   31001570.3418817     
   31001570.3418817     
   31001570.3418817     
   31001570.3418816     
   31001570.3418816     
   31001570.3418815     
   31001570.3418815     
   31001570.3418815     
   31001570.3418814     
   31001570.3418814     
   31001570.3418814     
   31001570.3418813     
   31001570.3418813     
   31001570.3418813     
   31001570.3418813     
   31001570.3418812     
   31001570.3418813     
   31001570.3418813     
   31001570.3418813     
   31001570.3418813     
   31001570.3418813     
   31001570.3418813     
   31001570.3418813     
   31001570.3418813     
   31001570.3418813     
   31001570.3418813     
   29537170.9993443     
   29537170.9993443     
   29537170.9993443     
   29537170.9993443     
   29537170.9993444     
   29537170.9993444     
   29537170.9993444     
   29537170.9993444     
   29537170.9993445     
   29537170.9993445     
   29537170.9993445     
   29537170.9993445     
   29537170.9993445     
   29537170.9993445     
   29537170.9993445     
   29537170.9993446     
   29537170.9993445     
   29537170.9993445     
   29537170.9993445     
   29537170.9993445     
   29537170.9993444     
   29537170.9993444     
   29537170.9993444     
   29537170.9993444     
   29537170.9993444     
   29537170.9993444     
   29537170.9993444     
   29537170.9993443     
   29537170.9993443     
   29537170.9993443     
   29537170.9993443     
   29537170.9993443     
   29537170.9993443     
   29537170.9993442     
   29537170.9993441     
   29537170.9993441     
   29537170.9993441     
   29537170.9993440     
   29537170.9993440     
   29537170.9993440     
   29537170.9993440     
   29537170.9993439     
   29537170.9993439     
   29537170.9993440     
   29537170.9993440     
   29537170.9993440     
   29537170.9993440     
   29537170.9993440     
   29537170.9993440     
   29537170.9993440     
   29537170.9993440     
   28025114.4462071     
   28025114.4462071     
   28025114.4462071     
   28025114.4462071     
   28025114.4462071     
   28025114.4462071     
   28025114.4462071     
   28025114.4462072     
   28025114.4462072     
   28025114.4462072     
   28025114.4462072     
   28025114.4462072     
   28025114.4462072     
   28025114.4462072     
   28025114.4462072     
   28025114.4462072     
   28025114.4462072     
   28025114.4462072     
   28025114.4462071     
   28025114.4462071     
   28025114.4462071     
   28025114.4462071     
   28025114.4462071     
   28025114.4462071     
   28025114.4462071     
   28025114.4462071     
   28025114.4462071     
   28025114.4462071     
   28025114.4462071     
   28025114.4462071     
   28025114.4462070     
   28025114.4462070     
   28025114.4462070     
   28025114.4462069     
   28025114.4462068     
   28025114.4462068     
   28025114.4462067     
   28025114.4462067     
   28025114.4462067     
   28025114.4462066     
   28025114.4462066     
   28025114.4462066     
   28025114.4462067     
   28025114.4462067     
   28025114.4462067     
   28025114.4462067     
   28025114.4462067     
   28025114.4462067     
   28025114.4462066     
   28025114.4462067     
   28025114.4462066     
   26471842.9074559     
   26471842.9074559     
   26471842.9074559     
   26471842.9074559     
   26471842.9074559     
   26471842.9074559     
   26471842.9074560     
   26471842.9074560     
   26471842.9074561     
   26471842.9074561     
   26471842.9074561     
   26471842.9074561     
   26471842.9074561     
   26471842.9074561     
   26471842.9074561     
   26471842.9074561     
   26471842.9074561     
   26471842.9074560     
   26471842.9074560     
   26471842.9074560     
   26471842.9074560     
   26471842.9074560     
   26471842.9074560     
   26471842.9074560     
   26471842.9074560     
   26471842.9074560     
   26471842.9074560     
   26471842.9074560     
   26471842.9074560     
   26471842.9074559     
   26471842.9074559     
   26471842.9074558     
   26471842.9074558     
   26471842.9074558     
   26471842.9074557     
   26471842.9074557     
   26471842.9074556     
   26471842.9074556     
   26471842.9074556     
   26471842.9074556     
   26471842.9074555     
   26471842.9074555     
   26471842.9074555     
   26471842.9074555     
   26471842.9074556     
   26471842.9074555     
   26471842.9074556     
   26471842.9074556     
   26471842.9074556     
   26471842.9074556     
   26471842.9074556     
   24884571.5752935     
   24884571.5752935     
   24884571.5752935     
   24884571.5752936     
   24884571.5752935     
   24884571.5752936     
   24884571.5752936     
   24884571.5752936     
   24884571.5752936     
   24884571.5752937     
   24884571.5752937     
   24884571.5752937     
   24884571.5752937     
   24884571.5752937     
   24884571.5752937     
   24884571.5752937     
   24884571.5752937     
   24884571.5752937     
   24884571.5752937     
   24884571.5752937     
   24884571.5752937     
   24884571.5752937     
   24884571.5752936     
   24884571.5752936     
   24884571.5752936     
   24884571.5752936     
   24884571.5752936     
   24884571.5752936     
   24884571.5752936     
   24884571.5752936     
   24884571.5752935     
   24884571.5752935     
   24884571.5752935     
   24884571.5752935     
   24884571.5752934     
   24884571.5752934     
   24884571.5752933     
   24884571.5752933     
   24884571.5752933     
   24884571.5752933     
   24884571.5752933     
   24884571.5752933     
   24884571.5752933     
   24884571.5752933     
   24884571.5752933     
   24884571.5752933     
   24884571.5752932     
   24884571.5752932     
   24884571.5752932     
   24884571.5752932     
   24884571.5752932     
   23271178.2590226     
   23271178.2590226     
   23271178.2590226     
   23271178.2590226     
   23271178.2590226     
   23271178.2590227     
   23271178.2590227     
   23271178.2590227     
   23271178.2590227     
   23271178.2590227     
   23271178.2590228     
   23271178.2590228     
   23271178.2590228     
   23271178.2590228     
   23271178.2590228     
   23271178.2590228     
   23271178.2590228     
   23271178.2590228     
   23271178.2590227     
   23271178.2590228     
   23271178.2590228     
   23271178.2590228     
   23271178.2590227     
   23271178.2590227     
   23271178.2590227     
   23271178.2590227     
   23271178.2590227     
   23271178.2590227     
   23271178.2590227     
   23271178.2590227     
   23271178.2590227     
   23271178.2590227     
   23271178.2590227     
   23271178.2590226     
   23271178.2590226     
   23271178.2590225     
   23271178.2590225     
   23271178.2590225     
   23271178.2590225     
   23271178.2590224     
   23271178.2590224     
   23271178.2590224     
   23271178.2590224     
   23271178.2590224     
   23271178.2590224     
   23271178.2590224     
   23271178.2590224     
   23271178.2590224     
   23271178.2590224     
   23271178.2590225     
   23271178.2590224     
   21640065.5613960     
   21640065.5613960     
   21640065.5613960     
   21640065.5613959     
   21640065.5613959     
   21640065.5613959     
   21640065.5613960     
   21640065.5613960     
   21640065.5613960     
   21640065.5613960     
   21640065.5613960     
   21640065.5613960     
   21640065.5613960     
   21640065.5613960     
   21640065.5613960     
   21640065.5613960     
   21640065.5613960     
   21640065.5613960     
   21640065.5613960     
   21640065.5613960     
   21640065.5613960     
   21640065.5613960     
   21640065.5613960     
   21640065.5613960     
   21640065.5613960     
   21640065.5613960     
   21640065.5613961     
   21640065.5613960     
   21640065.5613960     
   21640065.5613960     
   21640065.5613960     
   21640065.5613960     
   21640065.5613960     
   21640065.5613960     
   21640065.5613959     
   21640065.5613959     
   21640065.5613959     
   21640065.5613959     
   21640065.5613959     
   21640065.5613958     
   21640065.5613958     
   21640065.5613958     
   21640065.5613958     
   21640065.5613958     
   21640065.5613959     
   21640065.5613959     
   21640065.5613959     
   21640065.5613959     
   21640065.5613959     
   21640065.5613959     
   21640065.5613958     
   20000000.0000000     
   20000000.0000000     
   20000000.0000000     
   20000000.0000000     
   20000000.0000000     
   20000000.0000000     
   20000000.0000000     
   20000000.0000000     
   20000000.0000000     
   20000000.0000000     
   20000000.0000000     
   20000000.0000000     
   20000000.0000000     
   20000000.0000000     
   20000000.0000000     
   20000000.0000000     
   20000000.0000000     
   20000000.0000000     
   20000000.0000000     
   20000000.0000000     
   20000000.0000000     
   20000000.0000000     
   20000000.0000000     
   20000000.0000000     
   20000000.0000000     
   20000000.0000000     
   20000000.0000000     
   20000000.0000000     
   20000000.0000000     
   20000000.0000000     
   20000000.0000000     
   20000000.0000000     
   20000000.0000000     
   20000000.0000000     
   20000000.0000000     
   20000000.0000000     
   20000000.0000000     
   20000000.0000000     
   20000000.0000000     
   20000000.0000000     
   20000000.0000000     
   20000000.0000000     
   20000000.0000000     
   20000000.0000000     
   20000000.0000000     
   20000000.0000000     
   20000000.0000000     
   20000000.0000000     
   20000000.0000000     
   20000000.0000000     
   20000000.0000000     
VECTORS u double 
    0.00000E+00         0.48458E-05         0.00000E+00
    0.00000E+00         0.48458E-05         0.00000E+00
    0.00000E+00         0.48456E-05         0.00000E+00
    0.00000E+00         0.48449E-05         0.00000E+00
    0.00000E+00         0.48436E-05         0.00000E+00
    0.00000E+00         0.48413E-05         0.00000E+00
    0.00000E+00         0.48378E-05         0.00000E+00
    0.00000E+00         0.48328E-05         0.00000E+00
    0.00000E+00         0.48261E-05         0.00000E+00
    0.00000E+00         0.48173E-05         0.00000E+00
    0.00000E+00         0.48064E-05         0.00000E+00
    0.00000E+00         0.47929E-05         0.00000E+00
    0.00000E+00         0.47767E-05         0.00000E+00
    0.00000E+00         0.47574E-05         0.00000E+00
    0.00000E+00         0.47349E-05         0.00000E+00
    0.00000E+00         0.47089E-05         0.00000E+00
    0.00000E+00         0.46791E-05         0.00000E+00
    0.00000E+00         0.46454E-05         0.00000E+00
    0.00000E+00         0.46074E-05         0.00000E+00
    0.00000E+00         0.45649E-05         0.00000E+00
    0.00000E+00         0.45178E-05         0.00000E+00
    0.00000E+00         0.44658E-05         0.00000E+00
    0.00000E+00         0.44086E-05         0.00000E+00
    0.00000E+00         0.43460E-05         0.00000E+00
    0.00000E+00         0.42779E-05         0.00000E+00
    0.00000E+00         0.42040E-05         0.00000E+00
    0.00000E+00         0.41242E-05         0.00000E+00
    0.00000E+00         0.40381E-05         0.00000E+00
    0.00000E+00         0.39457E-05         0.00000E+00
    0.00000E+00         0.38468E-05         0.00000E+00
    0.00000E+00         0.37411E-05         0.00000E+00
    0.00000E+00         0.36285E-05         0.00000E+00
    0.00000E+00         0.35089E-05         0.00000E+00
    0.00000E+00         0.33820E-05         0.00000E+00
    0.00000E+00         0.32477E-05         0.00000E+00
    0.00000E+00         0.31060E-05         0.00000E+00
    0.00000E+00         0.29565E-05         0.00000E+00
    0.00000E+00         0.27993E-05         0.00000E+00
    0.00000E+00         0.26341E-05         0.00000E+00
    0.00000E+00         0.24609E-05         0.00000E+00
    0.00000E+00         0.22796E-05         0.00000E+00
    0.00000E+00         0.20900E-05         0.00000E+00
    0.00000E+00         0.18921E-05         0.00000E+00
    0.00000E+00         0.16858E-05         0.00000E+00
    0.00000E+00         0.14710E-05         0.00000E+00
    0.00000E+00         0.12475E-05         0.00000E+00
    0.00000E+00         0.10155E-05         0.00000E+00
    0.00000E+00         0.77478E-06         0.00000E+00
    0.00000E+00         0.52532E-06         0.00000E+00
    0.00000E+00         0.26707E-06         0.00000E+00
    0.00000E+00         0.00000E+00         0.00000E+00
    0.22918E-05         0.48706E-05         0.00000E+00
    0.23010E-05         0.48712E-05         0.00000E+00
    0.23079E-05         0.48715E-05         0.00000E+00
    0.23124E-05         0.48713E-05         0.00000E+00
    0.23146E-05         0.48703E-05         0.00000E+00
    0.23143E-05         0.48684E-05         0.00000E+00
    0.23116E-05         0.48651E-05         0.00000E+00
    0.23064E-05         0.48604E-05         0.00000E+00
    0.22987E-05         0.48539E-05         0.00000E+00
    0.22885E-05         0.48453E-05         0.00000E+00
    0.22759E-05         0.48345E-05         0.00000E+00
    0.22607E-05         0.48211E-05         0.00000E+00
    0.22430E-05         0.48049E-05         0.00000E+00
    0.22228E-05         0.47857E-05         0.00000E+00
    0.22002E-05         0.47632E-05         0.00000E+00
    0.21751E-05         0.47372E-05         0.00000E+00
    0.21476E-05         0.47073E-05         0.00000E+00
    0.21177E-05         0.46735E-05         0.00000E+00
    0.20853E-05         0.46354E-05         0.00000E+00
    0.20506E-05         0.45928E-05         0.00000E+00
    0.20135E-05         0.45454E-05         0.00000E+00
    0.19741E-05         0.44931E-05         0.00000E+00
    0.19324E-05         0.44357E-05         0.00000E+00
    0.18884E-05         0.43728E-05         0.00000E+00
    0.18421E-05         0.43043E-05         0.00000E+00
    0.17937E-05         0.42300E-05         0.00000E+00
    0.17431E-05         0.41497E-05         0.00000E+00
    0.16904E-05         0.40632E-05         0.00000E+00
    0.16356E-05         0.39703E-05         0.00000E+00
    0.15788E-05         0.38707E-05         0.00000E+00
    0.15200E-05         0.37644E-05         0.00000E+00
    0.14591E-05         0.36512E-05         0.00000E+00
    0.13964E-05         0.35308E-05         0.00000E+00
    0.13319E-05         0.34032E-05         0.00000E+00
    0.12655E-05         0.32681E-05         0.00000E+00
    0.11973E-05         0.31254E-05         0.00000E+00
    0.11274E-05         0.29751E-05         0.00000E+00
    0.10559E-05         0.28169E-05         0.00000E+00
    0.98278E-06         0.26507E-05         0.00000E+00
    0.90810E-06         0.24764E-05         0.00000E+00
    0.83192E-06         0.22939E-05         0.00000E+00
    0.75429E-06         0.21032E-05         0.00000E+00
    0.67529E-06         0.19040E-05         0.00000E+00
    0.59496E-06         0.16963E-05         0.00000E+00
    0.51336E-06         0.14802E-05         0.00000E+00
    0.43055E-06         0.12553E-05         0.00000E+00
    0.34658E-06         0.10218E-05         0.00000E+00
    0.26149E-06         0.77957E-06         0.00000E+00
    0.17535E-06         0.52854E-06         0.00000E+00
    0.88177E-07         0.26869E-06         0.00000E+00
    0.00000E+00         0.00000E+00         0.00000E+00
    0.46098E-05         0.49503E-05         0.00000E+00
    0.46291E-05         0.49516E-05         0.00000E+00
    0.46436E-05         0.49527E-05         0.00000E+00
    0.46531E-05         0.49532E-05         0.00000E+00
    0.46577E-05         0.49529E-05         0.00000E+00
    0.46573E-05         0.49515E-05         0.00000E+00
    0.46520E-05         0.49488E-05         0.00000E+00
    0.46415E-05         0.49446E-05         0.00000E+00
    0.46261E-05         0.49385E-05         0.00000E+00
    0.46056E-05         0.49303E-05         0.00000E+00
    0.45800E-05         0.49197E-05         0.00000E+00
    0.45495E-05         0.49066E-05         0.00000E+00
    0.45139E-05         0.48905E-05         0.00000E+00
    0.44733E-05         0.48714E-05         0.00000E+00
    0.44277E-05         0.48488E-05         0.00000E+00
    0.43772E-05         0.48227E-05         0.00000E+00
    0.43217E-05         0.47926E-05         0.00000E+00
    0.42614E-05         0.47584E-05         0.00000E+00
    0.41962E-05         0.47199E-05         0.00000E+00
    0.41263E-05         0.46768E-05         0.00000E+00
    0.40516E-05         0.46288E-05         0.00000E+00
    0.39722E-05         0.45758E-05         0.00000E+00
    0.38882E-05         0.45175E-05         0.00000E+00
    0.37996E-05         0.44536E-05         0.00000E+00
    0.37065E-05         0.43841E-05         0.00000E+00
    0.36090E-05         0.43086E-05         0.00000E+00
    0.35072E-05         0.42269E-05         0.00000E+00
    0.34010E-05         0.41389E-05         0.00000E+00
    0.32907E-05         0.40444E-05         0.00000E+00
    0.31762E-05         0.39431E-05         0.00000E+00
    0.30577E-05         0.38349E-05         0.00000E+00
    0.29353E-05         0.37196E-05         0.00000E+00
    0.28091E-05         0.35971E-05         0.00000E+00
    0.26790E-05         0.34671E-05         0.00000E+00
    0.25454E-05         0.33295E-05         0.00000E+00
    0.24081E-05         0.31843E-05         0.00000E+00
    0.22675E-05         0.30311E-05         0.00000E+00
    0.21235E-05         0.28699E-05         0.00000E+00
    0.19763E-05         0.27006E-05         0.00000E+00
    0.18259E-05         0.25231E-05         0.00000E+00
    0.16726E-05         0.23372E-05         0.00000E+00
    0.15163E-05         0.21428E-05         0.00000E+00
    0.13573E-05         0.19399E-05         0.00000E+00
    0.11957E-05         0.17283E-05         0.00000E+00
    0.10315E-05         0.15080E-05         0.00000E+00
    0.86488E-06         0.12789E-05         0.00000E+00
    0.69599E-06         0.10410E-05         0.00000E+00
    0.52493E-06         0.79418E-06         0.00000E+00
    0.35183E-06         0.53842E-06         0.00000E+00
    0.17681E-06         0.27370E-06         0.00000E+00
    0.00000E+00         0.00000E+00         0.00000E+00
    0.69864E-05         0.50893E-05         0.00000E+00
    0.70166E-05         0.50913E-05         0.00000E+00
    0.70391E-05         0.50931E-05         0.00000E+00
    0.70541E-05         0.50943E-05         0.00000E+00
    0.70615E-05         0.50947E-05         0.00000E+00
    0.70611E-05         0.50940E-05         0.00000E+00
    0.70532E-05         0.50919E-05         0.00000E+00
    0.70375E-05         0.50882E-05         0.00000E+00
    0.70141E-05         0.50826E-05         0.00000E+00
    0.69831E-05         0.50748E-05         0.00000E+00
    0.69444E-05         0.50645E-05         0.00000E+00
    0.68980E-05         0.50515E-05         0.00000E+00
    0.68440E-05         0.50355E-05         0.00000E+00
    0.67824E-05         0.50163E-05         0.00000E+00
    0.67132E-05         0.49936E-05         0.00000E+00
    0.66365E-05         0.49671E-05         0.00000E+00
    0.65524E-05         0.49366E-05         0.00000E+00
    0.64609E-05         0.49018E-05         0.00000E+00
    0.63620E-05         0.48625E-05         0.00000E+00
    0.62558E-05         0.48185E-05         0.00000E+00
    0.61425E-05         0.47694E-05         0.00000E+00
    0.60220E-05         0.47151E-05         0.00000E+00
    0.58946E-05         0.46553E-05         0.00000E+00
    0.57602E-05         0.45898E-05         0.00000E+00
    0.56190E-05         0.45184E-05         0.00000E+00
    0.54710E-05         0.44408E-05         0.00000E+00
    0.53165E-05         0.43569E-05         0.00000E+00
    0.51555E-05         0.42664E-05         0.00000E+00
    0.49881E-05         0.41691E-05         0.00000E+00
    0.48145E-05         0.40649E-05         0.00000E+00
    0.46347E-05         0.39535E-05         0.00000E+00
    0.44490E-05         0.38348E-05         0.00000E+00
    0.42575E-05         0.37086E-05         0.00000E+00
    0.40603E-05         0.35747E-05         0.00000E+00
    0.38576E-05         0.34330E-05         0.00000E+00
    0.36495E-05         0.32833E-05         0.00000E+00
    0.34361E-05         0.31255E-05         0.00000E+00
    0.32178E-05         0.29594E-05         0.00000E+00
    0.29945E-05         0.27849E-05         0.00000E+00
    0.27665E-05         0.26018E-05         0.00000E+00
    0.25340E-05         0.24101E-05         0.00000E+00
    0.22971E-05         0.22097E-05         0.00000E+00
    0.20561E-05         0.20005E-05         0.00000E+00
    0.18110E-05         0.17823E-05         0.00000E+00
    0.15622E-05         0.15551E-05         0.00000E+00
    0.13097E-05         0.13189E-05         0.00000E+00
    0.10538E-05         0.10735E-05         0.00000E+00
    0.79471E-06         0.81900E-06         0.00000E+00
    0.53256E-06         0.55525E-06         0.00000E+00
    0.26759E-06         0.28225E-06         0.00000E+00
    0.00000E+00         0.00000E+00         0.00000E+00
    0.94554E-05         0.52904E-05         0.00000E+00
    0.94969E-05         0.52933E-05         0.00000E+00
    0.95280E-05         0.52958E-05         0.00000E+00
    0.95487E-05         0.52978E-05         0.00000E+00
    0.95590E-05         0.52989E-05         0.00000E+00
    0.95589E-05         0.52989E-05         0.00000E+00
    0.95483E-05         0.52974E-05         0.00000E+00
    0.95272E-05         0.52942E-05         0.00000E+00
    0.94957E-05         0.52891E-05         0.00000E+00
    0.94537E-05         0.52816E-05         0.00000E+00
    0.94013E-05         0.52715E-05         0.00000E+00
    0.93385E-05         0.52586E-05         0.00000E+00
    0.92653E-05         0.52426E-05         0.00000E+00
    0.91819E-05         0.52232E-05         0.00000E+00
    0.90882E-05         0.52001E-05         0.00000E+00
    0.89843E-05         0.51731E-05         0.00000E+00
    0.88703E-05         0.51418E-05         0.00000E+00
    0.87463E-05         0.51061E-05         0.00000E+00
    0.86123E-05         0.50656E-05         0.00000E+00
    0.84685E-05         0.50202E-05         0.00000E+00
    0.83149E-05         0.49695E-05         0.00000E+00
    0.81517E-05         0.49133E-05         0.00000E+00
    0.79790E-05         0.48513E-05         0.00000E+00
    0.77970E-05         0.47834E-05         0.00000E+00
    0.76057E-05         0.47093E-05         0.00000E+00
    0.74053E-05         0.46288E-05         0.00000E+00
    0.71960E-05         0.45416E-05         0.00000E+00
    0.69779E-05         0.44476E-05         0.00000E+00
    0.67512E-05         0.43464E-05         0.00000E+00
    0.65161E-05         0.42380E-05         0.00000E+00
    0.62727E-05         0.41221E-05         0.00000E+00
    0.60212E-05         0.39985E-05         0.00000E+00
    0.57618E-05         0.38671E-05         0.00000E+00
    0.54948E-05         0.37277E-05         0.00000E+00
    0.52203E-05         0.35801E-05         0.00000E+00
    0.49385E-05         0.34241E-05         0.00000E+00
    0.46496E-05         0.32596E-05         0.00000E+00
    0.43540E-05         0.30865E-05         0.00000E+00
    0.40517E-05         0.29045E-05         0.00000E+00
    0.37431E-05         0.27137E-05         0.00000E+00
    0.34284E-05         0.25139E-05         0.00000E+00
    0.31078E-05         0.23049E-05         0.00000E+00
    0.27815E-05         0.20867E-05         0.00000E+00
    0.24499E-05         0.18592E-05         0.00000E+00
    0.21131E-05         0.16222E-05         0.00000E+00
    0.17715E-05         0.13758E-05         0.00000E+00
    0.14253E-05         0.11199E-05         0.00000E+00
    0.10748E-05         0.85439E-06         0.00000E+00
    0.72019E-06         0.57925E-06         0.00000E+00
    0.36184E-06         0.29446E-06         0.00000E+00
    0.00000E+00         0.00000E+00         0.00000E+00
    0.12051E-04         0.55567E-05         0.00000E+00
    0.12105E-04         0.55604E-05         0.00000E+00
    0.12145E-04         0.55639E-05         0.00000E+00
    0.12172E-04         0.55667E-05         0.00000E+00
    0.12185E-04         0.55686E-05         0.00000E+00
    0.12185E-04         0.55693E-05         0.00000E+00
    0.12172E-04         0.55685E-05         0.00000E+00
    0.12145E-04         0.55659E-05         0.00000E+00
    0.12105E-04         0.55611E-05         0.00000E+00
    0.12051E-04         0.55539E-05         0.00000E+00
    0.11984E-04         0.55440E-05         0.00000E+00
    0.11904E-04         0.55311E-05         0.00000E+00
    0.11811E-04         0.55149E-05         0.00000E+00
    0.11705E-04         0.54951E-05         0.00000E+00
    0.11585E-04         0.54714E-05         0.00000E+00
    0.11453E-04         0.54436E-05         0.00000E+00
    0.11307E-04         0.54112E-05         0.00000E+00
    0.11149E-04         0.53742E-05         0.00000E+00
    0.10978E-04         0.53321E-05         0.00000E+00
    0.10794E-04         0.52847E-05         0.00000E+00
    0.10598E-04         0.52318E-05         0.00000E+00
    0.10390E-04         0.51731E-05         0.00000E+00
    0.10170E-04         0.51083E-05         0.00000E+00
    0.99379E-05         0.50373E-05         0.00000E+00
    0.96939E-05         0.49596E-05         0.00000E+00
    0.94383E-05         0.48752E-05         0.00000E+00
    0.91714E-05         0.47837E-05         0.00000E+00
    0.88932E-05         0.46849E-05         0.00000E+00
    0.86041E-05         0.45787E-05         0.00000E+00
    0.83043E-05         0.44647E-05         0.00000E+00
    0.79939E-05         0.43429E-05         0.00000E+00
    0.76732E-05         0.42130E-05         0.00000E+00
    0.73426E-05         0.40747E-05         0.00000E+00
    0.70021E-05         0.39280E-05         0.00000E+00
    0.66521E-05         0.37726E-05         0.00000E+00
    0.62929E-05         0.36084E-05         0.00000E+00
    0.59247E-05         0.34353E-05         0.00000E+00
    0.55478E-05         0.32529E-05         0.00000E+00
    0.51625E-05         0.30613E-05         0.00000E+00
    0.47692E-05         0.28603E-05         0.00000E+00
    0.43680E-05         0.26498E-05         0.00000E+00
    0.39594E-05         0.24296E-05         0.00000E+00
    0.35436E-05         0.21997E-05         0.00000E+00
    0.31210E-05         0.19599E-05         0.00000E+00
    0.26919E-05         0.17102E-05         0.00000E+00
    0.22567E-05         0.14505E-05         0.00000E+00
    0.18156E-05         0.11807E-05         0.00000E+00
    0.13690E-05         0.90081E-06         0.00000E+00
    0.91731E-06         0.61074E-06         0.00000E+00
    0.46086E-06         0.31048E-06         0.00000E+00
    0.00000E+00         0.00000E+00         0.00000E+00
    0.14811E-04         0.58915E-05         0.00000E+00
    0.14877E-04         0.58963E-05         0.00000E+00
    0.14926E-04         0.59007E-05         0.00000E+00
    0.14959E-04         0.59045E-05         0.00000E+00
    0.14976E-04         0.59073E-05         0.00000E+00
    0.14976E-04         0.59088E-05         0.00000E+00
    0.14960E-04         0.59087E-05         0.00000E+00
    0.14927E-04         0.59066E-05         0.00000E+00
    0.14877E-04         0.59023E-05         0.00000E+00
    0.14812E-04         0.58954E-05         0.00000E+00
    0.14729E-04         0.58856E-05         0.00000E+00
    0.14631E-04         0.58726E-05         0.00000E+00
    0.14516E-04         0.58561E-05         0.00000E+00
    0.14385E-04         0.58357E-05         0.00000E+00
    0.14238E-04         0.58112E-05         0.00000E+00
    0.14075E-04         0.57822E-05         0.00000E+00
    0.13896E-04         0.57484E-05         0.00000E+00
    0.13701E-04         0.57096E-05         0.00000E+00
    0.13491E-04         0.56655E-05         0.00000E+00
    0.13265E-04         0.56157E-05         0.00000E+00
    0.13024E-04         0.55600E-05         0.00000E+00
    0.12768E-04         0.54981E-05         0.00000E+00
    0.12497E-04         0.54297E-05         0.00000E+00
    0.12212E-04         0.53546E-05         0.00000E+00
    0.11912E-04         0.52725E-05         0.00000E+00
    0.11598E-04         0.51831E-05         0.00000E+00
    0.11269E-04         0.50862E-05         0.00000E+00
    0.10927E-04         0.49816E-05         0.00000E+00
    0.10572E-04         0.48689E-05         0.00000E+00
    0.10203E-04         0.47481E-05         0.00000E+00
    0.98218E-05         0.46188E-05         0.00000E+00
    0.94277E-05         0.44809E-05         0.00000E+00
    0.90212E-05         0.43341E-05         0.00000E+00
    0.86027E-05         0.41783E-05         0.00000E+00
    0.81726E-05         0.40133E-05         0.00000E+00
    0.77311E-05         0.38388E-05         0.00000E+00
    0.72786E-05         0.36547E-05         0.00000E+00
    0.68154E-05         0.34609E-05         0.00000E+00
    0.63420E-05         0.32573E-05         0.00000E+00
    0.58586E-05         0.30435E-05         0.00000E+00
    0.53657E-05         0.28196E-05         0.00000E+00
    0.48637E-05         0.25855E-05         0.00000E+00
    0.43528E-05         0.23409E-05         0.00000E+00
    0.38336E-05         0.20858E-05         0.00000E+00
    0.33065E-05         0.18201E-05         0.00000E+00
    0.27718E-05         0.15438E-05         0.00000E+00
    0.22299E-05         0.12567E-05         0.00000E+00
    0.16814E-05         0.95882E-06         0.00000E+00
    0.11266E-05         0.65010E-06         0.00000E+00
    0.56600E-06         0.33050E-06         0.00000E+00
    0.00000E+00         0.00000E+00         0.00000E+00
    0.17772E-04         0.62987E-05         0.00000E+00
    0.17851E-04         0.63046E-05         0.00000E+00
    0.17911E-04         0.63102E-05         0.00000E+00
    0.17950E-04         0.63150E-05         0.00000E+00
    0.17970E-04         0.63189E-05         0.00000E+00
    0.17970E-04         0.63213E-05         0.00000E+00
    0.17950E-04         0.63220E-05         0.00000E+00
    0.17911E-04         0.63206E-05         0.00000E+00
    0.17851E-04         0.63167E-05         0.00000E+00
    0.17772E-04         0.63101E-05         0.00000E+00
    0.17673E-04         0.63004E-05         0.00000E+00
    0.17555E-04         0.62872E-05         0.00000E+00
    0.17417E-04         0.62702E-05         0.00000E+00
    0.17260E-04         0.62491E-05         0.00000E+00
    0.17083E-04         0.62235E-05         0.00000E+00
    0.16887E-04         0.61931E-05         0.00000E+00
    0.16672E-04         0.61575E-05         0.00000E+00
    0.16438E-04         0.61166E-05         0.00000E+00
    0.16186E-04         0.60699E-05         0.00000E+00
    0.15915E-04         0.60171E-05         0.00000E+00
    0.15625E-04         0.59580E-05         0.00000E+00
    0.15318E-04         0.58922E-05         0.00000E+00
    0.14993E-04         0.58194E-05         0.00000E+00
    0.14650E-04         0.57393E-05         0.00000E+00
    0.14290E-04         0.56518E-05         0.00000E+00
    0.13912E-04         0.55564E-05         0.00000E+00
    0.13518E-04         0.54529E-05         0.00000E+00
    0.13108E-04         0.53411E-05         0.00000E+00
    0.12681E-04         0.52207E-05         0.00000E+00
    0.12239E-04         0.50915E-05         0.00000E+00
    0.11781E-04         0.49532E-05         0.00000E+00
    0.11308E-04         0.48056E-05         0.00000E+00
    0.10820E-04         0.46485E-05         0.00000E+00
    0.10318E-04         0.44816E-05         0.00000E+00
    0.98021E-05         0.43049E-05         0.00000E+00
    0.92724E-05         0.41179E-05         0.00000E+00
    0.87296E-05         0.39207E-05         0.00000E+00
    0.81740E-05         0.37130E-05         0.00000E+00
    0.76060E-05         0.34947E-05         0.00000E+00
    0.70262E-05         0.32655E-05         0.00000E+00
    0.64349E-05         0.30255E-05         0.00000E+00
    0.58327E-05         0.27743E-05         0.00000E+00
    0.52200E-05         0.25120E-05         0.00000E+00
    0.45973E-05         0.22384E-05         0.00000E+00
    0.39651E-05         0.19533E-05         0.00000E+00
    0.33238E-05         0.16568E-05         0.00000E+00
    0.26740E-05         0.13488E-05         0.00000E+00
    0.20162E-05         0.10291E-05         0.00000E+00
    0.13509E-05         0.69780E-06         0.00000E+00
    0.67868E-06         0.35476E-06         0.00000E+00
    0.00000E+00         0.00000E+00         0.00000E+00
    0.20976E-04         0.67827E-05         0.00000E+00
    0.21070E-04         0.67899E-05         0.00000E+00
    0.21139E-04         0.67968E-05         0.00000E+00
    0.21186E-04         0.68029E-05         0.00000E+00
    0.21209E-04         0.68079E-05         0.00000E+00
    0.21209E-04         0.68114E-05         0.00000E+00
    0.21185E-04         0.68130E-05         0.00000E+00
    0.21138E-04         0.68124E-05         0.00000E+00
    0.21068E-04         0.68090E-05         0.00000E+00
    0.20974E-04         0.68027E-05         0.00000E+00
    0.20857E-04         0.67930E-05         0.00000E+00
    0.20717E-04         0.67796E-05         0.00000E+00
    0.20553E-04         0.67620E-05         0.00000E+00
    0.20367E-04         0.67400E-05         0.00000E+00
    0.20158E-04         0.67131E-05         0.00000E+00
    0.19927E-04         0.66810E-05         0.00000E+00
    0.19673E-04         0.66433E-05         0.00000E+00
    0.19396E-04         0.65998E-05         0.00000E+00
    0.19098E-04         0.65500E-05         0.00000E+00
    0.18778E-04         0.64937E-05         0.00000E+00
    0.18436E-04         0.64305E-05         0.00000E+00
    0.18073E-04         0.63600E-05         0.00000E+00
    0.17689E-04         0.62819E-05         0.00000E+00
    0.17284E-04         0.61961E-05         0.00000E+00
    0.16859E-04         0.61020E-05         0.00000E+00
    0.16414E-04         0.59995E-05         0.00000E+00
    0.15948E-04         0.58882E-05         0.00000E+00
    0.15464E-04         0.57679E-05         0.00000E+00
    0.14960E-04         0.56383E-05         0.00000E+00
    0.14438E-04         0.54991E-05         0.00000E+00
    0.13898E-04         0.53501E-05         0.00000E+00
    0.13340E-04         0.51910E-05         0.00000E+00
    0.12764E-04         0.50216E-05         0.00000E+00
    0.12172E-04         0.48417E-05         0.00000E+00
    0.11563E-04         0.46509E-05         0.00000E+00
    0.10938E-04         0.44493E-05         0.00000E+00
    0.10297E-04         0.42364E-05         0.00000E+00
    0.96415E-05         0.40122E-05         0.00000E+00
    0.89714E-05         0.37765E-05         0.00000E+00
    0.82874E-05         0.35290E-05         0.00000E+00
    0.75899E-05         0.32697E-05         0.00000E+00
    0.68795E-05         0.29985E-05         0.00000E+00
    0.61568E-05         0.27151E-05         0.00000E+00
    0.54222E-05         0.24194E-05         0.00000E+00
    0.46765E-05         0.21114E-05         0.00000E+00
    0.39201E-05         0.17910E-05         0.00000E+00
    0.31537E-05         0.14581E-05         0.00000E+00
    0.23779E-05         0.11126E-05         0.00000E+00
    0.15932E-05         0.75441E-06         0.00000E+00
    0.80039E-06         0.38356E-06         0.00000E+00
    0.00000E+00         0.00000E+00         0.00000E+00
    0.24468E-04         0.73485E-05         0.00000E+00
    0.24576E-04         0.73573E-05         0.00000E+00
    0.24657E-04         0.73658E-05         0.00000E+00
    0.24711E-04         0.73734E-05         0.00000E+00
    0.24737E-04         0.73797E-05         0.00000E+00
    0.24736E-04         0.73844E-05         0.00000E+00
    0.24708E-04         0.73871E-05         0.00000E+00
    0.24653E-04         0.73873E-05         0.00000E+00
    0.24570E-04         0.73846E-05         0.00000E+00
    0.24460E-04         0.73786E-05         0.00000E+00
    0.24323E-04         0.73690E-05         0.00000E+00
    0.24159E-04         0.73552E-05         0.00000E+00
    0.23968E-04         0.73370E-05         0.00000E+00
    0.23750E-04         0.73139E-05         0.00000E+00
    0.23506E-04         0.72855E-05         0.00000E+00
    0.23235E-04         0.72514E-05         0.00000E+00
    0.22939E-04         0.72113E-05         0.00000E+00
    0.22616E-04         0.71647E-05         0.00000E+00
    0.22268E-04         0.71113E-05         0.00000E+00
    0.21894E-04         0.70508E-05         0.00000E+00
    0.21495E-04         0.69828E-05         0.00000E+00
    0.21071E-04         0.69069E-05         0.00000E+00
    0.20623E-04         0.68227E-05         0.00000E+00
    0.20150E-04         0.67300E-05         0.00000E+00
    0.19654E-04         0.66283E-05         0.00000E+00
    0.19135E-04         0.65175E-05         0.00000E+00
    0.18592E-04         0.63971E-05         0.00000E+00
    0.18027E-04         0.62668E-05         0.00000E+00
    0.17440E-04         0.61264E-05         0.00000E+00
    0.16831E-04         0.59756E-05         0.00000E+00
    0.16200E-04         0.58141E-05         0.00000E+00
    0.15549E-04         0.56415E-05         0.00000E+00
    0.14878E-04         0.54578E-05         0.00000E+00
    0.14187E-04         0.52625E-05         0.00000E+00
    0.13477E-04         0.50555E-05         0.00000E+00
    0.12748E-04         0.48366E-05         0.00000E+00
    0.12002E-04         0.46054E-05         0.00000E+00
    0.11237E-04         0.43619E-05         0.00000E+00
    0.10456E-04         0.41059E-05         0.00000E+00
    0.96590E-05         0.38370E-05         0.00000E+00
    0.88459E-05         0.35553E-05         0.00000E+00
    0.80179E-05         0.32605E-05         0.00000E+00
    0.71754E-05         0.29525E-05         0.00000E+00
    0.63193E-05         0.26311E-05         0.00000E+00
    0.54501E-05         0.22963E-05         0.00000E+00
    0.45685E-05         0.19479E-05         0.00000E+00
    0.36753E-05         0.15859E-05         0.00000E+00
    0.27711E-05         0.12101E-05         0.00000E+00
    0.18567E-05         0.82060E-06         0.00000E+00
    0.93275E-06         0.41723E-06         0.00000E+00
    0.00000E+00         0.00000E+00         0.00000E+00
    0.28295E-04         0.80019E-05         0.00000E+00
    0.28419E-04         0.80125E-05         0.00000E+00
    0.28511E-04         0.80228E-05         0.00000E+00
    0.28573E-04         0.80321E-05         0.00000E+00
    0.28602E-04         0.80401E-05         0.00000E+00
    0.28600E-04         0.80463E-05         0.00000E+00
    0.28567E-04         0.80502E-05         0.00000E+00
    0.28502E-04         0.80514E-05         0.00000E+00
    0.28405E-04         0.80495E-05         0.00000E+00
    0.28277E-04         0.80439E-05         0.00000E+00
    0.28118E-04         0.80343E-05         0.00000E+00
    0.27928E-04         0.80203E-05         0.00000E+00
    0.27706E-04         0.80013E-05         0.00000E+00
    0.27454E-04         0.79769E-05         0.00000E+00
    0.27171E-04         0.79468E-05         0.00000E+00
    0.26857E-04         0.79104E-05         0.00000E+00
    0.26513E-04         0.78675E-05         0.00000E+00
    0.26140E-04         0.78174E-05         0.00000E+00
    0.25736E-04         0.77600E-05         0.00000E+00
    0.25304E-04         0.76946E-05         0.00000E+00
    0.24842E-04         0.76211E-05         0.00000E+00
    0.24352E-04         0.75388E-05         0.00000E+00
    0.23833E-04         0.74476E-05         0.00000E+00
    0.23287E-04         0.73470E-05         0.00000E+00
    0.22713E-04         0.72366E-05         0.00000E+00
    0.22112E-04         0.71161E-05         0.00000E+00
    0.21484E-04         0.69852E-05         0.00000E+00
    0.20831E-04         0.68435E-05         0.00000E+00
    0.20152E-04         0.66906E-05         0.00000E+00
    0.19448E-04         0.65264E-05         0.00000E+00
    0.18719E-04         0.63503E-05         0.00000E+00
    0.17966E-04         0.61623E-05         0.00000E+00
    0.17191E-04         0.59619E-05         0.00000E+00
    0.16392E-04         0.57490E-05         0.00000E+00
    0.15571E-04         0.55232E-05         0.00000E+00
    0.14729E-04         0.52843E-05         0.00000E+00
    0.13866E-04         0.50320E-05         0.00000E+00
    0.12983E-04         0.47662E-05         0.00000E+00
    0.12080E-04         0.44867E-05         0.00000E+00
    0.11159E-04         0.41931E-05         0.00000E+00
    0.10219E-04         0.38854E-05         0.00000E+00
    0.92627E-05         0.35634E-05         0.00000E+00
    0.82894E-05         0.32269E-05         0.00000E+00
    0.73002E-05         0.28758E-05         0.00000E+00
    0.62960E-05         0.25100E-05         0.00000E+00
    0.52776E-05         0.21293E-05         0.00000E+00
    0.42457E-05         0.17336E-05         0.00000E+00
    0.32012E-05         0.13229E-05         0.00000E+00
    0.21448E-05         0.89713E-06         0.00000E+00
    0.10775E-05         0.45616E-06         0.00000E+00
    0.00000E+00         0.00000E+00         0.00000E+00
    0.32509E-04         0.87492E-05         0.00000E+00
    0.32650E-04         0.87620E-05         0.00000E+00
    0.32755E-04         0.87744E-05         0.00000E+00
    0.32824E-04         0.87858E-05         0.00000E+00
    0.32857E-04         0.87957E-05         0.00000E+00
    0.32854E-04         0.88036E-05         0.00000E+00
    0.32814E-04         0.88090E-05         0.00000E+00
    0.32738E-04         0.88115E-05         0.00000E+00
    0.32626E-04         0.88104E-05         0.00000E+00
    0.32478E-04         0.88055E-05         0.00000E+00
    0.32294E-04         0.87960E-05         0.00000E+00
    0.32074E-04         0.87816E-05         0.00000E+00
    0.31818E-04         0.87618E-05         0.00000E+00
    0.31528E-04         0.87361E-05         0.00000E+00
    0.31202E-04         0.87040E-05         0.00000E+00
    0.30841E-04         0.86651E-05         0.00000E+00
    0.30445E-04         0.86189E-05         0.00000E+00
    0.30015E-04         0.85650E-05         0.00000E+00
    0.29551E-04         0.85028E-05         0.00000E+00
    0.29053E-04         0.84320E-05         0.00000E+00
    0.28522E-04         0.83521E-05         0.00000E+00
    0.27959E-04         0.82628E-05         0.00000E+00
    0.27363E-04         0.81635E-05         0.00000E+00
    0.26734E-04         0.80538E-05         0.00000E+00
    0.26075E-04         0.79335E-05         0.00000E+00
    0.25384E-04         0.78020E-05         0.00000E+00
    0.24663E-04         0.76590E-05         0.00000E+00
    0.23913E-04         0.75042E-05         0.00000E+00
    0.23132E-04         0.73371E-05         0.00000E+00
    0.22324E-04         0.71574E-05         0.00000E+00
    0.21487E-04         0.69649E-05         0.00000E+00
    0.20623E-04         0.67591E-05         0.00000E+00
    0.19732E-04         0.65397E-05         0.00000E+00
    0.18815E-04         0.63065E-05         0.00000E+00
    0.17872E-04         0.60591E-05         0.00000E+00
    0.16906E-04         0.57974E-05         0.00000E+00
    0.15915E-04         0.55210E-05         0.00000E+00
    0.14901E-04         0.52296E-05         0.00000E+00
    0.13865E-04         0.49231E-05         0.00000E+00
    0.12807E-04         0.46013E-05         0.00000E+00
    0.11729E-04         0.42639E-05         0.00000E+00
    0.10630E-04         0.39107E-05         0.00000E+00
    0.95132E-05         0.35416E-05         0.00000E+00
    0.83779E-05         0.31564E-05         0.00000E+00
    0.72254E-05         0.27550E-05         0.00000E+00
    0.60566E-05         0.23372E-05         0.00000E+00
    0.48723E-05         0.19030E-05         0.00000E+00
    0.36736E-05         0.14523E-05         0.00000E+00
    0.24613E-05         0.98487E-06         0.00000E+00
    0.12365E-05         0.50080E-06         0.00000E+00
    0.00000E+00         0.00000E+00         0.00000E+00
    0.37168E-04         0.95975E-05         0.00000E+00
    0.37328E-04         0.96130E-05         0.00000E+00
    0.37446E-04         0.96279E-05         0.00000E+00
    0.37523E-04         0.96418E-05         0.00000E+00
    0.37559E-04         0.96539E-05         0.00000E+00
    0.37553E-04         0.96639E-05         0.00000E+00
    0.37506E-04         0.96711E-05         0.00000E+00
    0.37418E-04         0.96751E-05         0.00000E+00
    0.37288E-04         0.96752E-05         0.00000E+00
    0.37118E-04         0.96709E-05         0.00000E+00
    0.36906E-04         0.96617E-05         0.00000E+00
    0.36653E-04         0.96470E-05         0.00000E+00
    0.36360E-04         0.96264E-05         0.00000E+00
    0.36026E-04         0.95992E-05         0.00000E+00
    0.35652E-04         0.95650E-05         0.00000E+00
    0.35238E-04         0.95233E-05         0.00000E+00
    0.34785E-04         0.94735E-05         0.00000E+00
    0.34293E-04         0.94151E-05         0.00000E+00
    0.33762E-04         0.93477E-05         0.00000E+00
    0.33192E-04         0.92708E-05         0.00000E+00
    0.32584E-04         0.91838E-05         0.00000E+00
    0.31939E-04         0.90863E-05         0.00000E+00
    0.31257E-04         0.89779E-05         0.00000E+00
    0.30539E-04         0.88581E-05         0.00000E+00
    0.29785E-04         0.87264E-05         0.00000E+00
    0.28995E-04         0.85824E-05         0.00000E+00
    0.28171E-04         0.84258E-05         0.00000E+00
    0.27313E-04         0.82560E-05         0.00000E+00
    0.26421E-04         0.80728E-05         0.00000E+00
    0.25497E-04         0.78757E-05         0.00000E+00
    0.24540E-04         0.76643E-05         0.00000E+00
    0.23553E-04         0.74383E-05         0.00000E+00
    0.22535E-04         0.71973E-05         0.00000E+00
    0.21487E-04         0.69411E-05         0.00000E+00
    0.20411E-04         0.66693E-05         0.00000E+00
    0.19306E-04         0.63815E-05         0.00000E+00
    0.18174E-04         0.60776E-05         0.00000E+00
    0.17016E-04         0.57572E-05         0.00000E+00
    0.15832E-04         0.54201E-05         0.00000E+00
    0.14624E-04         0.50660E-05         0.00000E+00
    0.13393E-04         0.46947E-05         0.00000E+00
    0.12139E-04         0.43061E-05         0.00000E+00
    0.10863E-04         0.38999E-05         0.00000E+00
    0.95663E-05         0.34759E-05         0.00000E+00
    0.82503E-05         0.30340E-05         0.00000E+00
    0.69156E-05         0.25740E-05         0.00000E+00
    0.55633E-05         0.20959E-05         0.00000E+00
    0.41945E-05         0.15995E-05         0.00000E+00
    0.28103E-05         0.10848E-05         0.00000E+00
    0.14118E-05         0.55163E-06         0.00000E+00
    0.00000E+00         0.00000E+00         0.00000E+00
    0.42335E-04         0.10555E-04         0.00000E+00
    0.42515E-04         0.10573E-04         0.00000E+00
    0.42647E-04         0.10591E-04         0.00000E+00
    0.42733E-04         0.10608E-04         0.00000E+00
    0.42771E-04         0.10623E-04         0.00000E+00
    0.42763E-04         0.10635E-04         0.00000E+00
    0.42707E-04         0.10645E-04         0.00000E+00
    0.42605E-04         0.10651E-04         0.00000E+00
    0.42455E-04         0.10652E-04         0.00000E+00
    0.42258E-04         0.10649E-04         0.00000E+00
    0.42015E-04         0.10640E-04         0.00000E+00
    0.41726E-04         0.10625E-04         0.00000E+00
    0.41390E-04         0.10604E-04         0.00000E+00
    0.41009E-04         0.10575E-04         0.00000E+00
    0.40581E-04         0.10538E-04         0.00000E+00
    0.40109E-04         0.10494E-04         0.00000E+00
    0.39592E-04         0.10440E-04         0.00000E+00
    0.39030E-04         0.10377E-04         0.00000E+00
    0.38424E-04         0.10303E-04         0.00000E+00
    0.37774E-04         0.10219E-04         0.00000E+00
    0.37081E-04         0.10125E-04         0.00000E+00
    0.36346E-04         0.10018E-04         0.00000E+00
    0.35569E-04         0.98993E-05         0.00000E+00
    0.34750E-04         0.97680E-05         0.00000E+00
    0.33891E-04         0.96236E-05         0.00000E+00
    0.32992E-04         0.94657E-05         0.00000E+00
    0.32053E-04         0.92936E-05         0.00000E+00
    0.31075E-04         0.91071E-05         0.00000E+00
    0.30060E-04         0.89056E-05         0.00000E+00
    0.29008E-04         0.86887E-05         0.00000E+00
    0.27919E-04         0.84561E-05         0.00000E+00
    0.26795E-04         0.82073E-05         0.00000E+00
    0.25636E-04         0.79420E-05         0.00000E+00
    0.24444E-04         0.76597E-05         0.00000E+00
    0.23218E-04         0.73602E-05         0.00000E+00
    0.21961E-04         0.70430E-05         0.00000E+00
    0.20674E-04         0.67080E-05         0.00000E+00
    0.19356E-04         0.63547E-05         0.00000E+00
    0.18009E-04         0.59829E-05         0.00000E+00
    0.16635E-04         0.55924E-05         0.00000E+00
    0.15234E-04         0.51828E-05         0.00000E+00
    0.13807E-04         0.47540E-05         0.00000E+00
    0.12356E-04         0.43057E-05         0.00000E+00
    0.10881E-04         0.38378E-05         0.00000E+00
    0.93838E-05         0.33500E-05         0.00000E+00
    0.78656E-05         0.28423E-05         0.00000E+00
    0.63275E-05         0.23145E-05         0.00000E+00
    0.47707E-05         0.17664E-05         0.00000E+00
    0.31963E-05         0.11980E-05         0.00000E+00
    0.16057E-05         0.60924E-06         0.00000E+00
    0.00000E+00         0.00000E+00         0.00000E+00
    0.48081E-04         0.11630E-04         0.00000E+00
    0.48281E-04         0.11652E-04         0.00000E+00
    0.48429E-04         0.11674E-04         0.00000E+00
    0.48523E-04         0.11694E-04         0.00000E+00
    0.48564E-04         0.11712E-04         0.00000E+00
    0.48552E-04         0.11727E-04         0.00000E+00
    0.48486E-04         0.11739E-04         0.00000E+00
    0.48367E-04         0.11747E-04         0.00000E+00
    0.48194E-04         0.11750E-04         0.00000E+00
    0.47969E-04         0.11748E-04         0.00000E+00
    0.47691E-04         0.11740E-04         0.00000E+00
    0.47360E-04         0.11725E-04         0.00000E+00
    0.46976E-04         0.11703E-04         0.00000E+00
    0.46541E-04         0.11673E-04         0.00000E+00
    0.46054E-04         0.11634E-04         0.00000E+00
    0.45516E-04         0.11586E-04         0.00000E+00
    0.44927E-04         0.11528E-04         0.00000E+00
    0.44288E-04         0.11459E-04         0.00000E+00
    0.43598E-04         0.11379E-04         0.00000E+00
    0.42859E-04         0.11288E-04         0.00000E+00
    0.42072E-04         0.11184E-04         0.00000E+00
    0.41236E-04         0.11067E-04         0.00000E+00
    0.40353E-04         0.10937E-04         0.00000E+00
    0.39423E-04         0.10793E-04         0.00000E+00
    0.38447E-04         0.10634E-04         0.00000E+00
    0.37425E-04         0.10461E-04         0.00000E+00
    0.36359E-04         0.10271E-04         0.00000E+00
    0.35250E-04         0.10066E-04         0.00000E+00
    0.34097E-04         0.98441E-05         0.00000E+00
    0.32902E-04         0.96051E-05         0.00000E+00
    0.31666E-04         0.93486E-05         0.00000E+00
    0.30391E-04         0.90742E-05         0.00000E+00
    0.29076E-04         0.87814E-05         0.00000E+00
    0.27723E-04         0.84698E-05         0.00000E+00
    0.26332E-04         0.81391E-05         0.00000E+00
    0.24906E-04         0.77889E-05         0.00000E+00
    0.23445E-04         0.74188E-05         0.00000E+00
    0.21950E-04         0.70285E-05         0.00000E+00
    0.20423E-04         0.66176E-05         0.00000E+00
    0.18864E-04         0.61860E-05         0.00000E+00
    0.17275E-04         0.57333E-05         0.00000E+00
    0.15657E-04         0.52592E-05         0.00000E+00
    0.14011E-04         0.47635E-05         0.00000E+00
    0.12338E-04         0.42460E-05         0.00000E+00
    0.10640E-04         0.37066E-05         0.00000E+00
    0.89189E-05         0.31450E-05         0.00000E+00
    0.71747E-05         0.25611E-05         0.00000E+00
    0.54094E-05         0.19547E-05         0.00000E+00
    0.36242E-05         0.13258E-05         0.00000E+00
    0.18206E-05         0.67423E-06         0.00000E+00
    0.00000E+00         0.00000E+00         0.00000E+00
    0.54481E-04         0.12832E-04         0.00000E+00
    0.54705E-04         0.12858E-04         0.00000E+00
    0.54868E-04         0.12884E-04         0.00000E+00
    0.54972E-04         0.12908E-04         0.00000E+00
    0.55014E-04         0.12930E-04         0.00000E+00
    0.54997E-04         0.12949E-04         0.00000E+00
    0.54919E-04         0.12964E-04         0.00000E+00
    0.54781E-04         0.12975E-04         0.00000E+00
    0.54582E-04         0.12981E-04         0.00000E+00
    0.54324E-04         0.12980E-04         0.00000E+00
    0.54006E-04         0.12973E-04         0.00000E+00
    0.53628E-04         0.12958E-04         0.00000E+00
    0.53192E-04         0.12935E-04         0.00000E+00
    0.52696E-04         0.12903E-04         0.00000E+00
    0.52142E-04         0.12862E-04         0.00000E+00
    0.51531E-04         0.12810E-04         0.00000E+00
    0.50861E-04         0.12747E-04         0.00000E+00
    0.50135E-04         0.12673E-04         0.00000E+00
    0.49353E-04         0.12586E-04         0.00000E+00
    0.48514E-04         0.12486E-04         0.00000E+00
    0.47621E-04         0.12373E-04         0.00000E+00
    0.46673E-04         0.12245E-04         0.00000E+00
    0.45672E-04         0.12102E-04         0.00000E+00
    0.44618E-04         0.11944E-04         0.00000E+00
    0.43511E-04         0.11769E-04         0.00000E+00
    0.42354E-04         0.11578E-04         0.00000E+00
    0.41146E-04         0.11369E-04         0.00000E+00
    0.39889E-04         0.11143E-04         0.00000E+00
    0.38583E-04         0.10898E-04         0.00000E+00
    0.37230E-04         0.10634E-04         0.00000E+00
    0.35831E-04         0.10351E-04         0.00000E+00
    0.34386E-04         0.10048E-04         0.00000E+00
    0.32898E-04         0.97243E-05         0.00000E+00
    0.31366E-04         0.93799E-05         0.00000E+00
    0.29792E-04         0.90142E-05         0.00000E+00
    0.28178E-04         0.86269E-05         0.00000E+00
    0.26525E-04         0.82175E-05         0.00000E+00
    0.24833E-04         0.77856E-05         0.00000E+00
    0.23104E-04         0.73309E-05         0.00000E+00
    0.21340E-04         0.68532E-05         0.00000E+00
    0.19542E-04         0.63519E-05         0.00000E+00
    0.17711E-04         0.58270E-05         0.00000E+00
    0.15849E-04         0.52781E-05         0.00000E+00
    0.13957E-04         0.47050E-05         0.00000E+00
    0.12036E-04         0.41074E-05         0.00000E+00
    0.10089E-04         0.34853E-05         0.00000E+00
    0.81157E-05         0.28383E-05         0.00000E+00
    0.61188E-05         0.21664E-05         0.00000E+00
    0.40995E-05         0.14694E-05         0.00000E+00
    0.20594E-05         0.74733E-06         0.00000E+00
    0.00000E+00         0.00000E+00         0.00000E+00
    0.61623E-04         0.14171E-04         0.00000E+00
    0.61871E-04         0.14203E-04         0.00000E+00
    0.62051E-04         0.14233E-04         0.00000E+00
    0.62164E-04         0.14263E-04         0.00000E+00
    0.62208E-04         0.14289E-04         0.00000E+00
    0.62183E-04         0.14312E-04         0.00000E+00
    0.62091E-04         0.14331E-04         0.00000E+00
    0.61931E-04         0.14345E-04         0.00000E+00
    0.61703E-04         0.14354E-04         0.00000E+00
    0.61407E-04         0.14355E-04         0.00000E+00
    0.61044E-04         0.14349E-04         0.00000E+00
    0.60614E-04         0.14335E-04         0.00000E+00
    0.60117E-04         0.14311E-04         0.00000E+00
    0.59554E-04         0.14278E-04         0.00000E+00
    0.58925E-04         0.14234E-04         0.00000E+00
    0.58231E-04         0.14178E-04         0.00000E+00
    0.57472E-04         0.14111E-04         0.00000E+00
    0.56648E-04         0.14030E-04         0.00000E+00
    0.55762E-04         0.13935E-04         0.00000E+00
    0.54812E-04         0.13826E-04         0.00000E+00
    0.53800E-04         0.13702E-04         0.00000E+00
    0.52727E-04         0.13562E-04         0.00000E+00
    0.51594E-04         0.13405E-04         0.00000E+00
    0.50401E-04         0.13231E-04         0.00000E+00
    0.49149E-04         0.13039E-04         0.00000E+00
    0.47840E-04         0.12828E-04         0.00000E+00
    0.46474E-04         0.12598E-04         0.00000E+00
    0.45053E-04         0.12348E-04         0.00000E+00
    0.43577E-04         0.12078E-04         0.00000E+00
    0.42047E-04         0.11786E-04         0.00000E+00
    0.40466E-04         0.11473E-04         0.00000E+00
    0.38833E-04         0.11138E-04         0.00000E+00
    0.37151E-04         0.10780E-04         0.00000E+00
    0.35420E-04         0.10399E-04         0.00000E+00
    0.33642E-04         0.99945E-05         0.00000E+00
    0.31819E-04         0.95656E-05         0.00000E+00
    0.29951E-04         0.91122E-05         0.00000E+00
    0.28040E-04         0.86339E-05         0.00000E+00
    0.26087E-04         0.81302E-05         0.00000E+00
    0.24095E-04         0.76008E-05         0.00000E+00
    0.22064E-04         0.70453E-05         0.00000E+00
    0.19997E-04         0.64634E-05         0.00000E+00
    0.17894E-04         0.58549E-05         0.00000E+00
    0.15757E-04         0.52194E-05         0.00000E+00
    0.13589E-04         0.45568E-05         0.00000E+00
    0.11390E-04         0.38667E-05         0.00000E+00
    0.91624E-05         0.31491E-05         0.00000E+00
    0.69079E-05         0.24037E-05         0.00000E+00
    0.46281E-05         0.16305E-05         0.00000E+00
    0.23249E-05         0.82929E-06         0.00000E+00
    0.00000E+00         0.00000E+00         0.00000E+00
    0.69600E-04         0.15658E-04         0.00000E+00
    0.69875E-04         0.15696E-04         0.00000E+00
    0.70073E-04         0.15733E-04         0.00000E+00
    0.70194E-04         0.15768E-04         0.00000E+00
    0.70239E-04         0.15800E-04         0.00000E+00
    0.70207E-04         0.15828E-04         0.00000E+00
    0.70097E-04         0.15852E-04         0.00000E+00
    0.69912E-04         0.15870E-04         0.00000E+00
    0.69650E-04         0.15881E-04         0.00000E+00
    0.69311E-04         0.15885E-04         0.00000E+00
    0.68897E-04         0.15881E-04         0.00000E+00
    0.68408E-04         0.15868E-04         0.00000E+00
    0.67843E-04         0.15844E-04         0.00000E+00
    0.67203E-04         0.15809E-04         0.00000E+00
    0.66490E-04         0.15763E-04         0.00000E+00
    0.65703E-04         0.15703E-04         0.00000E+00
    0.64843E-04         0.15630E-04         0.00000E+00
    0.63911E-04         0.15543E-04         0.00000E+00
    0.62907E-04         0.15440E-04         0.00000E+00
    0.61833E-04         0.15321E-04         0.00000E+00
    0.60689E-04         0.15185E-04         0.00000E+00
    0.59476E-04         0.15031E-04         0.00000E+00
    0.58195E-04         0.14859E-04         0.00000E+00
    0.56847E-04         0.14667E-04         0.00000E+00
    0.55433E-04         0.14456E-04         0.00000E+00
    0.53954E-04         0.14223E-04         0.00000E+00
    0.52412E-04         0.13970E-04         0.00000E+00
    0.50807E-04         0.13694E-04         0.00000E+00
    0.49140E-04         0.13395E-04         0.00000E+00
    0.47414E-04         0.13073E-04         0.00000E+00
    0.45629E-04         0.12727E-04         0.00000E+00
    0.43787E-04         0.12356E-04         0.00000E+00
    0.41889E-04         0.11960E-04         0.00000E+00
    0.39936E-04         0.11538E-04         0.00000E+00
    0.37930E-04         0.11090E-04         0.00000E+00
    0.35873E-04         0.10615E-04         0.00000E+00
    0.33767E-04         0.10112E-04         0.00000E+00
    0.31611E-04         0.95819E-05         0.00000E+00
    0.29410E-04         0.90235E-05         0.00000E+00
    0.27163E-04         0.84364E-05         0.00000E+00
    0.24873E-04         0.78203E-05         0.00000E+00
    0.22542E-04         0.71749E-05         0.00000E+00
    0.20171E-04         0.64997E-05         0.00000E+00
    0.17763E-04         0.57946E-05         0.00000E+00
    0.15318E-04         0.50592E-05         0.00000E+00
    0.12839E-04         0.42933E-05         0.00000E+00
    0.10328E-04         0.34967E-05         0.00000E+00
    0.77864E-05         0.26692E-05         0.00000E+00
    0.52167E-05         0.18107E-05         0.00000E+00
    0.26205E-05         0.92096E-06         0.00000E+00
    0.00000E+00         0.00000E+00         0.00000E+00
    0.78520E-04         0.17305E-04         0.00000E+00
    0.78823E-04         0.17350E-04         0.00000E+00
    0.79039E-04         0.17394E-04         0.00000E+00
    0.79170E-04         0.17436E-04         0.00000E+00
    0.79214E-04         0.17474E-04         0.00000E+00
    0.79171E-04         0.17509E-04         0.00000E+00
    0.79042E-04         0.17538E-04         0.00000E+00
    0.78827E-04         0.17561E-04         0.00000E+00
    0.78526E-04         0.17577E-04         0.00000E+00
    0.78139E-04         0.17584E-04         0.00000E+00
    0.77667E-04         0.17582E-04         0.00000E+00
    0.77110E-04         0.17570E-04         0.00000E+00
    0.76469E-04         0.17547E-04         0.00000E+00
    0.75743E-04         0.17511E-04         0.00000E+00
    0.74935E-04         0.17462E-04         0.00000E+00
    0.74043E-04         0.17398E-04         0.00000E+00
    0.73070E-04         0.17320E-04         0.00000E+00
    0.72016E-04         0.17225E-04         0.00000E+00
    0.70881E-04         0.17113E-04         0.00000E+00
    0.69667E-04         0.16983E-04         0.00000E+00
    0.68375E-04         0.16834E-04         0.00000E+00
    0.67005E-04         0.16666E-04         0.00000E+00
    0.65559E-04         0.16477E-04         0.00000E+00
    0.64037E-04         0.16266E-04         0.00000E+00
    0.62442E-04         0.16033E-04         0.00000E+00
    0.60773E-04         0.15777E-04         0.00000E+00
    0.59033E-04         0.15497E-04         0.00000E+00
    0.57223E-04         0.15192E-04         0.00000E+00
    0.55345E-04         0.14862E-04         0.00000E+00
    0.53398E-04         0.14506E-04         0.00000E+00
    0.51386E-04         0.14123E-04         0.00000E+00
    0.49310E-04         0.13713E-04         0.00000E+00
    0.47171E-04         0.13274E-04         0.00000E+00
    0.44971E-04         0.12807E-04         0.00000E+00
    0.42711E-04         0.12310E-04         0.00000E+00
    0.40393E-04         0.11784E-04         0.00000E+00
    0.38020E-04         0.11227E-04         0.00000E+00
    0.35593E-04         0.10639E-04         0.00000E+00
    0.33113E-04         0.10020E-04         0.00000E+00
    0.30583E-04         0.93684E-05         0.00000E+00
    0.28004E-04         0.86848E-05         0.00000E+00
    0.25379E-04         0.79685E-05         0.00000E+00
    0.22709E-04         0.72191E-05         0.00000E+00
    0.19997E-04         0.64363E-05         0.00000E+00
    0.17245E-04         0.56198E-05         0.00000E+00
    0.14454E-04         0.47693E-05         0.00000E+00
    0.11627E-04         0.38846E-05         0.00000E+00
    0.87655E-05         0.29655E-05         0.00000E+00
    0.58725E-05         0.20118E-05         0.00000E+00
    0.29500E-05         0.10233E-05         0.00000E+00
    0.00000E+00         0.00000E+00         0.00000E+00
    0.88499E-04         0.19124E-04         0.00000E+00
    0.88832E-04         0.19177E-04         0.00000E+00
    0.89068E-04         0.19230E-04         0.00000E+00
    0.89207E-04         0.19280E-04         0.00000E+00
    0.89249E-04         0.19326E-04         0.00000E+00
    0.89194E-04         0.19368E-04         0.00000E+00
    0.89041E-04         0.19404E-04         0.00000E+00
    0.88792E-04         0.19433E-04         0.00000E+00
    0.88446E-04         0.19454E-04         0.00000E+00
    0.88004E-04         0.19465E-04         0.00000E+00
    0.87466E-04         0.19467E-04         0.00000E+00
    0.86833E-04         0.19456E-04         0.00000E+00
    0.86105E-04         0.19433E-04         0.00000E+00
    0.85283E-04         0.19397E-04         0.00000E+00
    0.84367E-04         0.19345E-04         0.00000E+00
    0.83358E-04         0.19278E-04         0.00000E+00
    0.82258E-04         0.19194E-04         0.00000E+00
    0.81066E-04         0.19091E-04         0.00000E+00
    0.79785E-04         0.18970E-04         0.00000E+00
    0.78414E-04         0.18828E-04         0.00000E+00
    0.76955E-04         0.18666E-04         0.00000E+00
    0.75409E-04         0.18481E-04         0.00000E+00
    0.73778E-04         0.18273E-04         0.00000E+00
    0.72062E-04         0.18042E-04         0.00000E+00
    0.70264E-04         0.17785E-04         0.00000E+00
    0.68383E-04         0.17503E-04         0.00000E+00
    0.66423E-04         0.17194E-04         0.00000E+00
    0.64384E-04         0.16858E-04         0.00000E+00
    0.62267E-04         0.16494E-04         0.00000E+00
    0.60075E-04         0.16100E-04         0.00000E+00
    0.57809E-04         0.15676E-04         0.00000E+00
    0.55471E-04         0.15222E-04         0.00000E+00
    0.53063E-04         0.14736E-04         0.00000E+00
    0.50586E-04         0.14219E-04         0.00000E+00
    0.48043E-04         0.13669E-04         0.00000E+00
    0.45435E-04         0.13085E-04         0.00000E+00
    0.42764E-04         0.12467E-04         0.00000E+00
    0.40033E-04         0.11815E-04         0.00000E+00
    0.37243E-04         0.11128E-04         0.00000E+00
    0.34396E-04         0.10406E-04         0.00000E+00
    0.31495E-04         0.96471E-05         0.00000E+00
    0.28542E-04         0.88520E-05         0.00000E+00
    0.25539E-04         0.80200E-05         0.00000E+00
    0.22489E-04         0.71509E-05         0.00000E+00
    0.19393E-04         0.62441E-05         0.00000E+00
    0.16254E-04         0.52994E-05         0.00000E+00
    0.13075E-04         0.43167E-05         0.00000E+00
    0.98571E-05         0.32955E-05         0.00000E+00
    0.66038E-05         0.22358E-05         0.00000E+00
    0.33173E-05         0.11373E-05         0.00000E+00
    0.00000E+00         0.00000E+00         0.00000E+00
    0.99669E-04         0.21127E-04         0.00000E+00
    0.10003E-03         0.21191E-04         0.00000E+00
    0.10029E-03         0.21253E-04         0.00000E+00
    0.10044E-03         0.21313E-04         0.00000E+00
    0.10048E-03         0.21369E-04         0.00000E+00
    0.10040E-03         0.21419E-04         0.00000E+00
    0.10022E-03         0.21463E-04         0.00000E+00
    0.99936E-04         0.21500E-04         0.00000E+00
    0.99539E-04         0.21527E-04         0.00000E+00
    0.99033E-04         0.21544E-04         0.00000E+00
    0.98421E-04         0.21549E-04         0.00000E+00
    0.97701E-04         0.21541E-04         0.00000E+00
    0.96875E-04         0.21520E-04         0.00000E+00
    0.95943E-04         0.21483E-04         0.00000E+00
    0.94907E-04         0.21429E-04         0.00000E+00
    0.93766E-04         0.21358E-04         0.00000E+00
    0.92522E-04         0.21268E-04         0.00000E+00
    0.91176E-04         0.21157E-04         0.00000E+00
    0.89730E-04         0.21026E-04         0.00000E+00
    0.88183E-04         0.20872E-04         0.00000E+00
    0.86538E-04         0.20694E-04         0.00000E+00
    0.84795E-04         0.20492E-04         0.00000E+00
    0.82956E-04         0.20265E-04         0.00000E+00
    0.81023E-04         0.20010E-04         0.00000E+00
    0.78997E-04         0.19728E-04         0.00000E+00
    0.76879E-04         0.19418E-04         0.00000E+00
    0.74672E-04         0.19077E-04         0.00000E+00
    0.72376E-04         0.18706E-04         0.00000E+00
    0.69994E-04         0.18303E-04         0.00000E+00
    0.67527E-04         0.17868E-04         0.00000E+00
    0.64978E-04         0.17400E-04         0.00000E+00
    0.62348E-04         0.16897E-04         0.00000E+00
    0.59639E-04         0.16360E-04         0.00000E+00
    0.56853E-04         0.15786E-04         0.00000E+00
    0.53993E-04         0.15177E-04         0.00000E+00
    0.51060E-04         0.14530E-04         0.00000E+00
    0.48058E-04         0.13845E-04         0.00000E+00
    0.44987E-04         0.13122E-04         0.00000E+00
    0.41850E-04         0.12360E-04         0.00000E+00
    0.38651E-04         0.11558E-04         0.00000E+00
    0.35390E-04         0.10716E-04         0.00000E+00
    0.32071E-04         0.98339E-05         0.00000E+00
    0.28696E-04         0.89103E-05         0.00000E+00
    0.25268E-04         0.79451E-05         0.00000E+00
    0.21789E-04         0.69381E-05         0.00000E+00
    0.18262E-04         0.58889E-05         0.00000E+00
    0.14690E-04         0.47971E-05         0.00000E+00
    0.11075E-04         0.36625E-05         0.00000E+00
    0.74194E-05         0.24849E-05         0.00000E+00
    0.37269E-05         0.12641E-05         0.00000E+00
    0.00000E+00         0.00000E+00         0.00000E+00
    0.11217E-03         0.23328E-04         0.00000E+00
    0.11257E-03         0.23404E-04         0.00000E+00
    0.11285E-03         0.23478E-04         0.00000E+00
    0.11301E-03         0.23549E-04         0.00000E+00
    0.11304E-03         0.23616E-04         0.00000E+00
    0.11295E-03         0.23677E-04         0.00000E+00
    0.11274E-03         0.23731E-04         0.00000E+00
    0.11240E-03         0.23776E-04         0.00000E+00
    0.11194E-03         0.23811E-04         0.00000E+00
    0.11137E-03         0.23834E-04         0.00000E+00
    0.11067E-03         0.23845E-04         0.00000E+00
    0.10985E-03         0.23841E-04         0.00000E+00
    0.10892E-03         0.23822E-04         0.00000E+00
    0.10786E-03         0.23785E-04         0.00000E+00
    0.10669E-03         0.23730E-04         0.00000E+00
    0.10540E-03         0.23655E-04         0.00000E+00
    0.10399E-03         0.23559E-04         0.00000E+00
    0.10247E-03         0.23440E-04         0.00000E+00
    0.10084E-03         0.23298E-04         0.00000E+00
    0.99097E-04         0.23131E-04         0.00000E+00
    0.97242E-04         0.22938E-04         0.00000E+00
    0.95279E-04         0.22717E-04         0.00000E+00
    0.93208E-04         0.22467E-04         0.00000E+00
    0.91031E-04         0.22188E-04         0.00000E+00
    0.88750E-04         0.21878E-04         0.00000E+00
    0.86366E-04         0.21536E-04         0.00000E+00
    0.83882E-04         0.21161E-04         0.00000E+00
    0.81300E-04         0.20752E-04         0.00000E+00
    0.78620E-04         0.20307E-04         0.00000E+00
    0.75847E-04         0.19827E-04         0.00000E+00
    0.72980E-04         0.19309E-04         0.00000E+00
    0.70023E-04         0.18753E-04         0.00000E+00
    0.66978E-04         0.18158E-04         0.00000E+00
    0.63848E-04         0.17524E-04         0.00000E+00
    0.60633E-04         0.16848E-04         0.00000E+00
    0.57338E-04         0.16132E-04         0.00000E+00
    0.53964E-04         0.15373E-04         0.00000E+00
    0.50515E-04         0.14571E-04         0.00000E+00
    0.46992E-04         0.13726E-04         0.00000E+00
    0.43398E-04         0.12837E-04         0.00000E+00
    0.39736E-04         0.11903E-04         0.00000E+00
    0.36008E-04         0.10923E-04         0.00000E+00
    0.32218E-04         0.98981E-05         0.00000E+00
    0.28369E-04         0.88266E-05         0.00000E+00
    0.24463E-04         0.77084E-05         0.00000E+00
    0.20503E-04         0.65431E-05         0.00000E+00
    0.16492E-04         0.53304E-05         0.00000E+00
    0.12433E-04         0.40699E-05         0.00000E+00
    0.83292E-05         0.27615E-05         0.00000E+00
    0.41839E-05         0.14049E-05         0.00000E+00
    0.00000E+00         0.00000E+00         0.00000E+00
    0.12618E-03         0.25740E-04         0.00000E+00
    0.12662E-03         0.25830E-04         0.00000E+00
    0.12691E-03         0.25918E-04         0.00000E+00
    0.12708E-03         0.26003E-04         0.00000E+00
    0.12710E-03         0.26083E-04         0.00000E+00
    0.12698E-03         0.26156E-04         0.00000E+00
    0.12673E-03         0.26222E-04         0.00000E+00
    0.12635E-03         0.26278E-04         0.00000E+00
    0.12582E-03         0.26322E-04         0.00000E+00
    0.12516E-03         0.26354E-04         0.00000E+00
    0.12437E-03         0.26371E-04         0.00000E+00
    0.12344E-03         0.26372E-04         0.00000E+00
    0.12238E-03         0.26356E-04         0.00000E+00
    0.12118E-03         0.26320E-04         0.00000E+00
    0.11986E-03         0.26264E-04         0.00000E+00
    0.11840E-03         0.26186E-04         0.00000E+00
    0.11681E-03         0.26084E-04         0.00000E+00
    0.11510E-03         0.25957E-04         0.00000E+00
    0.11326E-03         0.25804E-04         0.00000E+00
    0.11129E-03         0.25623E-04         0.00000E+00
    0.10920E-03         0.25413E-04         0.00000E+00
    0.10699E-03         0.25172E-04         0.00000E+00
    0.10466E-03         0.24899E-04         0.00000E+00
    0.10221E-03         0.24594E-04         0.00000E+00
    0.99642E-04         0.24253E-04         0.00000E+00
    0.96961E-04         0.23877E-04         0.00000E+00
    0.94168E-04         0.23464E-04         0.00000E+00
    0.91264E-04         0.23013E-04         0.00000E+00
    0.88252E-04         0.22523E-04         0.00000E+00
    0.85134E-04         0.21992E-04         0.00000E+00
    0.81913E-04         0.21420E-04         0.00000E+00
    0.78591E-04         0.20806E-04         0.00000E+00
    0.75171E-04         0.20148E-04         0.00000E+00
    0.71655E-04         0.19446E-04         0.00000E+00
    0.68045E-04         0.18698E-04         0.00000E+00
    0.64345E-04         0.17905E-04         0.00000E+00
    0.60557E-04         0.17064E-04         0.00000E+00
    0.56684E-04         0.16176E-04         0.00000E+00
    0.52729E-04         0.15239E-04         0.00000E+00
    0.48695E-04         0.14253E-04         0.00000E+00
    0.44585E-04         0.13217E-04         0.00000E+00
    0.40401E-04         0.12130E-04         0.00000E+00
    0.36148E-04         0.10992E-04         0.00000E+00
    0.31829E-04         0.98032E-05         0.00000E+00
    0.27445E-04         0.85619E-05         0.00000E+00
    0.23002E-04         0.72681E-05         0.00000E+00
    0.18502E-04         0.59214E-05         0.00000E+00
    0.13948E-04         0.45215E-05         0.00000E+00
    0.93442E-05         0.30681E-05         0.00000E+00
    0.46937E-05         0.15610E-05         0.00000E+00
    0.00000E+00         0.00000E+00         0.00000E+00
    0.14187E-03         0.28375E-04         0.00000E+00
    0.14234E-03         0.28482E-04         0.00000E+00
    0.14266E-03         0.28587E-04         0.00000E+00
    0.14282E-03         0.28688E-04         0.00000E+00
    0.14284E-03         0.28784E-04         0.00000E+00
    0.14269E-03         0.28873E-04         0.00000E+00
    0.14240E-03         0.28952E-04         0.00000E+00
    0.14195E-03         0.29021E-04         0.00000E+00
    0.14135E-03         0.29077E-04         0.00000E+00
    0.14059E-03         0.29119E-04         0.00000E+00
    0.13969E-03         0.29144E-04         0.00000E+00
    0.13863E-03         0.29152E-04         0.00000E+00
    0.13743E-03         0.29140E-04         0.00000E+00
    0.13608E-03         0.29107E-04         0.00000E+00
    0.13458E-03         0.29050E-04         0.00000E+00
    0.13293E-03         0.28970E-04         0.00000E+00
    0.13114E-03         0.28863E-04         0.00000E+00
    0.12921E-03         0.28728E-04         0.00000E+00
    0.12713E-03         0.28563E-04         0.00000E+00
    0.12492E-03         0.28368E-04         0.00000E+00
    0.12256E-03         0.28139E-04         0.00000E+00
    0.12007E-03         0.27877E-04         0.00000E+00
    0.11745E-03         0.27579E-04         0.00000E+00
    0.11469E-03         0.27245E-04         0.00000E+00
    0.11181E-03         0.26872E-04         0.00000E+00
    0.10879E-03         0.26459E-04         0.00000E+00
    0.10565E-03         0.26004E-04         0.00000E+00
    0.10239E-03         0.25508E-04         0.00000E+00
    0.99006E-04         0.24968E-04         0.00000E+00
    0.95504E-04         0.24382E-04         0.00000E+00
    0.91886E-04         0.23751E-04         0.00000E+00
    0.88156E-04         0.23072E-04         0.00000E+00
    0.84316E-04         0.22345E-04         0.00000E+00
    0.80368E-04         0.21569E-04         0.00000E+00
    0.76317E-04         0.20742E-04         0.00000E+00
    0.72164E-04         0.19864E-04         0.00000E+00
    0.67914E-04         0.18933E-04         0.00000E+00
    0.63568E-04         0.17949E-04         0.00000E+00
    0.59131E-04         0.16911E-04         0.00000E+00
    0.54605E-04         0.15818E-04         0.00000E+00
    0.49995E-04         0.14670E-04         0.00000E+00
    0.45303E-04         0.13465E-04         0.00000E+00
    0.40533E-04         0.12203E-04         0.00000E+00
    0.35689E-04         0.10884E-04         0.00000E+00
    0.30773E-04         0.95063E-05         0.00000E+00
    0.25791E-04         0.80704E-05         0.00000E+00
    0.20744E-04         0.65756E-05         0.00000E+00
    0.15638E-04         0.50214E-05         0.00000E+00
    0.10476E-04         0.34076E-05         0.00000E+00
    0.52624E-05         0.17339E-05         0.00000E+00
    0.00000E+00         0.00000E+00         0.00000E+00
    0.15943E-03         0.31248E-04         0.00000E+00
    0.15995E-03         0.31374E-04         0.00000E+00
    0.16029E-03         0.31499E-04         0.00000E+00
    0.16045E-03         0.31620E-04         0.00000E+00
    0.16045E-03         0.31734E-04         0.00000E+00
    0.16027E-03         0.31840E-04         0.00000E+00
    0.15992E-03         0.31937E-04         0.00000E+00
    0.15940E-03         0.32021E-04         0.00000E+00
    0.15871E-03         0.32091E-04         0.00000E+00
    0.15785E-03         0.32145E-04         0.00000E+00
    0.15682E-03         0.32181E-04         0.00000E+00
    0.15562E-03         0.32197E-04         0.00000E+00
    0.15426E-03         0.32192E-04         0.00000E+00
    0.15273E-03         0.32162E-04         0.00000E+00
    0.15103E-03         0.32107E-04         0.00000E+00
    0.14917E-03         0.32025E-04         0.00000E+00
    0.14715E-03         0.31913E-04         0.00000E+00
    0.14497E-03         0.31770E-04         0.00000E+00
    0.14263E-03         0.31594E-04         0.00000E+00
    0.14014E-03         0.31383E-04         0.00000E+00
    0.13749E-03         0.31137E-04         0.00000E+00
    0.13469E-03         0.30852E-04         0.00000E+00
    0.13173E-03         0.30527E-04         0.00000E+00
    0.12863E-03         0.30162E-04         0.00000E+00
    0.12539E-03         0.29753E-04         0.00000E+00
    0.12200E-03         0.29300E-04         0.00000E+00
    0.11848E-03         0.28802E-04         0.00000E+00
    0.11481E-03         0.28256E-04         0.00000E+00
    0.11101E-03         0.27661E-04         0.00000E+00
    0.10708E-03         0.27016E-04         0.00000E+00
    0.10302E-03         0.26320E-04         0.00000E+00
    0.98831E-04         0.25571E-04         0.00000E+00
    0.94522E-04         0.24768E-04         0.00000E+00
    0.90093E-04         0.23910E-04         0.00000E+00
    0.85548E-04         0.22996E-04         0.00000E+00
    0.80890E-04         0.22025E-04         0.00000E+00
    0.76123E-04         0.20995E-04         0.00000E+00
    0.71249E-04         0.19906E-04         0.00000E+00
    0.66274E-04         0.18757E-04         0.00000E+00
    0.61200E-04         0.17546E-04         0.00000E+00
    0.56031E-04         0.16274E-04         0.00000E+00
    0.50771E-04         0.14939E-04         0.00000E+00
    0.45424E-04         0.13540E-04         0.00000E+00
    0.39994E-04         0.12077E-04         0.00000E+00
    0.34485E-04         0.10550E-04         0.00000E+00
    0.28901E-04         0.89570E-05         0.00000E+00
    0.23246E-04         0.72985E-05         0.00000E+00
    0.17524E-04         0.55739E-05         0.00000E+00
    0.11739E-04         0.37828E-05         0.00000E+00
    0.58967E-05         0.19249E-05         0.00000E+00
    0.00000E+00         0.00000E+00         0.00000E+00
    0.17911E-03         0.34369E-04         0.00000E+00
    0.17966E-03         0.34519E-04         0.00000E+00
    0.18002E-03         0.34667E-04         0.00000E+00
    0.18019E-03         0.34811E-04         0.00000E+00
    0.18016E-03         0.34947E-04         0.00000E+00
    0.17994E-03         0.35075E-04         0.00000E+00
    0.17953E-03         0.35191E-04         0.00000E+00
    0.17893E-03         0.35294E-04         0.00000E+00
    0.17813E-03         0.35382E-04         0.00000E+00
    0.17715E-03         0.35451E-04         0.00000E+00
    0.17598E-03         0.35500E-04         0.00000E+00
    0.17462E-03         0.35527E-04         0.00000E+00
    0.17307E-03         0.35529E-04         0.00000E+00
    0.17134E-03         0.35506E-04         0.00000E+00
    0.16942E-03         0.35453E-04         0.00000E+00
    0.16732E-03         0.35370E-04         0.00000E+00
    0.16504E-03         0.35254E-04         0.00000E+00
    0.16258E-03         0.35104E-04         0.00000E+00
    0.15995E-03         0.34917E-04         0.00000E+00
    0.15714E-03         0.34691E-04         0.00000E+00
    0.15416E-03         0.34425E-04         0.00000E+00
    0.15101E-03         0.34116E-04         0.00000E+00
    0.14769E-03         0.33763E-04         0.00000E+00
    0.14420E-03         0.33365E-04         0.00000E+00
    0.14056E-03         0.32918E-04         0.00000E+00
    0.13675E-03         0.32423E-04         0.00000E+00
    0.13279E-03         0.31876E-04         0.00000E+00
    0.12868E-03         0.31276E-04         0.00000E+00
    0.12441E-03         0.30623E-04         0.00000E+00
    0.12000E-03         0.29913E-04         0.00000E+00
    0.11544E-03         0.29146E-04         0.00000E+00
    0.11074E-03         0.28321E-04         0.00000E+00
    0.10591E-03         0.27435E-04         0.00000E+00
    0.10094E-03         0.26488E-04         0.00000E+00
    0.95847E-04         0.25479E-04         0.00000E+00
    0.90625E-04         0.24405E-04         0.00000E+00
    0.85280E-04         0.23267E-04         0.00000E+00
    0.79818E-04         0.22062E-04         0.00000E+00
    0.74242E-04         0.20791E-04         0.00000E+00
    0.68556E-04         0.19451E-04         0.00000E+00
    0.62764E-04         0.18042E-04         0.00000E+00
    0.56870E-04         0.16564E-04         0.00000E+00
    0.50880E-04         0.15014E-04         0.00000E+00
    0.44796E-04         0.13393E-04         0.00000E+00
    0.38625E-04         0.11701E-04         0.00000E+00
    0.32370E-04         0.99350E-05         0.00000E+00
    0.26035E-04         0.80962E-05         0.00000E+00
    0.19626E-04         0.61837E-05         0.00000E+00
    0.13148E-04         0.41970E-05         0.00000E+00
    0.66040E-05         0.21359E-05         0.00000E+00
    0.00000E+00         0.00000E+00         0.00000E+00
    0.20113E-03         0.37750E-04         0.00000E+00
    0.20173E-03         0.37928E-04         0.00000E+00
    0.20211E-03         0.38104E-04         0.00000E+00
    0.20227E-03         0.38274E-04         0.00000E+00
    0.20222E-03         0.38437E-04         0.00000E+00
    0.20195E-03         0.38590E-04         0.00000E+00
    0.20146E-03         0.38731E-04         0.00000E+00
    0.20076E-03         0.38856E-04         0.00000E+00
    0.19985E-03         0.38964E-04         0.00000E+00
    0.19873E-03         0.39052E-04         0.00000E+00
    0.19739E-03         0.39117E-04         0.00000E+00
    0.19585E-03         0.39158E-04         0.00000E+00
    0.19409E-03         0.39171E-04         0.00000E+00
    0.19213E-03         0.39155E-04         0.00000E+00
    0.18997E-03         0.39107E-04         0.00000E+00
    0.18760E-03         0.39025E-04         0.00000E+00
    0.18502E-03         0.38906E-04         0.00000E+00
    0.18225E-03         0.38749E-04         0.00000E+00
    0.17929E-03         0.38551E-04         0.00000E+00
    0.17612E-03         0.38311E-04         0.00000E+00
    0.17277E-03         0.38024E-04         0.00000E+00
    0.16923E-03         0.37691E-04         0.00000E+00
    0.16550E-03         0.37309E-04         0.00000E+00
    0.16158E-03         0.36875E-04         0.00000E+00
    0.15749E-03         0.36389E-04         0.00000E+00
    0.15321E-03         0.35847E-04         0.00000E+00
    0.14877E-03         0.35248E-04         0.00000E+00
    0.14415E-03         0.34591E-04         0.00000E+00
    0.13936E-03         0.33873E-04         0.00000E+00
    0.13441E-03         0.33093E-04         0.00000E+00
    0.12930E-03         0.32250E-04         0.00000E+00
    0.12403E-03         0.31341E-04         0.00000E+00
    0.11862E-03         0.30365E-04         0.00000E+00
    0.11305E-03         0.29321E-04         0.00000E+00
    0.10734E-03         0.28207E-04         0.00000E+00
    0.10148E-03         0.27022E-04         0.00000E+00
    0.95494E-04         0.25765E-04         0.00000E+00
    0.89374E-04         0.24434E-04         0.00000E+00
    0.83127E-04         0.23028E-04         0.00000E+00
    0.76758E-04         0.21547E-04         0.00000E+00
    0.70271E-04         0.19989E-04         0.00000E+00
    0.63671E-04         0.18352E-04         0.00000E+00
    0.56962E-04         0.16637E-04         0.00000E+00
    0.50151E-04         0.14843E-04         0.00000E+00
    0.43240E-04         0.12968E-04         0.00000E+00
    0.36237E-04         0.11012E-04         0.00000E+00
    0.29145E-04         0.89750E-05         0.00000E+00
    0.21970E-04         0.68555E-05         0.00000E+00
    0.14718E-04         0.46534E-05         0.00000E+00
    0.73925E-05         0.23684E-05         0.00000E+00
    0.00000E+00         0.00000E+00         0.00000E+00
    0.22580E-03         0.41400E-04         0.00000E+00
    0.22643E-03         0.41611E-04         0.00000E+00
    0.22683E-03         0.41819E-04         0.00000E+00
    0.22698E-03         0.42022E-04         0.00000E+00
    0.22689E-03         0.42216E-04         0.00000E+00
    0.22656E-03         0.42399E-04         0.00000E+00
    0.22599E-03         0.42568E-04         0.00000E+00
    0.22518E-03         0.42720E-04         0.00000E+00
    0.22413E-03         0.42853E-04         0.00000E+00
    0.22285E-03         0.42963E-04         0.00000E+00
    0.22133E-03         0.43049E-04         0.00000E+00
    0.21957E-03         0.43107E-04         0.00000E+00
    0.21759E-03         0.43134E-04         0.00000E+00
    0.21537E-03         0.43129E-04         0.00000E+00
    0.21292E-03         0.43088E-04         0.00000E+00
    0.21024E-03         0.43009E-04         0.00000E+00
    0.20734E-03         0.42889E-04         0.00000E+00
    0.20422E-03         0.42727E-04         0.00000E+00
    0.20088E-03         0.42519E-04         0.00000E+00
    0.19732E-03         0.42263E-04         0.00000E+00
    0.19355E-03         0.41957E-04         0.00000E+00
    0.18956E-03         0.41598E-04         0.00000E+00
    0.18537E-03         0.41185E-04         0.00000E+00
    0.18098E-03         0.40715E-04         0.00000E+00
    0.17638E-03         0.40185E-04         0.00000E+00
    0.17158E-03         0.39594E-04         0.00000E+00
    0.16659E-03         0.38940E-04         0.00000E+00
    0.16141E-03         0.38221E-04         0.00000E+00
    0.15604E-03         0.37434E-04         0.00000E+00
    0.15049E-03         0.36579E-04         0.00000E+00
    0.14476E-03         0.35652E-04         0.00000E+00
    0.13886E-03         0.34653E-04         0.00000E+00
    0.13278E-03         0.33579E-04         0.00000E+00
    0.12654E-03         0.32429E-04         0.00000E+00
    0.12014E-03         0.31201E-04         0.00000E+00
    0.11359E-03         0.29895E-04         0.00000E+00
    0.10688E-03         0.28508E-04         0.00000E+00
    0.10003E-03         0.27038E-04         0.00000E+00
    0.93033E-04         0.25486E-04         0.00000E+00
    0.85902E-04         0.23849E-04         0.00000E+00
    0.78640E-04         0.22127E-04         0.00000E+00
    0.71251E-04         0.20318E-04         0.00000E+00
    0.63742E-04         0.18422E-04         0.00000E+00
    0.56118E-04         0.16437E-04         0.00000E+00
    0.48385E-04         0.14362E-04         0.00000E+00
    0.40547E-04         0.12197E-04         0.00000E+00
    0.32611E-04         0.99417E-05         0.00000E+00
    0.24583E-04         0.75947E-05         0.00000E+00
    0.16467E-04         0.51557E-05         0.00000E+00
    0.82711E-05         0.26242E-05         0.00000E+00
    0.00000E+00         0.00000E+00         0.00000E+00
    0.25340E-03         0.45325E-04         0.00000E+00
    0.25407E-03         0.45576E-04         0.00000E+00
    0.25448E-03         0.45822E-04         0.00000E+00
    0.25462E-03         0.46063E-04         0.00000E+00
    0.25449E-03         0.46294E-04         0.00000E+00
    0.25408E-03         0.46513E-04         0.00000E+00
    0.25341E-03         0.46716E-04         0.00000E+00
    0.25248E-03         0.46900E-04         0.00000E+00
    0.25127E-03         0.47063E-04         0.00000E+00
    0.24980E-03         0.47200E-04         0.00000E+00
    0.24807E-03         0.47310E-04         0.00000E+00
    0.24608E-03         0.47390E-04         0.00000E+00
    0.24383E-03         0.47435E-04         0.00000E+00
    0.24132E-03         0.47444E-04         0.00000E+00
    0.23855E-03         0.47413E-04         0.00000E+00
    0.23553E-03         0.47340E-04         0.00000E+00
    0.23226E-03         0.47222E-04         0.00000E+00
    0.22874E-03         0.47055E-04         0.00000E+00
    0.22498E-03         0.46839E-04         0.00000E+00
    0.22098E-03         0.46569E-04         0.00000E+00
    0.21674E-03         0.46243E-04         0.00000E+00
    0.21226E-03         0.45858E-04         0.00000E+00
    0.20755E-03         0.45413E-04         0.00000E+00
    0.20261E-03         0.44904E-04         0.00000E+00
    0.19745E-03         0.44330E-04         0.00000E+00
    0.19207E-03         0.43687E-04         0.00000E+00
    0.18647E-03         0.42974E-04         0.00000E+00
    0.18066E-03         0.42188E-04         0.00000E+00
    0.17464E-03         0.41328E-04         0.00000E+00
    0.16842E-03         0.40390E-04         0.00000E+00
    0.16200E-03         0.39374E-04         0.00000E+00
    0.15538E-03         0.38276E-04         0.00000E+00
    0.14858E-03         0.37096E-04         0.00000E+00
    0.14159E-03         0.35832E-04         0.00000E+00
    0.13442E-03         0.34481E-04         0.00000E+00
    0.12708E-03         0.33042E-04         0.00000E+00
    0.11957E-03         0.31513E-04         0.00000E+00
    0.11190E-03         0.29893E-04         0.00000E+00
    0.10407E-03         0.28181E-04         0.00000E+00
    0.96091E-04         0.26374E-04         0.00000E+00
    0.87964E-04         0.24473E-04         0.00000E+00
    0.79697E-04         0.22475E-04         0.00000E+00
    0.71296E-04         0.20380E-04         0.00000E+00
    0.62767E-04         0.18186E-04         0.00000E+00
    0.54116E-04         0.15892E-04         0.00000E+00
    0.45349E-04         0.13498E-04         0.00000E+00
    0.36472E-04         0.11003E-04         0.00000E+00
    0.27493E-04         0.84067E-05         0.00000E+00
    0.18416E-04         0.57075E-05         0.00000E+00
    0.92500E-05         0.29054E-05         0.00000E+00
    0.00000E+00         0.00000E+00         0.00000E+00
    0.28428E-03         0.49530E-04         0.00000E+00
    0.28500E-03         0.49826E-04         0.00000E+00
    0.28541E-03         0.50118E-04         0.00000E+00
    0.28553E-03         0.50403E-04         0.00000E+00
    0.28534E-03         0.50678E-04         0.00000E+00
    0.28485E-03         0.50939E-04         0.00000E+00
    0.28406E-03         0.51183E-04         0.00000E+00
    0.28298E-03         0.51406E-04         0.00000E+00
    0.28159E-03         0.51604E-04         0.00000E+00
    0.27992E-03         0.51775E-04         0.00000E+00
    0.27794E-03         0.51915E-04         0.00000E+00
    0.27568E-03         0.52020E-04         0.00000E+00
    0.27313E-03         0.52088E-04         0.00000E+00
    0.27029E-03         0.52116E-04         0.00000E+00
    0.26716E-03         0.52099E-04         0.00000E+00
    0.26376E-03         0.52035E-04         0.00000E+00
    0.26007E-03         0.51921E-04         0.00000E+00
    0.25611E-03         0.51754E-04         0.00000E+00
    0.25187E-03         0.51530E-04         0.00000E+00
    0.24737E-03         0.51247E-04         0.00000E+00
    0.24260E-03         0.50902E-04         0.00000E+00
    0.23757E-03         0.50492E-04         0.00000E+00
    0.23228E-03         0.50014E-04         0.00000E+00
    0.22674E-03         0.49466E-04         0.00000E+00
    0.22094E-03         0.48844E-04         0.00000E+00
    0.21491E-03         0.48147E-04         0.00000E+00
    0.20863E-03         0.47371E-04         0.00000E+00
    0.20211E-03         0.46515E-04         0.00000E+00
    0.19537E-03         0.45575E-04         0.00000E+00
    0.18840E-03         0.44550E-04         0.00000E+00
    0.18120E-03         0.43437E-04         0.00000E+00
    0.17379E-03         0.42234E-04         0.00000E+00
    0.16618E-03         0.40939E-04         0.00000E+00
    0.15835E-03         0.39550E-04         0.00000E+00
    0.15033E-03         0.38065E-04         0.00000E+00
    0.14211E-03         0.36482E-04         0.00000E+00
    0.13371E-03         0.34800E-04         0.00000E+00
    0.12513E-03         0.33016E-04         0.00000E+00
    0.11637E-03         0.31129E-04         0.00000E+00
    0.10744E-03         0.29138E-04         0.00000E+00
    0.98350E-04         0.27041E-04         0.00000E+00
    0.89104E-04         0.24837E-04         0.00000E+00
    0.79709E-04         0.22524E-04         0.00000E+00
    0.70171E-04         0.20102E-04         0.00000E+00
    0.60498E-04         0.17569E-04         0.00000E+00
    0.50696E-04         0.14924E-04         0.00000E+00
    0.40772E-04         0.12167E-04         0.00000E+00
    0.30733E-04         0.92970E-05         0.00000E+00
    0.20587E-04         0.63127E-05         0.00000E+00
    0.10340E-04         0.32139E-05         0.00000E+00
    0.00000E+00         0.00000E+00         0.00000E+00
    0.31882E-03         0.54011E-04         0.00000E+00
    0.31958E-03         0.54361E-04         0.00000E+00
    0.32000E-03         0.54707E-04         0.00000E+00
    0.32008E-03         0.55046E-04         0.00000E+00
    0.31982E-03         0.55372E-04         0.00000E+00
    0.31923E-03         0.55684E-04         0.00000E+00
    0.31831E-03         0.55975E-04         0.00000E+00
    0.31705E-03         0.56244E-04         0.00000E+00
    0.31546E-03         0.56485E-04         0.00000E+00
    0.31354E-03         0.56696E-04         0.00000E+00
    0.31129E-03         0.56872E-04         0.00000E+00
    0.30872E-03         0.57011E-04         0.00000E+00
    0.30583E-03         0.57107E-04         0.00000E+00
    0.30262E-03         0.57158E-04         0.00000E+00
    0.29909E-03         0.57160E-04         0.00000E+00
    0.29525E-03         0.57110E-04         0.00000E+00
    0.29109E-03         0.57004E-04         0.00000E+00
    0.28663E-03         0.56838E-04         0.00000E+00
    0.28187E-03         0.56610E-04         0.00000E+00
    0.27680E-03         0.56317E-04         0.00000E+00
    0.27144E-03         0.55954E-04         0.00000E+00
    0.26579E-03         0.55518E-04         0.00000E+00
    0.25985E-03         0.55008E-04         0.00000E+00
    0.25363E-03         0.54419E-04         0.00000E+00
    0.24713E-03         0.53748E-04         0.00000E+00
    0.24036E-03         0.52994E-04         0.00000E+00
    0.23332E-03         0.52152E-04         0.00000E+00
    0.22602E-03         0.51221E-04         0.00000E+00
    0.21846E-03         0.50197E-04         0.00000E+00
    0.21065E-03         0.49078E-04         0.00000E+00
    0.20260E-03         0.47862E-04         0.00000E+00
    0.19430E-03         0.46546E-04         0.00000E+00
    0.18578E-03         0.45127E-04         0.00000E+00
    0.17702E-03         0.43604E-04         0.00000E+00
    0.16804E-03         0.41975E-04         0.00000E+00
    0.15885E-03         0.40236E-04         0.00000E+00
    0.14945E-03         0.38387E-04         0.00000E+00
    0.13985E-03         0.36425E-04         0.00000E+00
    0.13006E-03         0.34349E-04         0.00000E+00
    0.12008E-03         0.32157E-04         0.00000E+00
    0.10991E-03         0.29847E-04         0.00000E+00
    0.99576E-04         0.27418E-04         0.00000E+00
    0.89074E-04         0.24869E-04         0.00000E+00
    0.78413E-04         0.22198E-04         0.00000E+00
    0.67602E-04         0.19403E-04         0.00000E+00
    0.56647E-04         0.16485E-04         0.00000E+00
    0.45557E-04         0.13441E-04         0.00000E+00
    0.34339E-04         0.10272E-04         0.00000E+00
    0.23002E-04         0.69753E-05         0.00000E+00
    0.11553E-04         0.35516E-05         0.00000E+00
    0.00000E+00         0.00000E+00         0.00000E+00
    0.35745E-03         0.58763E-04         0.00000E+00
    0.35824E-03         0.59177E-04         0.00000E+00
    0.35865E-03         0.59586E-04         0.00000E+00
    0.35869E-03         0.59987E-04         0.00000E+00
    0.35835E-03         0.60375E-04         0.00000E+00
    0.35763E-03         0.60745E-04         0.00000E+00
    0.35655E-03         0.61094E-04         0.00000E+00
    0.35509E-03         0.61417E-04         0.00000E+00
    0.35327E-03         0.61710E-04         0.00000E+00
    0.35107E-03         0.61969E-04         0.00000E+00
    0.34852E-03         0.62190E-04         0.00000E+00
    0.34560E-03         0.62368E-04         0.00000E+00
    0.34232E-03         0.62500E-04         0.00000E+00
    0.33869E-03         0.62581E-04         0.00000E+00
    0.33470E-03         0.62608E-04         0.00000E+00
    0.33036E-03         0.62576E-04         0.00000E+00
    0.32568E-03         0.62483E-04         0.00000E+00
    0.32066E-03         0.62324E-04         0.00000E+00
    0.31530E-03         0.62095E-04         0.00000E+00
    0.30961E-03         0.61793E-04         0.00000E+00
    0.30358E-03         0.61414E-04         0.00000E+00
    0.29724E-03         0.60955E-04         0.00000E+00
    0.29057E-03         0.60412E-04         0.00000E+00
    0.28359E-03         0.59782E-04         0.00000E+00
    0.27630E-03         0.59062E-04         0.00000E+00
    0.26871E-03         0.58249E-04         0.00000E+00
    0.26083E-03         0.57338E-04         0.00000E+00
    0.25265E-03         0.56328E-04         0.00000E+00
    0.24418E-03         0.55215E-04         0.00000E+00
    0.23544E-03         0.53997E-04         0.00000E+00
    0.22642E-03         0.52671E-04         0.00000E+00
    0.21714E-03         0.51233E-04         0.00000E+00
    0.20760E-03         0.49682E-04         0.00000E+00
    0.19780E-03         0.48015E-04         0.00000E+00
    0.18776E-03         0.46230E-04         0.00000E+00
    0.17748E-03         0.44323E-04         0.00000E+00
    0.16697E-03         0.42294E-04         0.00000E+00
    0.15624E-03         0.40140E-04         0.00000E+00
    0.14529E-03         0.37859E-04         0.00000E+00
    0.13413E-03         0.35448E-04         0.00000E+00
    0.12278E-03         0.32908E-04         0.00000E+00
    0.11123E-03         0.30234E-04         0.00000E+00
    0.99493E-04         0.27427E-04         0.00000E+00
    0.87582E-04         0.24485E-04         0.00000E+00
    0.75505E-04         0.21406E-04         0.00000E+00
    0.63268E-04         0.18189E-04         0.00000E+00
    0.50881E-04         0.14832E-04         0.00000E+00
    0.38351E-04         0.11336E-04         0.00000E+00
    0.25689E-04         0.76994E-05         0.00000E+00
    0.12902E-04         0.39208E-05         0.00000E+00
    0.00000E+00         0.00000E+00         0.00000E+00
    0.40063E-03         0.63771E-04         0.00000E+00
    0.40144E-03         0.64260E-04         0.00000E+00
    0.40184E-03         0.64744E-04         0.00000E+00
    0.40181E-03         0.65218E-04         0.00000E+00
    0.40137E-03         0.65678E-04         0.00000E+00
    0.40051E-03         0.66119E-04         0.00000E+00
    0.39924E-03         0.66536E-04         0.00000E+00
    0.39755E-03         0.66924E-04         0.00000E+00
    0.39546E-03         0.67278E-04         0.00000E+00
    0.39295E-03         0.67595E-04         0.00000E+00
    0.39004E-03         0.67869E-04         0.00000E+00
    0.38673E-03         0.68096E-04         0.00000E+00
    0.38301E-03         0.68271E-04         0.00000E+00
    0.37890E-03         0.68390E-04         0.00000E+00
    0.37440E-03         0.68449E-04         0.00000E+00
    0.36951E-03         0.68444E-04         0.00000E+00
    0.36424E-03         0.68369E-04         0.00000E+00
    0.35858E-03         0.68221E-04         0.00000E+00
    0.35255E-03         0.67996E-04         0.00000E+00
    0.34615E-03         0.67689E-04         0.00000E+00
    0.33939E-03         0.67298E-04         0.00000E+00
    0.33226E-03         0.66817E-04         0.00000E+00
    0.32478E-03         0.66244E-04         0.00000E+00
    0.31696E-03         0.65573E-04         0.00000E+00
    0.30879E-03         0.64803E-04         0.00000E+00
    0.30028E-03         0.63929E-04         0.00000E+00
    0.29144E-03         0.62947E-04         0.00000E+00
    0.28228E-03         0.61855E-04         0.00000E+00
    0.27281E-03         0.60649E-04         0.00000E+00
    0.26302E-03         0.59325E-04         0.00000E+00
    0.25293E-03         0.57882E-04         0.00000E+00
    0.24255E-03         0.56315E-04         0.00000E+00
    0.23188E-03         0.54623E-04         0.00000E+00
    0.22092E-03         0.52802E-04         0.00000E+00
    0.20970E-03         0.50849E-04         0.00000E+00
    0.19821E-03         0.48762E-04         0.00000E+00
    0.18646E-03         0.46539E-04         0.00000E+00
    0.17447E-03         0.44177E-04         0.00000E+00
    0.16223E-03         0.41674E-04         0.00000E+00
    0.14977E-03         0.39028E-04         0.00000E+00
    0.13708E-03         0.36237E-04         0.00000E+00
    0.12418E-03         0.33299E-04         0.00000E+00
    0.11108E-03         0.30213E-04         0.00000E+00
    0.97778E-04         0.26976E-04         0.00000E+00
    0.84292E-04         0.23587E-04         0.00000E+00
    0.70629E-04         0.20045E-04         0.00000E+00
    0.56799E-04         0.16349E-04         0.00000E+00
    0.42811E-04         0.12497E-04         0.00000E+00
    0.28676E-04         0.84891E-05         0.00000E+00
    0.14402E-04         0.43236E-05         0.00000E+00
    0.00000E+00         0.00000E+00         0.00000E+00
    0.44887E-03         0.69011E-04         0.00000E+00
    0.44970E-03         0.69589E-04         0.00000E+00
    0.45007E-03         0.70161E-04         0.00000E+00
    0.44997E-03         0.70722E-04         0.00000E+00
    0.44940E-03         0.71267E-04         0.00000E+00
    0.44837E-03         0.71791E-04         0.00000E+00
    0.44688E-03         0.72288E-04         0.00000E+00
    0.44493E-03         0.72753E-04         0.00000E+00
    0.44252E-03         0.73181E-04         0.00000E+00
    0.43965E-03         0.73567E-04         0.00000E+00
    0.43634E-03         0.73905E-04         0.00000E+00
    0.43258E-03         0.74191E-04         0.00000E+00
    0.42837E-03         0.74420E-04         0.00000E+00
    0.42372E-03         0.74587E-04         0.00000E+00
    0.41864E-03         0.74687E-04         0.00000E+00
    0.41312E-03         0.74714E-04         0.00000E+00
    0.40718E-03         0.74666E-04         0.00000E+00
    0.40082E-03         0.74536E-04         0.00000E+00
    0.39404E-03         0.74321E-04         0.00000E+00
    0.38685E-03         0.74015E-04         0.00000E+00
    0.37925E-03         0.73615E-04         0.00000E+00
    0.37125E-03         0.73116E-04         0.00000E+00
    0.36287E-03         0.72514E-04         0.00000E+00
    0.35409E-03         0.71805E-04         0.00000E+00
    0.34493E-03         0.70984E-04         0.00000E+00
    0.33540E-03         0.70049E-04         0.00000E+00
    0.32551E-03         0.68994E-04         0.00000E+00
    0.31525E-03         0.67817E-04         0.00000E+00
    0.30465E-03         0.66514E-04         0.00000E+00
    0.29370E-03         0.65080E-04         0.00000E+00
    0.28242E-03         0.63514E-04         0.00000E+00
    0.27080E-03         0.61810E-04         0.00000E+00
    0.25887E-03         0.59968E-04         0.00000E+00
    0.24663E-03         0.57982E-04         0.00000E+00
    0.23409E-03         0.55850E-04         0.00000E+00
    0.22125E-03         0.53570E-04         0.00000E+00
    0.20813E-03         0.51139E-04         0.00000E+00
    0.19473E-03         0.48554E-04         0.00000E+00
    0.18107E-03         0.45812E-04         0.00000E+00
    0.16715E-03         0.42912E-04         0.00000E+00
    0.15298E-03         0.39851E-04         0.00000E+00
    0.13858E-03         0.36627E-04         0.00000E+00
    0.12395E-03         0.33238E-04         0.00000E+00
    0.10911E-03         0.29682E-04         0.00000E+00
    0.94056E-04         0.25958E-04         0.00000E+00
    0.78809E-04         0.22064E-04         0.00000E+00
    0.63375E-04         0.17998E-04         0.00000E+00
    0.47767E-04         0.13760E-04         0.00000E+00
    0.31995E-04         0.93485E-05         0.00000E+00
    0.16069E-04         0.47620E-05         0.00000E+00
    0.00000E+00         0.00000E+00         0.00000E+00
    0.50274E-03         0.74450E-04         0.00000E+00
    0.50358E-03         0.75131E-04         0.00000E+00
    0.50391E-03         0.75806E-04         0.00000E+00
    0.50371E-03         0.76470E-04         0.00000E+00
    0.50299E-03         0.77115E-04         0.00000E+00
    0.50176E-03         0.77737E-04         0.00000E+00
    0.50001E-03         0.78329E-04         0.00000E+00
    0.49775E-03         0.78885E-04         0.00000E+00
    0.49498E-03         0.79401E-04         0.00000E+00
    0.49171E-03         0.79869E-04         0.00000E+00
    0.48794E-03         0.80285E-04         0.00000E+00
    0.48366E-03         0.80644E-04         0.00000E+00
    0.47890E-03         0.80938E-04         0.00000E+00
    0.47364E-03         0.81164E-04         0.00000E+00
    0.46790E-03         0.81315E-04         0.00000E+00
    0.46169E-03         0.81386E-04         0.00000E+00
    0.45499E-03         0.81373E-04         0.00000E+00
    0.44783E-03         0.81270E-04         0.00000E+00
    0.44021E-03         0.81072E-04         0.00000E+00
    0.43213E-03         0.80773E-04         0.00000E+00
    0.42361E-03         0.80370E-04         0.00000E+00
    0.41463E-03         0.79858E-04         0.00000E+00
    0.40523E-03         0.79231E-04         0.00000E+00
    0.39539E-03         0.78486E-04         0.00000E+00
    0.38513E-03         0.77617E-04         0.00000E+00
    0.37446E-03         0.76620E-04         0.00000E+00
    0.36339E-03         0.75492E-04         0.00000E+00
    0.35191E-03         0.74228E-04         0.00000E+00
    0.34005E-03         0.72824E-04         0.00000E+00
    0.32780E-03         0.71276E-04         0.00000E+00
    0.31519E-03         0.69580E-04         0.00000E+00
    0.30221E-03         0.67734E-04         0.00000E+00
    0.28887E-03         0.65732E-04         0.00000E+00
    0.27520E-03         0.63572E-04         0.00000E+00
    0.26118E-03         0.61250E-04         0.00000E+00
    0.24685E-03         0.58764E-04         0.00000E+00
    0.23219E-03         0.56111E-04         0.00000E+00
    0.21724E-03         0.53286E-04         0.00000E+00
    0.20199E-03         0.50289E-04         0.00000E+00
    0.18645E-03         0.47115E-04         0.00000E+00
    0.17064E-03         0.43763E-04         0.00000E+00
    0.15457E-03         0.40231E-04         0.00000E+00
    0.13825E-03         0.36516E-04         0.00000E+00
    0.12169E-03         0.32615E-04         0.00000E+00
    0.10490E-03         0.28529E-04         0.00000E+00
    0.87892E-04         0.24253E-04         0.00000E+00
    0.70678E-04         0.19788E-04         0.00000E+00
    0.53270E-04         0.15131E-04         0.00000E+00
    0.35680E-04         0.10282E-04         0.00000E+00
    0.17919E-04         0.52382E-05         0.00000E+00
    0.00000E+00         0.00000E+00         0.00000E+00
    0.56288E-03         0.80038E-04         0.00000E+00
    0.56372E-03         0.80841E-04         0.00000E+00
    0.56397E-03         0.81638E-04         0.00000E+00
    0.56365E-03         0.82421E-04         0.00000E+00
    0.56275E-03         0.83185E-04         0.00000E+00
    0.56128E-03         0.83922E-04         0.00000E+00
    0.55923E-03         0.84626E-04         0.00000E+00
    0.55662E-03         0.85291E-04         0.00000E+00
    0.55344E-03         0.85911E-04         0.00000E+00
    0.54970E-03         0.86478E-04         0.00000E+00
    0.54540E-03         0.86987E-04         0.00000E+00
    0.54055E-03         0.87432E-04         0.00000E+00
    0.53516E-03         0.87807E-04         0.00000E+00
    0.52922E-03         0.88105E-04         0.00000E+00
    0.52274E-03         0.88320E-04         0.00000E+00
    0.51573E-03         0.88448E-04         0.00000E+00
    0.50820E-03         0.88481E-04         0.00000E+00
    0.50014E-03         0.88415E-04         0.00000E+00
    0.49157E-03         0.88243E-04         0.00000E+00
    0.48250E-03         0.87961E-04         0.00000E+00
    0.47293E-03         0.87563E-04         0.00000E+00
    0.46287E-03         0.87043E-04         0.00000E+00
    0.45232E-03         0.86397E-04         0.00000E+00
    0.44130E-03         0.85619E-04         0.00000E+00
    0.42982E-03         0.84705E-04         0.00000E+00
    0.41787E-03         0.83650E-04         0.00000E+00
    0.40548E-03         0.82448E-04         0.00000E+00
    0.39264E-03         0.81096E-04         0.00000E+00
    0.37938E-03         0.79589E-04         0.00000E+00
    0.36569E-03         0.77923E-04         0.00000E+00
    0.35159E-03         0.76094E-04         0.00000E+00
    0.33709E-03         0.74097E-04         0.00000E+00
    0.32219E-03         0.71928E-04         0.00000E+00
    0.30692E-03         0.69585E-04         0.00000E+00
    0.29127E-03         0.67062E-04         0.00000E+00
    0.27527E-03         0.64357E-04         0.00000E+00
    0.25892E-03         0.61467E-04         0.00000E+00
    0.24223E-03         0.58388E-04         0.00000E+00
    0.22521E-03         0.55116E-04         0.00000E+00
    0.20788E-03         0.51650E-04         0.00000E+00
    0.19025E-03         0.47987E-04         0.00000E+00
    0.17232E-03         0.44123E-04         0.00000E+00
    0.15412E-03         0.40057E-04         0.00000E+00
    0.13565E-03         0.35786E-04         0.00000E+00
    0.11693E-03         0.31309E-04         0.00000E+00
    0.97971E-04         0.26622E-04         0.00000E+00
    0.78781E-04         0.21725E-04         0.00000E+00
    0.59376E-04         0.16615E-04         0.00000E+00
    0.39769E-04         0.11292E-04         0.00000E+00
    0.19972E-04         0.57541E-05         0.00000E+00
    0.00000E+00         0.00000E+00         0.00000E+00
    0.62997E-03         0.85711E-04         0.00000E+00
    0.63079E-03         0.86657E-04         0.00000E+00
    0.63095E-03         0.87597E-04         0.00000E+00
    0.63048E-03         0.88521E-04         0.00000E+00
    0.62936E-03         0.89424E-04         0.00000E+00
    0.62761E-03         0.90297E-04         0.00000E+00
    0.62521E-03         0.91134E-04         0.00000E+00
    0.62219E-03         0.91927E-04         0.00000E+00
    0.61854E-03         0.92670E-04         0.00000E+00
    0.61427E-03         0.93355E-04         0.00000E+00
    0.60938E-03         0.93976E-04         0.00000E+00
    0.60387E-03         0.94525E-04         0.00000E+00
    0.59776E-03         0.94996E-04         0.00000E+00
    0.59105E-03         0.95383E-04         0.00000E+00
    0.58374E-03         0.95679E-04         0.00000E+00
    0.57584E-03         0.95876E-04         0.00000E+00
    0.56736E-03         0.95970E-04         0.00000E+00
    0.55830E-03         0.95954E-04         0.00000E+00
    0.54867E-03         0.95821E-04         0.00000E+00
    0.53849E-03         0.95565E-04         0.00000E+00
    0.52775E-03         0.95181E-04         0.00000E+00
    0.51647E-03         0.94663E-04         0.00000E+00
    0.50465E-03         0.94005E-04         0.00000E+00
    0.49231E-03         0.93201E-04         0.00000E+00
    0.47945E-03         0.92246E-04         0.00000E+00
    0.46608E-03         0.91135E-04         0.00000E+00
    0.45222E-03         0.89863E-04         0.00000E+00
    0.43787E-03         0.88424E-04         0.00000E+00
    0.42304E-03         0.86814E-04         0.00000E+00
    0.40775E-03         0.85027E-04         0.00000E+00
    0.39199E-03         0.83060E-04         0.00000E+00
    0.37580E-03         0.80907E-04         0.00000E+00
    0.35917E-03         0.78565E-04         0.00000E+00
    0.34212E-03         0.76029E-04         0.00000E+00
    0.32466E-03         0.73295E-04         0.00000E+00
    0.30681E-03         0.70359E-04         0.00000E+00
    0.28856E-03         0.67218E-04         0.00000E+00
    0.26995E-03         0.63869E-04         0.00000E+00
    0.25097E-03         0.60306E-04         0.00000E+00
    0.23165E-03         0.56529E-04         0.00000E+00
    0.21199E-03         0.52532E-04         0.00000E+00
    0.19201E-03         0.48314E-04         0.00000E+00
    0.17172E-03         0.43873E-04         0.00000E+00
    0.15114E-03         0.39204E-04         0.00000E+00
    0.13028E-03         0.34306E-04         0.00000E+00
    0.10915E-03         0.29177E-04         0.00000E+00
    0.87768E-04         0.23815E-04         0.00000E+00
    0.66148E-04         0.18218E-04         0.00000E+00
    0.44303E-04         0.12384E-04         0.00000E+00
    0.22249E-04         0.63116E-05         0.00000E+00
    0.00000E+00         0.00000E+00         0.00000E+00
    0.70479E-03         0.91383E-04         0.00000E+00
    0.70556E-03         0.92497E-04         0.00000E+00
    0.70560E-03         0.93604E-04         0.00000E+00
    0.70494E-03         0.94694E-04         0.00000E+00
    0.70356E-03         0.95760E-04         0.00000E+00
    0.70147E-03         0.96794E-04         0.00000E+00
    0.69868E-03         0.97787E-04         0.00000E+00
    0.69519E-03         0.98732E-04         0.00000E+00
    0.69100E-03         0.99620E-04         0.00000E+00
    0.68611E-03         0.10045E-03         0.00000E+00
    0.68055E-03         0.10120E-03         0.00000E+00
    0.67430E-03         0.10187E-03         0.00000E+00
    0.66738E-03         0.10246E-03         0.00000E+00
    0.65979E-03         0.10296E-03         0.00000E+00
    0.65154E-03         0.10335E-03         0.00000E+00
    0.64264E-03         0.10364E-03         0.00000E+00
    0.63310E-03         0.10381E-03         0.00000E+00
    0.62292E-03         0.10386E-03         0.00000E+00
    0.61210E-03         0.10378E-03         0.00000E+00
    0.60067E-03         0.10356E-03         0.00000E+00
    0.58863E-03         0.10321E-03         0.00000E+00
    0.57599E-03         0.10270E-03         0.00000E+00
    0.56275E-03         0.10204E-03         0.00000E+00
    0.54893E-03         0.10122E-03         0.00000E+00
    0.53454E-03         0.10023E-03         0.00000E+00
    0.51959E-03         0.99069E-04         0.00000E+00
    0.50409E-03         0.97730E-04         0.00000E+00
    0.48805E-03         0.96206E-04         0.00000E+00
    0.47149E-03         0.94493E-04         0.00000E+00
    0.45440E-03         0.92586E-04         0.00000E+00
    0.43682E-03         0.90478E-04         0.00000E+00
    0.41874E-03         0.88166E-04         0.00000E+00
    0.40018E-03         0.85645E-04         0.00000E+00
    0.38116E-03         0.82909E-04         0.00000E+00
    0.36169E-03         0.79954E-04         0.00000E+00
    0.34177E-03         0.76776E-04         0.00000E+00
    0.32143E-03         0.73372E-04         0.00000E+00
    0.30068E-03         0.69736E-04         0.00000E+00
    0.27953E-03         0.65866E-04         0.00000E+00
    0.25800E-03         0.61758E-04         0.00000E+00
    0.23609E-03         0.57407E-04         0.00000E+00
    0.21383E-03         0.52812E-04         0.00000E+00
    0.19123E-03         0.47969E-04         0.00000E+00
    0.16830E-03         0.42875E-04         0.00000E+00
    0.14507E-03         0.37528E-04         0.00000E+00
    0.12154E-03         0.31925E-04         0.00000E+00
    0.97726E-04         0.26064E-04         0.00000E+00
    0.73651E-04         0.19943E-04         0.00000E+00
    0.49327E-04         0.13559E-04         0.00000E+00
    0.24772E-04         0.69122E-05         0.00000E+00
    0.00000E+00         0.00000E+00         0.00000E+00
    0.78817E-03         0.96944E-04         0.00000E+00
    0.78886E-03         0.98256E-04         0.00000E+00
    0.78875E-03         0.99558E-04         0.00000E+00
    0.78786E-03         0.10084E-03         0.00000E+00
    0.78616E-03         0.10210E-03         0.00000E+00
    0.78369E-03         0.10332E-03         0.00000E+00
    0.78043E-03         0.10450E-03         0.00000E+00
    0.77639E-03         0.10562E-03         0.00000E+00
    0.77158E-03         0.10669E-03         0.00000E+00
    0.76601E-03         0.10768E-03         0.00000E+00
    0.75967E-03         0.10859E-03         0.00000E+00
    0.75258E-03         0.10941E-03         0.00000E+00
    0.74475E-03         0.11014E-03         0.00000E+00
    0.73618E-03         0.11077E-03         0.00000E+00
    0.72687E-03         0.11129E-03         0.00000E+00
    0.71685E-03         0.11168E-03         0.00000E+00
    0.70611E-03         0.11195E-03         0.00000E+00
    0.69466E-03         0.11208E-03         0.00000E+00
    0.68252E-03         0.11207E-03         0.00000E+00
    0.66970E-03         0.11192E-03         0.00000E+00
    0.65620E-03         0.11160E-03         0.00000E+00
    0.64203E-03         0.11112E-03         0.00000E+00
    0.62721E-03         0.11047E-03         0.00000E+00
    0.61175E-03         0.10964E-03         0.00000E+00
    0.59565E-03         0.10863E-03         0.00000E+00
    0.57894E-03         0.10743E-03         0.00000E+00
    0.56161E-03         0.10603E-03         0.00000E+00
    0.54370E-03         0.10443E-03         0.00000E+00
    0.52520E-03         0.10262E-03         0.00000E+00
    0.50613E-03         0.10059E-03         0.00000E+00
    0.48650E-03         0.98341E-04         0.00000E+00
    0.46633E-03         0.95868E-04         0.00000E+00
    0.44564E-03         0.93162E-04         0.00000E+00
    0.42442E-03         0.90221E-04         0.00000E+00
    0.40271E-03         0.87038E-04         0.00000E+00
    0.38052E-03         0.83608E-04         0.00000E+00
    0.35785E-03         0.79928E-04         0.00000E+00
    0.33473E-03         0.75993E-04         0.00000E+00
    0.31117E-03         0.71799E-04         0.00000E+00
    0.28718E-03         0.67341E-04         0.00000E+00
    0.26279E-03         0.62616E-04         0.00000E+00
    0.23800E-03         0.57621E-04         0.00000E+00
    0.21283E-03         0.52352E-04         0.00000E+00
    0.18731E-03         0.46806E-04         0.00000E+00
    0.16145E-03         0.40979E-04         0.00000E+00
    0.13525E-03         0.34870E-04         0.00000E+00
    0.10875E-03         0.28475E-04         0.00000E+00
    0.81958E-04         0.21793E-04         0.00000E+00
    0.54890E-04         0.14821E-04         0.00000E+00
    0.27565E-04         0.75572E-05         0.00000E+00
    0.00000E+00         0.00000E+00         0.00000E+00
    0.88103E-03         0.10226E-03         0.00000E+00
    0.88162E-03         0.10380E-03         0.00000E+00
    0.88131E-03         0.10533E-03         0.00000E+00
    0.88013E-03         0.10684E-03         0.00000E+00
    0.87807E-03         0.10833E-03         0.00000E+00
    0.87513E-03         0.10977E-03         0.00000E+00
    0.87133E-03         0.11116E-03         0.00000E+00
    0.86667E-03         0.11250E-03         0.00000E+00
    0.86115E-03         0.11376E-03         0.00000E+00
    0.85479E-03         0.11495E-03         0.00000E+00
    0.84758E-03         0.11605E-03         0.00000E+00
    0.83954E-03         0.11706E-03         0.00000E+00
    0.83067E-03         0.11796E-03         0.00000E+00
    0.82099E-03         0.11874E-03         0.00000E+00
    0.81050E-03         0.11941E-03         0.00000E+00
    0.79921E-03         0.11994E-03         0.00000E+00
    0.78713E-03         0.12033E-03         0.00000E+00
    0.77427E-03         0.12057E-03         0.00000E+00
    0.76064E-03         0.12065E-03         0.00000E+00
    0.74626E-03         0.12057E-03         0.00000E+00
    0.73113E-03         0.12032E-03         0.00000E+00
    0.71526E-03         0.11988E-03         0.00000E+00
    0.69867E-03         0.11926E-03         0.00000E+00
    0.68138E-03         0.11844E-03         0.00000E+00
    0.66338E-03         0.11742E-03         0.00000E+00
    0.64470E-03         0.11619E-03         0.00000E+00
    0.62535E-03         0.11474E-03         0.00000E+00
    0.60535E-03         0.11306E-03         0.00000E+00
    0.58470E-03         0.11116E-03         0.00000E+00
    0.56342E-03         0.10902E-03         0.00000E+00
    0.54153E-03         0.10663E-03         0.00000E+00
    0.51904E-03         0.10400E-03         0.00000E+00
    0.49597E-03         0.10110E-03         0.00000E+00
    0.47233E-03         0.97954E-04         0.00000E+00
    0.44814E-03         0.94536E-04         0.00000E+00
    0.42341E-03         0.90847E-04         0.00000E+00
    0.39816E-03         0.86882E-04         0.00000E+00
    0.37241E-03         0.82634E-04         0.00000E+00
    0.34618E-03         0.78101E-04         0.00000E+00
    0.31948E-03         0.73277E-04         0.00000E+00
    0.29233E-03         0.68159E-04         0.00000E+00
    0.26474E-03         0.62742E-04         0.00000E+00
    0.23674E-03         0.57022E-04         0.00000E+00
    0.20834E-03         0.50996E-04         0.00000E+00
    0.17957E-03         0.44661E-04         0.00000E+00
    0.15043E-03         0.38014E-04         0.00000E+00
    0.12095E-03         0.31052E-04         0.00000E+00
    0.91150E-04         0.23771E-04         0.00000E+00
    0.61045E-04         0.16171E-04         0.00000E+00
    0.30655E-04         0.82474E-05         0.00000E+00
    0.00000E+00         0.00000E+00         0.00000E+00
    0.98440E-03         0.10714E-03         0.00000E+00
    0.98483E-03         0.10896E-03         0.00000E+00
    0.98428E-03         0.11076E-03         0.00000E+00
    0.98275E-03         0.11254E-03         0.00000E+00
    0.98025E-03         0.11428E-03         0.00000E+00
    0.97678E-03         0.11599E-03         0.00000E+00
    0.97235E-03         0.11764E-03         0.00000E+00
    0.96697E-03         0.11922E-03         0.00000E+00
    0.96064E-03         0.12073E-03         0.00000E+00
    0.95338E-03         0.12215E-03         0.00000E+00
    0.94518E-03         0.12347E-03         0.00000E+00
    0.93606E-03         0.12469E-03         0.00000E+00
    0.92603E-03         0.12580E-03         0.00000E+00
    0.91509E-03         0.12677E-03         0.00000E+00
    0.90326E-03         0.12761E-03         0.00000E+00
    0.89055E-03         0.12831E-03         0.00000E+00
    0.87697E-03         0.12885E-03         0.00000E+00
    0.86253E-03         0.12923E-03         0.00000E+00
    0.84724E-03         0.12943E-03         0.00000E+00
    0.83111E-03         0.12946E-03         0.00000E+00
    0.81416E-03         0.12929E-03         0.00000E+00
    0.79640E-03         0.12892E-03         0.00000E+00
    0.77784E-03         0.12834E-03         0.00000E+00
    0.75850E-03         0.12755E-03         0.00000E+00
    0.73839E-03         0.12654E-03         0.00000E+00
    0.71753E-03         0.12529E-03         0.00000E+00
    0.69593E-03         0.12380E-03         0.00000E+00
    0.67360E-03         0.12207E-03         0.00000E+00
    0.65056E-03         0.12008E-03         0.00000E+00
    0.62683E-03         0.11783E-03         0.00000E+00
    0.60243E-03         0.11531E-03         0.00000E+00
    0.57736E-03         0.11252E-03         0.00000E+00
    0.55166E-03         0.10945E-03         0.00000E+00
    0.52532E-03         0.10609E-03         0.00000E+00
    0.49838E-03         0.10243E-03         0.00000E+00
    0.47085E-03         0.98477E-04         0.00000E+00
    0.44275E-03         0.94218E-04         0.00000E+00
    0.41410E-03         0.89649E-04         0.00000E+00
    0.38490E-03         0.84764E-04         0.00000E+00
    0.35520E-03         0.79559E-04         0.00000E+00
    0.32499E-03         0.74029E-04         0.00000E+00
    0.29431E-03         0.68169E-04         0.00000E+00
    0.26317E-03         0.61976E-04         0.00000E+00
    0.23160E-03         0.55445E-04         0.00000E+00
    0.19960E-03         0.48574E-04         0.00000E+00
    0.16721E-03         0.41357E-04         0.00000E+00
    0.13444E-03         0.33793E-04         0.00000E+00
    0.10131E-03         0.25877E-04         0.00000E+00
    0.67848E-04         0.17608E-04         0.00000E+00
    0.34071E-04         0.89833E-05         0.00000E+00
    0.00000E+00         0.00000E+00         0.00000E+00
    0.10994E-02         0.11140E-03         0.00000E+00
    0.10996E-02         0.11352E-03         0.00000E+00
    0.10987E-02         0.11564E-03         0.00000E+00
    0.10968E-02         0.11773E-03         0.00000E+00
    0.10938E-02         0.11979E-03         0.00000E+00
    0.10897E-02         0.12179E-03         0.00000E+00
    0.10845E-02         0.12374E-03         0.00000E+00
    0.10783E-02         0.12562E-03         0.00000E+00
    0.10711E-02         0.12741E-03         0.00000E+00
    0.10628E-02         0.12911E-03         0.00000E+00
    0.10535E-02         0.13070E-03         0.00000E+00
    0.10431E-02         0.13217E-03         0.00000E+00
    0.10318E-02         0.13352E-03         0.00000E+00
    0.10194E-02         0.13473E-03         0.00000E+00
    0.10061E-02         0.13578E-03         0.00000E+00
    0.99178E-03         0.13668E-03         0.00000E+00
    0.97652E-03         0.13741E-03         0.00000E+00
    0.96030E-03         0.13796E-03         0.00000E+00
    0.94315E-03         0.13831E-03         0.00000E+00
    0.92508E-03         0.13847E-03         0.00000E+00
    0.90610E-03         0.13841E-03         0.00000E+00
    0.88623E-03         0.13814E-03         0.00000E+00
    0.86548E-03         0.13764E-03         0.00000E+00
    0.84386E-03         0.13690E-03         0.00000E+00
    0.82140E-03         0.13591E-03         0.00000E+00
    0.79811E-03         0.13467E-03         0.00000E+00
    0.77400E-03         0.13316E-03         0.00000E+00
    0.74909E-03         0.13139E-03         0.00000E+00
    0.72341E-03         0.12933E-03         0.00000E+00
    0.69696E-03         0.12699E-03         0.00000E+00
    0.66977E-03         0.12435E-03         0.00000E+00
    0.64185E-03         0.12140E-03         0.00000E+00
    0.61322E-03         0.11815E-03         0.00000E+00
    0.58391E-03         0.11458E-03         0.00000E+00
    0.55392E-03         0.11069E-03         0.00000E+00
    0.52329E-03         0.10647E-03         0.00000E+00
    0.49203E-03         0.10191E-03         0.00000E+00
    0.46015E-03         0.97014E-04         0.00000E+00
    0.42769E-03         0.91768E-04         0.00000E+00
    0.39466E-03         0.86169E-04         0.00000E+00
    0.36108E-03         0.80212E-04         0.00000E+00
    0.32698E-03         0.73892E-04         0.00000E+00
    0.29237E-03         0.67205E-04         0.00000E+00
    0.25728E-03         0.60145E-04         0.00000E+00
    0.22173E-03         0.52710E-04         0.00000E+00
    0.18574E-03         0.44894E-04         0.00000E+00
    0.14933E-03         0.36695E-04         0.00000E+00
    0.11253E-03         0.28109E-04         0.00000E+00
    0.75361E-04         0.19133E-04         0.00000E+00
    0.37843E-04         0.97643E-05         0.00000E+00
    0.00000E+00         0.00000E+00         0.00000E+00
    0.12272E-02         0.11475E-03         0.00000E+00
    0.12271E-02         0.11724E-03         0.00000E+00
    0.12259E-02         0.11973E-03         0.00000E+00
    0.12234E-02         0.12219E-03         0.00000E+00
    0.12198E-02         0.12460E-03         0.00000E+00
    0.12150E-02         0.12697E-03         0.00000E+00
    0.12090E-02         0.12926E-03         0.00000E+00
    0.12018E-02         0.13148E-03         0.00000E+00
    0.11935E-02         0.13361E-03         0.00000E+00
    0.11841E-02         0.13563E-03         0.00000E+00
    0.11735E-02         0.13754E-03         0.00000E+00
    0.11618E-02         0.13931E-03         0.00000E+00
    0.11489E-02         0.14095E-03         0.00000E+00
    0.11350E-02         0.14243E-03         0.00000E+00
    0.11200E-02         0.14375E-03         0.00000E+00
    0.11039E-02         0.14489E-03         0.00000E+00
    0.10867E-02         0.14585E-03         0.00000E+00
    0.10685E-02         0.14661E-03         0.00000E+00
    0.10493E-02         0.14715E-03         0.00000E+00
    0.10291E-02         0.14748E-03         0.00000E+00
    0.10078E-02         0.14758E-03         0.00000E+00
    0.98559E-03         0.14743E-03         0.00000E+00
    0.96239E-03         0.14703E-03         0.00000E+00
    0.93825E-03         0.14638E-03         0.00000E+00
    0.91317E-03         0.14545E-03         0.00000E+00
    0.88718E-03         0.14424E-03         0.00000E+00
    0.86029E-03         0.14274E-03         0.00000E+00
    0.83253E-03         0.14094E-03         0.00000E+00
    0.80391E-03         0.13883E-03         0.00000E+00
    0.77444E-03         0.13641E-03         0.00000E+00
    0.74416E-03         0.13366E-03         0.00000E+00
    0.71308E-03         0.13058E-03         0.00000E+00
    0.68123E-03         0.12716E-03         0.00000E+00
    0.64861E-03         0.12339E-03         0.00000E+00
    0.61526E-03         0.11927E-03         0.00000E+00
    0.58119E-03         0.11478E-03         0.00000E+00
    0.54644E-03         0.10993E-03         0.00000E+00
    0.51101E-03         0.10470E-03         0.00000E+00
    0.47493E-03         0.99083E-04         0.00000E+00
    0.43823E-03         0.93081E-04         0.00000E+00
    0.40092E-03         0.86686E-04         0.00000E+00
    0.36304E-03         0.79891E-04         0.00000E+00
    0.32460E-03         0.72691E-04         0.00000E+00
    0.28563E-03         0.65082E-04         0.00000E+00
    0.24615E-03         0.57059E-04         0.00000E+00
    0.20619E-03         0.48618E-04         0.00000E+00
    0.16577E-03         0.39754E-04         0.00000E+00
    0.12491E-03         0.30463E-04         0.00000E+00
    0.83652E-04         0.20743E-04         0.00000E+00
    0.42005E-04         0.10589E-04         0.00000E+00
    0.00000E+00         0.00000E+00         0.00000E+00
    0.13691E-02         0.11688E-03         0.00000E+00
    0.13688E-02         0.11981E-03         0.00000E+00
    0.13670E-02         0.12272E-03         0.00000E+00
    0.13640E-02         0.12560E-03         0.00000E+00
    0.13596E-02         0.12844E-03         0.00000E+00
    0.13540E-02         0.13122E-03         0.00000E+00
    0.13470E-02         0.13393E-03         0.00000E+00
    0.13388E-02         0.13655E-03         0.00000E+00
    0.13292E-02         0.13907E-03         0.00000E+00
    0.13184E-02         0.14148E-03         0.00000E+00
    0.13064E-02         0.14376E-03         0.00000E+00
    0.12931E-02         0.14589E-03         0.00000E+00
    0.12786E-02         0.14787E-03         0.00000E+00
    0.12629E-02         0.14969E-03         0.00000E+00
    0.12460E-02         0.15132E-03         0.00000E+00
    0.12279E-02         0.15276E-03         0.00000E+00
    0.12086E-02         0.15399E-03         0.00000E+00
    0.11882E-02         0.15500E-03         0.00000E+00
    0.11667E-02         0.15579E-03         0.00000E+00
    0.11440E-02         0.15633E-03         0.00000E+00
    0.11202E-02         0.15662E-03         0.00000E+00
    0.10954E-02         0.15664E-03         0.00000E+00
    0.10695E-02         0.15639E-03         0.00000E+00
    0.10425E-02         0.15585E-03         0.00000E+00
    0.10145E-02         0.15501E-03         0.00000E+00
    0.98556E-03         0.15387E-03         0.00000E+00
    0.95559E-03         0.15240E-03         0.00000E+00
    0.92466E-03         0.15061E-03         0.00000E+00
    0.89278E-03         0.14848E-03         0.00000E+00
    0.85998E-03         0.14601E-03         0.00000E+00
    0.82628E-03         0.14317E-03         0.00000E+00
    0.79170E-03         0.13998E-03         0.00000E+00
    0.75627E-03         0.13640E-03         0.00000E+00
    0.72000E-03         0.13245E-03         0.00000E+00
    0.68293E-03         0.12810E-03         0.00000E+00
    0.64507E-03         0.12336E-03         0.00000E+00
    0.60645E-03         0.11821E-03         0.00000E+00
    0.56709E-03         0.11265E-03         0.00000E+00
    0.52703E-03         0.10667E-03         0.00000E+00
    0.48627E-03         0.10026E-03         0.00000E+00
    0.44485E-03         0.93417E-04         0.00000E+00
    0.40280E-03         0.86137E-04         0.00000E+00
    0.36013E-03         0.78411E-04         0.00000E+00
    0.31688E-03         0.70236E-04         0.00000E+00
    0.27307E-03         0.61605E-04         0.00000E+00
    0.22873E-03         0.52513E-04         0.00000E+00
    0.18389E-03         0.42957E-04         0.00000E+00
    0.13857E-03         0.32931E-04         0.00000E+00
    0.92791E-04         0.22432E-04         0.00000E+00
    0.46593E-04         0.11456E-04         0.00000E+00
    0.00000E+00         0.00000E+00         0.00000E+00
    0.15267E-02         0.11741E-03         0.00000E+00
    0.15259E-02         0.12084E-03         0.00000E+00
    0.15236E-02         0.12425E-03         0.00000E+00
    0.15198E-02         0.12763E-03         0.00000E+00
    0.15146E-02         0.13097E-03         0.00000E+00
    0.15080E-02         0.13423E-03         0.00000E+00
    0.14999E-02         0.13742E-03         0.00000E+00
    0.14904E-02         0.14051E-03         0.00000E+00
    0.14795E-02         0.14350E-03         0.00000E+00
    0.14672E-02         0.14635E-03         0.00000E+00
    0.14535E-02         0.14907E-03         0.00000E+00
    0.14385E-02         0.15163E-03         0.00000E+00
    0.14221E-02         0.15402E-03         0.00000E+00
    0.14044E-02         0.15622E-03         0.00000E+00
    0.13853E-02         0.15823E-03         0.00000E+00
    0.13650E-02         0.16002E-03         0.00000E+00
    0.13434E-02         0.16159E-03         0.00000E+00
    0.13205E-02         0.16292E-03         0.00000E+00
    0.12963E-02         0.16400E-03         0.00000E+00
    0.12710E-02         0.16481E-03         0.00000E+00
    0.12444E-02         0.16535E-03         0.00000E+00
    0.12166E-02         0.16559E-03         0.00000E+00
    0.11877E-02         0.16553E-03         0.00000E+00
    0.11576E-02         0.16515E-03         0.00000E+00
    0.11264E-02         0.16445E-03         0.00000E+00
    0.10941E-02         0.16341E-03         0.00000E+00
    0.10607E-02         0.16202E-03         0.00000E+00
    0.10263E-02         0.16028E-03         0.00000E+00
    0.99080E-03         0.15816E-03         0.00000E+00
    0.95430E-03         0.15566E-03         0.00000E+00
    0.91682E-03         0.15277E-03         0.00000E+00
    0.87838E-03         0.14948E-03         0.00000E+00
    0.83900E-03         0.14578E-03         0.00000E+00
    0.79870E-03         0.14166E-03         0.00000E+00
    0.75752E-03         0.13711E-03         0.00000E+00
    0.71547E-03         0.13212E-03         0.00000E+00
    0.67259E-03         0.12669E-03         0.00000E+00
    0.62890E-03         0.12081E-03         0.00000E+00
    0.58443E-03         0.11446E-03         0.00000E+00
    0.53920E-03         0.10765E-03         0.00000E+00
    0.49325E-03         0.10036E-03         0.00000E+00
    0.44660E-03         0.92588E-04         0.00000E+00
    0.39927E-03         0.84329E-04         0.00000E+00
    0.35131E-03         0.75575E-04         0.00000E+00
    0.30273E-03         0.66320E-04         0.00000E+00
    0.25357E-03         0.56560E-04         0.00000E+00
    0.20385E-03         0.46289E-04         0.00000E+00
    0.15360E-03         0.35501E-04         0.00000E+00
    0.10286E-03         0.24193E-04         0.00000E+00
    0.51646E-04         0.12361E-04         0.00000E+00
    0.00000E+00         0.00000E+00         0.00000E+00
    0.17014E-02         0.11587E-03         0.00000E+00
    0.17000E-02         0.11989E-03         0.00000E+00
    0.16970E-02         0.12388E-03         0.00000E+00
    0.16924E-02         0.12784E-03         0.00000E+00
    0.16862E-02         0.13175E-03         0.00000E+00
    0.16785E-02         0.13559E-03         0.00000E+00
    0.16691E-02         0.13934E-03         0.00000E+00
    0.16582E-02         0.14298E-03         0.00000E+00
    0.16457E-02         0.14651E-03         0.00000E+00
    0.16317E-02         0.14989E-03         0.00000E+00
    0.16162E-02         0.15312E-03         0.00000E+00
    0.15991E-02         0.15618E-03         0.00000E+00
    0.15806E-02         0.15906E-03         0.00000E+00
    0.15606E-02         0.16173E-03         0.00000E+00
    0.15392E-02         0.16418E-03         0.00000E+00
    0.15164E-02         0.16641E-03         0.00000E+00
    0.14921E-02         0.16838E-03         0.00000E+00
    0.14664E-02         0.17009E-03         0.00000E+00
    0.14394E-02         0.17153E-03         0.00000E+00
    0.14111E-02         0.17267E-03         0.00000E+00
    0.13814E-02         0.17351E-03         0.00000E+00
    0.13504E-02         0.17404E-03         0.00000E+00
    0.13181E-02         0.17423E-03         0.00000E+00
    0.12845E-02         0.17407E-03         0.00000E+00
    0.12498E-02         0.17356E-03         0.00000E+00
    0.12138E-02         0.17268E-03         0.00000E+00
    0.11766E-02         0.17141E-03         0.00000E+00
    0.11383E-02         0.16976E-03         0.00000E+00
    0.10988E-02         0.16769E-03         0.00000E+00
    0.10582E-02         0.16521E-03         0.00000E+00
    0.10166E-02         0.16230E-03         0.00000E+00
    0.97385E-03         0.15895E-03         0.00000E+00
    0.93010E-03         0.15515E-03         0.00000E+00
    0.88536E-03         0.15090E-03         0.00000E+00
    0.83964E-03         0.14617E-03         0.00000E+00
    0.79298E-03         0.14097E-03         0.00000E+00
    0.74540E-03         0.13527E-03         0.00000E+00
    0.69693E-03         0.12908E-03         0.00000E+00
    0.64761E-03         0.12239E-03         0.00000E+00
    0.59746E-03         0.11518E-03         0.00000E+00
    0.54651E-03         0.10745E-03         0.00000E+00
    0.49480E-03         0.99190E-04         0.00000E+00
    0.44235E-03         0.90396E-04         0.00000E+00
    0.38919E-03         0.81058E-04         0.00000E+00
    0.33536E-03         0.71172E-04         0.00000E+00
    0.28089E-03         0.60730E-04         0.00000E+00
    0.22580E-03         0.49727E-04         0.00000E+00
    0.17014E-03         0.38158E-04         0.00000E+00
    0.11393E-03         0.26016E-04         0.00000E+00
    0.57205E-04         0.13299E-04         0.00000E+00
    0.00000E+00         0.00000E+00         0.00000E+00
    0.18950E-02         0.11172E-03         0.00000E+00
    0.18929E-02         0.11641E-03         0.00000E+00
    0.18891E-02         0.12109E-03         0.00000E+00
    0.18835E-02         0.12573E-03         0.00000E+00
    0.18761E-02         0.13030E-03         0.00000E+00
    0.18670E-02         0.13480E-03         0.00000E+00
    0.18562E-02         0.13921E-03         0.00000E+00
    0.18436E-02         0.14350E-03         0.00000E+00
    0.18294E-02         0.14766E-03         0.00000E+00
    0.18134E-02         0.15166E-03         0.00000E+00
    0.17958E-02         0.15550E-03         0.00000E+00
    0.17765E-02         0.15915E-03         0.00000E+00
    0.17556E-02         0.16260E-03         0.00000E+00
    0.17331E-02         0.16582E-03         0.00000E+00
    0.17090E-02         0.16881E-03         0.00000E+00
    0.16834E-02         0.17154E-03         0.00000E+00
    0.16562E-02         0.17400E-03         0.00000E+00
    0.16274E-02         0.17618E-03         0.00000E+00
    0.15972E-02         0.17805E-03         0.00000E+00
    0.15655E-02         0.17961E-03         0.00000E+00
    0.15323E-02         0.18083E-03         0.00000E+00
    0.14977E-02         0.18170E-03         0.00000E+00
    0.14617E-02         0.18221E-03         0.00000E+00
    0.14243E-02         0.18234E-03         0.00000E+00
    0.13856E-02         0.18209E-03         0.00000E+00
    0.13455E-02         0.18142E-03         0.00000E+00
    0.13042E-02         0.18034E-03         0.00000E+00
    0.12615E-02         0.17883E-03         0.00000E+00
    0.12177E-02         0.17688E-03         0.00000E+00
    0.11726E-02         0.17447E-03         0.00000E+00
    0.11263E-02         0.17159E-03         0.00000E+00
    0.10789E-02         0.16823E-03         0.00000E+00
    0.10303E-02         0.16438E-03         0.00000E+00
    0.98069E-03         0.16002E-03         0.00000E+00
    0.92997E-03         0.15515E-03         0.00000E+00
    0.87822E-03         0.14976E-03         0.00000E+00
    0.82547E-03         0.14384E-03         0.00000E+00
    0.77175E-03         0.13737E-03         0.00000E+00
    0.71708E-03         0.13035E-03         0.00000E+00
    0.66151E-03         0.12276E-03         0.00000E+00
    0.60507E-03         0.11461E-03         0.00000E+00
    0.54779E-03         0.10587E-03         0.00000E+00
    0.48969E-03         0.96549E-04         0.00000E+00
    0.43083E-03         0.86632E-04         0.00000E+00
    0.37122E-03         0.76113E-04         0.00000E+00
    0.31091E-03         0.64986E-04         0.00000E+00
    0.24993E-03         0.53243E-04         0.00000E+00
    0.18831E-03         0.40878E-04         0.00000E+00
    0.12610E-03         0.27887E-04         0.00000E+00
    0.63313E-04         0.14262E-04         0.00000E+00
    0.00000E+00         0.00000E+00         0.00000E+00
    0.21092E-02         0.10429E-03         0.00000E+00
    0.21064E-02         0.10978E-03         0.00000E+00
    0.21016E-02         0.11525E-03         0.00000E+00
    0.20948E-02         0.12067E-03         0.00000E+00
    0.20861E-02         0.12603E-03         0.00000E+00
    0.20754E-02         0.13130E-03         0.00000E+00
    0.20629E-02         0.13647E-03         0.00000E+00
    0.20485E-02         0.14151E-03         0.00000E+00
    0.20322E-02         0.14641E-03         0.00000E+00
    0.20140E-02         0.15114E-03         0.00000E+00
    0.19940E-02         0.15569E-03         0.00000E+00
    0.19722E-02         0.16003E-03         0.00000E+00
    0.19487E-02         0.16416E-03         0.00000E+00
    0.19233E-02         0.16803E-03         0.00000E+00
    0.18962E-02         0.17165E-03         0.00000E+00
    0.18674E-02         0.17500E-03         0.00000E+00
    0.18369E-02         0.17804E-03         0.00000E+00
    0.18048E-02         0.18077E-03         0.00000E+00
    0.17709E-02         0.18318E-03         0.00000E+00
    0.17355E-02         0.18523E-03         0.00000E+00
    0.16985E-02         0.18692E-03         0.00000E+00
    0.16599E-02         0.18823E-03         0.00000E+00
    0.16198E-02         0.18915E-03         0.00000E+00
    0.15781E-02         0.18965E-03         0.00000E+00
    0.15350E-02         0.18973E-03         0.00000E+00
    0.14905E-02         0.18936E-03         0.00000E+00
    0.14445E-02         0.18854E-03         0.00000E+00
    0.13971E-02         0.18725E-03         0.00000E+00
    0.13484E-02         0.18547E-03         0.00000E+00
    0.12983E-02         0.18319E-03         0.00000E+00
    0.12470E-02         0.18040E-03         0.00000E+00
    0.11943E-02         0.17709E-03         0.00000E+00
    0.11405E-02         0.17324E-03         0.00000E+00
    0.10854E-02         0.16884E-03         0.00000E+00
    0.10292E-02         0.16388E-03         0.00000E+00
    0.97187E-03         0.15835E-03         0.00000E+00
    0.91342E-03         0.15223E-03         0.00000E+00
    0.85391E-03         0.14552E-03         0.00000E+00
    0.79338E-03         0.13821E-03         0.00000E+00
    0.73185E-03         0.13028E-03         0.00000E+00
    0.66937E-03         0.12173E-03         0.00000E+00
    0.60597E-03         0.11254E-03         0.00000E+00
    0.54168E-03         0.10271E-03         0.00000E+00
    0.47654E-03         0.92226E-04         0.00000E+00
    0.41060E-03         0.81086E-04         0.00000E+00
    0.34388E-03         0.69278E-04         0.00000E+00
    0.27642E-03         0.56797E-04         0.00000E+00
    0.20827E-03         0.43635E-04         0.00000E+00
    0.13945E-03         0.29786E-04         0.00000E+00
    0.70019E-04         0.15242E-04         0.00000E+00
    0.00000E+00         0.00000E+00         0.00000E+00
    0.23462E-02         0.92826E-04         0.00000E+00
    0.23423E-02         0.99232E-04         0.00000E+00
    0.23363E-02         0.10561E-03         0.00000E+00
    0.23282E-02         0.11195E-03         0.00000E+00
    0.23179E-02         0.11822E-03         0.00000E+00
    0.23055E-02         0.12439E-03         0.00000E+00
    0.22910E-02         0.13045E-03         0.00000E+00
    0.22744E-02         0.13637E-03         0.00000E+00
    0.22558E-02         0.14213E-03         0.00000E+00
    0.22352E-02         0.14771E-03         0.00000E+00
    0.22125E-02         0.15309E-03         0.00000E+00
    0.21879E-02         0.15825E-03         0.00000E+00
    0.21613E-02         0.16317E-03         0.00000E+00
    0.21328E-02         0.16782E-03         0.00000E+00
    0.21023E-02         0.17219E-03         0.00000E+00
    0.20700E-02         0.17625E-03         0.00000E+00
    0.20359E-02         0.18000E-03         0.00000E+00
    0.19999E-02         0.18340E-03         0.00000E+00
    0.19621E-02         0.18644E-03         0.00000E+00
    0.19225E-02         0.18910E-03         0.00000E+00
    0.18812E-02         0.19136E-03         0.00000E+00
    0.18382E-02         0.19321E-03         0.00000E+00
    0.17935E-02         0.19463E-03         0.00000E+00
    0.17472E-02         0.19560E-03         0.00000E+00
    0.16992E-02         0.19611E-03         0.00000E+00
    0.16497E-02         0.19613E-03         0.00000E+00
    0.15986E-02         0.19566E-03         0.00000E+00
    0.15460E-02         0.19467E-03         0.00000E+00
    0.14919E-02         0.19315E-03         0.00000E+00
    0.14364E-02         0.19109E-03         0.00000E+00
    0.13794E-02         0.18847E-03         0.00000E+00
    0.13211E-02         0.18528E-03         0.00000E+00
    0.12614E-02         0.18150E-03         0.00000E+00
    0.12004E-02         0.17713E-03         0.00000E+00
    0.11381E-02         0.17214E-03         0.00000E+00
    0.10746E-02         0.16653E-03         0.00000E+00
    0.10099E-02         0.16028E-03         0.00000E+00
    0.94406E-03         0.15338E-03         0.00000E+00
    0.87708E-03         0.14582E-03         0.00000E+00
    0.80901E-03         0.13759E-03         0.00000E+00
    0.73990E-03         0.12868E-03         0.00000E+00
    0.66978E-03         0.11908E-03         0.00000E+00
    0.59869E-03         0.10877E-03         0.00000E+00
    0.52667E-03         0.97752E-04         0.00000E+00
    0.45377E-03         0.86014E-04         0.00000E+00
    0.38002E-03         0.73546E-04         0.00000E+00
    0.30547E-03         0.60342E-04         0.00000E+00
    0.23015E-03         0.46392E-04         0.00000E+00
    0.15410E-03         0.31690E-04         0.00000E+00
    0.77371E-04         0.16228E-04         0.00000E+00
    0.00000E+00         0.00000E+00         0.00000E+00
    0.26079E-02         0.76407E-04         0.00000E+00
    0.26029E-02         0.83880E-04         0.00000E+00
    0.25955E-02         0.91326E-04         0.00000E+00
    0.25857E-02         0.98722E-04         0.00000E+00
    0.25736E-02         0.10604E-03         0.00000E+00
    0.25592E-02         0.11326E-03         0.00000E+00
    0.25424E-02         0.12035E-03         0.00000E+00
    0.25235E-02         0.12730E-03         0.00000E+00
    0.25022E-02         0.13407E-03         0.00000E+00
    0.24788E-02         0.14064E-03         0.00000E+00
    0.24531E-02         0.14700E-03         0.00000E+00
    0.24253E-02         0.15311E-03         0.00000E+00
    0.23953E-02         0.15896E-03         0.00000E+00
    0.23632E-02         0.16452E-03         0.00000E+00
    0.23291E-02         0.16977E-03         0.00000E+00
    0.22928E-02         0.17470E-03         0.00000E+00
    0.22546E-02         0.17927E-03         0.00000E+00
    0.22143E-02         0.18347E-03         0.00000E+00
    0.21721E-02         0.18727E-03         0.00000E+00
    0.21280E-02         0.19067E-03         0.00000E+00
    0.20820E-02         0.19363E-03         0.00000E+00
    0.20341E-02         0.19614E-03         0.00000E+00
    0.19843E-02         0.19818E-03         0.00000E+00
    0.19328E-02         0.19974E-03         0.00000E+00
    0.18795E-02         0.20078E-03         0.00000E+00
    0.18244E-02         0.20131E-03         0.00000E+00
    0.17677E-02         0.20129E-03         0.00000E+00
    0.17093E-02         0.20071E-03         0.00000E+00
    0.16493E-02         0.19955E-03         0.00000E+00
    0.15878E-02         0.19781E-03         0.00000E+00
    0.15246E-02         0.19546E-03         0.00000E+00
    0.14600E-02         0.19248E-03         0.00000E+00
    0.13939E-02         0.18887E-03         0.00000E+00
    0.13264E-02         0.18460E-03         0.00000E+00
    0.12575E-02         0.17966E-03         0.00000E+00
    0.11872E-02         0.17405E-03         0.00000E+00
    0.11157E-02         0.16774E-03         0.00000E+00
    0.10428E-02         0.16072E-03         0.00000E+00
    0.96878E-03         0.15299E-03         0.00000E+00
    0.89354E-03         0.14452E-03         0.00000E+00
    0.81716E-03         0.13531E-03         0.00000E+00
    0.73967E-03         0.12534E-03         0.00000E+00
    0.66114E-03         0.11461E-03         0.00000E+00
    0.58158E-03         0.10310E-03         0.00000E+00
    0.50106E-03         0.90805E-04         0.00000E+00
    0.41961E-03         0.77713E-04         0.00000E+00
    0.33728E-03         0.63815E-04         0.00000E+00
    0.25410E-03         0.49103E-04         0.00000E+00
    0.17014E-03         0.33568E-04         0.00000E+00
    0.85421E-04         0.17203E-04         0.00000E+00
    0.00000E+00         0.00000E+00         0.00000E+00
    0.28968E-02         0.53974E-04         0.00000E+00
    0.28904E-02         0.62682E-04         0.00000E+00
    0.28813E-02         0.71363E-04         0.00000E+00
    0.28696E-02         0.79988E-04         0.00000E+00
    0.28554E-02         0.88529E-04         0.00000E+00
    0.28386E-02         0.96962E-04         0.00000E+00
    0.28193E-02         0.10526E-03         0.00000E+00
    0.27976E-02         0.11339E-03         0.00000E+00
    0.27734E-02         0.12134E-03         0.00000E+00
    0.27467E-02         0.12907E-03         0.00000E+00
    0.27177E-02         0.13656E-03         0.00000E+00
    0.26863E-02         0.14379E-03         0.00000E+00
    0.26525E-02         0.15073E-03         0.00000E+00
    0.26164E-02         0.15736E-03         0.00000E+00
    0.25781E-02         0.16366E-03         0.00000E+00
    0.25375E-02         0.16959E-03         0.00000E+00
    0.24947E-02         0.17515E-03         0.00000E+00
    0.24498E-02         0.18030E-03         0.00000E+00
    0.24027E-02         0.18502E-03         0.00000E+00
    0.23535E-02         0.18930E-03         0.00000E+00
    0.23022E-02         0.19310E-03         0.00000E+00
    0.22488E-02         0.19642E-03         0.00000E+00
    0.21935E-02         0.19923E-03         0.00000E+00
    0.21362E-02         0.20150E-03         0.00000E+00
    0.20770E-02         0.20322E-03         0.00000E+00
    0.20160E-02         0.20438E-03         0.00000E+00
    0.19530E-02         0.20494E-03         0.00000E+00
    0.18883E-02         0.20490E-03         0.00000E+00
    0.18218E-02         0.20424E-03         0.00000E+00
    0.17536E-02         0.20293E-03         0.00000E+00
    0.16837E-02         0.20095E-03         0.00000E+00
    0.16122E-02         0.19831E-03         0.00000E+00
    0.15390E-02         0.19496E-03         0.00000E+00
    0.14644E-02         0.19091E-03         0.00000E+00
    0.13882E-02         0.18614E-03         0.00000E+00
    0.13105E-02         0.18062E-03         0.00000E+00
    0.12314E-02         0.17435E-03         0.00000E+00
    0.11509E-02         0.16730E-03         0.00000E+00
    0.10691E-02         0.15948E-03         0.00000E+00
    0.98603E-03         0.15085E-03         0.00000E+00
    0.90168E-03         0.14142E-03         0.00000E+00
    0.81614E-03         0.13117E-03         0.00000E+00
    0.72945E-03         0.12008E-03         0.00000E+00
    0.64165E-03         0.10814E-03         0.00000E+00
    0.55278E-03         0.95346E-04         0.00000E+00
    0.46291E-03         0.81683E-04         0.00000E+00
    0.37207E-03         0.67142E-04         0.00000E+00
    0.28031E-03         0.51712E-04         0.00000E+00
    0.18768E-03         0.35385E-04         0.00000E+00
    0.94226E-04         0.18150E-04         0.00000E+00
    0.00000E+00         0.00000E+00         0.00000E+00
    0.32153E-02         0.24286E-04         0.00000E+00
    0.32071E-02         0.34426E-04         0.00000E+00
    0.31960E-02         0.44535E-04         0.00000E+00
    0.31822E-02         0.54583E-04         0.00000E+00
    0.31655E-02         0.64541E-04         0.00000E+00
    0.31460E-02         0.74380E-04         0.00000E+00
    0.31239E-02         0.84072E-04         0.00000E+00
    0.30990E-02         0.93587E-04         0.00000E+00
    0.30714E-02         0.10290E-03         0.00000E+00
    0.30411E-02         0.11198E-03         0.00000E+00
    0.30083E-02         0.12080E-03         0.00000E+00
    0.29729E-02         0.12933E-03         0.00000E+00
    0.29349E-02         0.13755E-03         0.00000E+00
    0.28944E-02         0.14543E-03         0.00000E+00
    0.28514E-02         0.15295E-03         0.00000E+00
    0.28059E-02         0.16008E-03         0.00000E+00
    0.27581E-02         0.16680E-03         0.00000E+00
    0.27079E-02         0.17308E-03         0.00000E+00
    0.26553E-02         0.17889E-03         0.00000E+00
    0.26005E-02         0.18422E-03         0.00000E+00
    0.25434E-02         0.18905E-03         0.00000E+00
    0.24841E-02         0.19334E-03         0.00000E+00
    0.24226E-02         0.19707E-03         0.00000E+00
    0.23590E-02         0.20023E-03         0.00000E+00
    0.22933E-02         0.20279E-03         0.00000E+00
    0.22256E-02         0.20474E-03         0.00000E+00
    0.21558E-02         0.20605E-03         0.00000E+00
    0.20841E-02         0.20669E-03         0.00000E+00
    0.20105E-02         0.20666E-03         0.00000E+00
    0.19350E-02         0.20593E-03         0.00000E+00
    0.18577E-02         0.20449E-03         0.00000E+00
    0.17786E-02         0.20230E-03         0.00000E+00
    0.16977E-02         0.19937E-03         0.00000E+00
    0.16152E-02         0.19567E-03         0.00000E+00
    0.15310E-02         0.19117E-03         0.00000E+00
    0.14452E-02         0.18588E-03         0.00000E+00
    0.13579E-02         0.17976E-03         0.00000E+00
    0.12691E-02         0.17281E-03         0.00000E+00
    0.11788E-02         0.16500E-03         0.00000E+00
    0.10871E-02         0.15633E-03         0.00000E+00
    0.99404E-03         0.14678E-03         0.00000E+00
    0.89968E-03         0.13633E-03         0.00000E+00
    0.80407E-03         0.12498E-03         0.00000E+00
    0.70726E-03         0.11271E-03         0.00000E+00
    0.60928E-03         0.99497E-04         0.00000E+00
    0.51020E-03         0.85343E-04         0.00000E+00
    0.41007E-03         0.70232E-04         0.00000E+00
    0.30893E-03         0.54152E-04         0.00000E+00
    0.20683E-03         0.37094E-04         0.00000E+00
    0.10384E-03         0.19046E-04         0.00000E+00
    0.00000E+00         0.00000E+00         0.00000E+00
    0.35659E-02        -0.14096E-04         0.00000E+00
    0.35557E-02        -0.23021E-05         0.00000E+00
    0.35423E-02         0.94587E-05         0.00000E+00
    0.35259E-02         0.21154E-04         0.00000E+00
    0.35064E-02         0.32752E-04         0.00000E+00
    0.34839E-02         0.44220E-04         0.00000E+00
    0.34584E-02         0.55529E-04         0.00000E+00
    0.34299E-02         0.66646E-04         0.00000E+00
    0.33985E-02         0.77542E-04         0.00000E+00
    0.33642E-02         0.88187E-04         0.00000E+00
    0.33271E-02         0.98551E-04         0.00000E+00
    0.32872E-02         0.10861E-03         0.00000E+00
    0.32444E-02         0.11832E-03         0.00000E+00
    0.31990E-02         0.12767E-03         0.00000E+00
    0.31508E-02         0.13663E-03         0.00000E+00
    0.31000E-02         0.14516E-03         0.00000E+00
    0.30465E-02         0.15325E-03         0.00000E+00
    0.29905E-02         0.16086E-03         0.00000E+00
    0.29319E-02         0.16798E-03         0.00000E+00
    0.28709E-02         0.17456E-03         0.00000E+00
    0.28074E-02         0.18060E-03         0.00000E+00
    0.27415E-02         0.18606E-03         0.00000E+00
    0.26732E-02         0.19092E-03         0.00000E+00
    0.26027E-02         0.19516E-03         0.00000E+00
    0.25298E-02         0.19875E-03         0.00000E+00
    0.24547E-02         0.20167E-03         0.00000E+00
    0.23775E-02         0.20390E-03         0.00000E+00
    0.22981E-02         0.20542E-03         0.00000E+00
    0.22167E-02         0.20620E-03         0.00000E+00
    0.21332E-02         0.20623E-03         0.00000E+00
    0.20477E-02         0.20548E-03         0.00000E+00
    0.19603E-02         0.20393E-03         0.00000E+00
    0.18710E-02         0.20157E-03         0.00000E+00
    0.17799E-02         0.19838E-03         0.00000E+00
    0.16869E-02         0.19433E-03         0.00000E+00
    0.15923E-02         0.18940E-03         0.00000E+00
    0.14959E-02         0.18359E-03         0.00000E+00
    0.13980E-02         0.17687E-03         0.00000E+00
    0.12984E-02         0.16923E-03         0.00000E+00
    0.11974E-02         0.16065E-03         0.00000E+00
    0.10948E-02         0.15111E-03         0.00000E+00
    0.99083E-03         0.14060E-03         0.00000E+00
    0.88549E-03         0.12910E-03         0.00000E+00
    0.77883E-03         0.11661E-03         0.00000E+00
    0.67091E-03         0.10309E-03         0.00000E+00
    0.56179E-03         0.88555E-04         0.00000E+00
    0.45152E-03         0.72974E-04         0.00000E+00
    0.34014E-03         0.56340E-04         0.00000E+00
    0.22773E-03         0.38641E-04         0.00000E+00
    0.11433E-03         0.19864E-04         0.00000E+00
    0.00000E+00         0.00000E+00         0.00000E+00
    0.39514E-02        -0.62840E-04         0.00000E+00
    0.39388E-02        -0.49135E-04         0.00000E+00
    0.39228E-02        -0.35466E-04         0.00000E+00
    0.39034E-02        -0.21868E-04         0.00000E+00
    0.38807E-02        -0.83750E-05         0.00000E+00
    0.38546E-02         0.49781E-05         0.00000E+00
    0.38253E-02         0.18158E-04         0.00000E+00
    0.37928E-02         0.31131E-04         0.00000E+00
    0.37571E-02         0.43866E-04         0.00000E+00
    0.37183E-02         0.56328E-04         0.00000E+00
    0.36764E-02         0.68488E-04         0.00000E+00
    0.36314E-02         0.80313E-04         0.00000E+00
    0.35833E-02         0.91773E-04         0.00000E+00
    0.35324E-02         0.10284E-03         0.00000E+00
    0.34784E-02         0.11348E-03         0.00000E+00
    0.34216E-02         0.12366E-03         0.00000E+00
    0.33620E-02         0.13336E-03         0.00000E+00
    0.32995E-02         0.14255E-03         0.00000E+00
    0.32343E-02         0.15119E-03         0.00000E+00
    0.31664E-02         0.15927E-03         0.00000E+00
    0.30958E-02         0.16676E-03         0.00000E+00
    0.30226E-02         0.17362E-03         0.00000E+00
    0.29469E-02         0.17983E-03         0.00000E+00
    0.28687E-02         0.18537E-03         0.00000E+00
    0.27880E-02         0.19022E-03         0.00000E+00
    0.27049E-02         0.19434E-03         0.00000E+00
    0.26194E-02         0.19771E-03         0.00000E+00
    0.25316E-02         0.20031E-03         0.00000E+00
    0.24416E-02         0.20212E-03         0.00000E+00
    0.23493E-02         0.20311E-03         0.00000E+00
    0.22549E-02         0.20327E-03         0.00000E+00
    0.21584E-02         0.20256E-03         0.00000E+00
    0.20599E-02         0.20097E-03         0.00000E+00
    0.19594E-02         0.19847E-03         0.00000E+00
    0.18569E-02         0.19505E-03         0.00000E+00
    0.17526E-02         0.19069E-03         0.00000E+00
    0.16464E-02         0.18537E-03         0.00000E+00
    0.15385E-02         0.17906E-03         0.00000E+00
    0.14288E-02         0.17176E-03         0.00000E+00
    0.13175E-02         0.16343E-03         0.00000E+00
    0.12046E-02         0.15407E-03         0.00000E+00
    0.10901E-02         0.14366E-03         0.00000E+00
    0.97417E-03         0.13217E-03         0.00000E+00
    0.85679E-03         0.11961E-03         0.00000E+00
    0.73804E-03         0.10594E-03         0.00000E+00
    0.61798E-03         0.91152E-04         0.00000E+00
    0.49666E-03         0.75237E-04         0.00000E+00
    0.37414E-03         0.58178E-04         0.00000E+00
    0.25049E-03         0.39960E-04         0.00000E+00
    0.12575E-03         0.20572E-04         0.00000E+00
    0.00000E+00         0.00000E+00         0.00000E+00
    0.43748E-02        -0.12387E-03         0.00000E+00
    0.43594E-02        -0.10796E-03         0.00000E+00
    0.43402E-02        -0.92088E-04         0.00000E+00
    0.43174E-02        -0.76293E-04         0.00000E+00
    0.42910E-02        -0.60613E-04         0.00000E+00
    0.42609E-02        -0.45083E-04         0.00000E+00
    0.42274E-02        -0.29740E-04         0.00000E+00
    0.41903E-02        -0.14619E-04         0.00000E+00
    0.41497E-02         0.24312E-06         0.00000E+00
    0.41058E-02         0.14813E-04         0.00000E+00
    0.40585E-02         0.29056E-04         0.00000E+00
    0.40078E-02         0.42938E-04         0.00000E+00
    0.39539E-02         0.56426E-04         0.00000E+00
    0.38967E-02         0.69488E-04         0.00000E+00
    0.38364E-02         0.82092E-04         0.00000E+00
    0.37730E-02         0.94204E-04         0.00000E+00
    0.37064E-02         0.10580E-03         0.00000E+00
    0.36369E-02         0.11684E-03         0.00000E+00
    0.35643E-02         0.12729E-03         0.00000E+00
    0.34888E-02         0.13714E-03         0.00000E+00
    0.34105E-02         0.14634E-03         0.00000E+00
    0.33293E-02         0.15487E-03         0.00000E+00
    0.32454E-02         0.16271E-03         0.00000E+00
    0.31587E-02         0.16982E-03         0.00000E+00
    0.30694E-02         0.17618E-03         0.00000E+00
    0.29774E-02         0.18176E-03         0.00000E+00
    0.28829E-02         0.18653E-03         0.00000E+00
    0.27860E-02         0.19047E-03         0.00000E+00
    0.26865E-02         0.19356E-03         0.00000E+00
    0.25847E-02         0.19576E-03         0.00000E+00
    0.24806E-02         0.19706E-03         0.00000E+00
    0.23742E-02         0.19743E-03         0.00000E+00
    0.22656E-02         0.19684E-03         0.00000E+00
    0.21548E-02         0.19529E-03         0.00000E+00
    0.20419E-02         0.19273E-03         0.00000E+00
    0.19270E-02         0.18916E-03         0.00000E+00
    0.18101E-02         0.18454E-03         0.00000E+00
    0.16913E-02         0.17887E-03         0.00000E+00
    0.15707E-02         0.17211E-03         0.00000E+00
    0.14482E-02         0.16425E-03         0.00000E+00
    0.13240E-02         0.15528E-03         0.00000E+00
    0.11981E-02         0.14516E-03         0.00000E+00
    0.10706E-02         0.13388E-03         0.00000E+00
    0.94158E-03         0.12143E-03         0.00000E+00
    0.81105E-03         0.10779E-03         0.00000E+00
    0.67908E-03         0.92942E-04         0.00000E+00
    0.54575E-03         0.76866E-04         0.00000E+00
    0.41111E-03         0.59548E-04         0.00000E+00
    0.27523E-03         0.40975E-04         0.00000E+00
    0.13817E-03         0.21130E-04         0.00000E+00
    0.00000E+00         0.00000E+00         0.00000E+00
    0.48392E-02        -0.19939E-03         0.00000E+00
    0.48204E-02        -0.18094E-03         0.00000E+00
    0.47976E-02        -0.16253E-03         0.00000E+00
    0.47709E-02        -0.14420E-03         0.00000E+00
    0.47402E-02        -0.12600E-03         0.00000E+00
    0.47056E-02        -0.10796E-03         0.00000E+00
    0.46671E-02        -0.90120E-04         0.00000E+00
    0.46249E-02        -0.72520E-04         0.00000E+00
    0.45789E-02        -0.55197E-04         0.00000E+00
    0.45292E-02        -0.38189E-04         0.00000E+00
    0.44758E-02        -0.21532E-04         0.00000E+00
    0.44189E-02        -0.52638E-05         0.00000E+00
    0.43584E-02         0.10581E-04         0.00000E+00
    0.42944E-02         0.25968E-04         0.00000E+00
    0.42270E-02         0.40862E-04         0.00000E+00
    0.41562E-02         0.55228E-04         0.00000E+00
    0.40820E-02         0.69034E-04         0.00000E+00
    0.40046E-02         0.82246E-04         0.00000E+00
    0.39240E-02         0.94832E-04         0.00000E+00
    0.38401E-02         0.10676E-03         0.00000E+00
    0.37532E-02         0.11800E-03         0.00000E+00
    0.36633E-02         0.12852E-03         0.00000E+00
    0.35703E-02         0.13828E-03         0.00000E+00
    0.34744E-02         0.14727E-03         0.00000E+00
    0.33756E-02         0.15545E-03         0.00000E+00
    0.32740E-02         0.16279E-03         0.00000E+00
    0.31697E-02         0.16926E-03         0.00000E+00
    0.30626E-02         0.17484E-03         0.00000E+00
    0.29530E-02         0.17950E-03         0.00000E+00
    0.28407E-02         0.18321E-03         0.00000E+00
    0.27259E-02         0.18594E-03         0.00000E+00
    0.26087E-02         0.18767E-03         0.00000E+00
    0.24891E-02         0.18838E-03         0.00000E+00
    0.23671E-02         0.18804E-03         0.00000E+00
    0.22429E-02         0.18662E-03         0.00000E+00
    0.21165E-02         0.18411E-03         0.00000E+00
    0.19880E-02         0.18047E-03         0.00000E+00
    0.18574E-02         0.17569E-03         0.00000E+00
    0.17247E-02         0.16974E-03         0.00000E+00
    0.15901E-02         0.16261E-03         0.00000E+00
    0.14537E-02         0.15426E-03         0.00000E+00
    0.13154E-02         0.14469E-03         0.00000E+00
    0.11754E-02         0.13386E-03         0.00000E+00
    0.10336E-02         0.12177E-03         0.00000E+00
    0.89031E-03         0.10838E-03         0.00000E+00
    0.74542E-03         0.93693E-04         0.00000E+00
    0.59904E-03         0.77675E-04         0.00000E+00
    0.45124E-03         0.60314E-04         0.00000E+00
    0.30209E-03         0.41592E-04         0.00000E+00
    0.15166E-03         0.21493E-04         0.00000E+00
    0.00000E+00         0.00000E+00         0.00000E+00
    0.53476E-02        -0.29193E-03         0.00000E+00
    0.53250E-02        -0.27055E-03         0.00000E+00
    0.52981E-02        -0.24923E-03         0.00000E+00
    0.52668E-02        -0.22799E-03         0.00000E+00
    0.52312E-02        -0.20688E-03         0.00000E+00
    0.51914E-02        -0.18595E-03         0.00000E+00
    0.51475E-02        -0.16523E-03         0.00000E+00
    0.50994E-02        -0.14477E-03         0.00000E+00
    0.50473E-02        -0.12460E-03         0.00000E+00
    0.49911E-02        -0.10478E-03         0.00000E+00
    0.49310E-02        -0.85329E-04         0.00000E+00
    0.48671E-02        -0.66297E-04         0.00000E+00
    0.47993E-02        -0.47718E-04         0.00000E+00
    0.47277E-02        -0.29632E-04         0.00000E+00
    0.46524E-02        -0.12074E-04         0.00000E+00
    0.45734E-02         0.49182E-05         0.00000E+00
    0.44909E-02         0.21309E-04         0.00000E+00
    0.44048E-02         0.37064E-04         0.00000E+00
    0.43153E-02         0.52147E-04         0.00000E+00
    0.42223E-02         0.66524E-04         0.00000E+00
    0.41259E-02         0.80162E-04         0.00000E+00
    0.40263E-02         0.93028E-04         0.00000E+00
    0.39235E-02         0.10509E-03         0.00000E+00
    0.38175E-02         0.11631E-03         0.00000E+00
    0.37084E-02         0.12667E-03         0.00000E+00
    0.35962E-02         0.13612E-03         0.00000E+00
    0.34811E-02         0.14465E-03         0.00000E+00
    0.33631E-02         0.15221E-03         0.00000E+00
    0.32422E-02         0.15879E-03         0.00000E+00
    0.31186E-02         0.16434E-03         0.00000E+00
    0.29922E-02         0.16885E-03         0.00000E+00
    0.28632E-02         0.17229E-03         0.00000E+00
    0.27316E-02         0.17462E-03         0.00000E+00
    0.25975E-02         0.17583E-03         0.00000E+00
    0.24610E-02         0.17588E-03         0.00000E+00
    0.23221E-02         0.17474E-03         0.00000E+00
    0.21809E-02         0.17241E-03         0.00000E+00
    0.20374E-02         0.16884E-03         0.00000E+00
    0.18918E-02         0.16401E-03         0.00000E+00
    0.17440E-02         0.15791E-03         0.00000E+00
    0.15943E-02         0.15050E-03         0.00000E+00
    0.14425E-02         0.14177E-03         0.00000E+00
    0.12889E-02         0.13168E-03         0.00000E+00
    0.11334E-02         0.12023E-03         0.00000E+00
    0.97623E-03         0.10739E-03         0.00000E+00
    0.81733E-03         0.93138E-04         0.00000E+00
    0.65681E-03         0.77452E-04         0.00000E+00
    0.49475E-03         0.60314E-04         0.00000E+00
    0.33121E-03         0.41706E-04         0.00000E+00
    0.16627E-03         0.21607E-04         0.00000E+00
    0.00000E+00         0.00000E+00         0.00000E+00
    0.59036E-02        -0.40437E-03         0.00000E+00
    0.58765E-02        -0.37964E-03         0.00000E+00
    0.58447E-02        -0.35495E-03         0.00000E+00
    0.58082E-02        -0.33036E-03         0.00000E+00
    0.57671E-02        -0.30592E-03         0.00000E+00
    0.57214E-02        -0.28165E-03         0.00000E+00
    0.56712E-02        -0.25762E-03         0.00000E+00
    0.56166E-02        -0.23387E-03         0.00000E+00
    0.55576E-02        -0.21043E-03         0.00000E+00
    0.54943E-02        -0.18735E-03         0.00000E+00
    0.54267E-02        -0.16468E-03         0.00000E+00
    0.53549E-02        -0.14245E-03         0.00000E+00
    0.52790E-02        -0.12071E-03         0.00000E+00
    0.51990E-02        -0.99497E-04         0.00000E+00
    0.51150E-02        -0.78847E-04         0.00000E+00
    0.50271E-02        -0.58801E-04         0.00000E+00
    0.49352E-02        -0.39398E-04         0.00000E+00
    0.48396E-02        -0.20677E-04         0.00000E+00
    0.47403E-02        -0.26728E-05         0.00000E+00
    0.46372E-02         0.14576E-04         0.00000E+00
    0.45306E-02         0.31034E-04         0.00000E+00
    0.44204E-02         0.46666E-04         0.00000E+00
    0.43067E-02         0.61436E-04         0.00000E+00
    0.41897E-02         0.75311E-04         0.00000E+00
    0.40693E-02         0.88256E-04         0.00000E+00
    0.39456E-02         0.10024E-03         0.00000E+00
    0.38187E-02         0.11122E-03         0.00000E+00
    0.36887E-02         0.12118E-03         0.00000E+00
    0.35557E-02         0.13008E-03         0.00000E+00
    0.34197E-02         0.13789E-03         0.00000E+00
    0.32807E-02         0.14457E-03         0.00000E+00
    0.31389E-02         0.15011E-03         0.00000E+00
    0.29943E-02         0.15446E-03         0.00000E+00
    0.28471E-02         0.15760E-03         0.00000E+00
    0.26971E-02         0.15951E-03         0.00000E+00
    0.25447E-02         0.16014E-03         0.00000E+00
    0.23897E-02         0.15948E-03         0.00000E+00
    0.22323E-02         0.15750E-03         0.00000E+00
    0.20726E-02         0.15417E-03         0.00000E+00
    0.19106E-02         0.14947E-03         0.00000E+00
    0.17464E-02         0.14336E-03         0.00000E+00
    0.15801E-02         0.13583E-03         0.00000E+00
    0.14118E-02         0.12685E-03         0.00000E+00
    0.12414E-02         0.11639E-03         0.00000E+00
    0.10692E-02         0.10444E-03         0.00000E+00
    0.89513E-03         0.90965E-04         0.00000E+00
    0.71931E-03         0.75946E-04         0.00000E+00
    0.54181E-03         0.59362E-04         0.00000E+00
    0.36271E-03         0.41190E-04         0.00000E+00
    0.18208E-03         0.21410E-04         0.00000E+00
    0.00000E+00         0.00000E+00         0.00000E+00
    0.65105E-02        -0.53999E-03         0.00000E+00
    0.64783E-02        -0.51140E-03         0.00000E+00
    0.64409E-02        -0.48287E-03         0.00000E+00
    0.63984E-02        -0.45443E-03         0.00000E+00
    0.63510E-02        -0.42615E-03         0.00000E+00
    0.62987E-02        -0.39806E-03         0.00000E+00
    0.62415E-02        -0.37023E-03         0.00000E+00
    0.61795E-02        -0.34268E-03         0.00000E+00
    0.61128E-02        -0.31548E-03         0.00000E+00
    0.60414E-02        -0.28866E-03         0.00000E+00
    0.59654E-02        -0.26227E-03         0.00000E+00
    0.58849E-02        -0.23635E-03         0.00000E+00
    0.58000E-02        -0.21096E-03         0.00000E+00
    0.57107E-02        -0.18612E-03         0.00000E+00
    0.56171E-02        -0.16189E-03         0.00000E+00
    0.55193E-02        -0.13830E-03         0.00000E+00
    0.54173E-02        -0.11540E-03         0.00000E+00
    0.53112E-02        -0.93219E-04         0.00000E+00
    0.52010E-02        -0.71809E-04         0.00000E+00
    0.50870E-02        -0.51203E-04         0.00000E+00
    0.49690E-02        -0.31441E-04         0.00000E+00
    0.48473E-02        -0.12561E-04         0.00000E+00
    0.47218E-02         0.54007E-05         0.00000E+00
    0.45927E-02         0.22406E-04         0.00000E+00
    0.44600E-02         0.38419E-04         0.00000E+00
    0.43238E-02         0.53405E-04         0.00000E+00
    0.41841E-02         0.67327E-04         0.00000E+00
    0.40411E-02         0.80151E-04         0.00000E+00
    0.38948E-02         0.91844E-04         0.00000E+00
    0.37453E-02         0.10237E-03         0.00000E+00
    0.35927E-02         0.11170E-03         0.00000E+00
    0.34370E-02         0.11980E-03         0.00000E+00
    0.32783E-02         0.12663E-03         0.00000E+00
    0.31168E-02         0.13217E-03         0.00000E+00
    0.29524E-02         0.13638E-03         0.00000E+00
    0.27852E-02         0.13924E-03         0.00000E+00
    0.26154E-02         0.14071E-03         0.00000E+00
    0.24429E-02         0.14076E-03         0.00000E+00
    0.22680E-02         0.13937E-03         0.00000E+00
    0.20906E-02         0.13650E-03         0.00000E+00
    0.19108E-02         0.13213E-03         0.00000E+00
    0.17287E-02         0.12624E-03         0.00000E+00
    0.15445E-02         0.11878E-03         0.00000E+00
    0.13581E-02         0.10974E-03         0.00000E+00
    0.11696E-02         0.99096E-04         0.00000E+00
    0.97914E-03         0.86813E-04         0.00000E+00
    0.78680E-03         0.72869E-04         0.00000E+00
    0.59263E-03         0.57240E-04         0.00000E+00
    0.39672E-03         0.39901E-04         0.00000E+00
    0.19915E-03         0.20829E-04         0.00000E+00
    0.00000E+00         0.00000E+00         0.00000E+00
    0.71719E-02        -0.70250E-03         0.00000E+00
    0.71337E-02        -0.66949E-03         0.00000E+00
    0.70899E-02        -0.63655E-03         0.00000E+00
    0.70407E-02        -0.60370E-03         0.00000E+00
    0.69861E-02        -0.57102E-03         0.00000E+00
    0.69262E-02        -0.53855E-03         0.00000E+00
    0.68611E-02        -0.50635E-03         0.00000E+00
    0.67909E-02        -0.47445E-03         0.00000E+00
    0.67155E-02        -0.44292E-03         0.00000E+00
    0.66352E-02        -0.41179E-03         0.00000E+00
    0.65499E-02        -0.38112E-03         0.00000E+00
    0.64598E-02        -0.35096E-03         0.00000E+00
    0.63649E-02        -0.32135E-03         0.00000E+00
    0.62653E-02        -0.29233E-03         0.00000E+00
    0.61611E-02        -0.26396E-03         0.00000E+00
    0.60524E-02        -0.23627E-03         0.00000E+00
    0.59392E-02        -0.20931E-03         0.00000E+00
    0.58216E-02        -0.18312E-03         0.00000E+00
    0.56997E-02        -0.15774E-03         0.00000E+00
    0.55735E-02        -0.13323E-03         0.00000E+00
    0.54433E-02        -0.10960E-03         0.00000E+00
    0.53089E-02        -0.86920E-04         0.00000E+00
    0.51705E-02        -0.65215E-04         0.00000E+00
    0.50283E-02        -0.44526E-04         0.00000E+00
    0.48822E-02        -0.24893E-04         0.00000E+00
    0.47323E-02        -0.63543E-05         0.00000E+00
    0.45787E-02         0.11053E-04         0.00000E+00
    0.44216E-02         0.27290E-04         0.00000E+00
    0.42610E-02         0.42322E-04         0.00000E+00
    0.40969E-02         0.56112E-04         0.00000E+00
    0.39294E-02         0.68625E-04         0.00000E+00
    0.37587E-02         0.79825E-04         0.00000E+00
    0.35848E-02         0.89678E-04         0.00000E+00
    0.34077E-02         0.98149E-04         0.00000E+00
    0.32276E-02         0.10520E-03         0.00000E+00
    0.30446E-02         0.11081E-03         0.00000E+00
    0.28587E-02         0.11494E-03         0.00000E+00
    0.26700E-02         0.11755E-03         0.00000E+00
    0.24786E-02         0.11862E-03         0.00000E+00
    0.22846E-02         0.11811E-03         0.00000E+00
    0.20880E-02         0.11600E-03         0.00000E+00
    0.18889E-02         0.11225E-03         0.00000E+00
    0.16875E-02         0.10683E-03         0.00000E+00
    0.14838E-02         0.99708E-04         0.00000E+00
    0.12778E-02         0.90865E-04         0.00000E+00
    0.10697E-02         0.80268E-04         0.00000E+00
    0.85954E-03         0.67888E-04         0.00000E+00
    0.64741E-03         0.53698E-04         0.00000E+00
    0.43338E-03         0.37672E-04         0.00000E+00
    0.21755E-03         0.19781E-04         0.00000E+00
    0.00000E+00         0.00000E+00         0.00000E+00
    0.78913E-02        -0.89609E-03         0.00000E+00
    0.78462E-02        -0.85803E-03         0.00000E+00
    0.77951E-02        -0.82003E-03         0.00000E+00
    0.77382E-02        -0.78214E-03         0.00000E+00
    0.76756E-02        -0.74443E-03         0.00000E+00
    0.76072E-02        -0.70693E-03         0.00000E+00
    0.75332E-02        -0.66972E-03         0.00000E+00
    0.74537E-02        -0.63284E-03         0.00000E+00
    0.73688E-02        -0.59633E-03         0.00000E+00
    0.72784E-02        -0.56027E-03         0.00000E+00
    0.71829E-02        -0.52468E-03         0.00000E+00
    0.70821E-02        -0.48964E-03         0.00000E+00
    0.69762E-02        -0.45517E-03         0.00000E+00
    0.68653E-02        -0.42134E-03         0.00000E+00
    0.67494E-02        -0.38818E-03         0.00000E+00
    0.66287E-02        -0.35576E-03         0.00000E+00
    0.65032E-02        -0.32410E-03         0.00000E+00
    0.63730E-02        -0.29326E-03         0.00000E+00
    0.62382E-02        -0.26329E-03         0.00000E+00
    0.60988E-02        -0.23422E-03         0.00000E+00
    0.59551E-02        -0.20611E-03         0.00000E+00
    0.58070E-02        -0.17899E-03         0.00000E+00
    0.56546E-02        -0.15290E-03         0.00000E+00
    0.54980E-02        -0.12790E-03         0.00000E+00
    0.53374E-02        -0.10401E-03         0.00000E+00
    0.51727E-02        -0.81285E-04         0.00000E+00
    0.50041E-02        -0.59761E-04         0.00000E+00
    0.48316E-02        -0.39479E-04         0.00000E+00
    0.46554E-02        -0.20477E-04         0.00000E+00
    0.44755E-02        -0.27950E-05         0.00000E+00
    0.42921E-02         0.13530E-04         0.00000E+00
    0.41051E-02         0.28459E-04         0.00000E+00
    0.39147E-02         0.41955E-04         0.00000E+00
    0.37210E-02         0.53982E-04         0.00000E+00
    0.35240E-02         0.64503E-04         0.00000E+00
    0.33238E-02         0.73481E-04         0.00000E+00
    0.31206E-02         0.80882E-04         0.00000E+00
    0.29144E-02         0.86671E-04         0.00000E+00
    0.27053E-02         0.90812E-04         0.00000E+00
    0.24933E-02         0.93271E-04         0.00000E+00
    0.22786E-02         0.94015E-04         0.00000E+00
    0.20613E-02         0.93011E-04         0.00000E+00
    0.18414E-02         0.90225E-04         0.00000E+00
    0.16190E-02         0.85626E-04         0.00000E+00
    0.13942E-02         0.79180E-04         0.00000E+00
    0.11671E-02         0.70857E-04         0.00000E+00
    0.93777E-03         0.60625E-04         0.00000E+00
    0.70632E-03         0.48453E-04         0.00000E+00
    0.47281E-03         0.34312E-04         0.00000E+00
    0.23734E-03         0.18170E-04         0.00000E+00
    0.00000E+00         0.00000E+00         0.00000E+00
    0.86724E-02        -0.11255E-02         0.00000E+00
    0.86194E-02        -0.10816E-02         0.00000E+00
    0.85600E-02        -0.10379E-02         0.00000E+00
    0.84944E-02        -0.99420E-03         0.00000E+00
    0.84226E-02        -0.95073E-03         0.00000E+00
    0.83446E-02        -0.90750E-03         0.00000E+00
    0.82607E-02        -0.86455E-03         0.00000E+00
    0.81709E-02        -0.82196E-03         0.00000E+00
    0.80752E-02        -0.77977E-03         0.00000E+00
    0.79738E-02        -0.73804E-03         0.00000E+00
    0.78668E-02        -0.69682E-03         0.00000E+00
    0.77542E-02        -0.65616E-03         0.00000E+00
    0.76362E-02        -0.61612E-03         0.00000E+00
    0.75128E-02        -0.57675E-03         0.00000E+00
    0.73841E-02        -0.53810E-03         0.00000E+00
    0.72503E-02        -0.50021E-03         0.00000E+00
    0.71113E-02        -0.46313E-03         0.00000E+00
    0.69673E-02        -0.42692E-03         0.00000E+00
    0.68185E-02        -0.39162E-03         0.00000E+00
    0.66648E-02        -0.35728E-03         0.00000E+00
    0.65063E-02        -0.32395E-03         0.00000E+00
    0.63433E-02        -0.29166E-03         0.00000E+00
    0.61757E-02        -0.26047E-03         0.00000E+00
    0.60036E-02        -0.23043E-03         0.00000E+00
    0.58272E-02        -0.20156E-03         0.00000E+00
    0.56464E-02        -0.17392E-03         0.00000E+00
    0.54615E-02        -0.14756E-03         0.00000E+00
    0.52725E-02        -0.12251E-03         0.00000E+00
    0.50795E-02        -0.98811E-04         0.00000E+00
    0.48826E-02        -0.76512E-04         0.00000E+00
    0.46818E-02        -0.55652E-04         0.00000E+00
    0.44773E-02        -0.36270E-04         0.00000E+00
    0.42691E-02        -0.18407E-04         0.00000E+00
    0.40574E-02        -0.21036E-05         0.00000E+00
    0.38422E-02         0.12602E-04         0.00000E+00
    0.36237E-02         0.25670E-04         0.00000E+00
    0.34018E-02         0.37063E-04         0.00000E+00
    0.31767E-02         0.46742E-04         0.00000E+00
    0.29486E-02         0.54670E-04         0.00000E+00
    0.27174E-02         0.60809E-04         0.00000E+00
    0.24832E-02         0.65122E-04         0.00000E+00
    0.22462E-02         0.67574E-04         0.00000E+00
    0.20065E-02         0.68126E-04         0.00000E+00
    0.17641E-02         0.66745E-04         0.00000E+00
    0.15191E-02         0.63395E-04         0.00000E+00
    0.12716E-02         0.58040E-04         0.00000E+00
    0.10217E-02         0.50646E-04         0.00000E+00
    0.76954E-03         0.41178E-04         0.00000E+00
    0.51512E-03         0.29604E-04         0.00000E+00
    0.25858E-03         0.15889E-04         0.00000E+00
    0.00000E+00         0.00000E+00         0.00000E+00
    0.95187E-02        -0.13959E-02         0.00000E+00
    0.94567E-02        -0.13455E-02         0.00000E+00
    0.93879E-02        -0.12951E-02         0.00000E+00
    0.93124E-02        -0.12449E-02         0.00000E+00
    0.92302E-02        -0.11948E-02         0.00000E+00
    0.91416E-02        -0.11451E-02         0.00000E+00
    0.90466E-02        -0.10956E-02         0.00000E+00
    0.89452E-02        -0.10465E-02         0.00000E+00
    0.88377E-02        -0.99776E-03         0.00000E+00
    0.87240E-02        -0.94955E-03         0.00000E+00
    0.86043E-02        -0.90187E-03         0.00000E+00
    0.84787E-02        -0.85479E-03         0.00000E+00
    0.83473E-02        -0.80836E-03         0.00000E+00
    0.82102E-02        -0.76263E-03         0.00000E+00
    0.80675E-02        -0.71765E-03         0.00000E+00
    0.79193E-02        -0.67348E-03         0.00000E+00
    0.77656E-02        -0.63016E-03         0.00000E+00
    0.76066E-02        -0.58776E-03         0.00000E+00
    0.74424E-02        -0.54631E-03         0.00000E+00
    0.72731E-02        -0.50587E-03         0.00000E+00
    0.70987E-02        -0.46649E-03         0.00000E+00
    0.69194E-02        -0.42822E-03         0.00000E+00
    0.67353E-02        -0.39110E-03         0.00000E+00
    0.65464E-02        -0.35518E-03         0.00000E+00
    0.63529E-02        -0.32051E-03         0.00000E+00
    0.61549E-02        -0.28713E-03         0.00000E+00
    0.59523E-02        -0.25510E-03         0.00000E+00
    0.57455E-02        -0.22444E-03         0.00000E+00
    0.55343E-02        -0.19522E-03         0.00000E+00
    0.53190E-02        -0.16747E-03         0.00000E+00
    0.50996E-02        -0.14125E-03         0.00000E+00
    0.48763E-02        -0.11658E-03         0.00000E+00
    0.46490E-02        -0.93520E-04         0.00000E+00
    0.44180E-02        -0.72107E-04         0.00000E+00
    0.41833E-02        -0.52385E-04         0.00000E+00
    0.39449E-02        -0.34396E-04         0.00000E+00
    0.37031E-02        -0.18181E-04         0.00000E+00
    0.34578E-02        -0.37815E-05         0.00000E+00
    0.32092E-02         0.87614E-05         0.00000E+00
    0.29573E-02         0.19407E-04         0.00000E+00
    0.27023E-02         0.28115E-04         0.00000E+00
    0.24443E-02         0.34846E-04         0.00000E+00
    0.21833E-02         0.39560E-04         0.00000E+00
    0.19195E-02         0.42217E-04         0.00000E+00
    0.16528E-02         0.42778E-04         0.00000E+00
    0.13835E-02         0.41206E-04         0.00000E+00
    0.11116E-02         0.37461E-04         0.00000E+00
    0.83722E-03         0.31505E-04         0.00000E+00
    0.56043E-03         0.23302E-04         0.00000E+00
    0.28132E-03         0.12812E-04         0.00000E+00
    0.00000E+00         0.00000E+00         0.00000E+00
    0.10434E-01        -0.17133E-02         0.00000E+00
    0.10361E-01        -0.16554E-02         0.00000E+00
    0.10282E-01        -0.15975E-02         0.00000E+00
    0.10195E-01        -0.15398E-02         0.00000E+00
    0.10102E-01        -0.14822E-02         0.00000E+00
    0.10001E-01        -0.14250E-02         0.00000E+00
    0.98935E-02        -0.13680E-02         0.00000E+00
    0.97794E-02        -0.13115E-02         0.00000E+00
    0.96586E-02        -0.12554E-02         0.00000E+00
    0.95314E-02        -0.11997E-02         0.00000E+00
    0.93977E-02        -0.11447E-02         0.00000E+00
    0.92578E-02        -0.10903E-02         0.00000E+00
    0.91117E-02        -0.10365E-02         0.00000E+00
    0.89596E-02        -0.98350E-03         0.00000E+00
    0.88015E-02        -0.93128E-03         0.00000E+00
    0.86376E-02        -0.87990E-03         0.00000E+00
    0.84679E-02        -0.82941E-03         0.00000E+00
    0.82925E-02        -0.77988E-03         0.00000E+00
    0.81117E-02        -0.73135E-03         0.00000E+00
    0.79254E-02        -0.68388E-03         0.00000E+00
    0.77337E-02        -0.63752E-03         0.00000E+00
    0.75369E-02        -0.59232E-03         0.00000E+00
    0.73349E-02        -0.54833E-03         0.00000E+00
    0.71279E-02        -0.50560E-03         0.00000E+00
    0.69159E-02        -0.46418E-03         0.00000E+00
    0.66992E-02        -0.42411E-03         0.00000E+00
    0.64777E-02        -0.38546E-03         0.00000E+00
    0.62516E-02        -0.34826E-03         0.00000E+00
    0.60210E-02        -0.31256E-03         0.00000E+00
    0.57859E-02        -0.27842E-03         0.00000E+00
    0.55465E-02        -0.24587E-03         0.00000E+00
    0.53029E-02        -0.21496E-03         0.00000E+00
    0.50552E-02        -0.18575E-03         0.00000E+00
    0.48035E-02        -0.15828E-03         0.00000E+00
    0.45478E-02        -0.13258E-03         0.00000E+00
    0.42882E-02        -0.10871E-03         0.00000E+00
    0.40250E-02        -0.86720E-04         0.00000E+00
    0.37581E-02        -0.66643E-04         0.00000E+00
    0.34876E-02        -0.48528E-04         0.00000E+00
    0.32137E-02        -0.32419E-04         0.00000E+00
    0.29364E-02        -0.18360E-04         0.00000E+00
    0.26559E-02        -0.63947E-05         0.00000E+00
    0.23722E-02         0.34338E-05         0.00000E+00
    0.20854E-02         0.11082E-04         0.00000E+00
    0.17957E-02         0.16507E-04         0.00000E+00
    0.15030E-02         0.19667E-04         0.00000E+00
    0.12076E-02         0.20518E-04         0.00000E+00
    0.90951E-03         0.19019E-04         0.00000E+00
    0.60881E-03         0.15127E-04         0.00000E+00
    0.30561E-03         0.88014E-05         0.00000E+00
    0.00000E+00         0.00000E+00         0.00000E+00
    0.11421E-01        -0.20842E-02         0.00000E+00
    0.11337E-01        -0.20177E-02         0.00000E+00
    0.11245E-01        -0.19513E-02         0.00000E+00
    0.11146E-01        -0.18851E-02         0.00000E+00
    0.11039E-01        -0.18190E-02         0.00000E+00
    0.10925E-01        -0.17533E-02         0.00000E+00
    0.10804E-01        -0.16878E-02         0.00000E+00
    0.10676E-01        -0.16228E-02         0.00000E+00
    0.10540E-01        -0.15582E-02         0.00000E+00
    0.10398E-01        -0.14942E-02         0.00000E+00
    0.10249E-01        -0.14307E-02         0.00000E+00
    0.10094E-01        -0.13679E-02         0.00000E+00
    0.99314E-02        -0.13058E-02         0.00000E+00
    0.97628E-02        -0.12444E-02         0.00000E+00
    0.95880E-02        -0.11839E-02         0.00000E+00
    0.94069E-02        -0.11243E-02         0.00000E+00
    0.92198E-02        -0.10656E-02         0.00000E+00
    0.90267E-02        -0.10079E-02         0.00000E+00
    0.88277E-02        -0.95120E-03         0.00000E+00
    0.86230E-02        -0.89564E-03         0.00000E+00
    0.84127E-02        -0.84124E-03         0.00000E+00
    0.81969E-02        -0.78805E-03         0.00000E+00
    0.79756E-02        -0.73612E-03         0.00000E+00
    0.77490E-02        -0.68551E-03         0.00000E+00
    0.75172E-02        -0.63627E-03         0.00000E+00
    0.72804E-02        -0.58844E-03         0.00000E+00
    0.70385E-02        -0.54210E-03         0.00000E+00
    0.67918E-02        -0.49727E-03         0.00000E+00
    0.65402E-02        -0.45402E-03         0.00000E+00
    0.62840E-02        -0.41239E-03         0.00000E+00
    0.60232E-02        -0.37244E-03         0.00000E+00
    0.57580E-02        -0.33421E-03         0.00000E+00
    0.54883E-02        -0.29775E-03         0.00000E+00
    0.52144E-02        -0.26312E-03         0.00000E+00
    0.49363E-02        -0.23036E-03         0.00000E+00
    0.46542E-02        -0.19952E-03         0.00000E+00
    0.43680E-02        -0.17065E-03         0.00000E+00
    0.40780E-02        -0.14379E-03         0.00000E+00
    0.37843E-02        -0.11901E-03         0.00000E+00
    0.34868E-02        -0.96334E-04         0.00000E+00
    0.31858E-02        -0.75823E-04         0.00000E+00
    0.28813E-02        -0.57520E-04         0.00000E+00
    0.25734E-02        -0.41474E-04         0.00000E+00
    0.22622E-02        -0.27733E-04         0.00000E+00
    0.19478E-02        -0.16342E-04         0.00000E+00
    0.16303E-02        -0.73503E-05         0.00000E+00
    0.13099E-02        -0.80339E-06         0.00000E+00
    0.98650E-03         0.32516E-05         0.00000E+00
    0.66034E-03         0.47681E-05         0.00000E+00
    0.33147E-03         0.36997E-05         0.00000E+00
    0.00000E+00         0.00000E+00         0.00000E+00
    0.12483E-01        -0.25158E-02         0.00000E+00
    0.12386E-01        -0.24397E-02         0.00000E+00
    0.12281E-01        -0.23636E-02         0.00000E+00
    0.12167E-01        -0.22877E-02         0.00000E+00
    0.12046E-01        -0.22119E-02         0.00000E+00
    0.11917E-01        -0.21365E-02         0.00000E+00
    0.11781E-01        -0.20614E-02         0.00000E+00
    0.11637E-01        -0.19867E-02         0.00000E+00
    0.11485E-01        -0.19126E-02         0.00000E+00
    0.11326E-01        -0.18389E-02         0.00000E+00
    0.11161E-01        -0.17659E-02         0.00000E+00
    0.10988E-01        -0.16935E-02         0.00000E+00
    0.10808E-01        -0.16219E-02         0.00000E+00
    0.10622E-01        -0.15510E-02         0.00000E+00
    0.10428E-01        -0.14810E-02         0.00000E+00
    0.10229E-01        -0.14120E-02         0.00000E+00
    0.10023E-01        -0.13439E-02         0.00000E+00
    0.98103E-02        -0.12768E-02         0.00000E+00
    0.95918E-02        -0.12108E-02         0.00000E+00
    0.93672E-02        -0.11460E-02         0.00000E+00
    0.91367E-02        -0.10823E-02         0.00000E+00
    0.89004E-02        -0.10199E-02         0.00000E+00
    0.86584E-02        -0.95887E-03         0.00000E+00
    0.84108E-02        -0.89917E-03         0.00000E+00
    0.81577E-02        -0.84090E-03         0.00000E+00
    0.78993E-02        -0.78410E-03         0.00000E+00
    0.76355E-02        -0.72884E-03         0.00000E+00
    0.73667E-02        -0.67517E-03         0.00000E+00
    0.70928E-02        -0.62313E-03         0.00000E+00
    0.68139E-02        -0.57279E-03         0.00000E+00
    0.65303E-02        -0.52420E-03         0.00000E+00
    0.62419E-02        -0.47741E-03         0.00000E+00
    0.59489E-02        -0.43247E-03         0.00000E+00
    0.56513E-02        -0.38944E-03         0.00000E+00
    0.53494E-02        -0.34836E-03         0.00000E+00
    0.50431E-02        -0.30930E-03         0.00000E+00
    0.47326E-02        -0.27230E-03         0.00000E+00
    0.44181E-02        -0.23741E-03         0.00000E+00
    0.40995E-02        -0.20469E-03         0.00000E+00
    0.37770E-02        -0.17419E-03         0.00000E+00
    0.34507E-02        -0.14596E-03         0.00000E+00
    0.31207E-02        -0.12006E-03         0.00000E+00
    0.27871E-02        -0.96531E-04         0.00000E+00
    0.24499E-02        -0.75428E-04         0.00000E+00
    0.21094E-02        -0.56803E-04         0.00000E+00
    0.17655E-02        -0.40709E-04         0.00000E+00
    0.14185E-02        -0.27197E-04         0.00000E+00
    0.10683E-02        -0.16318E-04         0.00000E+00
    0.71508E-03        -0.81247E-05         0.00000E+00
    0.35895E-03        -0.26682E-05         0.00000E+00
    0.00000E+00         0.00000E+00         0.00000E+00
    0.13623E-01        -0.30162E-02         0.00000E+00
    0.13511E-01        -0.29291E-02         0.00000E+00
    0.13391E-01        -0.28420E-02         0.00000E+00
    0.13262E-01        -0.27551E-02         0.00000E+00
    0.13124E-01        -0.26684E-02         0.00000E+00
    0.12979E-01        -0.25820E-02         0.00000E+00
    0.12825E-01        -0.24960E-02         0.00000E+00
    0.12664E-01        -0.24104E-02         0.00000E+00
    0.12495E-01        -0.23253E-02         0.00000E+00
    0.12318E-01        -0.22408E-02         0.00000E+00
    0.12134E-01        -0.21568E-02         0.00000E+00
    0.11942E-01        -0.20736E-02         0.00000E+00
    0.11743E-01        -0.19911E-02         0.00000E+00
    0.11537E-01        -0.19095E-02         0.00000E+00
    0.11324E-01        -0.18287E-02         0.00000E+00
    0.11104E-01        -0.17489E-02         0.00000E+00
    0.10877E-01        -0.16700E-02         0.00000E+00
    0.10644E-01        -0.15923E-02         0.00000E+00
    0.10405E-01        -0.15156E-02         0.00000E+00
    0.10159E-01        -0.14402E-02         0.00000E+00
    0.99065E-02        -0.13659E-02         0.00000E+00
    0.96482E-02        -0.12930E-02         0.00000E+00
    0.93839E-02        -0.12215E-02         0.00000E+00
    0.91137E-02        -0.11513E-02         0.00000E+00
    0.88378E-02        -0.10826E-02         0.00000E+00
    0.85563E-02        -0.10155E-02         0.00000E+00
    0.82692E-02        -0.94995E-03         0.00000E+00
    0.79768E-02        -0.88604E-03         0.00000E+00
    0.76790E-02        -0.82384E-03         0.00000E+00
    0.73760E-02        -0.76339E-03         0.00000E+00
    0.70680E-02        -0.70476E-03         0.00000E+00
    0.67549E-02        -0.64801E-03         0.00000E+00
    0.64370E-02        -0.59317E-03         0.00000E+00
    0.61144E-02        -0.54033E-03         0.00000E+00
    0.57871E-02        -0.48952E-03         0.00000E+00
    0.54552E-02        -0.44081E-03         0.00000E+00
    0.51189E-02        -0.39425E-03         0.00000E+00
    0.47783E-02        -0.34990E-03         0.00000E+00
    0.44334E-02        -0.30782E-03         0.00000E+00
    0.40843E-02        -0.26805E-03         0.00000E+00
    0.37313E-02        -0.23067E-03         0.00000E+00
    0.33742E-02        -0.19571E-03         0.00000E+00
    0.30134E-02        -0.16325E-03         0.00000E+00
    0.26488E-02        -0.13334E-03         0.00000E+00
    0.22805E-02        -0.10602E-03         0.00000E+00
    0.19087E-02        -0.81369E-04         0.00000E+00
    0.15335E-02        -0.59433E-04         0.00000E+00
    0.11549E-02        -0.40271E-04         0.00000E+00
    0.77305E-03        -0.23940E-04         0.00000E+00
    0.38805E-03        -0.10497E-04         0.00000E+00
    0.00000E+00         0.00000E+00         0.00000E+00
    0.14843E-01        -0.35941E-02         0.00000E+00
    0.14715E-01        -0.34945E-02         0.00000E+00
    0.14577E-01        -0.33951E-02         0.00000E+00
    0.14431E-01        -0.32958E-02         0.00000E+00
    0.14276E-01        -0.31967E-02         0.00000E+00
    0.14112E-01        -0.30979E-02         0.00000E+00
    0.13939E-01        -0.29995E-02         0.00000E+00
    0.13759E-01        -0.29015E-02         0.00000E+00
    0.13570E-01        -0.28040E-02         0.00000E+00
    0.13373E-01        -0.27071E-02         0.00000E+00
    0.13169E-01        -0.26109E-02         0.00000E+00
    0.12957E-01        -0.25153E-02         0.00000E+00
    0.12737E-01        -0.24205E-02         0.00000E+00
    0.12510E-01        -0.23266E-02         0.00000E+00
    0.12275E-01        -0.22336E-02         0.00000E+00
    0.12033E-01        -0.21415E-02         0.00000E+00
    0.11785E-01        -0.20504E-02         0.00000E+00
    0.11529E-01        -0.19605E-02         0.00000E+00
    0.11267E-01        -0.18717E-02         0.00000E+00
    0.10998E-01        -0.17841E-02         0.00000E+00
    0.10722E-01        -0.16978E-02         0.00000E+00
    0.10440E-01        -0.16128E-02         0.00000E+00
    0.10152E-01        -0.15292E-02         0.00000E+00
    0.98581E-02        -0.14471E-02         0.00000E+00
    0.95578E-02        -0.13665E-02         0.00000E+00
    0.92516E-02        -0.12875E-02         0.00000E+00
    0.89397E-02        -0.12101E-02         0.00000E+00
    0.86220E-02        -0.11344E-02         0.00000E+00
    0.82989E-02        -0.10605E-02         0.00000E+00
    0.79703E-02        -0.98834E-03         0.00000E+00
    0.76363E-02        -0.91810E-03         0.00000E+00
    0.72972E-02        -0.84979E-03         0.00000E+00
    0.69529E-02        -0.78348E-03         0.00000E+00
    0.66036E-02        -0.71922E-03         0.00000E+00
    0.62495E-02        -0.65708E-03         0.00000E+00
    0.58905E-02        -0.59711E-03         0.00000E+00
    0.55269E-02        -0.53938E-03         0.00000E+00
    0.51586E-02        -0.48394E-03         0.00000E+00
    0.47859E-02        -0.43086E-03         0.00000E+00
    0.44088E-02        -0.38020E-03         0.00000E+00
    0.40274E-02        -0.33201E-03         0.00000E+00
    0.36419E-02        -0.28636E-03         0.00000E+00
    0.32523E-02        -0.24332E-03         0.00000E+00
    0.28586E-02        -0.20293E-03         0.00000E+00
    0.24611E-02        -0.16527E-03         0.00000E+00
    0.20598E-02        -0.13039E-03         0.00000E+00
    0.16549E-02        -0.98366E-04         0.00000E+00
    0.12463E-02        -0.69250E-04         0.00000E+00
    0.83423E-03        -0.43108E-04         0.00000E+00
    0.41877E-03        -0.20004E-04         0.00000E+00
    0.00000E+00         0.00000E+00         0.00000E+00
    0.16146E-01        -0.42591E-02         0.00000E+00
    0.15999E-01        -0.41456E-02         0.00000E+00
    0.15842E-01        -0.40321E-02         0.00000E+00
    0.15676E-01        -0.39188E-02         0.00000E+00
    0.15501E-01        -0.38057E-02         0.00000E+00
    0.15317E-01        -0.36929E-02         0.00000E+00
    0.15124E-01        -0.35805E-02         0.00000E+00
    0.14922E-01        -0.34685E-02         0.00000E+00
    0.14712E-01        -0.33570E-02         0.00000E+00
    0.14494E-01        -0.32462E-02         0.00000E+00
    0.14267E-01        -0.31359E-02         0.00000E+00
    0.14033E-01        -0.30264E-02         0.00000E+00
    0.13790E-01        -0.29177E-02         0.00000E+00
    0.13540E-01        -0.28099E-02         0.00000E+00
    0.13282E-01        -0.27029E-02         0.00000E+00
    0.13017E-01        -0.25969E-02         0.00000E+00
    0.12745E-01        -0.24920E-02         0.00000E+00
    0.12465E-01        -0.23882E-02         0.00000E+00
    0.12178E-01        -0.22856E-02         0.00000E+00
    0.11885E-01        -0.21842E-02         0.00000E+00
    0.11584E-01        -0.20841E-02         0.00000E+00
    0.11277E-01        -0.19854E-02         0.00000E+00
    0.10963E-01        -0.18881E-02         0.00000E+00
    0.10644E-01        -0.17923E-02         0.00000E+00
    0.10317E-01        -0.16980E-02         0.00000E+00
    0.99849E-02        -0.16054E-02         0.00000E+00
    0.96465E-02        -0.15144E-02         0.00000E+00
    0.93022E-02        -0.14252E-02         0.00000E+00
    0.89521E-02        -0.13378E-02         0.00000E+00
    0.85963E-02        -0.12522E-02         0.00000E+00
    0.82350E-02        -0.11686E-02         0.00000E+00
    0.78682E-02        -0.10869E-02         0.00000E+00
    0.74961E-02        -0.10073E-02         0.00000E+00
    0.71187E-02        -0.92987E-03         0.00000E+00
    0.67361E-02        -0.85459E-03         0.00000E+00
    0.63486E-02        -0.78154E-03         0.00000E+00
    0.59561E-02        -0.71081E-03         0.00000E+00
    0.55588E-02        -0.64246E-03         0.00000E+00
    0.51568E-02        -0.57654E-03         0.00000E+00
    0.47502E-02        -0.51312E-03         0.00000E+00
    0.43390E-02        -0.45228E-03         0.00000E+00
    0.39234E-02        -0.39407E-03         0.00000E+00
    0.35035E-02        -0.33857E-03         0.00000E+00
    0.30794E-02        -0.28584E-03         0.00000E+00
    0.26511E-02        -0.23594E-03         0.00000E+00
    0.22188E-02        -0.18895E-03         0.00000E+00
    0.17825E-02        -0.14494E-03         0.00000E+00
    0.13424E-02        -0.10396E-03         0.00000E+00
    0.89859E-03        -0.66104E-04         0.00000E+00
    0.45108E-03        -0.31426E-04         0.00000E+00
    0.00000E+00         0.00000E+00         0.00000E+00
    0.17532E-01        -0.50217E-02         0.00000E+00
    0.17364E-01        -0.48924E-02         0.00000E+00
    0.17186E-01        -0.47631E-02         0.00000E+00
    0.16998E-01        -0.46340E-02         0.00000E+00
    0.16801E-01        -0.45051E-02         0.00000E+00
    0.16595E-01        -0.43766E-02         0.00000E+00
    0.16379E-01        -0.42484E-02         0.00000E+00
    0.16155E-01        -0.41206E-02         0.00000E+00
    0.15921E-01        -0.39934E-02         0.00000E+00
    0.15679E-01        -0.38667E-02         0.00000E+00
    0.15429E-01        -0.37407E-02         0.00000E+00
    0.15170E-01        -0.36155E-02         0.00000E+00
    0.14903E-01        -0.34910E-02         0.00000E+00
    0.14628E-01        -0.33674E-02         0.00000E+00
    0.14345E-01        -0.32447E-02         0.00000E+00
    0.14055E-01        -0.31230E-02         0.00000E+00
    0.13757E-01        -0.30024E-02         0.00000E+00
    0.13451E-01        -0.28829E-02         0.00000E+00
    0.13138E-01        -0.27645E-02         0.00000E+00
    0.12818E-01        -0.26475E-02         0.00000E+00
    0.12491E-01        -0.25317E-02         0.00000E+00
    0.12157E-01        -0.24173E-02         0.00000E+00
    0.11817E-01        -0.23044E-02         0.00000E+00
    0.11469E-01        -0.21930E-02         0.00000E+00
    0.11116E-01        -0.20832E-02         0.00000E+00
    0.10755E-01        -0.19750E-02         0.00000E+00
    0.10389E-01        -0.18685E-02         0.00000E+00
    0.10016E-01        -0.17638E-02         0.00000E+00
    0.96379E-02        -0.16609E-02         0.00000E+00
    0.92535E-02        -0.15599E-02         0.00000E+00
    0.88632E-02        -0.14609E-02         0.00000E+00
    0.84673E-02        -0.13640E-02         0.00000E+00
    0.80658E-02        -0.12691E-02         0.00000E+00
    0.76588E-02        -0.11764E-02         0.00000E+00
    0.72465E-02        -0.10859E-02         0.00000E+00
    0.68289E-02        -0.99778E-03         0.00000E+00
    0.64061E-02        -0.91200E-03         0.00000E+00
    0.59783E-02        -0.82866E-03         0.00000E+00
    0.55455E-02        -0.74782E-03         0.00000E+00
    0.51079E-02        -0.66958E-03         0.00000E+00
    0.46655E-02        -0.59398E-03         0.00000E+00
    0.42184E-02        -0.52111E-03         0.00000E+00
    0.37668E-02        -0.45104E-03         0.00000E+00
    0.33107E-02        -0.38383E-03         0.00000E+00
    0.28501E-02        -0.31957E-03         0.00000E+00
    0.23853E-02        -0.25833E-03         0.00000E+00
    0.19163E-02        -0.20018E-03         0.00000E+00
    0.14432E-02        -0.14519E-03         0.00000E+00
    0.96602E-03        -0.93448E-04         0.00000E+00
    0.48493E-03        -0.45025E-04         0.00000E+00
    0.00000E+00         0.00000E+00         0.00000E+00
    0.19001E-01        -0.58933E-02         0.00000E+00
    0.18810E-01        -0.57462E-02         0.00000E+00
    0.18609E-01        -0.55992E-02         0.00000E+00
    0.18397E-01        -0.54523E-02         0.00000E+00
    0.18176E-01        -0.53057E-02         0.00000E+00
    0.17945E-01        -0.51593E-02         0.00000E+00
    0.17705E-01        -0.50134E-02         0.00000E+00
    0.17455E-01        -0.48678E-02         0.00000E+00
    0.17196E-01        -0.47228E-02         0.00000E+00
    0.16929E-01        -0.45784E-02         0.00000E+00
    0.16652E-01        -0.44347E-02         0.00000E+00
    0.16367E-01        -0.42916E-02         0.00000E+00
    0.16074E-01        -0.41494E-02         0.00000E+00
    0.15772E-01        -0.40080E-02         0.00000E+00
    0.15462E-01        -0.38676E-02         0.00000E+00
    0.15145E-01        -0.37281E-02         0.00000E+00
    0.14819E-01        -0.35897E-02         0.00000E+00
    0.14486E-01        -0.34524E-02         0.00000E+00
    0.14145E-01        -0.33163E-02         0.00000E+00
    0.13797E-01        -0.31815E-02         0.00000E+00
    0.13442E-01        -0.30480E-02         0.00000E+00
    0.13080E-01        -0.29159E-02         0.00000E+00
    0.12710E-01        -0.27852E-02         0.00000E+00
    0.12334E-01        -0.26561E-02         0.00000E+00
    0.11951E-01        -0.25286E-02         0.00000E+00
    0.11562E-01        -0.24027E-02         0.00000E+00
    0.11166E-01        -0.22785E-02         0.00000E+00
    0.10764E-01        -0.21561E-02         0.00000E+00
    0.10355E-01        -0.20356E-02         0.00000E+00
    0.99404E-02        -0.19170E-02         0.00000E+00
    0.95198E-02        -0.18004E-02         0.00000E+00
    0.90933E-02        -0.16859E-02         0.00000E+00
    0.86610E-02        -0.15735E-02         0.00000E+00
    0.82230E-02        -0.14633E-02         0.00000E+00
    0.77794E-02        -0.13554E-02         0.00000E+00
    0.73304E-02        -0.12498E-02         0.00000E+00
    0.68759E-02        -0.11467E-02         0.00000E+00
    0.64162E-02        -0.10460E-02         0.00000E+00
    0.59513E-02        -0.94797E-03         0.00000E+00
    0.54812E-02        -0.85255E-03         0.00000E+00
    0.50062E-02        -0.75985E-03         0.00000E+00
    0.45263E-02        -0.66995E-03         0.00000E+00
    0.40415E-02        -0.58293E-03         0.00000E+00
    0.35520E-02        -0.49886E-03         0.00000E+00
    0.30578E-02        -0.41783E-03         0.00000E+00
    0.25591E-02        -0.33992E-03         0.00000E+00
    0.20559E-02        -0.26521E-03         0.00000E+00
    0.15483E-02        -0.19378E-03         0.00000E+00
    0.10364E-02        -0.12571E-03         0.00000E+00
    0.52027E-03        -0.61087E-04         0.00000E+00
    0.00000E+00         0.00000E+00         0.00000E+00
    0.20554E-01        -0.68860E-02         0.00000E+00
    0.20337E-01        -0.67190E-02         0.00000E+00
    0.20110E-01        -0.65520E-02         0.00000E+00
    0.19872E-01        -0.63852E-02         0.00000E+00
    0.19624E-01        -0.62187E-02         0.00000E+00
    0.19367E-01        -0.60524E-02         0.00000E+00
    0.19099E-01        -0.58865E-02         0.00000E+00
    0.18822E-01        -0.57210E-02         0.00000E+00
    0.18536E-01        -0.55561E-02         0.00000E+00
    0.18240E-01        -0.53917E-02         0.00000E+00
    0.17936E-01        -0.52280E-02         0.00000E+00
    0.17623E-01        -0.50649E-02         0.00000E+00
    0.17301E-01        -0.49027E-02         0.00000E+00
    0.16970E-01        -0.47413E-02         0.00000E+00
    0.16632E-01        -0.45809E-02         0.00000E+00
    0.16285E-01        -0.44214E-02         0.00000E+00
    0.15930E-01        -0.42629E-02         0.00000E+00
    0.15568E-01        -0.41056E-02         0.00000E+00
    0.15197E-01        -0.39495E-02         0.00000E+00
    0.14820E-01        -0.37946E-02         0.00000E+00
    0.14434E-01        -0.36410E-02         0.00000E+00
    0.14042E-01        -0.34888E-02         0.00000E+00
    0.13642E-01        -0.33381E-02         0.00000E+00
    0.13236E-01        -0.31889E-02         0.00000E+00
    0.12822E-01        -0.30412E-02         0.00000E+00
    0.12402E-01        -0.28952E-02         0.00000E+00
    0.11975E-01        -0.27510E-02         0.00000E+00
    0.11541E-01        -0.26085E-02         0.00000E+00
    0.11101E-01        -0.24679E-02         0.00000E+00
    0.10655E-01        -0.23292E-02         0.00000E+00
    0.10203E-01        -0.21926E-02         0.00000E+00
    0.97444E-02        -0.20580E-02         0.00000E+00
    0.92799E-02        -0.19256E-02         0.00000E+00
    0.88095E-02        -0.17954E-02         0.00000E+00
    0.83334E-02        -0.16675E-02         0.00000E+00
    0.78515E-02        -0.15420E-02         0.00000E+00
    0.73641E-02        -0.14189E-02         0.00000E+00
    0.68712E-02        -0.12984E-02         0.00000E+00
    0.63728E-02        -0.11805E-02         0.00000E+00
    0.58691E-02        -0.10653E-02         0.00000E+00
    0.53601E-02        -0.95284E-03         0.00000E+00
    0.48460E-02        -0.84326E-03         0.00000E+00
    0.43268E-02        -0.73663E-03         0.00000E+00
    0.38026E-02        -0.63303E-03         0.00000E+00
    0.32735E-02        -0.53254E-03         0.00000E+00
    0.27396E-02        -0.43526E-03         0.00000E+00
    0.22009E-02        -0.34126E-03         0.00000E+00
    0.16575E-02        -0.25065E-03         0.00000E+00
    0.11095E-02        -0.16350E-03         0.00000E+00
    0.55697E-03        -0.79923E-04         0.00000E+00
    0.00000E+00         0.00000E+00         0.00000E+00
    0.22188E-01        -0.80130E-02         0.00000E+00
    0.21943E-01        -0.78236E-02         0.00000E+00
    0.21687E-01        -0.76344E-02         0.00000E+00
    0.21420E-01        -0.74453E-02         0.00000E+00
    0.21144E-01        -0.72564E-02         0.00000E+00
    0.20857E-01        -0.70678E-02         0.00000E+00
    0.20560E-01        -0.68795E-02         0.00000E+00
    0.20253E-01        -0.66917E-02         0.00000E+00
    0.19937E-01        -0.65044E-02         0.00000E+00
    0.19611E-01        -0.63176E-02         0.00000E+00
    0.19277E-01        -0.61315E-02         0.00000E+00
    0.18933E-01        -0.59461E-02         0.00000E+00
    0.18581E-01        -0.57614E-02         0.00000E+00
    0.18220E-01        -0.55776E-02         0.00000E+00
    0.17851E-01        -0.53946E-02         0.00000E+00
    0.17473E-01        -0.52126E-02         0.00000E+00
    0.17087E-01        -0.50316E-02         0.00000E+00
    0.16693E-01        -0.48518E-02         0.00000E+00
    0.16292E-01        -0.46730E-02         0.00000E+00
    0.15882E-01        -0.44955E-02         0.00000E+00
    0.15465E-01        -0.43193E-02         0.00000E+00
    0.15041E-01        -0.41445E-02         0.00000E+00
    0.14610E-01        -0.39711E-02         0.00000E+00
    0.14171E-01        -0.37992E-02         0.00000E+00
    0.13725E-01        -0.36288E-02         0.00000E+00
    0.13273E-01        -0.34601E-02         0.00000E+00
    0.12813E-01        -0.32931E-02         0.00000E+00
    0.12347E-01        -0.31278E-02         0.00000E+00
    0.11875E-01        -0.29645E-02         0.00000E+00
    0.11395E-01        -0.28030E-02         0.00000E+00
    0.10910E-01        -0.26435E-02         0.00000E+00
    0.10418E-01        -0.24861E-02         0.00000E+00
    0.99203E-02        -0.23309E-02         0.00000E+00
    0.94163E-02        -0.21779E-02         0.00000E+00
    0.89064E-02        -0.20272E-02         0.00000E+00
    0.83906E-02        -0.18789E-02         0.00000E+00
    0.78689E-02        -0.17331E-02         0.00000E+00
    0.73415E-02        -0.15898E-02         0.00000E+00
    0.68085E-02        -0.14492E-02         0.00000E+00
    0.62700E-02        -0.13112E-02         0.00000E+00
    0.57259E-02        -0.11761E-02         0.00000E+00
    0.51765E-02        -0.10439E-02         0.00000E+00
    0.46217E-02        -0.91473E-03         0.00000E+00
    0.40617E-02        -0.78860E-03         0.00000E+00
    0.34964E-02        -0.66565E-03         0.00000E+00
    0.29261E-02        -0.54597E-03         0.00000E+00
    0.23507E-02        -0.42965E-03         0.00000E+00
    0.17703E-02        -0.31679E-03         0.00000E+00
    0.11850E-02        -0.20750E-03         0.00000E+00
    0.59491E-03        -0.10187E-03         0.00000E+00
    0.00000E+00         0.00000E+00         0.00000E+00
    0.23901E-01        -0.92883E-02         0.00000E+00
    0.23624E-01        -0.90740E-02         0.00000E+00
    0.23337E-01        -0.88598E-02         0.00000E+00
    0.23039E-01        -0.86458E-02         0.00000E+00
    0.22730E-01        -0.84319E-02         0.00000E+00
    0.22411E-01        -0.82184E-02         0.00000E+00
    0.22083E-01        -0.80052E-02         0.00000E+00
    0.21744E-01        -0.77924E-02         0.00000E+00
    0.21396E-01        -0.75800E-02         0.00000E+00
    0.21038E-01        -0.73682E-02         0.00000E+00
    0.20671E-01        -0.71570E-02         0.00000E+00
    0.20295E-01        -0.69465E-02         0.00000E+00
    0.19910E-01        -0.67367E-02         0.00000E+00
    0.19516E-01        -0.65277E-02         0.00000E+00
    0.19114E-01        -0.63195E-02         0.00000E+00
    0.18704E-01        -0.61123E-02         0.00000E+00
    0.18285E-01        -0.59060E-02         0.00000E+00
    0.17858E-01        -0.57008E-02         0.00000E+00
    0.17424E-01        -0.54968E-02         0.00000E+00
    0.16981E-01        -0.52939E-02         0.00000E+00
    0.16531E-01        -0.50922E-02         0.00000E+00
    0.16074E-01        -0.48919E-02         0.00000E+00
    0.15609E-01        -0.46929E-02         0.00000E+00
    0.15136E-01        -0.44954E-02         0.00000E+00
    0.14657E-01        -0.42995E-02         0.00000E+00
    0.14171E-01        -0.41051E-02         0.00000E+00
    0.13678E-01        -0.39124E-02         0.00000E+00
    0.13178E-01        -0.37214E-02         0.00000E+00
    0.12671E-01        -0.35323E-02         0.00000E+00
    0.12158E-01        -0.33450E-02         0.00000E+00
    0.11638E-01        -0.31597E-02         0.00000E+00
    0.11112E-01        -0.29765E-02         0.00000E+00
    0.10579E-01        -0.27954E-02         0.00000E+00
    0.10041E-01        -0.26165E-02         0.00000E+00
    0.94958E-02        -0.24399E-02         0.00000E+00
    0.89449E-02        -0.22656E-02         0.00000E+00
    0.83880E-02        -0.20939E-02         0.00000E+00
    0.78252E-02        -0.19247E-02         0.00000E+00
    0.72565E-02        -0.17581E-02         0.00000E+00
    0.66821E-02        -0.15942E-02         0.00000E+00
    0.61019E-02        -0.14332E-02         0.00000E+00
    0.55161E-02        -0.12751E-02         0.00000E+00
    0.49248E-02        -0.11200E-02         0.00000E+00
    0.43279E-02        -0.96803E-03         0.00000E+00
    0.37255E-02        -0.81927E-03         0.00000E+00
    0.31178E-02        -0.67382E-03         0.00000E+00
    0.25047E-02        -0.53179E-03         0.00000E+00
    0.18863E-02        -0.39328E-03         0.00000E+00
    0.12627E-02        -0.25841E-03         0.00000E+00
    0.63392E-03        -0.12728E-03         0.00000E+00
    0.00000E+00         0.00000E+00         0.00000E+00
    0.25687E-01        -0.10727E-01         0.00000E+00
    0.25376E-01        -0.10485E-01         0.00000E+00
    0.25054E-01        -0.10243E-01         0.00000E+00
    0.24722E-01        -0.10001E-01         0.00000E+00
    0.24379E-01        -0.97592E-02         0.00000E+00
    0.24026E-01        -0.95179E-02         0.00000E+00
    0.23662E-01        -0.92768E-02         0.00000E+00
    0.23289E-01        -0.90361E-02         0.00000E+00
    0.22906E-01        -0.87959E-02         0.00000E+00
    0.22514E-01        -0.85561E-02         0.00000E+00
    0.22113E-01        -0.83169E-02         0.00000E+00
    0.21702E-01        -0.80784E-02         0.00000E+00
    0.21282E-01        -0.78405E-02         0.00000E+00
    0.20854E-01        -0.76034E-02         0.00000E+00
    0.20417E-01        -0.73670E-02         0.00000E+00
    0.19972E-01        -0.71316E-02         0.00000E+00
    0.19519E-01        -0.68970E-02         0.00000E+00
    0.19057E-01        -0.66635E-02         0.00000E+00
    0.18588E-01        -0.64310E-02         0.00000E+00
    0.18111E-01        -0.61996E-02         0.00000E+00
    0.17626E-01        -0.59694E-02         0.00000E+00
    0.17134E-01        -0.57405E-02         0.00000E+00
    0.16634E-01        -0.55129E-02         0.00000E+00
    0.16127E-01        -0.52867E-02         0.00000E+00
    0.15613E-01        -0.50619E-02         0.00000E+00
    0.15092E-01        -0.48387E-02         0.00000E+00
    0.14564E-01        -0.46171E-02         0.00000E+00
    0.14028E-01        -0.43971E-02         0.00000E+00
    0.13487E-01        -0.41789E-02         0.00000E+00
    0.12938E-01        -0.39626E-02         0.00000E+00
    0.12383E-01        -0.37481E-02         0.00000E+00
    0.11821E-01        -0.35357E-02         0.00000E+00
    0.11253E-01        -0.33253E-02         0.00000E+00
    0.10679E-01        -0.31171E-02         0.00000E+00
    0.10098E-01        -0.29111E-02         0.00000E+00
    0.95115E-02        -0.27075E-02         0.00000E+00
    0.89185E-02        -0.25063E-02         0.00000E+00
    0.83194E-02        -0.23076E-02         0.00000E+00
    0.77142E-02        -0.21116E-02         0.00000E+00
    0.71031E-02        -0.19182E-02         0.00000E+00
    0.64860E-02        -0.17277E-02         0.00000E+00
    0.58631E-02        -0.15400E-02         0.00000E+00
    0.52343E-02        -0.13554E-02         0.00000E+00
    0.45998E-02        -0.11739E-02         0.00000E+00
    0.39595E-02        -0.99563E-03         0.00000E+00
    0.33136E-02        -0.82069E-03         0.00000E+00
    0.26620E-02        -0.64920E-03         0.00000E+00
    0.20048E-02        -0.48126E-03         0.00000E+00
    0.13421E-02        -0.31701E-03         0.00000E+00
    0.67377E-03        -0.15655E-03         0.00000E+00
    0.00000E+00         0.00000E+00         0.00000E+00
    0.27540E-01        -0.12344E-01         0.00000E+00
    0.27192E-01        -0.12071E-01         0.00000E+00
    0.26833E-01        -0.11798E-01         0.00000E+00
    0.26464E-01        -0.11525E-01         0.00000E+00
    0.26083E-01        -0.11253E-01         0.00000E+00
    0.25693E-01        -0.10981E-01         0.00000E+00
    0.25292E-01        -0.10709E-01         0.00000E+00
    0.24882E-01        -0.10437E-01         0.00000E+00
    0.24462E-01        -0.10166E-01         0.00000E+00
    0.24033E-01        -0.98947E-02         0.00000E+00
    0.23595E-01        -0.96244E-02         0.00000E+00
    0.23147E-01        -0.93546E-02         0.00000E+00
    0.22691E-01        -0.90854E-02         0.00000E+00
    0.22226E-01        -0.88169E-02         0.00000E+00
    0.21753E-01        -0.85492E-02         0.00000E+00
    0.21271E-01        -0.82822E-02         0.00000E+00
    0.20782E-01        -0.80161E-02         0.00000E+00
    0.20284E-01        -0.77509E-02         0.00000E+00
    0.19778E-01        -0.74867E-02         0.00000E+00
    0.19265E-01        -0.72235E-02         0.00000E+00
    0.18744E-01        -0.69614E-02         0.00000E+00
    0.18216E-01        -0.67005E-02         0.00000E+00
    0.17680E-01        -0.64408E-02         0.00000E+00
    0.17137E-01        -0.61824E-02         0.00000E+00
    0.16587E-01        -0.59253E-02         0.00000E+00
    0.16029E-01        -0.56697E-02         0.00000E+00
    0.15465E-01        -0.54156E-02         0.00000E+00
    0.14894E-01        -0.51632E-02         0.00000E+00
    0.14316E-01        -0.49123E-02         0.00000E+00
    0.13732E-01        -0.46632E-02         0.00000E+00
    0.13140E-01        -0.44160E-02         0.00000E+00
    0.12543E-01        -0.41707E-02         0.00000E+00
    0.11938E-01        -0.39273E-02         0.00000E+00
    0.11327E-01        -0.36860E-02         0.00000E+00
    0.10710E-01        -0.34469E-02         0.00000E+00
    0.10087E-01        -0.32101E-02         0.00000E+00
    0.94569E-02        -0.29757E-02         0.00000E+00
    0.88208E-02        -0.27437E-02         0.00000E+00
    0.81786E-02        -0.25142E-02         0.00000E+00
    0.75301E-02        -0.22874E-02         0.00000E+00
    0.68756E-02        -0.20634E-02         0.00000E+00
    0.62150E-02        -0.18422E-02         0.00000E+00
    0.55483E-02        -0.16241E-02         0.00000E+00
    0.48756E-02        -0.14090E-02         0.00000E+00
    0.41969E-02        -0.11971E-02         0.00000E+00
    0.35122E-02        -0.98858E-03         0.00000E+00
    0.28216E-02        -0.78348E-03         0.00000E+00
    0.21250E-02        -0.58194E-03         0.00000E+00
    0.14226E-02        -0.38410E-03         0.00000E+00
    0.71421E-03        -0.19007E-03         0.00000E+00
    0.00000E+00         0.00000E+00         0.00000E+00
    0.29453E-01        -0.14157E-01         0.00000E+00
    0.29064E-01        -0.13849E-01         0.00000E+00
    0.28665E-01        -0.13542E-01         0.00000E+00
    0.28255E-01        -0.13235E-01         0.00000E+00
    0.27834E-01        -0.12928E-01         0.00000E+00
    0.27404E-01        -0.12622E-01         0.00000E+00
    0.26963E-01        -0.12315E-01         0.00000E+00
    0.26514E-01        -0.12009E-01         0.00000E+00
    0.26054E-01        -0.11703E-01         0.00000E+00
    0.25586E-01        -0.11398E-01         0.00000E+00
    0.25108E-01        -0.11093E-01         0.00000E+00
    0.24622E-01        -0.10789E-01         0.00000E+00
    0.24127E-01        -0.10485E-01         0.00000E+00
    0.23624E-01        -0.10181E-01         0.00000E+00
    0.23112E-01        -0.98787E-02         0.00000E+00
    0.22593E-01        -0.95767E-02         0.00000E+00
    0.22065E-01        -0.92754E-02         0.00000E+00
    0.21530E-01        -0.89750E-02         0.00000E+00
    0.20986E-01        -0.86754E-02         0.00000E+00
    0.20435E-01        -0.83767E-02         0.00000E+00
    0.19877E-01        -0.80791E-02         0.00000E+00
    0.19311E-01        -0.77824E-02         0.00000E+00
    0.18738E-01        -0.74869E-02         0.00000E+00
    0.18158E-01        -0.71925E-02         0.00000E+00
    0.17571E-01        -0.68994E-02         0.00000E+00
    0.16977E-01        -0.66076E-02         0.00000E+00
    0.16376E-01        -0.63172E-02         0.00000E+00
    0.15768E-01        -0.60283E-02         0.00000E+00
    0.15153E-01        -0.57409E-02         0.00000E+00
    0.14532E-01        -0.54551E-02         0.00000E+00
    0.13904E-01        -0.51711E-02         0.00000E+00
    0.13269E-01        -0.48888E-02         0.00000E+00
    0.12628E-01        -0.46084E-02         0.00000E+00
    0.11981E-01        -0.43300E-02         0.00000E+00
    0.11326E-01        -0.40537E-02         0.00000E+00
    0.10666E-01        -0.37795E-02         0.00000E+00
    0.99990E-02        -0.35076E-02         0.00000E+00
    0.93256E-02        -0.32380E-02         0.00000E+00
    0.86460E-02        -0.29709E-02         0.00000E+00
    0.79600E-02        -0.27064E-02         0.00000E+00
    0.72677E-02        -0.24445E-02         0.00000E+00
    0.65691E-02        -0.21855E-02         0.00000E+00
    0.58642E-02        -0.19293E-02         0.00000E+00
    0.51531E-02        -0.16762E-02         0.00000E+00
    0.44357E-02        -0.14263E-02         0.00000E+00
    0.37121E-02        -0.11796E-02         0.00000E+00
    0.29822E-02        -0.93632E-03         0.00000E+00
    0.22460E-02        -0.69659E-03         0.00000E+00
    0.15036E-02        -0.46054E-03         0.00000E+00
    0.75492E-03        -0.22829E-03         0.00000E+00
    0.00000E+00         0.00000E+00         0.00000E+00
    0.31414E-01        -0.16182E-01         0.00000E+00
    0.30981E-01        -0.15836E-01         0.00000E+00
    0.30537E-01        -0.15492E-01         0.00000E+00
    0.30084E-01        -0.15147E-01         0.00000E+00
    0.29620E-01        -0.14802E-01         0.00000E+00
    0.29147E-01        -0.14457E-01         0.00000E+00
    0.28665E-01        -0.14113E-01         0.00000E+00
    0.28173E-01        -0.13769E-01         0.00000E+00
    0.27671E-01        -0.13425E-01         0.00000E+00
    0.27161E-01        -0.13081E-01         0.00000E+00
    0.26643E-01        -0.12738E-01         0.00000E+00
    0.26116E-01        -0.12395E-01         0.00000E+00
    0.25580E-01        -0.12052E-01         0.00000E+00
    0.25037E-01        -0.11710E-01         0.00000E+00
    0.24485E-01        -0.11369E-01         0.00000E+00
    0.23926E-01        -0.11028E-01         0.00000E+00
    0.23359E-01        -0.10688E-01         0.00000E+00
    0.22784E-01        -0.10348E-01         0.00000E+00
    0.22202E-01        -0.10009E-01         0.00000E+00
    0.21613E-01        -0.96711E-02         0.00000E+00
    0.21016E-01        -0.93338E-02         0.00000E+00
    0.20412E-01        -0.89974E-02         0.00000E+00
    0.19801E-01        -0.86620E-02         0.00000E+00
    0.19183E-01        -0.83276E-02         0.00000E+00
    0.18558E-01        -0.79943E-02         0.00000E+00
    0.17926E-01        -0.76622E-02         0.00000E+00
    0.17288E-01        -0.73313E-02         0.00000E+00
    0.16643E-01        -0.70016E-02         0.00000E+00
    0.15991E-01        -0.66734E-02         0.00000E+00
    0.15332E-01        -0.63467E-02         0.00000E+00
    0.14667E-01        -0.60214E-02         0.00000E+00
    0.13996E-01        -0.56979E-02         0.00000E+00
    0.13318E-01        -0.53760E-02         0.00000E+00
    0.12633E-01        -0.50560E-02         0.00000E+00
    0.11942E-01        -0.47379E-02         0.00000E+00
    0.11244E-01        -0.44218E-02         0.00000E+00
    0.10540E-01        -0.41078E-02         0.00000E+00
    0.98293E-02        -0.37960E-02         0.00000E+00
    0.91122E-02        -0.34866E-02         0.00000E+00
    0.83887E-02        -0.31796E-02         0.00000E+00
    0.76587E-02        -0.28752E-02         0.00000E+00
    0.69223E-02        -0.25735E-02         0.00000E+00
    0.61793E-02        -0.22746E-02         0.00000E+00
    0.54299E-02        -0.19786E-02         0.00000E+00
    0.46739E-02        -0.16856E-02         0.00000E+00
    0.39114E-02        -0.13959E-02         0.00000E+00
    0.31423E-02        -0.11095E-02         0.00000E+00
    0.23667E-02        -0.82655E-03         0.00000E+00
    0.15844E-02        -0.54722E-03         0.00000E+00
    0.79554E-03        -0.27166E-03         0.00000E+00
    0.00000E+00         0.00000E+00         0.00000E+00
    0.33409E-01        -0.18437E-01         0.00000E+00
    0.32929E-01        -0.18050E-01         0.00000E+00
    0.32439E-01        -0.17663E-01         0.00000E+00
    0.31938E-01        -0.17276E-01         0.00000E+00
    0.31429E-01        -0.16890E-01         0.00000E+00
    0.30910E-01        -0.16503E-01         0.00000E+00
    0.30382E-01        -0.16117E-01         0.00000E+00
    0.29846E-01        -0.15730E-01         0.00000E+00
    0.29300E-01        -0.15344E-01         0.00000E+00
    0.28747E-01        -0.14958E-01         0.00000E+00
    0.28185E-01        -0.14573E-01         0.00000E+00
    0.27615E-01        -0.14187E-01         0.00000E+00
    0.27037E-01        -0.13802E-01         0.00000E+00
    0.26452E-01        -0.13418E-01         0.00000E+00
    0.25859E-01        -0.13033E-01         0.00000E+00
    0.25259E-01        -0.12649E-01         0.00000E+00
    0.24651E-01        -0.12266E-01         0.00000E+00
    0.24036E-01        -0.11883E-01         0.00000E+00
    0.23414E-01        -0.11501E-01         0.00000E+00
    0.22785E-01        -0.11119E-01         0.00000E+00
    0.22149E-01        -0.10738E-01         0.00000E+00
    0.21506E-01        -0.10357E-01         0.00000E+00
    0.20857E-01        -0.99774E-02         0.00000E+00
    0.20201E-01        -0.95985E-02         0.00000E+00
    0.19538E-01        -0.92205E-02         0.00000E+00
    0.18868E-01        -0.88435E-02         0.00000E+00
    0.18192E-01        -0.84675E-02         0.00000E+00
    0.17509E-01        -0.80926E-02         0.00000E+00
    0.16820E-01        -0.77189E-02         0.00000E+00
    0.16125E-01        -0.73465E-02         0.00000E+00
    0.15423E-01        -0.69754E-02         0.00000E+00
    0.14714E-01        -0.66058E-02         0.00000E+00
    0.13999E-01        -0.62377E-02         0.00000E+00
    0.13277E-01        -0.58712E-02         0.00000E+00
    0.12549E-01        -0.55064E-02         0.00000E+00
    0.11815E-01        -0.51435E-02         0.00000E+00
    0.11074E-01        -0.47824E-02         0.00000E+00
    0.10326E-01        -0.44235E-02         0.00000E+00
    0.95724E-02        -0.40667E-02         0.00000E+00
    0.88118E-02        -0.37121E-02         0.00000E+00
    0.80446E-02        -0.33600E-02         0.00000E+00
    0.72707E-02        -0.30104E-02         0.00000E+00
    0.64902E-02        -0.26634E-02         0.00000E+00
    0.57029E-02        -0.23192E-02         0.00000E+00
    0.49089E-02        -0.19780E-02         0.00000E+00
    0.41081E-02        -0.16398E-02         0.00000E+00
    0.33004E-02        -0.13048E-02         0.00000E+00
    0.24858E-02        -0.97319E-03         0.00000E+00
    0.16642E-02        -0.64507E-03         0.00000E+00
    0.83565E-03        -0.32062E-03         0.00000E+00
    0.00000E+00         0.00000E+00         0.00000E+00
    0.35424E-01        -0.20940E-01         0.00000E+00
    0.34892E-01        -0.20507E-01         0.00000E+00
    0.34352E-01        -0.20074E-01         0.00000E+00
    0.33802E-01        -0.19642E-01         0.00000E+00
    0.33243E-01        -0.19209E-01         0.00000E+00
    0.32676E-01        -0.18776E-01         0.00000E+00
    0.32100E-01        -0.18344E-01         0.00000E+00
    0.31517E-01        -0.17911E-01         0.00000E+00
    0.30925E-01        -0.17479E-01         0.00000E+00
    0.30326E-01        -0.17046E-01         0.00000E+00
    0.29719E-01        -0.16614E-01         0.00000E+00
    0.29105E-01        -0.16182E-01         0.00000E+00
    0.28483E-01        -0.15750E-01         0.00000E+00
    0.27855E-01        -0.15318E-01         0.00000E+00
    0.27219E-01        -0.14886E-01         0.00000E+00
    0.26577E-01        -0.14455E-01         0.00000E+00
    0.25927E-01        -0.14024E-01         0.00000E+00
    0.25271E-01        -0.13593E-01         0.00000E+00
    0.24609E-01        -0.13162E-01         0.00000E+00
    0.23940E-01        -0.12732E-01         0.00000E+00
    0.23264E-01        -0.12302E-01         0.00000E+00
    0.22582E-01        -0.11873E-01         0.00000E+00
    0.21894E-01        -0.11444E-01         0.00000E+00
    0.21199E-01        -0.11016E-01         0.00000E+00
    0.20498E-01        -0.10589E-01         0.00000E+00
    0.19791E-01        -0.10162E-01         0.00000E+00
    0.19077E-01        -0.97361E-02         0.00000E+00
    0.18358E-01        -0.93110E-02         0.00000E+00
    0.17631E-01        -0.88868E-02         0.00000E+00
    0.16899E-01        -0.84637E-02         0.00000E+00
    0.16160E-01        -0.80416E-02         0.00000E+00
    0.15415E-01        -0.76207E-02         0.00000E+00
    0.14664E-01        -0.72012E-02         0.00000E+00
    0.13906E-01        -0.67830E-02         0.00000E+00
    0.13142E-01        -0.63662E-02         0.00000E+00
    0.12372E-01        -0.59511E-02         0.00000E+00
    0.11595E-01        -0.55377E-02         0.00000E+00
    0.10811E-01        -0.51261E-02         0.00000E+00
    0.10021E-01        -0.47164E-02         0.00000E+00
    0.92242E-02        -0.43088E-02         0.00000E+00
    0.84206E-02        -0.39033E-02         0.00000E+00
    0.76103E-02        -0.35002E-02         0.00000E+00
    0.67931E-02        -0.30995E-02         0.00000E+00
    0.59690E-02        -0.27014E-02         0.00000E+00
    0.51379E-02        -0.23061E-02         0.00000E+00
    0.42998E-02        -0.19136E-02         0.00000E+00
    0.34545E-02        -0.15242E-02         0.00000E+00
    0.26019E-02        -0.11379E-02         0.00000E+00
    0.17420E-02        -0.75504E-03         0.00000E+00
    0.87477E-03        -0.37567E-03         0.00000E+00
    0.00000E+00         0.00000E+00         0.00000E+00
    0.37437E-01        -0.23709E-01         0.00000E+00
    0.36851E-01        -0.23226E-01         0.00000E+00
    0.36257E-01        -0.22743E-01         0.00000E+00
    0.35654E-01        -0.22260E-01         0.00000E+00
    0.35044E-01        -0.21777E-01         0.00000E+00
    0.34426E-01        -0.21294E-01         0.00000E+00
    0.33800E-01        -0.20810E-01         0.00000E+00
    0.33167E-01        -0.20327E-01         0.00000E+00
    0.32527E-01        -0.19843E-01         0.00000E+00
    0.31881E-01        -0.19360E-01         0.00000E+00
    0.31227E-01        -0.18876E-01         0.00000E+00
    0.30567E-01        -0.18393E-01         0.00000E+00
    0.29900E-01        -0.17909E-01         0.00000E+00
    0.29228E-01        -0.17425E-01         0.00000E+00
    0.28548E-01        -0.16942E-01         0.00000E+00
    0.27863E-01        -0.16458E-01         0.00000E+00
    0.27172E-01        -0.15974E-01         0.00000E+00
    0.26474E-01        -0.15491E-01         0.00000E+00
    0.25771E-01        -0.15007E-01         0.00000E+00
    0.25062E-01        -0.14524E-01         0.00000E+00
    0.24346E-01        -0.14041E-01         0.00000E+00
    0.23625E-01        -0.13558E-01         0.00000E+00
    0.22898E-01        -0.13075E-01         0.00000E+00
    0.22166E-01        -0.12592E-01         0.00000E+00
    0.21427E-01        -0.12110E-01         0.00000E+00
    0.20682E-01        -0.11628E-01         0.00000E+00
    0.19932E-01        -0.11147E-01         0.00000E+00
    0.19176E-01        -0.10667E-01         0.00000E+00
    0.18413E-01        -0.10187E-01         0.00000E+00
    0.17645E-01        -0.97072E-02         0.00000E+00
    0.16871E-01        -0.92287E-02         0.00000E+00
    0.16090E-01        -0.87511E-02         0.00000E+00
    0.15304E-01        -0.82744E-02         0.00000E+00
    0.14511E-01        -0.77989E-02         0.00000E+00
    0.13712E-01        -0.73245E-02         0.00000E+00
    0.12907E-01        -0.68515E-02         0.00000E+00
    0.12095E-01        -0.63798E-02         0.00000E+00
    0.11277E-01        -0.59097E-02         0.00000E+00
    0.10452E-01        -0.54412E-02         0.00000E+00
    0.96201E-02        -0.49746E-02         0.00000E+00
    0.87816E-02        -0.45098E-02         0.00000E+00
    0.79363E-02        -0.40471E-02         0.00000E+00
    0.70839E-02        -0.35866E-02         0.00000E+00
    0.62245E-02        -0.31284E-02         0.00000E+00
    0.53578E-02        -0.26727E-02         0.00000E+00
    0.44839E-02        -0.22197E-02         0.00000E+00
    0.36025E-02        -0.17694E-02         0.00000E+00
    0.27135E-02        -0.13222E-02         0.00000E+00
    0.18168E-02        -0.87807E-03         0.00000E+00
    0.91237E-03        -0.43728E-03         0.00000E+00
    0.00000E+00         0.00000E+00         0.00000E+00
    0.39427E-01        -0.26764E-01         0.00000E+00
    0.38783E-01        -0.26226E-01         0.00000E+00
    0.38132E-01        -0.25687E-01         0.00000E+00
    0.37473E-01        -0.25149E-01         0.00000E+00
    0.36808E-01        -0.24611E-01         0.00000E+00
    0.36137E-01        -0.24072E-01         0.00000E+00
    0.35459E-01        -0.23533E-01         0.00000E+00
    0.34775E-01        -0.22994E-01         0.00000E+00
    0.34085E-01        -0.22455E-01         0.00000E+00
    0.33389E-01        -0.21916E-01         0.00000E+00
    0.32688E-01        -0.21376E-01         0.00000E+00
    0.31981E-01        -0.20836E-01         0.00000E+00
    0.31268E-01        -0.20296E-01         0.00000E+00
    0.30551E-01        -0.19755E-01         0.00000E+00
    0.29827E-01        -0.19215E-01         0.00000E+00
    0.29099E-01        -0.18674E-01         0.00000E+00
    0.28365E-01        -0.18132E-01         0.00000E+00
    0.27626E-01        -0.17591E-01         0.00000E+00
    0.26882E-01        -0.17049E-01         0.00000E+00
    0.26133E-01        -0.16507E-01         0.00000E+00
    0.25379E-01        -0.15965E-01         0.00000E+00
    0.24619E-01        -0.15423E-01         0.00000E+00
    0.23854E-01        -0.14880E-01         0.00000E+00
    0.23084E-01        -0.14338E-01         0.00000E+00
    0.22309E-01        -0.13796E-01         0.00000E+00
    0.21528E-01        -0.13253E-01         0.00000E+00
    0.20742E-01        -0.12711E-01         0.00000E+00
    0.19951E-01        -0.12169E-01         0.00000E+00
    0.19154E-01        -0.11627E-01         0.00000E+00
    0.18351E-01        -0.11086E-01         0.00000E+00
    0.17542E-01        -0.10545E-01         0.00000E+00
    0.16728E-01        -0.10005E-01         0.00000E+00
    0.15908E-01        -0.94654E-02         0.00000E+00
    0.15082E-01        -0.89264E-02         0.00000E+00
    0.14250E-01        -0.83883E-02         0.00000E+00
    0.13411E-01        -0.78512E-02         0.00000E+00
    0.12567E-01        -0.73151E-02         0.00000E+00
    0.11715E-01        -0.67802E-02         0.00000E+00
    0.10858E-01        -0.62466E-02         0.00000E+00
    0.99931E-02        -0.57145E-02         0.00000E+00
    0.91218E-02        -0.51840E-02         0.00000E+00
    0.82434E-02        -0.46552E-02         0.00000E+00
    0.73580E-02        -0.41283E-02         0.00000E+00
    0.64653E-02        -0.36034E-02         0.00000E+00
    0.55651E-02        -0.30807E-02         0.00000E+00
    0.46574E-02        -0.25603E-02         0.00000E+00
    0.37420E-02        -0.20425E-02         0.00000E+00
    0.28187E-02        -0.15274E-02         0.00000E+00
    0.18874E-02        -0.10151E-02         0.00000E+00
    0.94786E-03        -0.50594E-03         0.00000E+00
    0.00000E+00         0.00000E+00         0.00000E+00
    0.41366E-01        -0.30121E-01         0.00000E+00
    0.40660E-01        -0.29523E-01         0.00000E+00
    0.39948E-01        -0.28924E-01         0.00000E+00
    0.39232E-01        -0.28326E-01         0.00000E+00
    0.38509E-01        -0.27727E-01         0.00000E+00
    0.37782E-01        -0.27128E-01         0.00000E+00
    0.37050E-01        -0.26529E-01         0.00000E+00
    0.36314E-01        -0.25929E-01         0.00000E+00
    0.35573E-01        -0.25329E-01         0.00000E+00
    0.34827E-01        -0.24729E-01         0.00000E+00
    0.34077E-01        -0.24128E-01         0.00000E+00
    0.33322E-01        -0.23526E-01         0.00000E+00
    0.32564E-01        -0.22924E-01         0.00000E+00
    0.31801E-01        -0.22322E-01         0.00000E+00
    0.31034E-01        -0.21719E-01         0.00000E+00
    0.30262E-01        -0.21115E-01         0.00000E+00
    0.29487E-01        -0.20510E-01         0.00000E+00
    0.28707E-01        -0.19905E-01         0.00000E+00
    0.27923E-01        -0.19300E-01         0.00000E+00
    0.27135E-01        -0.18694E-01         0.00000E+00
    0.26343E-01        -0.18087E-01         0.00000E+00
    0.25546E-01        -0.17480E-01         0.00000E+00
    0.24745E-01        -0.16872E-01         0.00000E+00
    0.23939E-01        -0.16264E-01         0.00000E+00
    0.23128E-01        -0.15656E-01         0.00000E+00
    0.22313E-01        -0.15047E-01         0.00000E+00
    0.21493E-01        -0.14438E-01         0.00000E+00
    0.20668E-01        -0.13829E-01         0.00000E+00
    0.19838E-01        -0.13219E-01         0.00000E+00
    0.19003E-01        -0.12610E-01         0.00000E+00
    0.18163E-01        -0.12000E-01         0.00000E+00
    0.17317E-01        -0.11391E-01         0.00000E+00
    0.16465E-01        -0.10782E-01         0.00000E+00
    0.15608E-01        -0.10173E-01         0.00000E+00
    0.14745E-01        -0.95646E-02         0.00000E+00
    0.13876E-01        -0.89568E-02         0.00000E+00
    0.13001E-01        -0.83497E-02         0.00000E+00
    0.12119E-01        -0.77433E-02         0.00000E+00
    0.11231E-01        -0.71379E-02         0.00000E+00
    0.10336E-01        -0.65335E-02         0.00000E+00
    0.94348E-02        -0.59303E-02         0.00000E+00
    0.85261E-02        -0.53285E-02         0.00000E+00
    0.76102E-02        -0.47282E-02         0.00000E+00
    0.66868E-02        -0.41295E-02         0.00000E+00
    0.57559E-02        -0.35327E-02         0.00000E+00
    0.48172E-02        -0.29379E-02         0.00000E+00
    0.38705E-02        -0.23452E-02         0.00000E+00
    0.29157E-02        -0.17549E-02         0.00000E+00
    0.19524E-02        -0.11671E-02         0.00000E+00
    0.98060E-03        -0.58210E-03         0.00000E+00
    0.00000E+00         0.00000E+00         0.00000E+00
    0.43220E-01        -0.33798E-01         0.00000E+00
    0.42450E-01        -0.33134E-01         0.00000E+00
    0.41676E-01        -0.32471E-01         0.00000E+00
    0.40898E-01        -0.31807E-01         0.00000E+00
    0.40117E-01        -0.31143E-01         0.00000E+00
    0.39333E-01        -0.30478E-01         0.00000E+00
    0.38545E-01        -0.29813E-01         0.00000E+00
    0.37755E-01        -0.29148E-01         0.00000E+00
    0.36962E-01        -0.28482E-01         0.00000E+00
    0.36165E-01        -0.27815E-01         0.00000E+00
    0.35366E-01        -0.27147E-01         0.00000E+00
    0.34565E-01        -0.26478E-01         0.00000E+00
    0.33760E-01        -0.25809E-01         0.00000E+00
    0.32953E-01        -0.25139E-01         0.00000E+00
    0.32142E-01        -0.24468E-01         0.00000E+00
    0.31329E-01        -0.23795E-01         0.00000E+00
    0.30513E-01        -0.23122E-01         0.00000E+00
    0.29694E-01        -0.22448E-01         0.00000E+00
    0.28872E-01        -0.21773E-01         0.00000E+00
    0.28046E-01        -0.21097E-01         0.00000E+00
    0.27217E-01        -0.20419E-01         0.00000E+00
    0.26385E-01        -0.19741E-01         0.00000E+00
    0.25549E-01        -0.19062E-01         0.00000E+00
    0.24710E-01        -0.18382E-01         0.00000E+00
    0.23867E-01        -0.17701E-01         0.00000E+00
    0.23020E-01        -0.17020E-01         0.00000E+00
    0.22168E-01        -0.16337E-01         0.00000E+00
    0.21313E-01        -0.15654E-01         0.00000E+00
    0.20452E-01        -0.14971E-01         0.00000E+00
    0.19588E-01        -0.14286E-01         0.00000E+00
    0.18718E-01        -0.13602E-01         0.00000E+00
    0.17843E-01        -0.12917E-01         0.00000E+00
    0.16964E-01        -0.12231E-01         0.00000E+00
    0.16078E-01        -0.11546E-01         0.00000E+00
    0.15188E-01        -0.10860E-01         0.00000E+00
    0.14291E-01        -0.10175E-01         0.00000E+00
    0.13388E-01        -0.94895E-02         0.00000E+00
    0.12480E-01        -0.88046E-02         0.00000E+00
    0.11564E-01        -0.81202E-02         0.00000E+00
    0.10642E-01        -0.74363E-02         0.00000E+00
    0.97138E-02        -0.67532E-02         0.00000E+00
    0.87780E-02        -0.60710E-02         0.00000E+00
    0.78350E-02        -0.53899E-02         0.00000E+00
    0.68844E-02        -0.47100E-02         0.00000E+00
    0.59261E-02        -0.40315E-02         0.00000E+00
    0.49598E-02        -0.33545E-02         0.00000E+00
    0.39853E-02        -0.26794E-02         0.00000E+00
    0.30022E-02        -0.20061E-02         0.00000E+00
    0.20105E-02        -0.13350E-02         0.00000E+00
    0.10099E-02        -0.66623E-03         0.00000E+00
    0.00000E+00         0.00000E+00         0.00000E+00
    0.44954E-01        -0.37810E-01         0.00000E+00
    0.44116E-01        -0.37076E-01         0.00000E+00
    0.43277E-01        -0.36342E-01         0.00000E+00
    0.42437E-01        -0.35607E-01         0.00000E+00
    0.41595E-01        -0.34872E-01         0.00000E+00
    0.40753E-01        -0.34137E-01         0.00000E+00
    0.39909E-01        -0.33401E-01         0.00000E+00
    0.39064E-01        -0.32664E-01         0.00000E+00
    0.38219E-01        -0.31926E-01         0.00000E+00
    0.37373E-01        -0.31187E-01         0.00000E+00
    0.36525E-01        -0.30447E-01         0.00000E+00
    0.35677E-01        -0.29705E-01         0.00000E+00
    0.34827E-01        -0.28963E-01         0.00000E+00
    0.33977E-01        -0.28219E-01         0.00000E+00
    0.33125E-01        -0.27474E-01         0.00000E+00
    0.32272E-01        -0.26727E-01         0.00000E+00
    0.31417E-01        -0.25979E-01         0.00000E+00
    0.30560E-01        -0.25230E-01         0.00000E+00
    0.29702E-01        -0.24479E-01         0.00000E+00
    0.28842E-01        -0.23727E-01         0.00000E+00
    0.27980E-01        -0.22973E-01         0.00000E+00
    0.27115E-01        -0.22217E-01         0.00000E+00
    0.26248E-01        -0.21460E-01         0.00000E+00
    0.25378E-01        -0.20702E-01         0.00000E+00
    0.24505E-01        -0.19942E-01         0.00000E+00
    0.23629E-01        -0.19181E-01         0.00000E+00
    0.22750E-01        -0.18419E-01         0.00000E+00
    0.21867E-01        -0.17655E-01         0.00000E+00
    0.20980E-01        -0.16890E-01         0.00000E+00
    0.20089E-01        -0.16124E-01         0.00000E+00
    0.19194E-01        -0.15357E-01         0.00000E+00
    0.18294E-01        -0.14589E-01         0.00000E+00
    0.17390E-01        -0.13821E-01         0.00000E+00
    0.16480E-01        -0.13051E-01         0.00000E+00
    0.15565E-01        -0.12281E-01         0.00000E+00
    0.14645E-01        -0.11511E-01         0.00000E+00
    0.13719E-01        -0.10740E-01         0.00000E+00
    0.12787E-01        -0.99694E-02         0.00000E+00
    0.11848E-01        -0.91984E-02         0.00000E+00
    0.10903E-01        -0.84274E-02         0.00000E+00
    0.99516E-02        -0.76567E-02         0.00000E+00
    0.89928E-02        -0.68864E-02         0.00000E+00
    0.80266E-02        -0.61167E-02         0.00000E+00
    0.70529E-02        -0.53476E-02         0.00000E+00
    0.60712E-02        -0.45795E-02         0.00000E+00
    0.50814E-02        -0.38124E-02         0.00000E+00
    0.40832E-02        -0.30466E-02         0.00000E+00
    0.30762E-02        -0.22823E-02         0.00000E+00
    0.20602E-02        -0.15196E-02         0.00000E+00
    0.10349E-02        -0.75876E-03         0.00000E+00
    0.00000E+00         0.00000E+00         0.00000E+00
    0.46523E-01        -0.42172E-01         0.00000E+00
    0.45616E-01        -0.41361E-01         0.00000E+00
    0.44710E-01        -0.40551E-01         0.00000E+00
    0.43806E-01        -0.39740E-01         0.00000E+00
    0.42903E-01        -0.38928E-01         0.00000E+00
    0.42002E-01        -0.38116E-01         0.00000E+00
    0.41102E-01        -0.37303E-01         0.00000E+00
    0.40204E-01        -0.36489E-01         0.00000E+00
    0.39307E-01        -0.35673E-01         0.00000E+00
    0.38412E-01        -0.34857E-01         0.00000E+00
    0.37518E-01        -0.34038E-01         0.00000E+00
    0.36625E-01        -0.33219E-01         0.00000E+00
    0.35732E-01        -0.32397E-01         0.00000E+00
    0.34841E-01        -0.31574E-01         0.00000E+00
    0.33950E-01        -0.30749E-01         0.00000E+00
    0.33060E-01        -0.29922E-01         0.00000E+00
    0.32169E-01        -0.29093E-01         0.00000E+00
    0.31279E-01        -0.28262E-01         0.00000E+00
    0.30388E-01        -0.27429E-01         0.00000E+00
    0.29497E-01        -0.26594E-01         0.00000E+00
    0.28605E-01        -0.25756E-01         0.00000E+00
    0.27711E-01        -0.24917E-01         0.00000E+00
    0.26817E-01        -0.24076E-01         0.00000E+00
    0.25920E-01        -0.23232E-01         0.00000E+00
    0.25022E-01        -0.22387E-01         0.00000E+00
    0.24121E-01        -0.21539E-01         0.00000E+00
    0.23218E-01        -0.20690E-01         0.00000E+00
    0.22312E-01        -0.19839E-01         0.00000E+00
    0.21403E-01        -0.18986E-01         0.00000E+00
    0.20491E-01        -0.18131E-01         0.00000E+00
    0.19575E-01        -0.17275E-01         0.00000E+00
    0.18654E-01        -0.16417E-01         0.00000E+00
    0.17730E-01        -0.15557E-01         0.00000E+00
    0.16801E-01        -0.14697E-01         0.00000E+00
    0.15866E-01        -0.13835E-01         0.00000E+00
    0.14927E-01        -0.12972E-01         0.00000E+00
    0.13982E-01        -0.12108E-01         0.00000E+00
    0.13031E-01        -0.11243E-01         0.00000E+00
    0.12074E-01        -0.10377E-01         0.00000E+00
    0.11111E-01        -0.95113E-02         0.00000E+00
    0.10141E-01        -0.86449E-02         0.00000E+00
    0.91634E-02        -0.77784E-02         0.00000E+00
    0.81789E-02        -0.69118E-02         0.00000E+00
    0.71867E-02        -0.60454E-02         0.00000E+00
    0.61866E-02        -0.51793E-02         0.00000E+00
    0.51781E-02        -0.43137E-02         0.00000E+00
    0.41611E-02        -0.34487E-02         0.00000E+00
    0.31351E-02        -0.25847E-02         0.00000E+00
    0.20998E-02        -0.17218E-02         0.00000E+00
    0.10549E-02        -0.86015E-03         0.00000E+00
    0.00000E+00         0.00000E+00         0.00000E+00
    0.47877E-01        -0.46891E-01         0.00000E+00
    0.46899E-01        -0.45999E-01         0.00000E+00
    0.45926E-01        -0.45107E-01         0.00000E+00
    0.44957E-01        -0.44214E-01         0.00000E+00
    0.43994E-01        -0.43320E-01         0.00000E+00
    0.43035E-01        -0.42426E-01         0.00000E+00
    0.42081E-01        -0.41530E-01         0.00000E+00
    0.41131E-01        -0.40633E-01         0.00000E+00
    0.40185E-01        -0.39734E-01         0.00000E+00
    0.39243E-01        -0.38833E-01         0.00000E+00
    0.38305E-01        -0.37931E-01         0.00000E+00
    0.37370E-01        -0.37027E-01         0.00000E+00
    0.36438E-01        -0.36120E-01         0.00000E+00
    0.35510E-01        -0.35211E-01         0.00000E+00
    0.34584E-01        -0.34300E-01         0.00000E+00
    0.33660E-01        -0.33386E-01         0.00000E+00
    0.32739E-01        -0.32470E-01         0.00000E+00
    0.31819E-01        -0.31551E-01         0.00000E+00
    0.30900E-01        -0.30630E-01         0.00000E+00
    0.29982E-01        -0.29705E-01         0.00000E+00
    0.29065E-01        -0.28779E-01         0.00000E+00
    0.28149E-01        -0.27849E-01         0.00000E+00
    0.27232E-01        -0.26916E-01         0.00000E+00
    0.26314E-01        -0.25981E-01         0.00000E+00
    0.25396E-01        -0.25043E-01         0.00000E+00
    0.24476E-01        -0.24103E-01         0.00000E+00
    0.23555E-01        -0.23159E-01         0.00000E+00
    0.22631E-01        -0.22213E-01         0.00000E+00
    0.21705E-01        -0.21265E-01         0.00000E+00
    0.20777E-01        -0.20314E-01         0.00000E+00
    0.19845E-01        -0.19361E-01         0.00000E+00
    0.18910E-01        -0.18405E-01         0.00000E+00
    0.17970E-01        -0.17447E-01         0.00000E+00
    0.17027E-01        -0.16488E-01         0.00000E+00
    0.16079E-01        -0.15526E-01         0.00000E+00
    0.15126E-01        -0.14562E-01         0.00000E+00
    0.14167E-01        -0.13597E-01         0.00000E+00
    0.13203E-01        -0.12630E-01         0.00000E+00
    0.12233E-01        -0.11662E-01         0.00000E+00
    0.11256E-01        -0.10693E-01         0.00000E+00
    0.10273E-01        -0.97221E-02         0.00000E+00
    0.92828E-02        -0.87509E-02         0.00000E+00
    0.82853E-02        -0.77789E-02         0.00000E+00
    0.72802E-02        -0.68064E-02         0.00000E+00
    0.62670E-02        -0.58336E-02         0.00000E+00
    0.52455E-02        -0.48606E-02         0.00000E+00
    0.42154E-02        -0.38876E-02         0.00000E+00
    0.31762E-02        -0.29149E-02         0.00000E+00
    0.21274E-02        -0.19425E-02         0.00000E+00
    0.10688E-02        -0.97074E-03         0.00000E+00
    0.00000E+00         0.00000E+00         0.00000E+00
    0.48957E-01        -0.51975E-01         0.00000E+00
    0.47909E-01        -0.50995E-01         0.00000E+00
    0.46869E-01        -0.50015E-01         0.00000E+00
    0.45838E-01        -0.49034E-01         0.00000E+00
    0.44815E-01        -0.48052E-01         0.00000E+00
    0.43801E-01        -0.47069E-01         0.00000E+00
    0.42795E-01        -0.46085E-01         0.00000E+00
    0.41796E-01        -0.45099E-01         0.00000E+00
    0.40804E-01        -0.44111E-01         0.00000E+00
    0.39820E-01        -0.43121E-01         0.00000E+00
    0.38842E-01        -0.42128E-01         0.00000E+00
    0.37870E-01        -0.41133E-01         0.00000E+00
    0.36904E-01        -0.40136E-01         0.00000E+00
    0.35944E-01        -0.39135E-01         0.00000E+00
    0.34988E-01        -0.38132E-01         0.00000E+00
    0.34037E-01        -0.37125E-01         0.00000E+00
    0.33090E-01        -0.36116E-01         0.00000E+00
    0.32146E-01        -0.35103E-01         0.00000E+00
    0.31206E-01        -0.34087E-01         0.00000E+00
    0.30268E-01        -0.33067E-01         0.00000E+00
    0.29333E-01        -0.32044E-01         0.00000E+00
    0.28399E-01        -0.31017E-01         0.00000E+00
    0.27466E-01        -0.29987E-01         0.00000E+00
    0.26534E-01        -0.28954E-01         0.00000E+00
    0.25602E-01        -0.27916E-01         0.00000E+00
    0.24670E-01        -0.26876E-01         0.00000E+00
    0.23737E-01        -0.25832E-01         0.00000E+00
    0.22803E-01        -0.24784E-01         0.00000E+00
    0.21867E-01        -0.23734E-01         0.00000E+00
    0.20929E-01        -0.22679E-01         0.00000E+00
    0.19988E-01        -0.21622E-01         0.00000E+00
    0.19044E-01        -0.20562E-01         0.00000E+00
    0.18097E-01        -0.19498E-01         0.00000E+00
    0.17146E-01        -0.18431E-01         0.00000E+00
    0.16190E-01        -0.17362E-01         0.00000E+00
    0.15230E-01        -0.16290E-01         0.00000E+00
    0.14264E-01        -0.15216E-01         0.00000E+00
    0.13293E-01        -0.14139E-01         0.00000E+00
    0.12315E-01        -0.13059E-01         0.00000E+00
    0.11332E-01        -0.11978E-01         0.00000E+00
    0.10341E-01        -0.10895E-01         0.00000E+00
    0.93441E-02        -0.98097E-02         0.00000E+00
    0.83396E-02        -0.87232E-02         0.00000E+00
    0.73274E-02        -0.76354E-02         0.00000E+00
    0.63072E-02        -0.65465E-02         0.00000E+00
    0.52788E-02        -0.54566E-02         0.00000E+00
    0.42417E-02        -0.43660E-02         0.00000E+00
    0.31957E-02        -0.32750E-02         0.00000E+00
    0.21405E-02        -0.21838E-02         0.00000E+00
    0.10756E-02        -0.10922E-02         0.00000E+00
    0.00000E+00         0.00000E+00         0.00000E+00
    0.49698E-01        -0.57418E-01         0.00000E+00
    0.48581E-01        -0.56345E-01         0.00000E+00
    0.47477E-01        -0.55271E-01         0.00000E+00
    0.46386E-01        -0.54197E-01         0.00000E+00
    0.45308E-01        -0.53121E-01         0.00000E+00
    0.44243E-01        -0.52044E-01         0.00000E+00
    0.43189E-01        -0.50965E-01         0.00000E+00
    0.42146E-01        -0.49885E-01         0.00000E+00
    0.41115E-01        -0.48802E-01         0.00000E+00
    0.40093E-01        -0.47716E-01         0.00000E+00
    0.39081E-01        -0.46628E-01         0.00000E+00
    0.38079E-01        -0.45536E-01         0.00000E+00
    0.37085E-01        -0.44442E-01         0.00000E+00
    0.36100E-01        -0.43344E-01         0.00000E+00
    0.35121E-01        -0.42242E-01         0.00000E+00
    0.34150E-01        -0.41137E-01         0.00000E+00
    0.33185E-01        -0.40028E-01         0.00000E+00
    0.32226E-01        -0.38915E-01         0.00000E+00
    0.31271E-01        -0.37798E-01         0.00000E+00
    0.30321E-01        -0.36677E-01         0.00000E+00
    0.29375E-01        -0.35552E-01         0.00000E+00
    0.28432E-01        -0.34423E-01         0.00000E+00
    0.27492E-01        -0.33289E-01         0.00000E+00
    0.26553E-01        -0.32151E-01         0.00000E+00
    0.25616E-01        -0.31009E-01         0.00000E+00
    0.24679E-01        -0.29862E-01         0.00000E+00
    0.23743E-01        -0.28711E-01         0.00000E+00
    0.22806E-01        -0.27556E-01         0.00000E+00
    0.21868E-01        -0.26397E-01         0.00000E+00
    0.20929E-01        -0.25233E-01         0.00000E+00
    0.19987E-01        -0.24065E-01         0.00000E+00
    0.19043E-01        -0.22893E-01         0.00000E+00
    0.18095E-01        -0.21717E-01         0.00000E+00
    0.17144E-01        -0.20537E-01         0.00000E+00
    0.16188E-01        -0.19353E-01         0.00000E+00
    0.15228E-01        -0.18166E-01         0.00000E+00
    0.14262E-01        -0.16975E-01         0.00000E+00
    0.13291E-01        -0.15780E-01         0.00000E+00
    0.12313E-01        -0.14582E-01         0.00000E+00
    0.11330E-01        -0.13380E-01         0.00000E+00
    0.10339E-01        -0.12176E-01         0.00000E+00
    0.93415E-02        -0.10968E-01         0.00000E+00
    0.83363E-02        -0.97574E-02         0.00000E+00
    0.73233E-02        -0.85444E-02         0.00000E+00
    0.63024E-02        -0.73290E-02         0.00000E+00
    0.52735E-02        -0.61114E-02         0.00000E+00
    0.42366E-02        -0.48916E-02         0.00000E+00
    0.31913E-02        -0.36697E-02         0.00000E+00
    0.21364E-02        -0.24457E-02         0.00000E+00
    0.10724E-02        -0.12219E-02         0.00000E+00
    0.00000E+00         0.00000E+00         0.00000E+00
    0.50025E-01        -0.63208E-01         0.00000E+00
    0.48843E-01        -0.62036E-01         0.00000E+00
    0.47680E-01        -0.60863E-01         0.00000E+00
    0.46535E-01        -0.59689E-01         0.00000E+00
    0.45408E-01        -0.58514E-01         0.00000E+00
    0.44297E-01        -0.57337E-01         0.00000E+00
    0.43202E-01        -0.56158E-01         0.00000E+00
    0.42123E-01        -0.54977E-01         0.00000E+00
    0.41059E-01        -0.53793E-01         0.00000E+00
    0.40008E-01        -0.52607E-01         0.00000E+00
    0.38971E-01        -0.51417E-01         0.00000E+00
    0.37946E-01        -0.50223E-01         0.00000E+00
    0.36933E-01        -0.49026E-01         0.00000E+00
    0.35931E-01        -0.47825E-01         0.00000E+00
    0.34940E-01        -0.46620E-01         0.00000E+00
    0.33957E-01        -0.45411E-01         0.00000E+00
    0.32983E-01        -0.44198E-01         0.00000E+00
    0.32017E-01        -0.42979E-01         0.00000E+00
    0.31059E-01        -0.41757E-01         0.00000E+00
    0.30106E-01        -0.40529E-01         0.00000E+00
    0.29159E-01        -0.39297E-01         0.00000E+00
    0.28216E-01        -0.38059E-01         0.00000E+00
    0.27278E-01        -0.36817E-01         0.00000E+00
    0.26342E-01        -0.35570E-01         0.00000E+00
    0.25410E-01        -0.34317E-01         0.00000E+00
    0.24478E-01        -0.33060E-01         0.00000E+00
    0.23548E-01        -0.31797E-01         0.00000E+00
    0.22618E-01        -0.30529E-01         0.00000E+00
    0.21688E-01        -0.29256E-01         0.00000E+00
    0.20756E-01        -0.27978E-01         0.00000E+00
    0.19823E-01        -0.26695E-01         0.00000E+00
    0.18887E-01        -0.25407E-01         0.00000E+00
    0.17948E-01        -0.24113E-01         0.00000E+00
    0.17005E-01        -0.22815E-01         0.00000E+00
    0.16058E-01        -0.21512E-01         0.00000E+00
    0.15106E-01        -0.20203E-01         0.00000E+00
    0.14149E-01        -0.18890E-01         0.00000E+00
    0.13186E-01        -0.17573E-01         0.00000E+00
    0.12217E-01        -0.16250E-01         0.00000E+00
    0.11241E-01        -0.14923E-01         0.00000E+00
    0.10257E-01        -0.13591E-01         0.00000E+00
    0.92668E-02        -0.12255E-01         0.00000E+00
    0.82688E-02        -0.10914E-01         0.00000E+00
    0.72631E-02        -0.95682E-02         0.00000E+00
    0.62489E-02        -0.82175E-02         0.00000E+00
    0.52252E-02        -0.68619E-02         0.00000E+00
    0.41920E-02        -0.55034E-02         0.00000E+00
    0.31508E-02        -0.41420E-02         0.00000E+00
    0.21060E-02        -0.27773E-02         0.00000E+00
    0.10559E-02        -0.14002E-02         0.00000E+00
    0.00000E+00         0.00000E+00         0.00000E+00
    0.49855E-01        -0.69318E-01         0.00000E+00
    0.48616E-01        -0.68041E-01         0.00000E+00
    0.47401E-01        -0.66763E-01         0.00000E+00
    0.46210E-01        -0.65484E-01         0.00000E+00
    0.45042E-01        -0.64204E-01         0.00000E+00
    0.43895E-01        -0.62922E-01         0.00000E+00
    0.42770E-01        -0.61638E-01         0.00000E+00
    0.41664E-01        -0.60351E-01         0.00000E+00
    0.40577E-01        -0.59061E-01         0.00000E+00
    0.39507E-01        -0.57767E-01         0.00000E+00
    0.38455E-01        -0.56471E-01         0.00000E+00
    0.37419E-01        -0.55170E-01         0.00000E+00
    0.36397E-01        -0.53866E-01         0.00000E+00
    0.35390E-01        -0.52557E-01         0.00000E+00
    0.34396E-01        -0.51243E-01         0.00000E+00
    0.33413E-01        -0.49925E-01         0.00000E+00
    0.32442E-01        -0.48602E-01         0.00000E+00
    0.31481E-01        -0.47275E-01         0.00000E+00
    0.30528E-01        -0.45941E-01         0.00000E+00
    0.29584E-01        -0.44603E-01         0.00000E+00
    0.28647E-01        -0.43259E-01         0.00000E+00
    0.27717E-01        -0.41910E-01         0.00000E+00
    0.26791E-01        -0.40556E-01         0.00000E+00
    0.25870E-01        -0.39195E-01         0.00000E+00
    0.24953E-01        -0.37829E-01         0.00000E+00
    0.24038E-01        -0.36457E-01         0.00000E+00
    0.23125E-01        -0.35079E-01         0.00000E+00
    0.22212E-01        -0.33696E-01         0.00000E+00
    0.21300E-01        -0.32306E-01         0.00000E+00
    0.20387E-01        -0.30911E-01         0.00000E+00
    0.19472E-01        -0.29510E-01         0.00000E+00
    0.18555E-01        -0.28103E-01         0.00000E+00
    0.17634E-01        -0.26690E-01         0.00000E+00
    0.16710E-01        -0.25271E-01         0.00000E+00
    0.15781E-01        -0.23846E-01         0.00000E+00
    0.14847E-01        -0.22416E-01         0.00000E+00
    0.13907E-01        -0.20980E-01         0.00000E+00
    0.12961E-01        -0.19538E-01         0.00000E+00
    0.12008E-01        -0.18090E-01         0.00000E+00
    0.11048E-01        -0.16636E-01         0.00000E+00
    0.10081E-01        -0.15176E-01         0.00000E+00
    0.91039E-02        -0.13710E-01         0.00000E+00
    0.81178E-02        -0.12240E-01         0.00000E+00
    0.71222E-02        -0.10765E-01         0.00000E+00
    0.61197E-02        -0.92867E-02         0.00000E+00
    0.51129E-02        -0.78022E-02         0.00000E+00
    0.41009E-02        -0.63008E-02         0.00000E+00
    0.30819E-02        -0.47720E-02         0.00000E+00
    0.20590E-02        -0.32126E-02         0.00000E+00
    0.10329E-02        -0.16213E-02         0.00000E+00
    0.00000E+00         0.00000E+00         0.00000E+00
    0.49098E-01        -0.75704E-01         0.00000E+00
    0.47813E-01        -0.74317E-01         0.00000E+00
    0.46559E-01        -0.72928E-01         0.00000E+00
    0.45333E-01        -0.71539E-01         0.00000E+00
    0.44136E-01        -0.70148E-01         0.00000E+00
    0.42966E-01        -0.68755E-01         0.00000E+00
    0.41821E-01        -0.67360E-01         0.00000E+00
    0.40701E-01        -0.65962E-01         0.00000E+00
    0.39604E-01        -0.64561E-01         0.00000E+00
    0.38529E-01        -0.63156E-01         0.00000E+00
    0.37475E-01        -0.61748E-01         0.00000E+00
    0.36440E-01        -0.60336E-01         0.00000E+00
    0.35423E-01        -0.58919E-01         0.00000E+00
    0.34423E-01        -0.57498E-01         0.00000E+00
    0.33440E-01        -0.56072E-01         0.00000E+00
    0.32470E-01        -0.54641E-01         0.00000E+00
    0.31515E-01        -0.53205E-01         0.00000E+00
    0.30571E-01        -0.51764E-01         0.00000E+00
    0.29639E-01        -0.50317E-01         0.00000E+00
    0.28716E-01        -0.48865E-01         0.00000E+00
    0.27803E-01        -0.47407E-01         0.00000E+00
    0.26897E-01        -0.45943E-01         0.00000E+00
    0.25997E-01        -0.44474E-01         0.00000E+00
    0.25103E-01        -0.42998E-01         0.00000E+00
    0.24213E-01        -0.41516E-01         0.00000E+00
    0.23327E-01        -0.40029E-01         0.00000E+00
    0.22443E-01        -0.38535E-01         0.00000E+00
    0.21560E-01        -0.37034E-01         0.00000E+00
    0.20678E-01        -0.35528E-01         0.00000E+00
    0.19795E-01        -0.34015E-01         0.00000E+00
    0.18910E-01        -0.32495E-01         0.00000E+00
    0.18022E-01        -0.30970E-01         0.00000E+00
    0.17131E-01        -0.29438E-01         0.00000E+00
    0.16235E-01        -0.27899E-01         0.00000E+00
    0.15335E-01        -0.26355E-01         0.00000E+00
    0.14428E-01        -0.24804E-01         0.00000E+00
    0.13516E-01        -0.23246E-01         0.00000E+00
    0.12595E-01        -0.21681E-01         0.00000E+00
    0.11665E-01        -0.20111E-01         0.00000E+00
    0.10725E-01        -0.18536E-01         0.00000E+00
    0.97774E-02        -0.16957E-01         0.00000E+00
    0.88237E-02        -0.15373E-01         0.00000E+00
    0.78635E-02        -0.13775E-01         0.00000E+00
    0.68985E-02        -0.12156E-01         0.00000E+00
    0.59288E-02        -0.10507E-01         0.00000E+00
    0.49578E-02        -0.88282E-02         0.00000E+00
    0.39836E-02        -0.71173E-02         0.00000E+00
    0.30048E-02        -0.53777E-02         0.00000E+00
    0.20170E-02        -0.36102E-02         0.00000E+00
    0.10166E-02        -0.18170E-02         0.00000E+00
    0.00000E+00         0.00000E+00         0.00000E+00
    0.47662E-01        -0.82302E-01         0.00000E+00
    0.46346E-01        -0.80798E-01         0.00000E+00
    0.45066E-01        -0.79294E-01         0.00000E+00
    0.43822E-01        -0.77789E-01         0.00000E+00
    0.42612E-01        -0.76283E-01         0.00000E+00
    0.41434E-01        -0.74774E-01         0.00000E+00
    0.40286E-01        -0.73263E-01         0.00000E+00
    0.39168E-01        -0.71749E-01         0.00000E+00
    0.38076E-01        -0.70232E-01         0.00000E+00
    0.37011E-01        -0.68712E-01         0.00000E+00
    0.35971E-01        -0.67187E-01         0.00000E+00
    0.34953E-01        -0.65659E-01         0.00000E+00
    0.33956E-01        -0.64126E-01         0.00000E+00
    0.32980E-01        -0.62589E-01         0.00000E+00
    0.32022E-01        -0.61047E-01         0.00000E+00
    0.31081E-01        -0.59500E-01         0.00000E+00
    0.30156E-01        -0.57949E-01         0.00000E+00
    0.29245E-01        -0.56391E-01         0.00000E+00
    0.28347E-01        -0.54829E-01         0.00000E+00
    0.27461E-01        -0.53261E-01         0.00000E+00
    0.26585E-01        -0.51687E-01         0.00000E+00
    0.25718E-01        -0.50107E-01         0.00000E+00
    0.24859E-01        -0.48522E-01         0.00000E+00
    0.24005E-01        -0.46930E-01         0.00000E+00
    0.23157E-01        -0.45333E-01         0.00000E+00
    0.22313E-01        -0.43729E-01         0.00000E+00
    0.21472E-01        -0.42119E-01         0.00000E+00
    0.20632E-01        -0.40503E-01         0.00000E+00
    0.19792E-01        -0.38880E-01         0.00000E+00
    0.18951E-01        -0.37252E-01         0.00000E+00
    0.18108E-01        -0.35616E-01         0.00000E+00
    0.17262E-01        -0.33975E-01         0.00000E+00
    0.16413E-01        -0.32327E-01         0.00000E+00
    0.15557E-01        -0.30672E-01         0.00000E+00
    0.14695E-01        -0.29010E-01         0.00000E+00
    0.13824E-01        -0.27344E-01         0.00000E+00
    0.12945E-01        -0.25672E-01         0.00000E+00
    0.12059E-01        -0.23997E-01         0.00000E+00
    0.11167E-01        -0.22310E-01         0.00000E+00
    0.10271E-01        -0.20604E-01         0.00000E+00
    0.93703E-02        -0.18872E-01         0.00000E+00
    0.84688E-02        -0.17111E-01         0.00000E+00
    0.75663E-02        -0.15318E-01         0.00000E+00
    0.66610E-02        -0.13494E-01         0.00000E+00
    0.57507E-02        -0.11642E-01         0.00000E+00
    0.48308E-02        -0.97619E-02         0.00000E+00
    0.38984E-02        -0.78557E-02         0.00000E+00
    0.29512E-02        -0.59250E-02         0.00000E+00
    0.19881E-02        -0.39715E-02         0.00000E+00
    0.10058E-02        -0.19962E-02         0.00000E+00
    0.00000E+00         0.00000E+00         0.00000E+00
    0.45449E-01        -0.89022E-01         0.00000E+00
    0.44122E-01        -0.87398E-01         0.00000E+00
    0.42838E-01        -0.85774E-01         0.00000E+00
    0.41595E-01        -0.84148E-01         0.00000E+00
    0.40391E-01        -0.82521E-01         0.00000E+00
    0.39225E-01        -0.80892E-01         0.00000E+00
    0.38094E-01        -0.79261E-01         0.00000E+00
    0.36996E-01        -0.77626E-01         0.00000E+00
    0.35930E-01        -0.75989E-01         0.00000E+00
    0.34893E-01        -0.74349E-01         0.00000E+00
    0.33884E-01        -0.72704E-01         0.00000E+00
    0.32902E-01        -0.71057E-01         0.00000E+00
    0.31944E-01        -0.69404E-01         0.00000E+00
    0.31008E-01        -0.67748E-01         0.00000E+00
    0.30094E-01        -0.66087E-01         0.00000E+00
    0.29199E-01        -0.64422E-01         0.00000E+00
    0.28321E-01        -0.62752E-01         0.00000E+00
    0.27460E-01        -0.61077E-01         0.00000E+00
    0.26613E-01        -0.59397E-01         0.00000E+00
    0.25779E-01        -0.57712E-01         0.00000E+00
    0.24956E-01        -0.56021E-01         0.00000E+00
    0.24144E-01        -0.54325E-01         0.00000E+00
    0.23340E-01        -0.52624E-01         0.00000E+00
    0.22542E-01        -0.50918E-01         0.00000E+00
    0.21751E-01        -0.49205E-01         0.00000E+00
    0.20963E-01        -0.47487E-01         0.00000E+00
    0.20179E-01        -0.45764E-01         0.00000E+00
    0.19396E-01        -0.44034E-01         0.00000E+00
    0.18613E-01        -0.42299E-01         0.00000E+00
    0.17829E-01        -0.40558E-01         0.00000E+00
    0.17041E-01        -0.38810E-01         0.00000E+00
    0.16249E-01        -0.37057E-01         0.00000E+00
    0.15451E-01        -0.35300E-01         0.00000E+00
    0.14647E-01        -0.33538E-01         0.00000E+00
    0.13840E-01        -0.31768E-01         0.00000E+00
    0.13029E-01        -0.29983E-01         0.00000E+00
    0.12215E-01        -0.28174E-01         0.00000E+00
    0.11401E-01        -0.26337E-01         0.00000E+00
    0.10588E-01        -0.24472E-01         0.00000E+00
    0.97740E-02        -0.22576E-01         0.00000E+00
    0.89571E-02        -0.20651E-01         0.00000E+00
    0.81342E-02        -0.18697E-01         0.00000E+00
    0.73018E-02        -0.16715E-01         0.00000E+00
    0.64573E-02        -0.14706E-01         0.00000E+00
    0.55989E-02        -0.12673E-01         0.00000E+00
    0.47241E-02        -0.10615E-01         0.00000E+00
    0.38298E-02        -0.85339E-02         0.00000E+00
    0.29118E-02        -0.64305E-02         0.00000E+00
    0.19686E-02        -0.43059E-02         0.00000E+00
    0.99825E-03        -0.21619E-02         0.00000E+00
    0.00000E+00         0.00000E+00         0.00000E+00
    0.42365E-01        -0.95753E-01         0.00000E+00
    0.41053E-01        -0.94004E-01         0.00000E+00
    0.39789E-01        -0.92254E-01         0.00000E+00
    0.38571E-01        -0.90503E-01         0.00000E+00
    0.37398E-01        -0.88751E-01         0.00000E+00
    0.36267E-01        -0.86997E-01         0.00000E+00
    0.35176E-01        -0.85241E-01         0.00000E+00
    0.34122E-01        -0.83483E-01         0.00000E+00
    0.33103E-01        -0.81722E-01         0.00000E+00
    0.32117E-01        -0.79957E-01         0.00000E+00
    0.31162E-01        -0.78190E-01         0.00000E+00
    0.30236E-01        -0.76419E-01         0.00000E+00
    0.29336E-01        -0.74645E-01         0.00000E+00
    0.28462E-01        -0.72866E-01         0.00000E+00
    0.27611E-01        -0.71084E-01         0.00000E+00
    0.26780E-01        -0.69298E-01         0.00000E+00
    0.25969E-01        -0.67508E-01         0.00000E+00
    0.25175E-01        -0.65714E-01         0.00000E+00
    0.24397E-01        -0.63916E-01         0.00000E+00
    0.23632E-01        -0.62113E-01         0.00000E+00
    0.22880E-01        -0.60306E-01         0.00000E+00
    0.22138E-01        -0.58495E-01         0.00000E+00
    0.21406E-01        -0.56679E-01         0.00000E+00
    0.20681E-01        -0.54859E-01         0.00000E+00
    0.19962E-01        -0.53034E-01         0.00000E+00
    0.19247E-01        -0.51204E-01         0.00000E+00
    0.18534E-01        -0.49370E-01         0.00000E+00
    0.17822E-01        -0.47531E-01         0.00000E+00
    0.17109E-01        -0.45688E-01         0.00000E+00
    0.16396E-01        -0.43840E-01         0.00000E+00
    0.15682E-01        -0.41989E-01         0.00000E+00
    0.14968E-01        -0.40126E-01         0.00000E+00
    0.14253E-01        -0.38244E-01         0.00000E+00
    0.13541E-01        -0.36339E-01         0.00000E+00
    0.12832E-01        -0.34410E-01         0.00000E+00
    0.12125E-01        -0.32453E-01         0.00000E+00
    0.11418E-01        -0.30468E-01         0.00000E+00
    0.10709E-01        -0.28456E-01         0.00000E+00
    0.99951E-02        -0.26416E-01         0.00000E+00
    0.92727E-02        -0.24349E-01         0.00000E+00
    0.85394E-02        -0.22255E-01         0.00000E+00
    0.77930E-02        -0.20135E-01         0.00000E+00
    0.70309E-02        -0.17989E-01         0.00000E+00
    0.62492E-02        -0.15818E-01         0.00000E+00
    0.54449E-02        -0.13623E-01         0.00000E+00
    0.46156E-02        -0.11403E-01         0.00000E+00
    0.37593E-02        -0.91618E-02         0.00000E+00
    0.28736E-02        -0.68996E-02         0.00000E+00
    0.19548E-02        -0.46176E-02         0.00000E+00
    0.99739E-03        -0.23174E-02         0.00000E+00
    0.00000E+00         0.00000E+00         0.00000E+00
    0.38322E-01        -0.10235E+00         0.00000E+00
    0.37054E-01        -0.10047E+00         0.00000E+00
    0.35840E-01        -0.98596E-01         0.00000E+00
    0.34678E-01        -0.96716E-01         0.00000E+00
    0.33564E-01        -0.94835E-01         0.00000E+00
    0.32496E-01        -0.92953E-01         0.00000E+00
    0.31472E-01        -0.91068E-01         0.00000E+00
    0.30488E-01        -0.89182E-01         0.00000E+00
    0.29542E-01        -0.87293E-01         0.00000E+00
    0.28633E-01        -0.85402E-01         0.00000E+00
    0.27756E-01        -0.83508E-01         0.00000E+00
    0.26910E-01        -0.81611E-01         0.00000E+00
    0.26093E-01        -0.79712E-01         0.00000E+00
    0.25302E-01        -0.77809E-01         0.00000E+00
    0.24535E-01        -0.75904E-01         0.00000E+00
    0.23790E-01        -0.73996E-01         0.00000E+00
    0.23065E-01        -0.72084E-01         0.00000E+00
    0.22358E-01        -0.70171E-01         0.00000E+00
    0.21667E-01        -0.68254E-01         0.00000E+00
    0.20991E-01        -0.66334E-01         0.00000E+00
    0.20327E-01        -0.64411E-01         0.00000E+00
    0.19673E-01        -0.62484E-01         0.00000E+00
    0.19027E-01        -0.60555E-01         0.00000E+00
    0.18389E-01        -0.58623E-01         0.00000E+00
    0.17758E-01        -0.56688E-01         0.00000E+00
    0.17132E-01        -0.54751E-01         0.00000E+00
    0.16510E-01        -0.52812E-01         0.00000E+00
    0.15893E-01        -0.50864E-01         0.00000E+00
    0.15280E-01        -0.48902E-01         0.00000E+00
    0.14672E-01        -0.46925E-01         0.00000E+00
    0.14071E-01        -0.44929E-01         0.00000E+00
    0.13475E-01        -0.42913E-01         0.00000E+00
    0.12885E-01        -0.40876E-01         0.00000E+00
    0.12297E-01        -0.38815E-01         0.00000E+00
    0.11709E-01        -0.36731E-01         0.00000E+00
    0.11119E-01        -0.34623E-01         0.00000E+00
    0.10524E-01        -0.32490E-01         0.00000E+00
    0.99221E-02        -0.30332E-01         0.00000E+00
    0.93097E-02        -0.28149E-01         0.00000E+00
    0.86846E-02        -0.25939E-01         0.00000E+00
    0.80433E-02        -0.23703E-01         0.00000E+00
    0.73823E-02        -0.21441E-01         0.00000E+00
    0.66984E-02        -0.19152E-01         0.00000E+00
    0.59886E-02        -0.16838E-01         0.00000E+00
    0.52506E-02        -0.14499E-01         0.00000E+00
    0.44797E-02        -0.12136E-01         0.00000E+00
    0.36702E-02        -0.97491E-02         0.00000E+00
    0.28200E-02        -0.73406E-02         0.00000E+00
    0.19265E-02        -0.49121E-02         0.00000E+00
    0.98707E-03        -0.24648E-02         0.00000E+00
    0.00000E+00         0.00000E+00         0.00000E+00
    0.33239E-01        -0.10866E+00         0.00000E+00
    0.32052E-01        -0.10664E+00         0.00000E+00
    0.30922E-01        -0.10463E+00         0.00000E+00
    0.29848E-01        -0.10262E+00         0.00000E+00
    0.28827E-01        -0.10061E+00         0.00000E+00
    0.27855E-01        -0.98594E-01         0.00000E+00
    0.26930E-01        -0.96578E-01         0.00000E+00
    0.26047E-01        -0.94561E-01         0.00000E+00
    0.25206E-01        -0.92541E-01         0.00000E+00
    0.24401E-01        -0.90520E-01         0.00000E+00
    0.23631E-01        -0.88496E-01         0.00000E+00
    0.22893E-01        -0.86471E-01         0.00000E+00
    0.22184E-01        -0.84444E-01         0.00000E+00
    0.21500E-01        -0.82415E-01         0.00000E+00
    0.20841E-01        -0.80385E-01         0.00000E+00
    0.20203E-01        -0.78352E-01         0.00000E+00
    0.19585E-01        -0.76319E-01         0.00000E+00
    0.18984E-01        -0.74284E-01         0.00000E+00
    0.18400E-01        -0.72248E-01         0.00000E+00
    0.17830E-01        -0.70211E-01         0.00000E+00
    0.17272E-01        -0.68174E-01         0.00000E+00
    0.16726E-01        -0.66137E-01         0.00000E+00
    0.16190E-01        -0.64096E-01         0.00000E+00
    0.15663E-01        -0.62047E-01         0.00000E+00
    0.15146E-01        -0.59990E-01         0.00000E+00
    0.14637E-01        -0.57925E-01         0.00000E+00
    0.14137E-01        -0.55850E-01         0.00000E+00
    0.13647E-01        -0.53763E-01         0.00000E+00
    0.13165E-01        -0.51662E-01         0.00000E+00
    0.12690E-01        -0.49546E-01         0.00000E+00
    0.12220E-01        -0.47414E-01         0.00000E+00
    0.11754E-01        -0.45265E-01         0.00000E+00
    0.11289E-01        -0.43097E-01         0.00000E+00
    0.10825E-01        -0.40911E-01         0.00000E+00
    0.10359E-01        -0.38704E-01         0.00000E+00
    0.98883E-02        -0.36476E-01         0.00000E+00
    0.94106E-02        -0.34225E-01         0.00000E+00
    0.89234E-02        -0.31951E-01         0.00000E+00
    0.84234E-02        -0.29652E-01         0.00000E+00
    0.79072E-02        -0.27328E-01         0.00000E+00
    0.73714E-02        -0.24977E-01         0.00000E+00
    0.68125E-02        -0.22600E-01         0.00000E+00
    0.62269E-02        -0.20194E-01         0.00000E+00
    0.56095E-02        -0.17761E-01         0.00000E+00
    0.49547E-02        -0.15300E-01         0.00000E+00
    0.42576E-02        -0.12812E-01         0.00000E+00
    0.35142E-02        -0.10297E-01         0.00000E+00
    0.27200E-02        -0.77573E-02         0.00000E+00
    0.18713E-02        -0.51929E-02         0.00000E+00
    0.96658E-03        -0.26061E-02         0.00000E+00
    0.00000E+00         0.00000E+00         0.00000E+00
    0.27050E-01        -0.11447E+00         0.00000E+00
    0.25978E-01        -0.11233E+00         0.00000E+00
    0.24972E-01        -0.11018E+00         0.00000E+00
    0.24026E-01        -0.10803E+00         0.00000E+00
    0.23137E-01        -0.10588E+00         0.00000E+00
    0.22301E-01        -0.10373E+00         0.00000E+00
    0.21513E-01        -0.10158E+00         0.00000E+00
    0.20769E-01        -0.99423E-01         0.00000E+00
    0.20067E-01        -0.97268E-01         0.00000E+00
    0.19402E-01        -0.95112E-01         0.00000E+00
    0.18770E-01        -0.92956E-01         0.00000E+00
    0.18170E-01        -0.90801E-01         0.00000E+00
    0.17597E-01        -0.88646E-01         0.00000E+00
    0.17049E-01        -0.86492E-01         0.00000E+00
    0.16524E-01        -0.84335E-01         0.00000E+00
    0.16020E-01        -0.82178E-01         0.00000E+00
    0.15534E-01        -0.80019E-01         0.00000E+00
    0.15065E-01        -0.77859E-01         0.00000E+00
    0.14611E-01        -0.75698E-01         0.00000E+00
    0.14171E-01        -0.73536E-01         0.00000E+00
    0.13743E-01        -0.71372E-01         0.00000E+00
    0.13328E-01        -0.69204E-01         0.00000E+00
    0.12924E-01        -0.67033E-01         0.00000E+00
    0.12532E-01        -0.64857E-01         0.00000E+00
    0.12149E-01        -0.62676E-01         0.00000E+00
    0.11775E-01        -0.60486E-01         0.00000E+00
    0.11409E-01        -0.58288E-01         0.00000E+00
    0.11051E-01        -0.56081E-01         0.00000E+00
    0.10698E-01        -0.53863E-01         0.00000E+00
    0.10351E-01        -0.51634E-01         0.00000E+00
    0.10008E-01        -0.49393E-01         0.00000E+00
    0.96672E-02        -0.47139E-01         0.00000E+00
    0.93273E-02        -0.44870E-01         0.00000E+00
    0.89866E-02        -0.42585E-01         0.00000E+00
    0.86433E-02        -0.40284E-01         0.00000E+00
    0.82953E-02        -0.37964E-01         0.00000E+00
    0.79403E-02        -0.35624E-01         0.00000E+00
    0.75756E-02        -0.33263E-01         0.00000E+00
    0.71983E-02        -0.30880E-01         0.00000E+00
    0.68052E-02        -0.28472E-01         0.00000E+00
    0.63926E-02        -0.26038E-01         0.00000E+00
    0.59569E-02        -0.23577E-01         0.00000E+00
    0.54928E-02        -0.21086E-01         0.00000E+00
    0.49948E-02        -0.18564E-01         0.00000E+00
    0.44562E-02        -0.16010E-01         0.00000E+00
    0.38709E-02        -0.13422E-01         0.00000E+00
    0.32331E-02        -0.10801E-01         0.00000E+00
    0.25374E-02        -0.81468E-02         0.00000E+00
    0.17772E-02        -0.54590E-02         0.00000E+00
    0.93356E-03        -0.27422E-02         0.00000E+00
    0.00000E+00         0.00000E+00         0.00000E+00
    0.19663E-01        -0.11962E+00         0.00000E+00
    0.18767E-01        -0.11732E+00         0.00000E+00
    0.17939E-01        -0.11502E+00         0.00000E+00
    0.17176E-01        -0.11273E+00         0.00000E+00
    0.16473E-01        -0.11043E+00         0.00000E+00
    0.15824E-01        -0.10812E+00         0.00000E+00
    0.15223E-01        -0.10582E+00         0.00000E+00
    0.14665E-01        -0.10352E+00         0.00000E+00
    0.14145E-01        -0.10122E+00         0.00000E+00
    0.13659E-01        -0.98921E-01         0.00000E+00
    0.13203E-01        -0.96624E-01         0.00000E+00
    0.12774E-01        -0.94330E-01         0.00000E+00
    0.12369E-01        -0.92038E-01         0.00000E+00
    0.11986E-01        -0.89748E-01         0.00000E+00
    0.11623E-01        -0.87461E-01         0.00000E+00
    0.11276E-01        -0.85176E-01         0.00000E+00
    0.10945E-01        -0.82894E-01         0.00000E+00
    0.10628E-01        -0.80613E-01         0.00000E+00
    0.10322E-01        -0.78334E-01         0.00000E+00
    0.10028E-01        -0.76056E-01         0.00000E+00
    0.97442E-02        -0.73777E-01         0.00000E+00
    0.94698E-02        -0.71498E-01         0.00000E+00
    0.92041E-02        -0.69217E-01         0.00000E+00
    0.89465E-02        -0.66934E-01         0.00000E+00
    0.86963E-02        -0.64649E-01         0.00000E+00
    0.84528E-02        -0.62359E-01         0.00000E+00
    0.82153E-02        -0.60065E-01         0.00000E+00
    0.79829E-02        -0.57765E-01         0.00000E+00
    0.77550E-02        -0.55458E-01         0.00000E+00
    0.75305E-02        -0.53144E-01         0.00000E+00
    0.73085E-02        -0.50821E-01         0.00000E+00
    0.70881E-02        -0.48488E-01         0.00000E+00
    0.68682E-02        -0.46144E-01         0.00000E+00
    0.66476E-02        -0.43788E-01         0.00000E+00
    0.64250E-02        -0.41419E-01         0.00000E+00
    0.61988E-02        -0.39034E-01         0.00000E+00
    0.59673E-02        -0.36633E-01         0.00000E+00
    0.57286E-02        -0.34214E-01         0.00000E+00
    0.54804E-02        -0.31775E-01         0.00000E+00
    0.52199E-02        -0.29314E-01         0.00000E+00
    0.49443E-02        -0.26828E-01         0.00000E+00
    0.46498E-02        -0.24315E-01         0.00000E+00
    0.43324E-02        -0.21771E-01         0.00000E+00
    0.39865E-02        -0.19195E-01         0.00000E+00
    0.36055E-02        -0.16582E-01         0.00000E+00
    0.31813E-02        -0.13929E-01         0.00000E+00
    0.27059E-02        -0.11233E-01         0.00000E+00
    0.21706E-02        -0.84907E-02         0.00000E+00
    0.15586E-02        -0.57024E-02         0.00000E+00
    0.83672E-03        -0.28701E-02         0.00000E+00
    0.00000E+00         0.00000E+00         0.00000E+00
    0.10903E-01        -0.12367E+00         0.00000E+00
    0.10264E-01        -0.12121E+00         0.00000E+00
    0.97137E-02        -0.11874E+00         0.00000E+00
    0.92318E-02        -0.11628E+00         0.00000E+00
    0.88046E-02        -0.11381E+00         0.00000E+00
    0.84221E-02        -0.11135E+00         0.00000E+00
    0.80765E-02        -0.10890E+00         0.00000E+00
    0.77614E-02        -0.10646E+00         0.00000E+00
    0.74726E-02        -0.10401E+00         0.00000E+00
    0.72067E-02        -0.10158E+00         0.00000E+00
    0.69614E-02        -0.99148E-01         0.00000E+00
    0.67343E-02        -0.96728E-01         0.00000E+00
    0.65226E-02        -0.94316E-01         0.00000E+00
    0.63243E-02        -0.91912E-01         0.00000E+00
    0.61377E-02        -0.89516E-01         0.00000E+00
    0.59613E-02        -0.87127E-01         0.00000E+00
    0.57939E-02        -0.84746E-01         0.00000E+00
    0.56345E-02        -0.82371E-01         0.00000E+00
    0.54821E-02        -0.80001E-01         0.00000E+00
    0.53360E-02        -0.77636E-01         0.00000E+00
    0.51956E-02        -0.75275E-01         0.00000E+00
    0.50603E-02        -0.72917E-01         0.00000E+00
    0.49298E-02        -0.70561E-01         0.00000E+00
    0.48035E-02        -0.68206E-01         0.00000E+00
    0.46811E-02        -0.65851E-01         0.00000E+00
    0.45622E-02        -0.63495E-01         0.00000E+00
    0.44464E-02        -0.61137E-01         0.00000E+00
    0.43334E-02        -0.58776E-01         0.00000E+00
    0.42226E-02        -0.56411E-01         0.00000E+00
    0.41137E-02        -0.54042E-01         0.00000E+00
    0.40062E-02        -0.51666E-01         0.00000E+00
    0.38996E-02        -0.49284E-01         0.00000E+00
    0.37932E-02        -0.46893E-01         0.00000E+00
    0.36866E-02        -0.44493E-01         0.00000E+00
    0.35789E-02        -0.42081E-01         0.00000E+00
    0.34695E-02        -0.39658E-01         0.00000E+00
    0.33575E-02        -0.37221E-01         0.00000E+00
    0.32420E-02        -0.34768E-01         0.00000E+00
    0.31217E-02        -0.32297E-01         0.00000E+00
    0.29953E-02        -0.29807E-01         0.00000E+00
    0.28609E-02        -0.27295E-01         0.00000E+00
    0.27166E-02        -0.24758E-01         0.00000E+00
    0.25597E-02        -0.22192E-01         0.00000E+00
    0.23870E-02        -0.19593E-01         0.00000E+00
    0.21942E-02        -0.16958E-01         0.00000E+00
    0.19752E-02        -0.14280E-01         0.00000E+00
    0.17217E-02        -0.11554E-01         0.00000E+00
    0.14231E-02        -0.87709E-02         0.00000E+00
    0.10649E-02        -0.59235E-02         0.00000E+00
    0.61590E-03        -0.30020E-02         0.00000E+00
    0.00000E+00         0.00000E+00         0.00000E+00
    0.00000E+00        -0.12572E+00         0.00000E+00
    0.00000E+00        -0.12307E+00         0.00000E+00
    0.00000E+00        -0.12044E+00         0.00000E+00
    0.00000E+00        -0.11782E+00         0.00000E+00
    0.00000E+00        -0.11523E+00         0.00000E+00
    0.00000E+00        -0.11267E+00         0.00000E+00
    0.00000E+00        -0.11013E+00         0.00000E+00
    0.00000E+00        -0.10761E+00         0.00000E+00
    0.00000E+00        -0.10509E+00         0.00000E+00
    0.00000E+00        -0.10259E+00         0.00000E+00
    0.00000E+00        -0.10009E+00         0.00000E+00
    0.00000E+00        -0.97611E-01         0.00000E+00
    0.00000E+00        -0.95144E-01         0.00000E+00
    0.00000E+00        -0.92689E-01         0.00000E+00
    0.00000E+00        -0.90246E-01         0.00000E+00
    0.00000E+00        -0.87814E-01         0.00000E+00
    0.00000E+00        -0.85392E-01         0.00000E+00
    0.00000E+00        -0.82979E-01         0.00000E+00
    0.00000E+00        -0.80575E-01         0.00000E+00
    0.00000E+00        -0.78177E-01         0.00000E+00
    0.00000E+00        -0.75784E-01         0.00000E+00
    0.00000E+00        -0.73397E-01         0.00000E+00
    0.00000E+00        -0.71013E-01         0.00000E+00
    0.00000E+00        -0.68631E-01         0.00000E+00
    0.00000E+00        -0.66251E-01         0.00000E+00
    0.00000E+00        -0.63871E-01         0.00000E+00
    0.00000E+00        -0.61491E-01         0.00000E+00
    0.00000E+00        -0.59109E-01         0.00000E+00
    0.00000E+00        -0.56724E-01         0.00000E+00
    0.00000E+00        -0.54335E-01         0.00000E+00
    0.00000E+00        -0.51942E-01         0.00000E+00
    0.00000E+00        -0.49542E-01         0.00000E+00
    0.00000E+00        -0.47135E-01         0.00000E+00
    0.00000E+00        -0.44720E-01         0.00000E+00
    0.00000E+00        -0.42295E-01         0.00000E+00
    0.00000E+00        -0.39858E-01         0.00000E+00
    0.00000E+00        -0.37409E-01         0.00000E+00
    0.00000E+00        -0.34945E-01         0.00000E+00
    0.00000E+00        -0.32465E-01         0.00000E+00
    0.00000E+00        -0.29966E-01         0.00000E+00
    0.00000E+00        -0.27447E-01         0.00000E+00
    0.00000E+00        -0.24904E-01         0.00000E+00
    0.00000E+00        -0.22334E-01         0.00000E+00
    0.00000E+00        -0.19733E-01         0.00000E+00
    0.00000E+00        -0.17097E-01         0.00000E+00
    0.00000E+00        -0.14418E-01         0.00000E+00
    0.00000E+00        -0.11691E-01         0.00000E+00
    0.00000E+00        -0.89028E-02         0.00000E+00
    0.00000E+00        -0.60412E-02         0.00000E+00
    0.00000E+00        -0.30849E-02         0.00000E+00
    0.00000E+00         0.00000E+00         0.00000E+00
CELL_DATA       5000
VECTORS vDarcy double 
    0.78722E-12         0.00000E+00         0.00000E+00
    0.78722E-12         0.00000E+00         0.00000E+00
    0.78722E-12         0.23283E-20         0.00000E+00
    0.78722E-12         0.25611E-20         0.00000E+00
    0.78722E-12         0.53551E-20         0.00000E+00
    0.78722E-12         0.67521E-20         0.00000E+00
    0.78722E-12         0.60536E-20         0.00000E+00
    0.78722E-12         0.23283E-20         0.00000E+00
    0.78722E-12         0.46566E-20         0.00000E+00
    0.78722E-12         0.23283E-20         0.00000E+00
    0.78722E-12         0.00000E+00         0.00000E+00
    0.78722E-12         0.69849E-21         0.00000E+00
    0.78722E-12        -0.16298E-20         0.00000E+00
    0.78722E-12         0.34925E-20         0.00000E+00
    0.78722E-12         0.23283E-20         0.00000E+00
    0.78722E-12        -0.23283E-20         0.00000E+00
    0.78722E-12         0.00000E+00         0.00000E+00
    0.78722E-12         0.41910E-20         0.00000E+00
    0.78722E-12         0.00000E+00         0.00000E+00
    0.78722E-12         0.00000E+00         0.00000E+00
    0.78722E-12         0.18626E-20         0.00000E+00
    0.78722E-12        -0.23283E-20         0.00000E+00
    0.78722E-12         0.00000E+00         0.00000E+00
    0.78722E-12         0.27940E-20         0.00000E+00
    0.78722E-12        -0.13970E-20         0.00000E+00
    0.78722E-12         0.46566E-21         0.00000E+00
    0.78722E-12        -0.30268E-20         0.00000E+00
    0.78722E-12         0.23283E-20         0.00000E+00
    0.78722E-12        -0.23283E-20         0.00000E+00
    0.78722E-12         0.23283E-20         0.00000E+00
    0.78722E-12         0.00000E+00         0.00000E+00
    0.78722E-12         0.69849E-20         0.00000E+00
    0.78722E-12         0.00000E+00         0.00000E+00
    0.78722E-12         0.18626E-20         0.00000E+00
    0.78722E-12         0.23283E-20         0.00000E+00
    0.78722E-12         0.23283E-20         0.00000E+00
    0.78722E-12         0.00000E+00         0.00000E+00
    0.78722E-12         0.00000E+00         0.00000E+00
    0.78722E-12        -0.46566E-21         0.00000E+00
    0.78722E-12         0.23283E-20         0.00000E+00
    0.78722E-12         0.18626E-20         0.00000E+00
    0.78722E-12        -0.46566E-21         0.00000E+00
    0.78722E-12         0.23283E-20         0.00000E+00
    0.78722E-12         0.18626E-20         0.00000E+00
    0.78722E-12         0.18626E-20         0.00000E+00
    0.78722E-12         0.23283E-20         0.00000E+00
    0.78722E-12         0.18626E-20         0.00000E+00
    0.78722E-12         0.93132E-20         0.00000E+00
    0.78722E-12         0.00000E+00         0.00000E+00
    0.78722E-12         0.16298E-20         0.00000E+00
    0.81224E-12        -0.23283E-20         0.00000E+00
    0.81224E-12         0.93132E-20         0.00000E+00
    0.81224E-12         0.17695E-19         0.00000E+00
    0.81224E-12         0.21420E-19         0.00000E+00
    0.81224E-12         0.15367E-19         0.00000E+00
    0.81224E-12         0.93132E-20         0.00000E+00
    0.81224E-12         0.88476E-20         0.00000E+00
    0.81224E-12         0.41910E-20         0.00000E+00
    0.81224E-12         0.37253E-20         0.00000E+00
    0.81224E-12         0.23283E-20         0.00000E+00
    0.81224E-12         0.23283E-20         0.00000E+00
    0.81224E-12        -0.93132E-21         0.00000E+00
    0.81224E-12        -0.13970E-20         0.00000E+00
    0.81224E-12         0.62864E-20         0.00000E+00
    0.81224E-12         0.86147E-20         0.00000E+00
    0.81224E-12         0.74506E-20         0.00000E+00
    0.81224E-12         0.23283E-20         0.00000E+00
    0.81224E-12        -0.93132E-21         0.00000E+00
    0.81224E-12         0.27940E-20         0.00000E+00
    0.81224E-12         0.74506E-20         0.00000E+00
    0.81224E-12         0.20955E-19         0.00000E+00
    0.81224E-12         0.11642E-19         0.00000E+00
    0.81224E-12         0.00000E+00         0.00000E+00
    0.81224E-12         0.93132E-21         0.00000E+00
    0.81224E-12         0.25611E-20         0.00000E+00
    0.81224E-12         0.23283E-20         0.00000E+00
    0.81224E-12        -0.30268E-20         0.00000E+00
    0.81224E-12        -0.93132E-21         0.00000E+00
    0.81224E-12        -0.74506E-20         0.00000E+00
    0.81224E-12        -0.79162E-20         0.00000E+00
    0.81224E-12         0.41910E-20         0.00000E+00
    0.81224E-12         0.32596E-20         0.00000E+00
    0.81224E-12         0.46566E-20         0.00000E+00
    0.81224E-12         0.41910E-20         0.00000E+00
    0.81224E-12         0.18626E-20         0.00000E+00
    0.81224E-12         0.18626E-20         0.00000E+00
    0.81224E-12         0.74506E-20         0.00000E+00
    0.81224E-12         0.00000E+00         0.00000E+00
    0.81224E-12         0.23283E-20         0.00000E+00
    0.81224E-12        -0.46566E-21         0.00000E+00
    0.81224E-12        -0.41910E-20         0.00000E+00
    0.81224E-12         0.27940E-20         0.00000E+00
    0.81224E-12        -0.27940E-20         0.00000E+00
    0.81224E-12        -0.55879E-20         0.00000E+00
    0.81224E-12         0.27940E-20         0.00000E+00
    0.81224E-12         0.41910E-20         0.00000E+00
    0.81224E-12         0.97789E-20         0.00000E+00
    0.81224E-12         0.16298E-19         0.00000E+00
    0.81224E-12         0.11642E-19         0.00000E+00
    0.81224E-12        -0.13970E-20         0.00000E+00
    0.86305E-12        -0.13970E-20         0.00000E+00
    0.86305E-12         0.13737E-19         0.00000E+00
    0.86305E-12         0.21188E-19         0.00000E+00
    0.86305E-12         0.27008E-19         0.00000E+00
    0.86305E-12         0.24680E-19         0.00000E+00
    0.86305E-12         0.17462E-19         0.00000E+00
    0.86305E-12         0.86147E-20         0.00000E+00
    0.86305E-12        -0.93132E-21         0.00000E+00
    0.86305E-12        -0.46566E-21         0.00000E+00
    0.86305E-12         0.81491E-20         0.00000E+00
    0.86305E-12        -0.46566E-21         0.00000E+00
    0.86305E-12        -0.10710E-19         0.00000E+00
    0.86305E-12        -0.79162E-20         0.00000E+00
    0.86305E-12        -0.20955E-20         0.00000E+00
    0.86305E-12         0.93132E-20         0.00000E+00
    0.86305E-12         0.23283E-20         0.00000E+00
    0.86305E-12         0.27940E-20         0.00000E+00
    0.86305E-12         0.88476E-20         0.00000E+00
    0.86305E-12         0.93132E-20         0.00000E+00
    0.86305E-12         0.97789E-20         0.00000E+00
    0.86305E-12         0.15600E-19         0.00000E+00
    0.86305E-12         0.41910E-20         0.00000E+00
    0.86305E-12         0.16298E-20         0.00000E+00
    0.86305E-12        -0.41910E-20         0.00000E+00
    0.86305E-12         0.23283E-20         0.00000E+00
    0.86305E-12         0.37253E-20         0.00000E+00
    0.86305E-12        -0.62864E-20         0.00000E+00
    0.86305E-12         0.11642E-20         0.00000E+00
    0.86305E-12        -0.27940E-20         0.00000E+00
    0.86305E-12        -0.11176E-19         0.00000E+00
    0.86305E-12         0.13970E-20         0.00000E+00
    0.86305E-12         0.67521E-20         0.00000E+00
    0.86305E-12         0.67521E-20         0.00000E+00
    0.86305E-12         0.27940E-20         0.00000E+00
    0.86305E-12         0.93132E-20         0.00000E+00
    0.86305E-12        -0.23283E-20         0.00000E+00
    0.86305E-12        -0.13970E-20         0.00000E+00
    0.86305E-12        -0.46566E-21         0.00000E+00
    0.86305E-12         0.60536E-20         0.00000E+00
    0.86305E-12        -0.83819E-20         0.00000E+00
    0.86305E-12        -0.46566E-21         0.00000E+00
    0.86305E-12        -0.18626E-20         0.00000E+00
    0.86305E-12         0.41910E-20         0.00000E+00
    0.86305E-12        -0.20955E-19         0.00000E+00
    0.86305E-12        -0.25611E-20         0.00000E+00
    0.86305E-12         0.13970E-20         0.00000E+00
    0.86305E-12         0.72177E-20         0.00000E+00
    0.86305E-12         0.34925E-20         0.00000E+00
    0.86305E-12        -0.93132E-21         0.00000E+00
    0.86305E-12         0.46566E-21         0.00000E+00
    0.94117E-12        -0.65193E-20         0.00000E+00
    0.94117E-12         0.46566E-21         0.00000E+00
    0.94117E-12         0.13970E-19         0.00000E+00
    0.94117E-12         0.11642E-19         0.00000E+00
    0.94117E-12         0.11176E-19         0.00000E+00
    0.94117E-12         0.10245E-19         0.00000E+00
    0.94117E-12         0.12107E-19         0.00000E+00
    0.94117E-12         0.93132E-21         0.00000E+00
    0.94117E-12        -0.41910E-20         0.00000E+00
    0.94117E-12         0.74506E-20         0.00000E+00
    0.94117E-12        -0.88476E-20         0.00000E+00
    0.94117E-12        -0.93132E-20         0.00000E+00
    0.94117E-12        -0.88476E-20         0.00000E+00
    0.94117E-12        -0.13970E-20         0.00000E+00
    0.94117E-12         0.46566E-20         0.00000E+00
    0.94117E-12         0.41910E-20         0.00000E+00
    0.94117E-12         0.60536E-20         0.00000E+00
    0.94117E-12         0.95461E-20         0.00000E+00
    0.94117E-12         0.11874E-19         0.00000E+00
    0.94117E-12         0.18626E-19         0.00000E+00
    0.94117E-12         0.13970E-20         0.00000E+00
    0.94117E-12        -0.93132E-21         0.00000E+00
    0.94117E-12        -0.27940E-20         0.00000E+00
    0.94117E-12        -0.46566E-21         0.00000E+00
    0.94117E-12         0.00000E+00         0.00000E+00
    0.94117E-12        -0.65193E-20         0.00000E+00
    0.94117E-12        -0.69849E-20         0.00000E+00
    0.94117E-12         0.74506E-20         0.00000E+00
    0.94117E-12         0.11176E-19         0.00000E+00
    0.94117E-12         0.97789E-20         0.00000E+00
    0.94117E-12         0.51223E-20         0.00000E+00
    0.94117E-12         0.12107E-19         0.00000E+00
    0.94117E-12         0.37253E-20         0.00000E+00
    0.94117E-12        -0.55879E-20         0.00000E+00
    0.94117E-12        -0.46566E-21         0.00000E+00
    0.94117E-12        -0.41910E-20         0.00000E+00
    0.94117E-12        -0.69849E-20         0.00000E+00
    0.94117E-12         0.27940E-20         0.00000E+00
    0.94117E-12         0.37253E-20         0.00000E+00
    0.94117E-12        -0.46566E-21         0.00000E+00
    0.94117E-12         0.37253E-20         0.00000E+00
    0.94117E-12         0.74506E-20         0.00000E+00
    0.94117E-12         0.11642E-19         0.00000E+00
    0.94117E-12        -0.11642E-19         0.00000E+00
    0.94117E-12         0.88476E-20         0.00000E+00
    0.94117E-12         0.23283E-20         0.00000E+00
    0.94117E-12         0.93132E-21         0.00000E+00
    0.94117E-12        -0.46566E-21         0.00000E+00
    0.94117E-12        -0.88476E-20         0.00000E+00
    0.94117E-12         0.41910E-20         0.00000E+00
    0.10489E-11        -0.97789E-20         0.00000E+00
    0.10489E-11        -0.14901E-19         0.00000E+00
    0.10489E-11        -0.65193E-20         0.00000E+00
    0.10489E-11        -0.86147E-20         0.00000E+00
    0.10489E-11        -0.51223E-20         0.00000E+00
    0.10489E-11         0.37253E-20         0.00000E+00
    0.10489E-11         0.88476E-20         0.00000E+00
    0.10489E-11        -0.46566E-21         0.00000E+00
    0.10489E-11         0.46566E-21         0.00000E+00
    0.10489E-11        -0.27940E-20         0.00000E+00
    0.10489E-11        -0.14435E-19         0.00000E+00
    0.10489E-11        -0.15832E-19         0.00000E+00
    0.10489E-11        -0.69849E-20         0.00000E+00
    0.10489E-11         0.18626E-20         0.00000E+00
    0.10489E-11         0.67521E-20         0.00000E+00
    0.10489E-11         0.93132E-20         0.00000E+00
    0.10489E-11         0.41910E-20         0.00000E+00
    0.10489E-11         0.46566E-20         0.00000E+00
    0.10489E-11         0.16764E-19         0.00000E+00
    0.10489E-11         0.14435E-19         0.00000E+00
    0.10489E-11         0.93132E-20         0.00000E+00
    0.10489E-11         0.13039E-19         0.00000E+00
    0.10489E-11         0.93132E-21         0.00000E+00
    0.10489E-11         0.39581E-20         0.00000E+00
    0.10489E-11         0.17229E-19         0.00000E+00
    0.10489E-11        -0.34925E-20         0.00000E+00
    0.10489E-11         0.46566E-21         0.00000E+00
    0.10489E-11        -0.46566E-21         0.00000E+00
    0.10489E-11         0.11642E-19         0.00000E+00
    0.10489E-11         0.37253E-20         0.00000E+00
    0.10489E-11         0.93132E-20         0.00000E+00
    0.10489E-11        -0.37253E-20         0.00000E+00
    0.10489E-11        -0.69849E-20         0.00000E+00
    0.10489E-11        -0.51223E-20         0.00000E+00
    0.10489E-11        -0.46566E-20         0.00000E+00
    0.10489E-11        -0.65193E-20         0.00000E+00
    0.10489E-11        -0.23283E-20         0.00000E+00
    0.10489E-11         0.11176E-19         0.00000E+00
    0.10489E-11         0.74506E-20         0.00000E+00
    0.10489E-11         0.16298E-19         0.00000E+00
    0.10489E-11         0.15367E-19         0.00000E+00
    0.10489E-11         0.13970E-19         0.00000E+00
    0.10489E-11         0.13970E-19         0.00000E+00
    0.10489E-11         0.13737E-19         0.00000E+00
    0.10489E-11         0.65193E-20         0.00000E+00
    0.10489E-11         0.18626E-20         0.00000E+00
    0.10489E-11         0.86147E-20         0.00000E+00
    0.10489E-11         0.79162E-20         0.00000E+00
    0.10489E-11         0.18626E-20         0.00000E+00
    0.10489E-11         0.00000E+00         0.00000E+00
    0.11896E-11        -0.23283E-20         0.00000E+00
    0.11896E-11         0.37253E-20         0.00000E+00
    0.11896E-11        -0.37253E-20         0.00000E+00
    0.11896E-11         0.32596E-20         0.00000E+00
    0.11896E-11         0.23283E-20         0.00000E+00
    0.11896E-11        -0.93132E-20         0.00000E+00
    0.11896E-11         0.46566E-20         0.00000E+00
    0.11896E-11        -0.41910E-20         0.00000E+00
    0.11896E-11        -0.12573E-19         0.00000E+00
    0.11896E-11        -0.20489E-19         0.00000E+00
    0.11896E-11        -0.10710E-19         0.00000E+00
    0.11896E-11        -0.14435E-19         0.00000E+00
    0.11896E-11        -0.12573E-19         0.00000E+00
    0.11896E-11        -0.41910E-20         0.00000E+00
    0.11896E-11        -0.11176E-19         0.00000E+00
    0.11896E-11        -0.12107E-19         0.00000E+00
    0.11896E-11        -0.18626E-20         0.00000E+00
    0.11896E-11         0.13970E-20         0.00000E+00
    0.11896E-11         0.27940E-20         0.00000E+00
    0.11896E-11        -0.18626E-20         0.00000E+00
    0.11896E-11         0.00000E+00         0.00000E+00
    0.11896E-11         0.51223E-20         0.00000E+00
    0.11896E-11         0.60536E-20         0.00000E+00
    0.11896E-11        -0.13970E-20         0.00000E+00
    0.11896E-11         0.14435E-19         0.00000E+00
    0.11896E-11         0.88476E-20         0.00000E+00
    0.11896E-11         0.11176E-19         0.00000E+00
    0.11896E-11         0.93132E-21         0.00000E+00
    0.11896E-11         0.46566E-20         0.00000E+00
    0.11896E-11         0.93132E-21         0.00000E+00
    0.11896E-11         0.13970E-20         0.00000E+00
    0.11896E-11         0.46566E-20         0.00000E+00
    0.11896E-11        -0.41910E-20         0.00000E+00
    0.11896E-11        -0.23283E-20         0.00000E+00
    0.11896E-11         0.13970E-20         0.00000E+00
    0.11896E-11         0.32596E-20         0.00000E+00
    0.11896E-11         0.48894E-20         0.00000E+00
    0.11896E-11         0.60536E-20         0.00000E+00
    0.11896E-11         0.48894E-20         0.00000E+00
    0.11896E-11         0.93132E-20         0.00000E+00
    0.11896E-11         0.20023E-19         0.00000E+00
    0.11896E-11         0.17229E-19         0.00000E+00
    0.11896E-11         0.19558E-19         0.00000E+00
    0.11896E-11         0.16298E-19         0.00000E+00
    0.11896E-11         0.13504E-19         0.00000E+00
    0.11896E-11         0.74506E-20         0.00000E+00
    0.11896E-11         0.32596E-20         0.00000E+00
    0.11896E-11         0.41910E-20         0.00000E+00
    0.11896E-11        -0.51223E-20         0.00000E+00
    0.11896E-11        -0.46566E-21         0.00000E+00
    0.13673E-11         0.27940E-20         0.00000E+00
    0.13673E-11         0.97789E-20         0.00000E+00
    0.13673E-11         0.97789E-20         0.00000E+00
    0.13673E-11        -0.27940E-20         0.00000E+00
    0.13673E-11        -0.15134E-19         0.00000E+00
    0.13673E-11        -0.15367E-19         0.00000E+00
    0.13673E-11        -0.60536E-20         0.00000E+00
    0.13673E-11        -0.21886E-19         0.00000E+00
    0.13673E-11        -0.30268E-19         0.00000E+00
    0.13673E-11        -0.30268E-19         0.00000E+00
    0.13673E-11        -0.13504E-19         0.00000E+00
    0.13673E-11        -0.51223E-20         0.00000E+00
    0.13673E-11        -0.83819E-20         0.00000E+00
    0.13673E-11        -0.11642E-19         0.00000E+00
    0.13673E-11        -0.15367E-19         0.00000E+00
    0.13673E-11        -0.20023E-19         0.00000E+00
    0.13673E-11        -0.17229E-19         0.00000E+00
    0.13673E-11        -0.22119E-19         0.00000E+00
    0.13673E-11        -0.20023E-19         0.00000E+00
    0.13673E-11        -0.19092E-19         0.00000E+00
    0.13673E-11        -0.74506E-20         0.00000E+00
    0.13673E-11        -0.37253E-20         0.00000E+00
    0.13673E-11         0.60536E-20         0.00000E+00
    0.13673E-11        -0.83819E-20         0.00000E+00
    0.13673E-11         0.00000E+00         0.00000E+00
    0.13673E-11        -0.37253E-20         0.00000E+00
    0.13673E-11         0.13970E-19         0.00000E+00
    0.13673E-11         0.11642E-19         0.00000E+00
    0.13673E-11         0.11176E-19         0.00000E+00
    0.13673E-11         0.46566E-20         0.00000E+00
    0.13673E-11         0.23283E-20         0.00000E+00
    0.13673E-11         0.88476E-20         0.00000E+00
    0.13673E-11         0.37253E-20         0.00000E+00
    0.13673E-11        -0.11874E-19         0.00000E+00
    0.13673E-11        -0.51223E-20         0.00000E+00
    0.13673E-11         0.13504E-19         0.00000E+00
    0.13673E-11         0.97789E-20         0.00000E+00
    0.13673E-11         0.62864E-20         0.00000E+00
    0.13673E-11         0.44238E-20         0.00000E+00
    0.13673E-11         0.16298E-19         0.00000E+00
    0.13673E-11         0.15832E-19         0.00000E+00
    0.13673E-11         0.17695E-19         0.00000E+00
    0.13673E-11         0.13504E-19         0.00000E+00
    0.13673E-11         0.14901E-19         0.00000E+00
    0.13673E-11         0.72177E-20         0.00000E+00
    0.13673E-11         0.51223E-20         0.00000E+00
    0.13673E-11         0.46566E-21         0.00000E+00
    0.13673E-11         0.37253E-20         0.00000E+00
    0.13673E-11        -0.37253E-20         0.00000E+00
    0.13673E-11        -0.51223E-20         0.00000E+00
    0.15875E-11         0.20955E-20         0.00000E+00
    0.15875E-11        -0.12340E-19         0.00000E+00
    0.15875E-11        -0.97789E-20         0.00000E+00
    0.15875E-11        -0.22119E-19         0.00000E+00
    0.15875E-11        -0.20489E-19         0.00000E+00
    0.15875E-11        -0.97789E-20         0.00000E+00
    0.15875E-11        -0.16764E-19         0.00000E+00
    0.15875E-11        -0.21420E-19         0.00000E+00
    0.15875E-11        -0.24214E-19         0.00000E+00
    0.15875E-11        -0.22817E-19         0.00000E+00
    0.15875E-11        -0.13970E-19         0.00000E+00
    0.15875E-11        -0.18394E-19         0.00000E+00
    0.15875E-11        -0.11642E-19         0.00000E+00
    0.15875E-11        -0.93132E-21         0.00000E+00
    0.15875E-11        -0.69849E-21         0.00000E+00
    0.15875E-11        -0.13039E-19         0.00000E+00
    0.15875E-11        -0.18626E-19         0.00000E+00
    0.15875E-11        -0.88476E-20         0.00000E+00
    0.15875E-11        -0.18161E-19         0.00000E+00
    0.15875E-11        -0.17695E-19         0.00000E+00
    0.15875E-11        -0.12573E-19         0.00000E+00
    0.15875E-11        -0.93132E-20         0.00000E+00
    0.15875E-11        -0.51223E-20         0.00000E+00
    0.15875E-11         0.27940E-20         0.00000E+00
    0.15875E-11         0.23283E-20         0.00000E+00
    0.15875E-11         0.65193E-20         0.00000E+00
    0.15875E-11         0.13970E-20         0.00000E+00
    0.15875E-11         0.18626E-20         0.00000E+00
    0.15875E-11        -0.46566E-21         0.00000E+00
    0.15875E-11        -0.37253E-20         0.00000E+00
    0.15875E-11         0.18626E-20         0.00000E+00
    0.15875E-11         0.46566E-20         0.00000E+00
    0.15875E-11         0.93132E-20         0.00000E+00
    0.15875E-11         0.46566E-20         0.00000E+00
    0.15875E-11         0.00000E+00         0.00000E+00
    0.15875E-11         0.55879E-20         0.00000E+00
    0.15875E-11         0.88476E-20         0.00000E+00
    0.15875E-11         0.46566E-20         0.00000E+00
    0.15875E-11         0.97789E-20         0.00000E+00
    0.15875E-11         0.13504E-19         0.00000E+00
    0.15875E-11         0.58208E-20         0.00000E+00
    0.15875E-11         0.30268E-20         0.00000E+00
    0.15875E-11        -0.23283E-20         0.00000E+00
    0.15875E-11         0.72177E-20         0.00000E+00
    0.15875E-11        -0.93132E-20         0.00000E+00
    0.15875E-11        -0.88476E-20         0.00000E+00
    0.15875E-11         0.81491E-20         0.00000E+00
    0.15875E-11         0.53551E-20         0.00000E+00
    0.15875E-11         0.69849E-20         0.00000E+00
    0.15875E-11        -0.86147E-20         0.00000E+00
    0.18565E-11        -0.37253E-20         0.00000E+00
    0.18565E-11        -0.11642E-19         0.00000E+00
    0.18565E-11        -0.13970E-20         0.00000E+00
    0.18565E-11        -0.13271E-19         0.00000E+00
    0.18565E-11        -0.88476E-20         0.00000E+00
    0.18565E-11        -0.93132E-20         0.00000E+00
    0.18565E-11        -0.19558E-19         0.00000E+00
    0.18565E-11        -0.20023E-19         0.00000E+00
    0.18565E-11        -0.11642E-19         0.00000E+00
    0.18565E-11        -0.88476E-20         0.00000E+00
    0.18565E-11        -0.13039E-19         0.00000E+00
    0.18565E-11        -0.30268E-20         0.00000E+00
    0.18565E-11        -0.60536E-20         0.00000E+00
    0.18565E-11        -0.60536E-20         0.00000E+00
    0.18565E-11        -0.67521E-20         0.00000E+00
    0.18565E-11        -0.46566E-20         0.00000E+00
    0.18565E-11        -0.88476E-20         0.00000E+00
    0.18565E-11        -0.55879E-20         0.00000E+00
    0.18565E-11        -0.51223E-20         0.00000E+00
    0.18565E-11        -0.27940E-20         0.00000E+00
    0.18565E-11        -0.55879E-20         0.00000E+00
    0.18565E-11        -0.46566E-20         0.00000E+00
    0.18565E-11        -0.46566E-21         0.00000E+00
    0.18565E-11         0.13970E-20         0.00000E+00
    0.18565E-11         0.19325E-19         0.00000E+00
    0.18565E-11         0.10710E-19         0.00000E+00
    0.18565E-11        -0.18626E-20         0.00000E+00
    0.18565E-11        -0.65193E-20         0.00000E+00
    0.18565E-11        -0.88476E-20         0.00000E+00
    0.18565E-11         0.23283E-20         0.00000E+00
    0.18565E-11        -0.46566E-20         0.00000E+00
    0.18565E-11         0.95461E-20         0.00000E+00
    0.18565E-11         0.88476E-20         0.00000E+00
    0.18565E-11         0.83819E-20         0.00000E+00
    0.18565E-11         0.69849E-20         0.00000E+00
    0.18565E-11         0.88476E-20         0.00000E+00
    0.18565E-11         0.74506E-20         0.00000E+00
    0.18565E-11         0.46566E-21         0.00000E+00
    0.18565E-11         0.13970E-20         0.00000E+00
    0.18565E-11        -0.51223E-20         0.00000E+00
    0.18565E-11        -0.93132E-21         0.00000E+00
    0.18565E-11        -0.65193E-20         0.00000E+00
    0.18565E-11        -0.46566E-20         0.00000E+00
    0.18565E-11         0.00000E+00         0.00000E+00
    0.18565E-11        -0.23283E-20         0.00000E+00
    0.18565E-11        -0.55879E-20         0.00000E+00
    0.18565E-11         0.27940E-20         0.00000E+00
    0.18565E-11        -0.93132E-21         0.00000E+00
    0.18565E-11         0.46566E-20         0.00000E+00
    0.18565E-11         0.46566E-20         0.00000E+00
    0.21823E-11         0.16298E-20         0.00000E+00
    0.21823E-11         0.39581E-20         0.00000E+00
    0.21823E-11         0.11874E-19         0.00000E+00
    0.21823E-11         0.18626E-20         0.00000E+00
    0.21823E-11        -0.20955E-20         0.00000E+00
    0.21823E-11        -0.41910E-20         0.00000E+00
    0.21823E-11        -0.72177E-20         0.00000E+00
    0.21823E-11        -0.14435E-19         0.00000E+00
    0.21823E-11         0.93132E-21         0.00000E+00
    0.21823E-11         0.69849E-21         0.00000E+00
    0.21823E-11        -0.10943E-19         0.00000E+00
    0.21823E-11        -0.16298E-20         0.00000E+00
    0.21823E-11         0.46566E-20         0.00000E+00
    0.21823E-11        -0.65193E-20         0.00000E+00
    0.21823E-11        -0.93132E-21         0.00000E+00
    0.21823E-11        -0.55879E-20         0.00000E+00
    0.21823E-11        -0.32596E-20         0.00000E+00
    0.21823E-11        -0.12573E-19         0.00000E+00
    0.21823E-11        -0.46566E-21         0.00000E+00
    0.21823E-11         0.83819E-20         0.00000E+00
    0.21823E-11         0.13970E-19         0.00000E+00
    0.21823E-11         0.16764E-19         0.00000E+00
    0.21823E-11         0.93132E-20         0.00000E+00
    0.21823E-11         0.46566E-20         0.00000E+00
    0.21823E-11         0.14435E-19         0.00000E+00
    0.21823E-11         0.88476E-20         0.00000E+00
    0.21823E-11        -0.34925E-20         0.00000E+00
    0.21823E-11         0.18626E-20         0.00000E+00
    0.21823E-11        -0.51223E-20         0.00000E+00
    0.21823E-11        -0.97789E-20         0.00000E+00
    0.21823E-11        -0.32596E-20         0.00000E+00
    0.21823E-11         0.23283E-21         0.00000E+00
    0.21823E-11         0.25611E-20         0.00000E+00
    0.21823E-11         0.55879E-20         0.00000E+00
    0.21823E-11         0.14901E-19         0.00000E+00
    0.21823E-11         0.16764E-19         0.00000E+00
    0.21823E-11         0.46566E-20         0.00000E+00
    0.21823E-11         0.93132E-21         0.00000E+00
    0.21823E-11        -0.37253E-20         0.00000E+00
    0.21823E-11        -0.65193E-20         0.00000E+00
    0.21823E-11        -0.69849E-20         0.00000E+00
    0.21823E-11         0.32596E-20         0.00000E+00
    0.21823E-11         0.23283E-20         0.00000E+00
    0.21823E-11         0.23283E-20         0.00000E+00
    0.21823E-11         0.41910E-20         0.00000E+00
    0.21823E-11         0.18626E-20         0.00000E+00
    0.21823E-11         0.11642E-19         0.00000E+00
    0.21823E-11        -0.11642E-20         0.00000E+00
    0.21823E-11         0.32596E-20         0.00000E+00
    0.21823E-11         0.00000E+00         0.00000E+00
    0.25745E-11         0.93132E-21         0.00000E+00
    0.25745E-11         0.32596E-20         0.00000E+00
    0.25745E-11         0.74506E-20         0.00000E+00
    0.25745E-11         0.46566E-20         0.00000E+00
    0.25745E-11         0.18626E-20         0.00000E+00
    0.25745E-11        -0.16298E-20         0.00000E+00
    0.25745E-11        -0.32596E-20         0.00000E+00
    0.25745E-11        -0.32596E-20         0.00000E+00
    0.25745E-11         0.10245E-19         0.00000E+00
    0.25745E-11        -0.65193E-20         0.00000E+00
    0.25745E-11        -0.86147E-20         0.00000E+00
    0.25745E-11        -0.74506E-20         0.00000E+00
    0.25745E-11        -0.51223E-20         0.00000E+00
    0.25745E-11        -0.46566E-21         0.00000E+00
    0.25745E-11         0.83819E-20         0.00000E+00
    0.25745E-11        -0.11642E-19         0.00000E+00
    0.25745E-11        -0.55879E-20         0.00000E+00
    0.25745E-11        -0.60536E-20         0.00000E+00
    0.25745E-11        -0.16298E-20         0.00000E+00
    0.25745E-11         0.11874E-19         0.00000E+00
    0.25745E-11         0.12573E-19         0.00000E+00
    0.25745E-11         0.88476E-20         0.00000E+00
    0.25745E-11         0.13970E-19         0.00000E+00
    0.25745E-11         0.11176E-19         0.00000E+00
    0.25745E-11         0.27940E-20         0.00000E+00
    0.25745E-11         0.51223E-20         0.00000E+00
    0.25745E-11         0.46566E-21         0.00000E+00
    0.25745E-11        -0.18626E-20         0.00000E+00
    0.25745E-11        -0.46566E-20         0.00000E+00
    0.25745E-11        -0.10943E-19         0.00000E+00
    0.25745E-11        -0.93132E-21         0.00000E+00
    0.25745E-11         0.11176E-19         0.00000E+00
    0.25745E-11         0.83819E-20         0.00000E+00
    0.25745E-11         0.16764E-19         0.00000E+00
    0.25745E-11         0.14435E-19         0.00000E+00
    0.25745E-11         0.74506E-20         0.00000E+00
    0.25745E-11         0.76834E-20         0.00000E+00
    0.25745E-11         0.60536E-20         0.00000E+00
    0.25745E-11         0.11642E-19         0.00000E+00
    0.25745E-11        -0.27940E-20         0.00000E+00
    0.25745E-11        -0.12573E-19         0.00000E+00
    0.25745E-11         0.18626E-20         0.00000E+00
    0.25745E-11         0.46566E-21         0.00000E+00
    0.25745E-11         0.46566E-21         0.00000E+00
    0.25745E-11         0.25611E-20         0.00000E+00
    0.25745E-11         0.18626E-20         0.00000E+00
    0.25745E-11         0.58208E-20         0.00000E+00
    0.25745E-11        -0.46566E-21         0.00000E+00
    0.25745E-11         0.55879E-20         0.00000E+00
    0.25745E-11        -0.44238E-20         0.00000E+00
    0.30446E-11         0.46566E-21         0.00000E+00
    0.30446E-11        -0.58208E-20         0.00000E+00
    0.30446E-11         0.93132E-21         0.00000E+00
    0.30446E-11        -0.46566E-21         0.00000E+00
    0.30446E-11        -0.88476E-20         0.00000E+00
    0.30446E-11         0.69849E-21         0.00000E+00
    0.30446E-11         0.44238E-20         0.00000E+00
    0.30446E-11        -0.39581E-20         0.00000E+00
    0.30446E-11         0.00000E+00         0.00000E+00
    0.30446E-11        -0.69849E-20         0.00000E+00
    0.30446E-11        -0.39581E-20         0.00000E+00
    0.30446E-11         0.55879E-20         0.00000E+00
    0.30446E-11         0.93132E-21         0.00000E+00
    0.30446E-11        -0.34925E-20         0.00000E+00
    0.30446E-11        -0.93132E-21         0.00000E+00
    0.30446E-11        -0.81491E-20         0.00000E+00
    0.30446E-11        -0.32596E-20         0.00000E+00
    0.30446E-11         0.93132E-21         0.00000E+00
    0.30446E-11         0.11642E-19         0.00000E+00
    0.30446E-11         0.60536E-20         0.00000E+00
    0.30446E-11         0.18626E-20         0.00000E+00
    0.30446E-11        -0.60536E-20         0.00000E+00
    0.30446E-11         0.60536E-20         0.00000E+00
    0.30446E-11         0.79162E-20         0.00000E+00
    0.30446E-11         0.53551E-20         0.00000E+00
    0.30446E-11         0.46566E-21         0.00000E+00
    0.30446E-11         0.25611E-20         0.00000E+00
    0.30446E-11         0.16298E-20         0.00000E+00
    0.30446E-11         0.13039E-19         0.00000E+00
    0.30446E-11         0.97789E-20         0.00000E+00
    0.30446E-11         0.51223E-20         0.00000E+00
    0.30446E-11         0.83819E-20         0.00000E+00
    0.30446E-11         0.12107E-19         0.00000E+00
    0.30446E-11         0.16298E-19         0.00000E+00
    0.30446E-11         0.97789E-20         0.00000E+00
    0.30446E-11         0.46566E-20         0.00000E+00
    0.30446E-11         0.12573E-19         0.00000E+00
    0.30446E-11         0.20722E-19         0.00000E+00
    0.30446E-11         0.12340E-19         0.00000E+00
    0.30446E-11        -0.18626E-20         0.00000E+00
    0.30446E-11         0.13970E-20         0.00000E+00
    0.30446E-11         0.27940E-20         0.00000E+00
    0.30446E-11         0.13504E-19         0.00000E+00
    0.30446E-11         0.18626E-20         0.00000E+00
    0.30446E-11        -0.14901E-19         0.00000E+00
    0.30446E-11        -0.83819E-20         0.00000E+00
    0.30446E-11        -0.32596E-20         0.00000E+00
    0.30446E-11        -0.97789E-20         0.00000E+00
    0.30446E-11        -0.88476E-20         0.00000E+00
    0.30446E-11        -0.13970E-20         0.00000E+00
    0.36062E-11         0.23283E-20         0.00000E+00
    0.36062E-11         0.18626E-20         0.00000E+00
    0.36062E-11        -0.46566E-20         0.00000E+00
    0.36062E-11        -0.23283E-20         0.00000E+00
    0.36062E-11        -0.16764E-19         0.00000E+00
    0.36062E-11        -0.51223E-20         0.00000E+00
    0.36062E-11         0.41910E-20         0.00000E+00
    0.36062E-11        -0.18626E-20         0.00000E+00
    0.36062E-11        -0.93132E-21         0.00000E+00
    0.36062E-11        -0.69849E-20         0.00000E+00
    0.36062E-11         0.32596E-20         0.00000E+00
    0.36062E-11         0.79162E-20         0.00000E+00
    0.36062E-11         0.83819E-20         0.00000E+00
    0.36062E-11        -0.53551E-20         0.00000E+00
    0.36062E-11         0.13970E-20         0.00000E+00
    0.36062E-11        -0.46566E-20         0.00000E+00
    0.36062E-11        -0.18626E-20         0.00000E+00
    0.36062E-11         0.48894E-20         0.00000E+00
    0.36062E-11         0.10245E-19         0.00000E+00
    0.36062E-11         0.12806E-19         0.00000E+00
    0.36062E-11        -0.93132E-21         0.00000E+00
    0.36062E-11        -0.79162E-20         0.00000E+00
    0.36062E-11        -0.97789E-20         0.00000E+00
    0.36062E-11         0.00000E+00         0.00000E+00
    0.36062E-11         0.18626E-20         0.00000E+00
    0.36062E-11         0.88476E-20         0.00000E+00
    0.36062E-11         0.74506E-20         0.00000E+00
    0.36062E-11         0.13504E-19         0.00000E+00
    0.36062E-11         0.20955E-19         0.00000E+00
    0.36062E-11         0.12107E-19         0.00000E+00
    0.36062E-11         0.12107E-19         0.00000E+00
    0.36062E-11        -0.88476E-20         0.00000E+00
    0.36062E-11         0.37253E-20         0.00000E+00
    0.36062E-11         0.51223E-20         0.00000E+00
    0.36062E-11         0.90804E-20         0.00000E+00
    0.36062E-11        -0.93132E-21         0.00000E+00
    0.36062E-11         0.13970E-19         0.00000E+00
    0.36062E-11         0.21420E-19         0.00000E+00
    0.36062E-11         0.11642E-19         0.00000E+00
    0.36062E-11         0.93132E-20         0.00000E+00
    0.36062E-11         0.11642E-19         0.00000E+00
    0.36062E-11         0.23283E-20         0.00000E+00
    0.36062E-11         0.65193E-20         0.00000E+00
    0.36062E-11         0.93132E-20         0.00000E+00
    0.36062E-11        -0.69849E-20         0.00000E+00
    0.36062E-11        -0.46566E-21         0.00000E+00
    0.36062E-11        -0.23283E-20         0.00000E+00
    0.36062E-11        -0.51223E-20         0.00000E+00
    0.36062E-11        -0.23283E-20         0.00000E+00
    0.36062E-11         0.23283E-20         0.00000E+00
    0.42755E-11        -0.27940E-20         0.00000E+00
    0.42755E-11         0.34925E-20         0.00000E+00
    0.42755E-11        -0.46566E-21         0.00000E+00
    0.42755E-11        -0.88476E-20         0.00000E+00
    0.42755E-11        -0.11874E-19         0.00000E+00
    0.42755E-11        -0.32596E-20         0.00000E+00
    0.42755E-11        -0.55879E-20         0.00000E+00
    0.42755E-11        -0.23283E-20         0.00000E+00
    0.42755E-11        -0.60536E-20         0.00000E+00
    0.42755E-11        -0.13970E-20         0.00000E+00
    0.42755E-11        -0.18626E-20         0.00000E+00
    0.42755E-11         0.88476E-20         0.00000E+00
    0.42755E-11         0.93132E-20         0.00000E+00
    0.42755E-11         0.93132E-21         0.00000E+00
    0.42755E-11         0.23283E-20         0.00000E+00
    0.42755E-11         0.65193E-20         0.00000E+00
    0.42755E-11         0.74506E-20         0.00000E+00
    0.42755E-11        -0.41910E-20         0.00000E+00
    0.42755E-11        -0.41910E-20         0.00000E+00
    0.42755E-11         0.20955E-20         0.00000E+00
    0.42755E-11        -0.79162E-20         0.00000E+00
    0.42755E-11        -0.60536E-20         0.00000E+00
    0.42755E-11        -0.69849E-20         0.00000E+00
    0.42755E-11        -0.27940E-20         0.00000E+00
    0.42755E-11         0.00000E+00         0.00000E+00
    0.42755E-11         0.16764E-19         0.00000E+00
    0.42755E-11         0.21420E-19         0.00000E+00
    0.42755E-11         0.18161E-19         0.00000E+00
    0.42755E-11         0.20489E-19         0.00000E+00
    0.42755E-11         0.10710E-19         0.00000E+00
    0.42755E-11         0.18626E-20         0.00000E+00
    0.42755E-11        -0.51223E-20         0.00000E+00
    0.42755E-11        -0.23283E-20         0.00000E+00
    0.42755E-11         0.46566E-21         0.00000E+00
    0.42755E-11         0.55879E-20         0.00000E+00
    0.42755E-11        -0.51223E-20         0.00000E+00
    0.42755E-11         0.55879E-20         0.00000E+00
    0.42755E-11         0.11874E-19         0.00000E+00
    0.42755E-11         0.19558E-19         0.00000E+00
    0.42755E-11         0.20722E-19         0.00000E+00
    0.42755E-11         0.13504E-19         0.00000E+00
    0.42755E-11        -0.60536E-20         0.00000E+00
    0.42755E-11         0.11176E-19         0.00000E+00
    0.42755E-11         0.93132E-20         0.00000E+00
    0.42755E-11        -0.55879E-20         0.00000E+00
    0.42755E-11         0.51223E-20         0.00000E+00
    0.42755E-11        -0.51223E-20         0.00000E+00
    0.42755E-11        -0.69849E-21         0.00000E+00
    0.42755E-11         0.69849E-20         0.00000E+00
    0.42755E-11        -0.46566E-21         0.00000E+00
    0.50717E-11        -0.46566E-20         0.00000E+00
    0.50717E-11        -0.11642E-20         0.00000E+00
    0.50717E-11        -0.74506E-20         0.00000E+00
    0.50717E-11        -0.97789E-20         0.00000E+00
    0.50717E-11        -0.12340E-19         0.00000E+00
    0.50717E-11        -0.65193E-20         0.00000E+00
    0.50717E-11        -0.16298E-19         0.00000E+00
    0.50717E-11        -0.14435E-19         0.00000E+00
    0.50717E-11        -0.97789E-20         0.00000E+00
    0.50717E-11         0.32596E-20         0.00000E+00
    0.50717E-11        -0.13970E-20         0.00000E+00
    0.50717E-11         0.88476E-20         0.00000E+00
    0.50717E-11         0.46566E-20         0.00000E+00
    0.50717E-11         0.51223E-20         0.00000E+00
    0.50717E-11        -0.93132E-21         0.00000E+00
    0.50717E-11        -0.18626E-20         0.00000E+00
    0.50717E-11         0.51223E-20         0.00000E+00
    0.50717E-11        -0.51223E-20         0.00000E+00
    0.50717E-11         0.41910E-20         0.00000E+00
    0.50717E-11         0.55879E-20         0.00000E+00
    0.50717E-11         0.88476E-20         0.00000E+00
    0.50717E-11        -0.27940E-20         0.00000E+00
    0.50717E-11        -0.13504E-19         0.00000E+00
    0.50717E-11        -0.37253E-20         0.00000E+00
    0.50717E-11        -0.51223E-20         0.00000E+00
    0.50717E-11         0.10710E-19         0.00000E+00
    0.50717E-11         0.19558E-19         0.00000E+00
    0.50717E-11         0.10245E-19         0.00000E+00
    0.50717E-11         0.11642E-19         0.00000E+00
    0.50717E-11         0.27940E-20         0.00000E+00
    0.50717E-11        -0.18626E-20         0.00000E+00
    0.50717E-11         0.13970E-19         0.00000E+00
    0.50717E-11         0.23283E-21         0.00000E+00
    0.50717E-11         0.18626E-20         0.00000E+00
    0.50717E-11        -0.65193E-20         0.00000E+00
    0.50717E-11        -0.51223E-20         0.00000E+00
    0.50717E-11        -0.27940E-20         0.00000E+00
    0.50717E-11         0.41910E-20         0.00000E+00
    0.50717E-11         0.69849E-20         0.00000E+00
    0.50717E-11         0.41910E-20         0.00000E+00
    0.50717E-11         0.20955E-19         0.00000E+00
    0.50717E-11         0.11176E-19         0.00000E+00
    0.50717E-11         0.23283E-19         0.00000E+00
    0.50717E-11         0.93132E-20         0.00000E+00
    0.50717E-11         0.16298E-19         0.00000E+00
    0.50717E-11         0.14901E-19         0.00000E+00
    0.50717E-11         0.18626E-20         0.00000E+00
    0.50717E-11        -0.74506E-20         0.00000E+00
    0.50717E-11        -0.41910E-20         0.00000E+00
    0.50717E-11        -0.88476E-20         0.00000E+00
    0.60175E-11        -0.23283E-20         0.00000E+00
    0.60175E-11         0.00000E+00         0.00000E+00
    0.60175E-11        -0.74506E-20         0.00000E+00
    0.60175E-11        -0.10245E-19         0.00000E+00
    0.60175E-11        -0.90804E-20         0.00000E+00
    0.60175E-11        -0.20955E-19         0.00000E+00
    0.60175E-11        -0.46566E-21         0.00000E+00
    0.60175E-11        -0.12573E-19         0.00000E+00
    0.60175E-11        -0.41910E-20         0.00000E+00
    0.60175E-11        -0.41910E-20         0.00000E+00
    0.60175E-11         0.46566E-21         0.00000E+00
    0.60175E-11         0.13970E-20         0.00000E+00
    0.60175E-11         0.18626E-20         0.00000E+00
    0.60175E-11        -0.65193E-20         0.00000E+00
    0.60175E-11        -0.46566E-21         0.00000E+00
    0.60175E-11         0.30268E-20         0.00000E+00
    0.60175E-11        -0.13970E-20         0.00000E+00
    0.60175E-11         0.10477E-19         0.00000E+00
    0.60175E-11         0.60536E-20         0.00000E+00
    0.60175E-11         0.69849E-20         0.00000E+00
    0.60175E-11         0.81491E-20         0.00000E+00
    0.60175E-11        -0.83819E-20         0.00000E+00
    0.60175E-11         0.41910E-20         0.00000E+00
    0.60175E-11         0.12107E-19         0.00000E+00
    0.60175E-11        -0.79162E-20         0.00000E+00
    0.60175E-11         0.93132E-20         0.00000E+00
    0.60175E-11         0.79162E-20         0.00000E+00
    0.60175E-11         0.69849E-20         0.00000E+00
    0.60175E-11        -0.93132E-21         0.00000E+00
    0.60175E-11        -0.13737E-19         0.00000E+00
    0.60175E-11        -0.67521E-20         0.00000E+00
    0.60175E-11         0.10710E-19         0.00000E+00
    0.60175E-11         0.55879E-20         0.00000E+00
    0.60175E-11         0.41910E-20         0.00000E+00
    0.60175E-11        -0.93132E-21         0.00000E+00
    0.60175E-11         0.00000E+00         0.00000E+00
    0.60175E-11         0.23283E-20         0.00000E+00
    0.60175E-11         0.11642E-20         0.00000E+00
    0.60175E-11        -0.93132E-20         0.00000E+00
    0.60175E-11        -0.55879E-20         0.00000E+00
    0.60175E-11         0.90804E-20         0.00000E+00
    0.60175E-11         0.10245E-19         0.00000E+00
    0.60175E-11         0.13039E-19         0.00000E+00
    0.60175E-11         0.93132E-20         0.00000E+00
    0.60175E-11         0.27008E-19         0.00000E+00
    0.60175E-11         0.14435E-19         0.00000E+00
    0.60175E-11        -0.18626E-20         0.00000E+00
    0.60175E-11         0.27940E-20         0.00000E+00
    0.60175E-11         0.51223E-20         0.00000E+00
    0.60175E-11         0.00000E+00         0.00000E+00
    0.71396E-11        -0.18626E-20         0.00000E+00
    0.71396E-11         0.65193E-20         0.00000E+00
    0.71396E-11        -0.16065E-19         0.00000E+00
    0.71396E-11        -0.16065E-19         0.00000E+00
    0.71396E-11        -0.17695E-19         0.00000E+00
    0.71396E-11        -0.18394E-19         0.00000E+00
    0.71396E-11        -0.69849E-20         0.00000E+00
    0.71396E-11        -0.13039E-19         0.00000E+00
    0.71396E-11        -0.37616E-36         0.00000E+00
    0.71396E-11        -0.13970E-20         0.00000E+00
    0.71396E-11         0.41910E-20         0.00000E+00
    0.71396E-11         0.79162E-20         0.00000E+00
    0.71396E-11         0.69849E-20         0.00000E+00
    0.71396E-11        -0.23283E-20         0.00000E+00
    0.71396E-11        -0.32596E-20         0.00000E+00
    0.71396E-11         0.30268E-20         0.00000E+00
    0.71396E-11        -0.18626E-20         0.00000E+00
    0.71396E-11         0.74506E-20         0.00000E+00
    0.71396E-11        -0.10245E-19         0.00000E+00
    0.71396E-11        -0.81491E-20         0.00000E+00
    0.71396E-11        -0.60536E-20         0.00000E+00
    0.71396E-11        -0.55879E-20         0.00000E+00
    0.71396E-11        -0.18626E-20         0.00000E+00
    0.71396E-11         0.41910E-20         0.00000E+00
    0.71396E-11        -0.18626E-20         0.00000E+00
    0.71396E-11         0.15367E-19         0.00000E+00
    0.71396E-11         0.14203E-19         0.00000E+00
    0.71396E-11         0.65193E-20         0.00000E+00
    0.71396E-11        -0.51223E-20         0.00000E+00
    0.71396E-11        -0.93132E-20         0.00000E+00
    0.71396E-11        -0.58208E-20         0.00000E+00
    0.71396E-11        -0.37253E-20         0.00000E+00
    0.71396E-11         0.13970E-20         0.00000E+00
    0.71396E-11         0.11176E-19         0.00000E+00
    0.71396E-11        -0.44238E-20         0.00000E+00
    0.71396E-11         0.34925E-20         0.00000E+00
    0.71396E-11        -0.74506E-20         0.00000E+00
    0.71396E-11        -0.88476E-20         0.00000E+00
    0.71396E-11        -0.12107E-19         0.00000E+00
    0.71396E-11        -0.97789E-20         0.00000E+00
    0.71396E-11        -0.10012E-19         0.00000E+00
    0.71396E-11        -0.27940E-20         0.00000E+00
    0.71396E-11         0.46566E-20         0.00000E+00
    0.71396E-11        -0.69849E-21         0.00000E+00
    0.71396E-11         0.11409E-19         0.00000E+00
    0.71396E-11         0.14901E-19         0.00000E+00
    0.71396E-11         0.15367E-19         0.00000E+00
    0.71396E-11         0.11642E-19         0.00000E+00
    0.71396E-11         0.23283E-20         0.00000E+00
    0.71396E-11         0.23283E-20         0.00000E+00
    0.84696E-11        -0.62864E-20         0.00000E+00
    0.84696E-11         0.39581E-20         0.00000E+00
    0.84696E-11        -0.88476E-20         0.00000E+00
    0.84696E-11         0.69849E-20         0.00000E+00
    0.84696E-11        -0.93132E-20         0.00000E+00
    0.84696E-11        -0.60536E-20         0.00000E+00
    0.84696E-11        -0.15832E-19         0.00000E+00
    0.84696E-11        -0.93132E-20         0.00000E+00
    0.84696E-11        -0.67521E-20         0.00000E+00
    0.84696E-11        -0.65193E-20         0.00000E+00
    0.84696E-11        -0.27940E-20         0.00000E+00
    0.84696E-11         0.23283E-20         0.00000E+00
    0.84696E-11         0.18626E-20         0.00000E+00
    0.84696E-11         0.23283E-20         0.00000E+00
    0.84696E-11         0.37253E-20         0.00000E+00
    0.84696E-11         0.18626E-20         0.00000E+00
    0.84696E-11        -0.18626E-20         0.00000E+00
    0.84696E-11         0.48894E-20         0.00000E+00
    0.84696E-11        -0.65193E-20         0.00000E+00
    0.84696E-11        -0.12340E-19         0.00000E+00
    0.84696E-11        -0.10245E-19         0.00000E+00
    0.84696E-11         0.74506E-20         0.00000E+00
    0.84696E-11        -0.88476E-20         0.00000E+00
    0.84696E-11        -0.12573E-19         0.00000E+00
    0.84696E-11         0.00000E+00         0.00000E+00
    0.84696E-11         0.65193E-20         0.00000E+00
    0.84696E-11         0.10245E-19         0.00000E+00
    0.84696E-11        -0.37253E-20         0.00000E+00
    0.84696E-11        -0.46566E-21         0.00000E+00
    0.84696E-11        -0.23283E-20         0.00000E+00
    0.84696E-11        -0.93132E-21         0.00000E+00
    0.84696E-11         0.11176E-19         0.00000E+00
    0.84696E-11         0.11176E-19         0.00000E+00
    0.84696E-11        -0.13970E-20         0.00000E+00
    0.84696E-11         0.00000E+00         0.00000E+00
    0.84696E-11        -0.13039E-19         0.00000E+00
    0.84696E-11        -0.23749E-19         0.00000E+00
    0.84696E-11        -0.17695E-19         0.00000E+00
    0.84696E-11        -0.21886E-19         0.00000E+00
    0.84696E-11        -0.20023E-19         0.00000E+00
    0.84696E-11        -0.20955E-19         0.00000E+00
    0.84696E-11        -0.65193E-20         0.00000E+00
    0.84696E-11        -0.55879E-20         0.00000E+00
    0.84696E-11        -0.46566E-20         0.00000E+00
    0.84696E-11         0.93132E-21         0.00000E+00
    0.84696E-11         0.16764E-19         0.00000E+00
    0.84696E-11         0.20023E-19         0.00000E+00
    0.84696E-11         0.14203E-19         0.00000E+00
    0.84696E-11         0.58208E-20         0.00000E+00
    0.84696E-11        -0.93132E-21         0.00000E+00
    0.10045E-10        -0.74506E-20         0.00000E+00
    0.10045E-10        -0.46566E-21         0.00000E+00
    0.10045E-10         0.10245E-19         0.00000E+00
    0.10045E-10         0.97789E-20         0.00000E+00
    0.10045E-10         0.27940E-20         0.00000E+00
    0.10045E-10        -0.39581E-20         0.00000E+00
    0.10045E-10        -0.76834E-20         0.00000E+00
    0.10045E-10        -0.46566E-20         0.00000E+00
    0.10045E-10        -0.20023E-19         0.00000E+00
    0.10045E-10        -0.51223E-20         0.00000E+00
    0.10045E-10        -0.79162E-20         0.00000E+00
    0.10045E-10        -0.13039E-19         0.00000E+00
    0.10045E-10        -0.14435E-19         0.00000E+00
    0.10045E-10        -0.62864E-20         0.00000E+00
    0.10045E-10         0.69849E-21         0.00000E+00
    0.10045E-10         0.11176E-19         0.00000E+00
    0.10045E-10         0.65193E-20         0.00000E+00
    0.10045E-10         0.46566E-20         0.00000E+00
    0.10045E-10         0.10245E-19         0.00000E+00
    0.10045E-10         0.41910E-20         0.00000E+00
    0.10045E-10         0.74506E-20         0.00000E+00
    0.10045E-10         0.46566E-21         0.00000E+00
    0.10045E-10         0.27940E-20         0.00000E+00
    0.10045E-10        -0.16764E-19         0.00000E+00
    0.10045E-10        -0.74506E-20         0.00000E+00
    0.10045E-10        -0.41910E-20         0.00000E+00
    0.10045E-10         0.46566E-21         0.00000E+00
    0.10045E-10        -0.46566E-21         0.00000E+00
    0.10045E-10        -0.41910E-20         0.00000E+00
    0.10045E-10        -0.41910E-20         0.00000E+00
    0.10045E-10        -0.65193E-20         0.00000E+00
    0.10045E-10         0.15832E-19         0.00000E+00
    0.10045E-10        -0.93132E-21         0.00000E+00
    0.10045E-10        -0.41910E-20         0.00000E+00
    0.10045E-10         0.46566E-20         0.00000E+00
    0.10045E-10        -0.18161E-19         0.00000E+00
    0.10045E-10        -0.23749E-19         0.00000E+00
    0.10045E-10        -0.24214E-19         0.00000E+00
    0.10045E-10        -0.28405E-19         0.00000E+00
    0.10045E-10        -0.16298E-19         0.00000E+00
    0.10045E-10        -0.11642E-19         0.00000E+00
    0.10045E-10        -0.69849E-20         0.00000E+00
    0.10045E-10         0.37253E-20         0.00000E+00
    0.10045E-10         0.69849E-20         0.00000E+00
    0.10045E-10        -0.13970E-20         0.00000E+00
    0.10045E-10        -0.27940E-20         0.00000E+00
    0.10045E-10        -0.37253E-20         0.00000E+00
    0.10045E-10         0.32596E-20         0.00000E+00
    0.10045E-10         0.46566E-21         0.00000E+00
    0.10045E-10         0.13970E-20         0.00000E+00
    0.11908E-10         0.27940E-20         0.00000E+00
    0.11908E-10         0.46566E-20         0.00000E+00
    0.11908E-10         0.53551E-20         0.00000E+00
    0.11908E-10         0.55879E-20         0.00000E+00
    0.11908E-10         0.41910E-20         0.00000E+00
    0.11908E-10         0.95461E-20         0.00000E+00
    0.11908E-10         0.27940E-20         0.00000E+00
    0.11908E-10        -0.10245E-19         0.00000E+00
    0.11908E-10        -0.14435E-19         0.00000E+00
    0.11908E-10        -0.51223E-20         0.00000E+00
    0.11908E-10        -0.69849E-21         0.00000E+00
    0.11908E-10        -0.10012E-19         0.00000E+00
    0.11908E-10        -0.10245E-19         0.00000E+00
    0.11908E-10         0.51223E-20         0.00000E+00
    0.11908E-10        -0.46566E-20         0.00000E+00
    0.11908E-10        -0.97789E-20         0.00000E+00
    0.11908E-10         0.11642E-19         0.00000E+00
    0.11908E-10        -0.32596E-20         0.00000E+00
    0.11908E-10         0.55879E-20         0.00000E+00
    0.11908E-10         0.11176E-19         0.00000E+00
    0.11908E-10         0.46566E-20         0.00000E+00
    0.11908E-10         0.41910E-20         0.00000E+00
    0.11908E-10        -0.60536E-20         0.00000E+00
    0.11908E-10        -0.11642E-19         0.00000E+00
    0.11908E-10        -0.32596E-20         0.00000E+00
    0.11908E-10        -0.11642E-19         0.00000E+00
    0.11908E-10        -0.83819E-20         0.00000E+00
    0.11908E-10        -0.37253E-20         0.00000E+00
    0.11908E-10         0.27940E-20         0.00000E+00
    0.11908E-10         0.46566E-20         0.00000E+00
    0.11908E-10        -0.27940E-20         0.00000E+00
    0.11908E-10        -0.27940E-20         0.00000E+00
    0.11908E-10        -0.13504E-19         0.00000E+00
    0.11908E-10        -0.74506E-20         0.00000E+00
    0.11908E-10        -0.37253E-20         0.00000E+00
    0.11908E-10        -0.16298E-19         0.00000E+00
    0.11908E-10        -0.10245E-19         0.00000E+00
    0.11908E-10        -0.21420E-19         0.00000E+00
    0.11908E-10        -0.20489E-19         0.00000E+00
    0.11908E-10        -0.46566E-20         0.00000E+00
    0.11908E-10         0.27940E-20         0.00000E+00
    0.11908E-10         0.23283E-20         0.00000E+00
    0.11908E-10         0.65193E-20         0.00000E+00
    0.11908E-10         0.37253E-20         0.00000E+00
    0.11908E-10         0.44238E-20         0.00000E+00
    0.11908E-10        -0.41910E-20         0.00000E+00
    0.11908E-10        -0.55879E-20         0.00000E+00
    0.11908E-10        -0.41910E-20         0.00000E+00
    0.11908E-10        -0.14901E-19         0.00000E+00
    0.11908E-10         0.46566E-21         0.00000E+00
    0.14112E-10         0.79162E-20         0.00000E+00
    0.14112E-10         0.48894E-20         0.00000E+00
    0.14112E-10         0.90804E-20         0.00000E+00
    0.14112E-10         0.58208E-20         0.00000E+00
    0.14112E-10         0.97789E-20         0.00000E+00
    0.14112E-10         0.17695E-19         0.00000E+00
    0.14112E-10         0.83819E-20         0.00000E+00
    0.14112E-10         0.37253E-20         0.00000E+00
    0.14112E-10        -0.32596E-20         0.00000E+00
    0.14112E-10         0.27940E-20         0.00000E+00
    0.14112E-10         0.69849E-20         0.00000E+00
    0.14112E-10        -0.23283E-20         0.00000E+00
    0.14112E-10        -0.93132E-21         0.00000E+00
    0.14112E-10        -0.60536E-20         0.00000E+00
    0.14112E-10         0.79162E-20         0.00000E+00
    0.14112E-10         0.46566E-21         0.00000E+00
    0.14112E-10         0.74506E-20         0.00000E+00
    0.14112E-10         0.13970E-20         0.00000E+00
    0.14112E-10        -0.60536E-20         0.00000E+00
    0.14112E-10         0.46566E-21         0.00000E+00
    0.14112E-10         0.00000E+00         0.00000E+00
    0.14112E-10         0.41910E-20         0.00000E+00
    0.14112E-10         0.46566E-20         0.00000E+00
    0.14112E-10        -0.74506E-20         0.00000E+00
    0.14112E-10        -0.12107E-19         0.00000E+00
    0.14112E-10        -0.12107E-19         0.00000E+00
    0.14112E-10        -0.21420E-19         0.00000E+00
    0.14112E-10        -0.10245E-19         0.00000E+00
    0.14112E-10        -0.55879E-20         0.00000E+00
    0.14112E-10        -0.10245E-19         0.00000E+00
    0.14112E-10        -0.60536E-20         0.00000E+00
    0.14112E-10        -0.37253E-20         0.00000E+00
    0.14112E-10        -0.13970E-20         0.00000E+00
    0.14112E-10        -0.74506E-20         0.00000E+00
    0.14112E-10        -0.23283E-20         0.00000E+00
    0.14112E-10        -0.93132E-21         0.00000E+00
    0.14112E-10        -0.27940E-20         0.00000E+00
    0.14112E-10        -0.13504E-19         0.00000E+00
    0.14112E-10        -0.11409E-19         0.00000E+00
    0.14112E-10        -0.37253E-20         0.00000E+00
    0.14112E-10        -0.93132E-20         0.00000E+00
    0.14112E-10         0.23283E-21         0.00000E+00
    0.14112E-10        -0.88476E-20         0.00000E+00
    0.14112E-10        -0.93132E-20         0.00000E+00
    0.14112E-10        -0.74506E-20         0.00000E+00
    0.14112E-10        -0.41910E-20         0.00000E+00
    0.14112E-10        -0.10710E-19         0.00000E+00
    0.14112E-10        -0.46566E-20         0.00000E+00
    0.14112E-10         0.46566E-21         0.00000E+00
    0.14112E-10         0.20955E-20         0.00000E+00
    0.16715E-10         0.41910E-20         0.00000E+00
    0.16715E-10         0.23283E-20         0.00000E+00
    0.16715E-10         0.46566E-20         0.00000E+00
    0.16715E-10         0.69849E-20         0.00000E+00
    0.16715E-10         0.79162E-20         0.00000E+00
    0.16715E-10         0.12573E-19         0.00000E+00
    0.16715E-10         0.10710E-19         0.00000E+00
    0.16715E-10         0.14435E-19         0.00000E+00
    0.16715E-10         0.18626E-19         0.00000E+00
    0.16715E-10         0.15832E-19         0.00000E+00
    0.16715E-10        -0.20955E-20         0.00000E+00
    0.16715E-10        -0.13970E-20         0.00000E+00
    0.16715E-10         0.37253E-20         0.00000E+00
    0.16715E-10        -0.60536E-20         0.00000E+00
    0.16715E-10        -0.93132E-21         0.00000E+00
    0.16715E-10         0.27940E-20         0.00000E+00
    0.16715E-10         0.13970E-19         0.00000E+00
    0.16715E-10         0.14901E-19         0.00000E+00
    0.16715E-10        -0.13970E-20         0.00000E+00
    0.16715E-10         0.65193E-20         0.00000E+00
    0.16715E-10        -0.55879E-20         0.00000E+00
    0.16715E-10        -0.51223E-20         0.00000E+00
    0.16715E-10         0.55879E-20         0.00000E+00
    0.16715E-10        -0.51223E-20         0.00000E+00
    0.16715E-10        -0.14668E-19         0.00000E+00
    0.16715E-10        -0.17462E-19         0.00000E+00
    0.16715E-10        -0.19558E-19         0.00000E+00
    0.16715E-10        -0.11642E-19         0.00000E+00
    0.16715E-10        -0.16298E-19         0.00000E+00
    0.16715E-10        -0.23982E-19         0.00000E+00
    0.16715E-10        -0.12806E-19         0.00000E+00
    0.16715E-10        -0.46566E-20         0.00000E+00
    0.16715E-10        -0.23283E-20         0.00000E+00
    0.16715E-10        -0.10245E-19         0.00000E+00
    0.16715E-10        -0.13039E-19         0.00000E+00
    0.16715E-10         0.93132E-21         0.00000E+00
    0.16715E-10         0.27940E-20         0.00000E+00
    0.16715E-10        -0.23283E-20         0.00000E+00
    0.16715E-10        -0.13504E-19         0.00000E+00
    0.16715E-10        -0.12573E-19         0.00000E+00
    0.16715E-10        -0.60536E-20         0.00000E+00
    0.16715E-10        -0.25611E-20         0.00000E+00
    0.16715E-10         0.46566E-20         0.00000E+00
    0.16715E-10        -0.17229E-19         0.00000E+00
    0.16715E-10        -0.13039E-19         0.00000E+00
    0.16715E-10        -0.83819E-20         0.00000E+00
    0.16715E-10        -0.18626E-20         0.00000E+00
    0.16715E-10         0.13970E-20         0.00000E+00
    0.16715E-10         0.16298E-19         0.00000E+00
    0.16715E-10        -0.18626E-20         0.00000E+00
    0.19788E-10        -0.93132E-21         0.00000E+00
    0.19788E-10        -0.13970E-20         0.00000E+00
    0.19788E-10         0.46566E-21         0.00000E+00
    0.19788E-10         0.19558E-19         0.00000E+00
    0.19788E-10         0.97789E-20         0.00000E+00
    0.19788E-10         0.15367E-19         0.00000E+00
    0.19788E-10         0.18626E-20         0.00000E+00
    0.19788E-10         0.12107E-19         0.00000E+00
    0.19788E-10         0.88476E-20         0.00000E+00
    0.19788E-10         0.23283E-20         0.00000E+00
    0.19788E-10         0.30268E-20         0.00000E+00
    0.19788E-10         0.60536E-20         0.00000E+00
    0.19788E-10         0.69849E-20         0.00000E+00
    0.19788E-10         0.13970E-20         0.00000E+00
    0.19788E-10        -0.51223E-20         0.00000E+00
    0.19788E-10        -0.30268E-20         0.00000E+00
    0.19788E-10         0.30268E-20         0.00000E+00
    0.19788E-10         0.12107E-19         0.00000E+00
    0.19788E-10         0.41910E-20         0.00000E+00
    0.19788E-10         0.79162E-20         0.00000E+00
    0.19788E-10        -0.83819E-20         0.00000E+00
    0.19788E-10        -0.12573E-19         0.00000E+00
    0.19788E-10        -0.37253E-20         0.00000E+00
    0.19788E-10        -0.79162E-20         0.00000E+00
    0.19788E-10        -0.88476E-20         0.00000E+00
    0.19788E-10        -0.83819E-20         0.00000E+00
    0.19788E-10        -0.23283E-19         0.00000E+00
    0.19788E-10        -0.28638E-19         0.00000E+00
    0.19788E-10        -0.24214E-19         0.00000E+00
    0.19788E-10        -0.21653E-19         0.00000E+00
    0.19788E-10        -0.16531E-19         0.00000E+00
    0.19788E-10        -0.41910E-20         0.00000E+00
    0.19788E-10        -0.18626E-20         0.00000E+00
    0.19788E-10        -0.79162E-20         0.00000E+00
    0.19788E-10        -0.13504E-19         0.00000E+00
    0.19788E-10        -0.12107E-19         0.00000E+00
    0.19788E-10        -0.79162E-20         0.00000E+00
    0.19788E-10        -0.27940E-20         0.00000E+00
    0.19788E-10         0.16298E-20         0.00000E+00
    0.19788E-10        -0.53551E-20         0.00000E+00
    0.19788E-10         0.67521E-20         0.00000E+00
    0.19788E-10         0.62864E-20         0.00000E+00
    0.19788E-10         0.93132E-21         0.00000E+00
    0.19788E-10        -0.55879E-20         0.00000E+00
    0.19788E-10        -0.30268E-20         0.00000E+00
    0.19788E-10         0.41910E-20         0.00000E+00
    0.19788E-10         0.32596E-20         0.00000E+00
    0.19788E-10        -0.37253E-20         0.00000E+00
    0.19788E-10         0.46566E-20         0.00000E+00
    0.19788E-10        -0.23283E-20         0.00000E+00
    0.23414E-10         0.18626E-20         0.00000E+00
    0.23414E-10         0.46566E-20         0.00000E+00
    0.23414E-10         0.69849E-20         0.00000E+00
    0.23414E-10         0.18626E-19         0.00000E+00
    0.23414E-10         0.83819E-20         0.00000E+00
    0.23414E-10         0.23283E-20         0.00000E+00
    0.23414E-10        -0.13970E-20         0.00000E+00
    0.23414E-10         0.83819E-20         0.00000E+00
    0.23414E-10         0.69849E-21         0.00000E+00
    0.23414E-10        -0.32596E-20         0.00000E+00
    0.23414E-10         0.12107E-19         0.00000E+00
    0.23414E-10         0.46566E-21         0.00000E+00
    0.23414E-10        -0.30268E-20         0.00000E+00
    0.23414E-10        -0.81491E-20         0.00000E+00
    0.23414E-10         0.34925E-20         0.00000E+00
    0.23414E-10         0.27940E-20         0.00000E+00
    0.23414E-10        -0.51223E-20         0.00000E+00
    0.23414E-10        -0.65193E-20         0.00000E+00
    0.23414E-10        -0.37253E-20         0.00000E+00
    0.23414E-10        -0.13970E-19         0.00000E+00
    0.23414E-10        -0.74506E-20         0.00000E+00
    0.23414E-10        -0.14435E-19         0.00000E+00
    0.23414E-10        -0.23749E-19         0.00000E+00
    0.23414E-10        -0.21886E-19         0.00000E+00
    0.23414E-10        -0.20955E-19         0.00000E+00
    0.23414E-10        -0.97789E-20         0.00000E+00
    0.23414E-10        -0.14435E-19         0.00000E+00
    0.23414E-10        -0.15600E-19         0.00000E+00
    0.23414E-10        -0.14435E-19         0.00000E+00
    0.23414E-10        -0.16298E-19         0.00000E+00
    0.23414E-10        -0.22352E-19         0.00000E+00
    0.23414E-10        -0.10245E-19         0.00000E+00
    0.23414E-10        -0.44238E-20         0.00000E+00
    0.23414E-10         0.60536E-20         0.00000E+00
    0.23414E-10        -0.37253E-20         0.00000E+00
    0.23414E-10        -0.11874E-19         0.00000E+00
    0.23414E-10        -0.23283E-21         0.00000E+00
    0.23414E-10         0.93132E-21         0.00000E+00
    0.23414E-10         0.13737E-19         0.00000E+00
    0.23414E-10         0.13271E-19         0.00000E+00
    0.23414E-10        -0.41910E-20         0.00000E+00
    0.23414E-10        -0.65193E-20         0.00000E+00
    0.23414E-10        -0.55879E-20         0.00000E+00
    0.23414E-10         0.23283E-20         0.00000E+00
    0.23414E-10        -0.55879E-20         0.00000E+00
    0.23414E-10         0.79162E-20         0.00000E+00
    0.23414E-10        -0.46566E-21         0.00000E+00
    0.23414E-10        -0.37253E-20         0.00000E+00
    0.23414E-10        -0.18626E-20         0.00000E+00
    0.23414E-10         0.18626E-20         0.00000E+00
    0.27688E-10         0.13970E-20         0.00000E+00
    0.27688E-10         0.37253E-20         0.00000E+00
    0.27688E-10         0.83819E-20         0.00000E+00
    0.27688E-10         0.60536E-20         0.00000E+00
    0.27688E-10         0.37253E-20         0.00000E+00
    0.27688E-10         0.13970E-20         0.00000E+00
    0.27688E-10         0.41910E-20         0.00000E+00
    0.27688E-10         0.46566E-21         0.00000E+00
    0.27688E-10        -0.46566E-21         0.00000E+00
    0.27688E-10        -0.51223E-20         0.00000E+00
    0.27688E-10         0.34925E-20         0.00000E+00
    0.27688E-10        -0.23283E-20         0.00000E+00
    0.27688E-10        -0.60536E-20         0.00000E+00
    0.27688E-10        -0.11176E-19         0.00000E+00
    0.27688E-10        -0.60536E-20         0.00000E+00
    0.27688E-10        -0.20256E-19         0.00000E+00
    0.27688E-10        -0.15367E-19         0.00000E+00
    0.27688E-10        -0.19558E-19         0.00000E+00
    0.27688E-10        -0.79162E-20         0.00000E+00
    0.27688E-10        -0.15832E-19         0.00000E+00
    0.27688E-10        -0.12107E-19         0.00000E+00
    0.27688E-10        -0.20722E-19         0.00000E+00
    0.27688E-10        -0.26543E-19         0.00000E+00
    0.27688E-10        -0.29337E-19         0.00000E+00
    0.27688E-10        -0.25146E-19         0.00000E+00
    0.27688E-10        -0.13504E-19         0.00000E+00
    0.27688E-10        -0.93132E-20         0.00000E+00
    0.27688E-10        -0.32596E-20         0.00000E+00
    0.27688E-10        -0.27940E-20         0.00000E+00
    0.27688E-10        -0.79162E-20         0.00000E+00
    0.27688E-10        -0.22817E-19         0.00000E+00
    0.27688E-10        -0.16298E-19         0.00000E+00
    0.27688E-10        -0.12107E-19         0.00000E+00
    0.27688E-10        -0.14901E-19         0.00000E+00
    0.27688E-10        -0.39581E-20         0.00000E+00
    0.27688E-10        -0.18626E-20         0.00000E+00
    0.27688E-10         0.13970E-19         0.00000E+00
    0.27688E-10         0.83819E-20         0.00000E+00
    0.27688E-10         0.32596E-20         0.00000E+00
    0.27688E-10         0.76834E-20         0.00000E+00
    0.27688E-10        -0.10245E-19         0.00000E+00
    0.27688E-10        -0.11176E-19         0.00000E+00
    0.27688E-10        -0.74506E-20         0.00000E+00
    0.27688E-10        -0.83819E-20         0.00000E+00
    0.27688E-10        -0.16764E-19         0.00000E+00
    0.27688E-10         0.46566E-21         0.00000E+00
    0.27688E-10         0.60536E-20         0.00000E+00
    0.27688E-10         0.83819E-20         0.00000E+00
    0.27688E-10         0.11176E-19         0.00000E+00
    0.27688E-10         0.25611E-20         0.00000E+00
    0.32725E-10        -0.69849E-20         0.00000E+00
    0.32725E-10        -0.13970E-20         0.00000E+00
    0.32725E-10         0.11642E-19         0.00000E+00
    0.32725E-10        -0.16298E-20         0.00000E+00
    0.32725E-10        -0.88476E-20         0.00000E+00
    0.32725E-10         0.46566E-21         0.00000E+00
    0.32725E-10        -0.79162E-20         0.00000E+00
    0.32725E-10        -0.12107E-19         0.00000E+00
    0.32725E-10        -0.93132E-20         0.00000E+00
    0.32725E-10        -0.32596E-20         0.00000E+00
    0.32725E-10        -0.69849E-20         0.00000E+00
    0.32725E-10        -0.60536E-20         0.00000E+00
    0.32725E-10        -0.14435E-19         0.00000E+00
    0.32725E-10        -0.10245E-19         0.00000E+00
    0.32725E-10        -0.25146E-19         0.00000E+00
    0.32725E-10        -0.29802E-19         0.00000E+00
    0.32725E-10        -0.25611E-19         0.00000E+00
    0.32725E-10        -0.30734E-19         0.00000E+00
    0.32725E-10        -0.14668E-19         0.00000E+00
    0.32725E-10        -0.15367E-19         0.00000E+00
    0.32725E-10        -0.17695E-19         0.00000E+00
    0.32725E-10        -0.16764E-19         0.00000E+00
    0.32725E-10        -0.20489E-19         0.00000E+00
    0.32725E-10        -0.16764E-19         0.00000E+00
    0.32725E-10        -0.20955E-19         0.00000E+00
    0.32725E-10        -0.13504E-19         0.00000E+00
    0.32725E-10        -0.10710E-19         0.00000E+00
    0.32725E-10        -0.26077E-19         0.00000E+00
    0.32725E-10        -0.27474E-19         0.00000E+00
    0.32725E-10        -0.13970E-19         0.00000E+00
    0.32725E-10        -0.20489E-19         0.00000E+00
    0.32725E-10        -0.65193E-20         0.00000E+00
    0.32725E-10        -0.13970E-19         0.00000E+00
    0.32725E-10        -0.17229E-19         0.00000E+00
    0.32725E-10        -0.20023E-19         0.00000E+00
    0.32725E-10        -0.65193E-20         0.00000E+00
    0.32725E-10        -0.27940E-20         0.00000E+00
    0.32725E-10         0.79162E-20         0.00000E+00
    0.32725E-10         0.41910E-20         0.00000E+00
    0.32725E-10         0.23283E-20         0.00000E+00
    0.32725E-10        -0.27940E-20         0.00000E+00
    0.32725E-10         0.74506E-20         0.00000E+00
    0.32725E-10        -0.72177E-20         0.00000E+00
    0.32725E-10        -0.17695E-19         0.00000E+00
    0.32725E-10        -0.28405E-19         0.00000E+00
    0.32725E-10        -0.60536E-20         0.00000E+00
    0.32725E-10        -0.10710E-19         0.00000E+00
    0.32725E-10        -0.83819E-20         0.00000E+00
    0.32725E-10        -0.13970E-20         0.00000E+00
    0.32725E-10         0.34925E-20         0.00000E+00
    0.38653E-10        -0.69849E-21         0.00000E+00
    0.38653E-10         0.86147E-20         0.00000E+00
    0.38653E-10        -0.55879E-20         0.00000E+00
    0.38653E-10        -0.46566E-20         0.00000E+00
    0.38653E-10        -0.26543E-19         0.00000E+00
    0.38653E-10        -0.14901E-19         0.00000E+00
    0.38653E-10        -0.11642E-19         0.00000E+00
    0.38653E-10        -0.11409E-19         0.00000E+00
    0.38653E-10        -0.10245E-19         0.00000E+00
    0.38653E-10        -0.15367E-19         0.00000E+00
    0.38653E-10        -0.13039E-19         0.00000E+00
    0.38653E-10        -0.13039E-19         0.00000E+00
    0.38653E-10        -0.46566E-20         0.00000E+00
    0.38653E-10        -0.17695E-19         0.00000E+00
    0.38653E-10        -0.27008E-19         0.00000E+00
    0.38653E-10        -0.22119E-19         0.00000E+00
    0.38653E-10        -0.21653E-19         0.00000E+00
    0.38653E-10        -0.22817E-19         0.00000E+00
    0.38653E-10        -0.19325E-19         0.00000E+00
    0.38653E-10        -0.17462E-19         0.00000E+00
    0.38653E-10        -0.26077E-19         0.00000E+00
    0.38653E-10        -0.26077E-19         0.00000E+00
    0.38653E-10        -0.21420E-19         0.00000E+00
    0.38653E-10        -0.16764E-19         0.00000E+00
    0.38653E-10        -0.21886E-19         0.00000E+00
    0.38653E-10        -0.18626E-19         0.00000E+00
    0.38653E-10        -0.18626E-19         0.00000E+00
    0.38653E-10        -0.26077E-19         0.00000E+00
    0.38653E-10        -0.38650E-19         0.00000E+00
    0.38653E-10        -0.13970E-19         0.00000E+00
    0.38653E-10        -0.93132E-20         0.00000E+00
    0.38653E-10        -0.20489E-19         0.00000E+00
    0.38653E-10        -0.13970E-19         0.00000E+00
    0.38653E-10        -0.11642E-19         0.00000E+00
    0.38653E-10        -0.30268E-19         0.00000E+00
    0.38653E-10        -0.17229E-19         0.00000E+00
    0.38653E-10        -0.18161E-19         0.00000E+00
    0.38653E-10        -0.27940E-20         0.00000E+00
    0.38653E-10         0.27940E-20         0.00000E+00
    0.38653E-10        -0.25611E-20         0.00000E+00
    0.38653E-10        -0.65193E-20         0.00000E+00
    0.38653E-10         0.00000E+00         0.00000E+00
    0.38653E-10        -0.46566E-21         0.00000E+00
    0.38653E-10        -0.11176E-19         0.00000E+00
    0.38653E-10        -0.20489E-19         0.00000E+00
    0.38653E-10        -0.15600E-19         0.00000E+00
    0.38653E-10        -0.93132E-20         0.00000E+00
    0.38653E-10        -0.41910E-20         0.00000E+00
    0.38653E-10        -0.11874E-19         0.00000E+00
    0.38653E-10        -0.93132E-21         0.00000E+00
    0.45628E-10         0.11642E-20         0.00000E+00
    0.45628E-10         0.37253E-20         0.00000E+00
    0.45628E-10        -0.88476E-20         0.00000E+00
    0.45628E-10        -0.79162E-20         0.00000E+00
    0.45628E-10        -0.15600E-19         0.00000E+00
    0.45628E-10        -0.19092E-19         0.00000E+00
    0.45628E-10        -0.18394E-19         0.00000E+00
    0.45628E-10        -0.24447E-19         0.00000E+00
    0.45628E-10        -0.17229E-19         0.00000E+00
    0.45628E-10        -0.22817E-19         0.00000E+00
    0.45628E-10        -0.12107E-19         0.00000E+00
    0.45628E-10        -0.20955E-19         0.00000E+00
    0.45628E-10        -0.13970E-19         0.00000E+00
    0.45628E-10        -0.11642E-19         0.00000E+00
    0.45628E-10        -0.17695E-19         0.00000E+00
    0.45628E-10        -0.81491E-20         0.00000E+00
    0.45628E-10        -0.15134E-19         0.00000E+00
    0.45628E-10        -0.13039E-19         0.00000E+00
    0.45628E-10        -0.13504E-19         0.00000E+00
    0.45628E-10        -0.20023E-19         0.00000E+00
    0.45628E-10        -0.28871E-19         0.00000E+00
    0.45628E-10        -0.33062E-19         0.00000E+00
    0.45628E-10        -0.32131E-19         0.00000E+00
    0.45628E-10        -0.23749E-19         0.00000E+00
    0.45628E-10        -0.22352E-19         0.00000E+00
    0.45628E-10        -0.16764E-19         0.00000E+00
    0.45628E-10        -0.20955E-19         0.00000E+00
    0.45628E-10        -0.23749E-19         0.00000E+00
    0.45628E-10        -0.26543E-19         0.00000E+00
    0.45628E-10        -0.16298E-19         0.00000E+00
    0.45628E-10        -0.16298E-19         0.00000E+00
    0.45628E-10        -0.21420E-19         0.00000E+00
    0.45628E-10        -0.10245E-19         0.00000E+00
    0.45628E-10        -0.15832E-19         0.00000E+00
    0.45628E-10        -0.15134E-19         0.00000E+00
    0.45628E-10        -0.18161E-19         0.00000E+00
    0.45628E-10        -0.23749E-19         0.00000E+00
    0.45628E-10        -0.22352E-19         0.00000E+00
    0.45628E-10        -0.10012E-19         0.00000E+00
    0.45628E-10        -0.12806E-19         0.00000E+00
    0.45628E-10        -0.24214E-19         0.00000E+00
    0.45628E-10        -0.19558E-19         0.00000E+00
    0.45628E-10        -0.18626E-19         0.00000E+00
    0.45628E-10        -0.16298E-19         0.00000E+00
    0.45628E-10         0.00000E+00         0.00000E+00
    0.45628E-10        -0.37253E-20         0.00000E+00
    0.45628E-10        -0.97789E-20         0.00000E+00
    0.45628E-10         0.46566E-21         0.00000E+00
    0.45628E-10        -0.65193E-20         0.00000E+00
    0.45628E-10        -0.23283E-20         0.00000E+00
    0.53826E-10        -0.23283E-21         0.00000E+00
    0.53826E-10        -0.34925E-20         0.00000E+00
    0.53826E-10        -0.79162E-20         0.00000E+00
    0.53826E-10        -0.51223E-20         0.00000E+00
    0.53826E-10        -0.81491E-20         0.00000E+00
    0.53826E-10        -0.11642E-19         0.00000E+00
    0.53826E-10        -0.22817E-19         0.00000E+00
    0.53826E-10        -0.28405E-19         0.00000E+00
    0.53826E-10        -0.10245E-19         0.00000E+00
    0.53826E-10        -0.19092E-19         0.00000E+00
    0.53826E-10        -0.13970E-19         0.00000E+00
    0.53826E-10        -0.10477E-19         0.00000E+00
    0.53826E-10        -0.11642E-19         0.00000E+00
    0.53826E-10        -0.10245E-19         0.00000E+00
    0.53826E-10        -0.83819E-20         0.00000E+00
    0.53826E-10        -0.46566E-20         0.00000E+00
    0.53826E-10        -0.46566E-21         0.00000E+00
    0.53826E-10        -0.11176E-19         0.00000E+00
    0.53826E-10        -0.23283E-19         0.00000E+00
    0.53826E-10        -0.37020E-19         0.00000E+00
    0.53826E-10        -0.27940E-19         0.00000E+00
    0.53826E-10        -0.19092E-19         0.00000E+00
    0.53826E-10        -0.27474E-19         0.00000E+00
    0.53826E-10        -0.21420E-19         0.00000E+00
    0.53826E-10        -0.21420E-19         0.00000E+00
    0.53826E-10        -0.27940E-19         0.00000E+00
    0.53826E-10        -0.18626E-19         0.00000E+00
    0.53826E-10        -0.12107E-19         0.00000E+00
    0.53826E-10        -0.12573E-19         0.00000E+00
    0.53826E-10        -0.14435E-19         0.00000E+00
    0.53826E-10        -0.30734E-19         0.00000E+00
    0.53826E-10        -0.18161E-19         0.00000E+00
    0.53826E-10        -0.28871E-19         0.00000E+00
    0.53826E-10        -0.17229E-19         0.00000E+00
    0.53826E-10        -0.23050E-19         0.00000E+00
    0.53826E-10        -0.21653E-19         0.00000E+00
    0.53826E-10        -0.13039E-19         0.00000E+00
    0.53826E-10        -0.19092E-19         0.00000E+00
    0.53826E-10        -0.23283E-19         0.00000E+00
    0.53826E-10        -0.23283E-19         0.00000E+00
    0.53826E-10        -0.18161E-19         0.00000E+00
    0.53826E-10        -0.32596E-19         0.00000E+00
    0.53826E-10        -0.27940E-19         0.00000E+00
    0.53826E-10        -0.26543E-19         0.00000E+00
    0.53826E-10        -0.15367E-19         0.00000E+00
    0.53826E-10        -0.17695E-19         0.00000E+00
    0.53826E-10        -0.95461E-20         0.00000E+00
    0.53826E-10        -0.93132E-20         0.00000E+00
    0.53826E-10        -0.58208E-20         0.00000E+00
    0.53826E-10        -0.93132E-21         0.00000E+00
    0.63457E-10         0.13970E-20         0.00000E+00
    0.63457E-10        -0.48894E-20         0.00000E+00
    0.63457E-10        -0.10710E-19         0.00000E+00
    0.63457E-10         0.25611E-20         0.00000E+00
    0.63457E-10        -0.25611E-20         0.00000E+00
    0.63457E-10         0.39581E-20         0.00000E+00
    0.63457E-10        -0.18626E-20         0.00000E+00
    0.63457E-10        -0.41910E-20         0.00000E+00
    0.63457E-10        -0.39581E-20         0.00000E+00
    0.63457E-10        -0.93132E-20         0.00000E+00
    0.63457E-10        -0.20489E-19         0.00000E+00
    0.63457E-10        -0.48894E-20         0.00000E+00
    0.63457E-10        -0.11874E-19         0.00000E+00
    0.63457E-10        -0.15367E-19         0.00000E+00
    0.63457E-10        -0.30268E-20         0.00000E+00
    0.63457E-10        -0.14203E-19         0.00000E+00
    0.63457E-10        -0.13504E-19         0.00000E+00
    0.63457E-10        -0.22817E-19         0.00000E+00
    0.63457E-10        -0.20489E-19         0.00000E+00
    0.63457E-10        -0.23283E-19         0.00000E+00
    0.63457E-10        -0.26310E-19         0.00000E+00
    0.63457E-10        -0.18626E-19         0.00000E+00
    0.63457E-10        -0.21420E-19         0.00000E+00
    0.63457E-10        -0.24214E-19         0.00000E+00
    0.63457E-10        -0.55879E-20         0.00000E+00
    0.63457E-10        -0.23050E-19         0.00000E+00
    0.63457E-10        -0.12107E-19         0.00000E+00
    0.63457E-10         0.93132E-21         0.00000E+00
    0.63457E-10        -0.12107E-19         0.00000E+00
    0.63457E-10        -0.16065E-19         0.00000E+00
    0.63457E-10        -0.20722E-19         0.00000E+00
    0.63457E-10        -0.14901E-19         0.00000E+00
    0.63457E-10        -0.27707E-19         0.00000E+00
    0.63457E-10        -0.32596E-19         0.00000E+00
    0.63457E-10        -0.21420E-19         0.00000E+00
    0.63457E-10        -0.13271E-19         0.00000E+00
    0.63457E-10        -0.11642E-20         0.00000E+00
    0.63457E-10        -0.72177E-20         0.00000E+00
    0.63457E-10        -0.88476E-20         0.00000E+00
    0.63457E-10        -0.90804E-20         0.00000E+00
    0.63457E-10        -0.11642E-19         0.00000E+00
    0.63457E-10        -0.25379E-19         0.00000E+00
    0.63457E-10        -0.25844E-19         0.00000E+00
    0.63457E-10        -0.18626E-19         0.00000E+00
    0.63457E-10        -0.26077E-19         0.00000E+00
    0.63457E-10        -0.20955E-19         0.00000E+00
    0.63457E-10        -0.93132E-20         0.00000E+00
    0.63457E-10        -0.13970E-20         0.00000E+00
    0.63457E-10        -0.55879E-20         0.00000E+00
    0.63457E-10         0.41910E-20         0.00000E+00
    0.74760E-10        -0.79162E-20         0.00000E+00
    0.74760E-10        -0.51223E-20         0.00000E+00
    0.74760E-10        -0.55879E-20         0.00000E+00
    0.74760E-10        -0.13970E-20         0.00000E+00
    0.74760E-10        -0.65193E-20         0.00000E+00
    0.74760E-10         0.13271E-19         0.00000E+00
    0.74760E-10         0.13970E-19         0.00000E+00
    0.74760E-10        -0.69849E-21         0.00000E+00
    0.74760E-10        -0.72177E-20         0.00000E+00
    0.74760E-10        -0.41910E-20         0.00000E+00
    0.74760E-10        -0.55879E-20         0.00000E+00
    0.74760E-10        -0.93132E-20         0.00000E+00
    0.74760E-10        -0.21420E-19         0.00000E+00
    0.74760E-10        -0.16764E-19         0.00000E+00
    0.74760E-10        -0.69849E-20         0.00000E+00
    0.74760E-10        -0.12806E-19         0.00000E+00
    0.74760E-10        -0.69849E-20         0.00000E+00
    0.74760E-10        -0.29104E-19         0.00000E+00
    0.74760E-10        -0.69849E-20         0.00000E+00
    0.74760E-10        -0.14435E-19         0.00000E+00
    0.74760E-10        -0.25146E-19         0.00000E+00
    0.74760E-10        -0.24913E-19         0.00000E+00
    0.74760E-10        -0.17695E-19         0.00000E+00
    0.74760E-10        -0.24447E-19         0.00000E+00
    0.74760E-10        -0.14435E-19         0.00000E+00
    0.74760E-10        -0.58208E-20         0.00000E+00
    0.74760E-10        -0.79162E-20         0.00000E+00
    0.74760E-10        -0.18626E-20         0.00000E+00
    0.74760E-10        -0.41910E-20         0.00000E+00
    0.74760E-10        -0.12573E-19         0.00000E+00
    0.74760E-10        -0.83819E-20         0.00000E+00
    0.74760E-10        -0.12107E-19         0.00000E+00
    0.74760E-10        -0.69849E-20         0.00000E+00
    0.74760E-10        -0.13504E-19         0.00000E+00
    0.74760E-10        -0.10245E-19         0.00000E+00
    0.74760E-10        -0.69849E-20         0.00000E+00
    0.74760E-10        -0.46566E-20         0.00000E+00
    0.74760E-10        -0.55879E-20         0.00000E+00
    0.74760E-10         0.27940E-20         0.00000E+00
    0.74760E-10        -0.32596E-20         0.00000E+00
    0.74760E-10        -0.32596E-20         0.00000E+00
    0.74760E-10        -0.12573E-19         0.00000E+00
    0.74760E-10        -0.17229E-19         0.00000E+00
    0.74760E-10        -0.16065E-19         0.00000E+00
    0.74760E-10        -0.13970E-19         0.00000E+00
    0.74760E-10        -0.23283E-20         0.00000E+00
    0.74760E-10        -0.10943E-19         0.00000E+00
    0.74760E-10        -0.97789E-20         0.00000E+00
    0.74760E-10        -0.11642E-19         0.00000E+00
    0.74760E-10        -0.46566E-20         0.00000E+00
    0.88017E-10        -0.13970E-19         0.00000E+00
    0.88017E-10        -0.60536E-20         0.00000E+00
    0.88017E-10         0.27940E-20         0.00000E+00
    0.88017E-10         0.11642E-20         0.00000E+00
    0.88017E-10         0.65193E-20         0.00000E+00
    0.88017E-10         0.10012E-19         0.00000E+00
    0.88017E-10         0.32596E-20         0.00000E+00
    0.88017E-10         0.00000E+00         0.00000E+00
    0.88017E-10        -0.11176E-19         0.00000E+00
    0.88017E-10        -0.12340E-19         0.00000E+00
    0.88017E-10        -0.10245E-19         0.00000E+00
    0.88017E-10        -0.11176E-19         0.00000E+00
    0.88017E-10        -0.16298E-20         0.00000E+00
    0.88017E-10        -0.10710E-19         0.00000E+00
    0.88017E-10        -0.14435E-19         0.00000E+00
    0.88017E-10        -0.11642E-20         0.00000E+00
    0.88017E-10        -0.93132E-21         0.00000E+00
    0.88017E-10        -0.16997E-19         0.00000E+00
    0.88017E-10        -0.13737E-19         0.00000E+00
    0.88017E-10        -0.27008E-19         0.00000E+00
    0.88017E-10        -0.18626E-19         0.00000E+00
    0.88017E-10        -0.17462E-19         0.00000E+00
    0.88017E-10        -0.17229E-19         0.00000E+00
    0.88017E-10        -0.20489E-19         0.00000E+00
    0.88017E-10        -0.20489E-19         0.00000E+00
    0.88017E-10        -0.39581E-20         0.00000E+00
    0.88017E-10        -0.65193E-20         0.00000E+00
    0.88017E-10        -0.53551E-20         0.00000E+00
    0.88017E-10        -0.46566E-20         0.00000E+00
    0.88017E-10         0.41910E-20         0.00000E+00
    0.88017E-10        -0.65193E-20         0.00000E+00
    0.88017E-10        -0.12573E-19         0.00000E+00
    0.88017E-10        -0.90804E-20         0.00000E+00
    0.88017E-10        -0.18626E-20         0.00000E+00
    0.88017E-10        -0.37253E-20         0.00000E+00
    0.88017E-10         0.37253E-20         0.00000E+00
    0.88017E-10         0.12573E-19         0.00000E+00
    0.88017E-10         0.16298E-19         0.00000E+00
    0.88017E-10        -0.93132E-21         0.00000E+00
    0.88017E-10        -0.37253E-20         0.00000E+00
    0.88017E-10         0.23283E-21         0.00000E+00
    0.88017E-10        -0.16298E-20         0.00000E+00
    0.88017E-10         0.46566E-20         0.00000E+00
    0.88017E-10        -0.90804E-20         0.00000E+00
    0.88017E-10        -0.15832E-19         0.00000E+00
    0.88017E-10        -0.67521E-20         0.00000E+00
    0.88017E-10        -0.65193E-20         0.00000E+00
    0.88017E-10        -0.46566E-20         0.00000E+00
    0.88017E-10        -0.10710E-19         0.00000E+00
    0.88017E-10         0.32596E-20         0.00000E+00
    0.10355E-09        -0.65193E-20         0.00000E+00
    0.10355E-09        -0.37253E-20         0.00000E+00
    0.10355E-09         0.93132E-21         0.00000E+00
    0.10355E-09         0.53551E-20         0.00000E+00
    0.10355E-09         0.90804E-20         0.00000E+00
    0.10355E-09         0.46566E-20         0.00000E+00
    0.10355E-09         0.32596E-20         0.00000E+00
    0.10355E-09         0.93132E-20         0.00000E+00
    0.10355E-09        -0.17229E-19         0.00000E+00
    0.10355E-09        -0.25611E-19         0.00000E+00
    0.10355E-09        -0.93132E-20         0.00000E+00
    0.10355E-09        -0.12107E-19         0.00000E+00
    0.10355E-09        -0.39581E-20         0.00000E+00
    0.10355E-09        -0.90804E-20         0.00000E+00
    0.10355E-09        -0.13970E-19         0.00000E+00
    0.10355E-09        -0.12107E-19         0.00000E+00
    0.10355E-09        -0.11176E-19         0.00000E+00
    0.10355E-09        -0.10710E-19         0.00000E+00
    0.10355E-09        -0.65193E-20         0.00000E+00
    0.10355E-09        -0.14901E-19         0.00000E+00
    0.10355E-09        -0.20955E-19         0.00000E+00
    0.10355E-09        -0.23749E-19         0.00000E+00
    0.10355E-09        -0.23283E-19         0.00000E+00
    0.10355E-09        -0.10245E-19         0.00000E+00
    0.10355E-09        -0.60536E-20         0.00000E+00
    0.10355E-09        -0.69849E-20         0.00000E+00
    0.10355E-09        -0.23283E-20         0.00000E+00
    0.10355E-09         0.13970E-20         0.00000E+00
    0.10355E-09        -0.65193E-20         0.00000E+00
    0.10355E-09        -0.60536E-20         0.00000E+00
    0.10355E-09        -0.74506E-20         0.00000E+00
    0.10355E-09         0.90804E-20         0.00000E+00
    0.10355E-09         0.76834E-20         0.00000E+00
    0.10355E-09        -0.46566E-20         0.00000E+00
    0.10355E-09        -0.18626E-20         0.00000E+00
    0.10355E-09         0.11642E-19         0.00000E+00
    0.10355E-09         0.16764E-19         0.00000E+00
    0.10355E-09         0.93132E-20         0.00000E+00
    0.10355E-09        -0.13970E-20         0.00000E+00
    0.10355E-09        -0.37253E-20         0.00000E+00
    0.10355E-09         0.51223E-20         0.00000E+00
    0.10355E-09        -0.32596E-20         0.00000E+00
    0.10355E-09        -0.60536E-20         0.00000E+00
    0.10355E-09        -0.10710E-19         0.00000E+00
    0.10355E-09        -0.83819E-20         0.00000E+00
    0.10355E-09        -0.93132E-20         0.00000E+00
    0.10355E-09        -0.13271E-19         0.00000E+00
    0.10355E-09         0.51223E-20         0.00000E+00
    0.10355E-09         0.23283E-20         0.00000E+00
    0.10355E-09         0.74506E-20         0.00000E+00
    0.12174E-09         0.23283E-20         0.00000E+00
    0.12174E-09        -0.58208E-20         0.00000E+00
    0.12174E-09         0.48894E-20         0.00000E+00
    0.12174E-09         0.46566E-20         0.00000E+00
    0.12174E-09         0.23283E-20         0.00000E+00
    0.12174E-09         0.00000E+00         0.00000E+00
    0.12174E-09         0.32596E-20         0.00000E+00
    0.12174E-09        -0.23283E-20         0.00000E+00
    0.12174E-09        -0.44238E-20         0.00000E+00
    0.12174E-09        -0.14668E-19         0.00000E+00
    0.12174E-09        -0.93132E-20         0.00000E+00
    0.12174E-09        -0.21188E-19         0.00000E+00
    0.12174E-09        -0.10012E-19         0.00000E+00
    0.12174E-09        -0.13271E-19         0.00000E+00
    0.12174E-09        -0.12573E-19         0.00000E+00
    0.12174E-09        -0.81491E-20         0.00000E+00
    0.12174E-09        -0.12107E-19         0.00000E+00
    0.12174E-09        -0.79162E-20         0.00000E+00
    0.12174E-09        -0.83819E-20         0.00000E+00
    0.12174E-09        -0.12573E-19         0.00000E+00
    0.12174E-09        -0.24214E-19         0.00000E+00
    0.12174E-09        -0.20955E-19         0.00000E+00
    0.12174E-09        -0.12107E-19         0.00000E+00
    0.12174E-09        -0.51223E-20         0.00000E+00
    0.12174E-09        -0.27940E-20         0.00000E+00
    0.12174E-09        -0.65193E-20         0.00000E+00
    0.12174E-09         0.27940E-20         0.00000E+00
    0.12174E-09         0.88476E-20         0.00000E+00
    0.12174E-09         0.10710E-19         0.00000E+00
    0.12174E-09         0.46566E-21         0.00000E+00
    0.12174E-09        -0.81491E-20         0.00000E+00
    0.12174E-09         0.12806E-19         0.00000E+00
    0.12174E-09         0.23283E-19         0.00000E+00
    0.12174E-09         0.10477E-19         0.00000E+00
    0.12174E-09         0.10710E-19         0.00000E+00
    0.12174E-09         0.23283E-21         0.00000E+00
    0.12174E-09        -0.44238E-20         0.00000E+00
    0.12174E-09        -0.16298E-19         0.00000E+00
    0.12174E-09        -0.10012E-19         0.00000E+00
    0.12174E-09        -0.20955E-20         0.00000E+00
    0.12174E-09         0.67521E-20         0.00000E+00
    0.12174E-09        -0.46566E-20         0.00000E+00
    0.12174E-09        -0.13504E-19         0.00000E+00
    0.12174E-09        -0.12340E-19         0.00000E+00
    0.12174E-09        -0.15367E-19         0.00000E+00
    0.12174E-09         0.00000E+00         0.00000E+00
    0.12174E-09        -0.81491E-20         0.00000E+00
    0.12174E-09        -0.37253E-20         0.00000E+00
    0.12174E-09        -0.11176E-19         0.00000E+00
    0.12174E-09        -0.60536E-20         0.00000E+00
    0.14302E-09        -0.51223E-20         0.00000E+00
    0.14302E-09         0.46566E-21         0.00000E+00
    0.14302E-09         0.93132E-20         0.00000E+00
    0.14302E-09         0.32596E-20         0.00000E+00
    0.14302E-09         0.18859E-19         0.00000E+00
    0.14302E-09         0.13970E-19         0.00000E+00
    0.14302E-09        -0.67521E-20         0.00000E+00
    0.14302E-09        -0.17695E-19         0.00000E+00
    0.14302E-09        -0.10012E-19         0.00000E+00
    0.14302E-09        -0.23283E-20         0.00000E+00
    0.14302E-09        -0.14901E-19         0.00000E+00
    0.14302E-09        -0.20023E-19         0.00000E+00
    0.14302E-09        -0.18161E-19         0.00000E+00
    0.14302E-09        -0.15367E-19         0.00000E+00
    0.14302E-09        -0.10710E-19         0.00000E+00
    0.14302E-09        -0.44238E-20         0.00000E+00
    0.14302E-09        -0.25611E-20         0.00000E+00
    0.14302E-09        -0.97789E-20         0.00000E+00
    0.14302E-09        -0.83819E-20         0.00000E+00
    0.14302E-09        -0.25611E-19         0.00000E+00
    0.14302E-09        -0.21886E-19         0.00000E+00
    0.14302E-09        -0.20955E-19         0.00000E+00
    0.14302E-09        -0.95461E-20         0.00000E+00
    0.14302E-09         0.00000E+00         0.00000E+00
    0.14302E-09         0.53551E-20         0.00000E+00
    0.14302E-09         0.93132E-20         0.00000E+00
    0.14302E-09         0.27940E-20         0.00000E+00
    0.14302E-09         0.13039E-19         0.00000E+00
    0.14302E-09         0.79162E-20         0.00000E+00
    0.14302E-09        -0.37253E-20         0.00000E+00
    0.14302E-09         0.44238E-20         0.00000E+00
    0.14302E-09         0.90804E-20         0.00000E+00
    0.14302E-09         0.51223E-20         0.00000E+00
    0.14302E-09        -0.46566E-20         0.00000E+00
    0.14302E-09         0.12340E-19         0.00000E+00
    0.14302E-09        -0.13970E-20         0.00000E+00
    0.14302E-09        -0.37253E-20         0.00000E+00
    0.14302E-09        -0.79162E-20         0.00000E+00
    0.14302E-09        -0.76834E-20         0.00000E+00
    0.14302E-09        -0.17928E-19         0.00000E+00
    0.14302E-09        -0.19558E-19         0.00000E+00
    0.14302E-09        -0.46566E-21         0.00000E+00
    0.14302E-09        -0.19558E-19         0.00000E+00
    0.14302E-09        -0.12107E-19         0.00000E+00
    0.14302E-09        -0.24447E-19         0.00000E+00
    0.14302E-09        -0.13970E-19         0.00000E+00
    0.14302E-09        -0.46566E-20         0.00000E+00
    0.14302E-09        -0.37253E-20         0.00000E+00
    0.14302E-09        -0.69849E-20         0.00000E+00
    0.14302E-09        -0.65193E-20         0.00000E+00
    0.16789E-09        -0.25611E-20         0.00000E+00
    0.16789E-09         0.97789E-20         0.00000E+00
    0.16789E-09         0.58208E-20         0.00000E+00
    0.16789E-09         0.25611E-20         0.00000E+00
    0.16789E-09         0.86147E-20         0.00000E+00
    0.16789E-09         0.19558E-19         0.00000E+00
    0.16789E-09        -0.16298E-20         0.00000E+00
    0.16789E-09        -0.15832E-19         0.00000E+00
    0.16789E-09        -0.18161E-19         0.00000E+00
    0.16789E-09        -0.10710E-19         0.00000E+00
    0.16789E-09        -0.83819E-20         0.00000E+00
    0.16789E-09        -0.97789E-20         0.00000E+00
    0.16789E-09        -0.97789E-20         0.00000E+00
    0.16789E-09        -0.74506E-20         0.00000E+00
    0.16789E-09        -0.93132E-20         0.00000E+00
    0.16789E-09        -0.23283E-19         0.00000E+00
    0.16789E-09        -0.12107E-19         0.00000E+00
    0.16789E-09        -0.14435E-19         0.00000E+00
    0.16789E-09        -0.79162E-20         0.00000E+00
    0.16789E-09        -0.10245E-19         0.00000E+00
    0.16789E-09        -0.93132E-20         0.00000E+00
    0.16789E-09        -0.19092E-19         0.00000E+00
    0.16789E-09        -0.69849E-20         0.00000E+00
    0.16789E-09         0.00000E+00         0.00000E+00
    0.16789E-09        -0.55879E-20         0.00000E+00
    0.16789E-09         0.60536E-20         0.00000E+00
    0.16789E-09         0.16764E-19         0.00000E+00
    0.16789E-09         0.65193E-20         0.00000E+00
    0.16789E-09         0.18626E-20         0.00000E+00
    0.16789E-09        -0.32596E-20         0.00000E+00
    0.16789E-09         0.60536E-20         0.00000E+00
    0.16789E-09         0.44238E-20         0.00000E+00
    0.16789E-09         0.27940E-20         0.00000E+00
    0.16789E-09         0.23283E-20         0.00000E+00
    0.16789E-09         0.20955E-20         0.00000E+00
    0.16789E-09        -0.23283E-20         0.00000E+00
    0.16789E-09        -0.12573E-19         0.00000E+00
    0.16789E-09        -0.19092E-19         0.00000E+00
    0.16789E-09        -0.13504E-19         0.00000E+00
    0.16789E-09        -0.26543E-19         0.00000E+00
    0.16789E-09        -0.16531E-19         0.00000E+00
    0.16789E-09        -0.11874E-19         0.00000E+00
    0.16789E-09        -0.14203E-19         0.00000E+00
    0.16789E-09        -0.26776E-19         0.00000E+00
    0.16789E-09        -0.11642E-19         0.00000E+00
    0.16789E-09        -0.25611E-19         0.00000E+00
    0.16789E-09        -0.55879E-20         0.00000E+00
    0.16789E-09        -0.27940E-20         0.00000E+00
    0.16789E-09         0.51223E-20         0.00000E+00
    0.16789E-09        -0.23283E-21         0.00000E+00
    0.19693E-09         0.23283E-20         0.00000E+00
    0.19693E-09        -0.11642E-20         0.00000E+00
    0.19693E-09         0.65193E-20         0.00000E+00
    0.19693E-09         0.34925E-20         0.00000E+00
    0.19693E-09        -0.32596E-20         0.00000E+00
    0.19693E-09         0.46566E-21         0.00000E+00
    0.19693E-09        -0.10012E-19         0.00000E+00
    0.19693E-09        -0.23283E-20         0.00000E+00
    0.19693E-09        -0.13970E-19         0.00000E+00
    0.19693E-09        -0.13504E-19         0.00000E+00
    0.19693E-09         0.46566E-21         0.00000E+00
    0.19693E-09        -0.46566E-21         0.00000E+00
    0.19693E-09         0.27940E-20         0.00000E+00
    0.19693E-09         0.00000E+00         0.00000E+00
    0.19693E-09        -0.10245E-19         0.00000E+00
    0.19693E-09        -0.12107E-19         0.00000E+00
    0.19693E-09        -0.88476E-20         0.00000E+00
    0.19693E-09        -0.24214E-19         0.00000E+00
    0.19693E-09        -0.24680E-19         0.00000E+00
    0.19693E-09        -0.60536E-20         0.00000E+00
    0.19693E-09         0.00000E+00         0.00000E+00
    0.19693E-09        -0.18626E-20         0.00000E+00
    0.19693E-09         0.18626E-20         0.00000E+00
    0.19693E-09         0.93132E-21         0.00000E+00
    0.19693E-09         0.23283E-21         0.00000E+00
    0.19693E-09         0.69849E-21         0.00000E+00
    0.19693E-09         0.10245E-19         0.00000E+00
    0.19693E-09         0.27940E-20         0.00000E+00
    0.19693E-09         0.46566E-20         0.00000E+00
    0.19693E-09        -0.46566E-21         0.00000E+00
    0.19693E-09        -0.55879E-20         0.00000E+00
    0.19693E-09        -0.20955E-20         0.00000E+00
    0.19693E-09        -0.23283E-21         0.00000E+00
    0.19693E-09         0.22817E-19         0.00000E+00
    0.19693E-09         0.18626E-20         0.00000E+00
    0.19693E-09        -0.11176E-19         0.00000E+00
    0.19693E-09        -0.20722E-19         0.00000E+00
    0.19693E-09        -0.15832E-19         0.00000E+00
    0.19693E-09        -0.10245E-19         0.00000E+00
    0.19693E-09        -0.48894E-20         0.00000E+00
    0.19693E-09        -0.16298E-20         0.00000E+00
    0.19693E-09        -0.12573E-19         0.00000E+00
    0.19693E-09        -0.51223E-20         0.00000E+00
    0.19693E-09        -0.22352E-19         0.00000E+00
    0.19693E-09        -0.12340E-19         0.00000E+00
    0.19693E-09        -0.15832E-19         0.00000E+00
    0.19693E-09        -0.11176E-19         0.00000E+00
    0.19693E-09        -0.15832E-19         0.00000E+00
    0.19693E-09        -0.11176E-19         0.00000E+00
    0.19693E-09         0.37253E-20         0.00000E+00
    0.23081E-09         0.37253E-20         0.00000E+00
    0.23081E-09         0.93132E-20         0.00000E+00
    0.23081E-09         0.18626E-20         0.00000E+00
    0.23081E-09         0.23283E-20         0.00000E+00
    0.23081E-09        -0.46566E-20         0.00000E+00
    0.23081E-09        -0.69849E-21         0.00000E+00
    0.23081E-09        -0.37253E-20         0.00000E+00
    0.23081E-09        -0.23283E-20         0.00000E+00
    0.23081E-09        -0.13970E-20         0.00000E+00
    0.23081E-09         0.41910E-20         0.00000E+00
    0.23081E-09         0.72177E-20         0.00000E+00
    0.23081E-09         0.23283E-21         0.00000E+00
    0.23081E-09        -0.27940E-20         0.00000E+00
    0.23081E-09         0.13970E-20         0.00000E+00
    0.23081E-09        -0.74506E-20         0.00000E+00
    0.23081E-09        -0.97789E-20         0.00000E+00
    0.23081E-09        -0.93132E-20         0.00000E+00
    0.23081E-09        -0.14435E-19         0.00000E+00
    0.23081E-09        -0.20023E-19         0.00000E+00
    0.23081E-09        -0.16298E-19         0.00000E+00
    0.23081E-09        -0.16764E-19         0.00000E+00
    0.23081E-09        -0.69849E-20         0.00000E+00
    0.23081E-09        -0.65193E-20         0.00000E+00
    0.23081E-09         0.69849E-21         0.00000E+00
    0.23081E-09         0.62864E-20         0.00000E+00
    0.23081E-09         0.23283E-20         0.00000E+00
    0.23081E-09         0.13970E-20         0.00000E+00
    0.23081E-09         0.93132E-21         0.00000E+00
    0.23081E-09         0.12573E-19         0.00000E+00
    0.23081E-09         0.14901E-19         0.00000E+00
    0.23081E-09         0.46566E-20         0.00000E+00
    0.23081E-09        -0.74506E-20         0.00000E+00
    0.23081E-09        -0.11176E-19         0.00000E+00
    0.23081E-09         0.67521E-20         0.00000E+00
    0.23081E-09         0.69849E-20         0.00000E+00
    0.23081E-09        -0.18626E-20         0.00000E+00
    0.23081E-09        -0.11642E-20         0.00000E+00
    0.23081E-09         0.60536E-20         0.00000E+00
    0.23081E-09        -0.93132E-20         0.00000E+00
    0.23081E-09         0.18626E-20         0.00000E+00
    0.23081E-09        -0.83819E-20         0.00000E+00
    0.23081E-09        -0.41910E-20         0.00000E+00
    0.23081E-09        -0.46566E-20         0.00000E+00
    0.23081E-09         0.46566E-21         0.00000E+00
    0.23081E-09        -0.13039E-19         0.00000E+00
    0.23081E-09        -0.10245E-19         0.00000E+00
    0.23081E-09        -0.12107E-19         0.00000E+00
    0.23081E-09        -0.58208E-20         0.00000E+00
    0.23081E-09        -0.51223E-20         0.00000E+00
    0.23081E-09        -0.41910E-20         0.00000E+00
    0.27031E-09         0.41910E-20         0.00000E+00
    0.27031E-09         0.11176E-19         0.00000E+00
    0.27031E-09         0.88476E-20         0.00000E+00
    0.27031E-09         0.88476E-20         0.00000E+00
    0.27031E-09         0.27940E-20         0.00000E+00
    0.27031E-09         0.22585E-19         0.00000E+00
    0.27031E-09         0.18626E-19         0.00000E+00
    0.27031E-09         0.46566E-21         0.00000E+00
    0.27031E-09         0.51223E-20         0.00000E+00
    0.27031E-09         0.41910E-20         0.00000E+00
    0.27031E-09         0.48894E-20         0.00000E+00
    0.27031E-09        -0.65193E-20         0.00000E+00
    0.27031E-09        -0.11409E-19         0.00000E+00
    0.27031E-09        -0.37253E-20         0.00000E+00
    0.27031E-09        -0.81491E-20         0.00000E+00
    0.27031E-09        -0.18859E-19         0.00000E+00
    0.27031E-09        -0.14435E-19         0.00000E+00
    0.27031E-09        -0.74506E-20         0.00000E+00
    0.27031E-09        -0.15600E-19         0.00000E+00
    0.27031E-09        -0.13039E-19         0.00000E+00
    0.27031E-09        -0.16764E-19         0.00000E+00
    0.27031E-09        -0.13970E-19         0.00000E+00
    0.27031E-09        -0.14901E-19         0.00000E+00
    0.27031E-09        -0.74506E-20         0.00000E+00
    0.27031E-09        -0.13039E-19         0.00000E+00
    0.27031E-09        -0.46566E-21         0.00000E+00
    0.27031E-09        -0.51223E-20         0.00000E+00
    0.27031E-09         0.13970E-20         0.00000E+00
    0.27031E-09         0.37253E-20         0.00000E+00
    0.27031E-09         0.11642E-19         0.00000E+00
    0.27031E-09         0.37253E-20         0.00000E+00
    0.27031E-09         0.46566E-20         0.00000E+00
    0.27031E-09         0.65193E-20         0.00000E+00
    0.27031E-09         0.13271E-19         0.00000E+00
    0.27031E-09         0.16065E-19         0.00000E+00
    0.27031E-09         0.53551E-20         0.00000E+00
    0.27031E-09         0.44238E-20         0.00000E+00
    0.27031E-09         0.27940E-20         0.00000E+00
    0.27031E-09         0.58208E-20         0.00000E+00
    0.27031E-09         0.00000E+00         0.00000E+00
    0.27031E-09        -0.44238E-20         0.00000E+00
    0.27031E-09        -0.13970E-20         0.00000E+00
    0.27031E-09        -0.44238E-20         0.00000E+00
    0.27031E-09        -0.46566E-21         0.00000E+00
    0.27031E-09        -0.23283E-20         0.00000E+00
    0.27031E-09         0.32596E-20         0.00000E+00
    0.27031E-09         0.95461E-20         0.00000E+00
    0.27031E-09         0.93132E-20         0.00000E+00
    0.27031E-09        -0.20955E-20         0.00000E+00
    0.27031E-09        -0.12107E-19         0.00000E+00
    0.31630E-09        -0.32596E-20         0.00000E+00
    0.31630E-09         0.27940E-20         0.00000E+00
    0.31630E-09         0.88476E-20         0.00000E+00
    0.31630E-09         0.74506E-20         0.00000E+00
    0.31630E-09         0.74506E-20         0.00000E+00
    0.31630E-09         0.32596E-19         0.00000E+00
    0.31630E-09         0.19092E-19         0.00000E+00
    0.31630E-09         0.13970E-19         0.00000E+00
    0.31630E-09         0.58208E-20         0.00000E+00
    0.31630E-09         0.48894E-20         0.00000E+00
    0.31630E-09        -0.34925E-20         0.00000E+00
    0.31630E-09         0.18626E-20         0.00000E+00
    0.31630E-09         0.13039E-19         0.00000E+00
    0.31630E-09        -0.65193E-20         0.00000E+00
    0.31630E-09        -0.14901E-19         0.00000E+00
    0.31630E-09        -0.41910E-20         0.00000E+00
    0.31630E-09        -0.60536E-20         0.00000E+00
    0.31630E-09        -0.20023E-19         0.00000E+00
    0.31630E-09        -0.21420E-19         0.00000E+00
    0.31630E-09        -0.97789E-20         0.00000E+00
    0.31630E-09        -0.14901E-19         0.00000E+00
    0.31630E-09        -0.23749E-19         0.00000E+00
    0.31630E-09        -0.18161E-19         0.00000E+00
    0.31630E-09        -0.16065E-19         0.00000E+00
    0.31630E-09        -0.17928E-19         0.00000E+00
    0.31630E-09        -0.11642E-19         0.00000E+00
    0.31630E-09        -0.12107E-19         0.00000E+00
    0.31630E-09        -0.41910E-20         0.00000E+00
    0.31630E-09        -0.93132E-21         0.00000E+00
    0.31630E-09         0.11176E-19         0.00000E+00
    0.31630E-09         0.12573E-19         0.00000E+00
    0.31630E-09         0.19325E-19         0.00000E+00
    0.31630E-09         0.25611E-19         0.00000E+00
    0.31630E-09         0.17229E-19         0.00000E+00
    0.31630E-09         0.11642E-20         0.00000E+00
    0.31630E-09         0.46566E-21         0.00000E+00
    0.31630E-09        -0.23283E-20         0.00000E+00
    0.31630E-09        -0.27940E-20         0.00000E+00
    0.31630E-09         0.67521E-20         0.00000E+00
    0.31630E-09        -0.23283E-20         0.00000E+00
    0.31630E-09         0.83819E-20         0.00000E+00
    0.31630E-09         0.11642E-20         0.00000E+00
    0.31630E-09         0.51223E-20         0.00000E+00
    0.31630E-09        -0.37253E-20         0.00000E+00
    0.31630E-09         0.13271E-19         0.00000E+00
    0.31630E-09         0.65193E-20         0.00000E+00
    0.31630E-09         0.11176E-19         0.00000E+00
    0.31630E-09         0.93132E-20         0.00000E+00
    0.31630E-09         0.83819E-20         0.00000E+00
    0.31630E-09        -0.11176E-19         0.00000E+00
    0.36979E-09         0.18626E-20         0.00000E+00
    0.36979E-09         0.11642E-20         0.00000E+00
    0.36979E-09         0.93132E-21         0.00000E+00
    0.36979E-09         0.10943E-19         0.00000E+00
    0.36979E-09         0.10245E-19         0.00000E+00
    0.36979E-09         0.10245E-19         0.00000E+00
    0.36979E-09         0.97789E-20         0.00000E+00
    0.36979E-09         0.19558E-19         0.00000E+00
    0.36979E-09         0.15832E-19         0.00000E+00
    0.36979E-09         0.18161E-19         0.00000E+00
    0.36979E-09         0.65193E-20         0.00000E+00
    0.36979E-09         0.51223E-20         0.00000E+00
    0.36979E-09         0.18626E-19         0.00000E+00
    0.36979E-09        -0.23283E-20         0.00000E+00
    0.36979E-09        -0.17695E-19         0.00000E+00
    0.36979E-09        -0.14203E-19         0.00000E+00
    0.36979E-09        -0.79162E-20         0.00000E+00
    0.36979E-09        -0.11176E-19         0.00000E+00
    0.36979E-09        -0.32596E-20         0.00000E+00
    0.36979E-09        -0.13504E-19         0.00000E+00
    0.36979E-09        -0.22352E-19         0.00000E+00
    0.36979E-09        -0.14901E-19         0.00000E+00
    0.36979E-09        -0.18626E-19         0.00000E+00
    0.36979E-09        -0.13737E-19         0.00000E+00
    0.36979E-09        -0.21420E-19         0.00000E+00
    0.36979E-09        -0.10012E-19         0.00000E+00
    0.36979E-09        -0.81491E-20         0.00000E+00
    0.36979E-09        -0.11176E-19         0.00000E+00
    0.36979E-09        -0.23283E-20         0.00000E+00
    0.36979E-09         0.79162E-20         0.00000E+00
    0.36979E-09         0.10245E-19         0.00000E+00
    0.36979E-09         0.10245E-19         0.00000E+00
    0.36979E-09         0.13504E-19         0.00000E+00
    0.36979E-09         0.11176E-19         0.00000E+00
    0.36979E-09         0.10710E-19         0.00000E+00
    0.36979E-09         0.90804E-20         0.00000E+00
    0.36979E-09        -0.46566E-20         0.00000E+00
    0.36979E-09         0.46566E-21         0.00000E+00
    0.36979E-09         0.20955E-20         0.00000E+00
    0.36979E-09         0.69849E-21         0.00000E+00
    0.36979E-09         0.65193E-20         0.00000E+00
    0.36979E-09         0.30268E-20         0.00000E+00
    0.36979E-09         0.13039E-19         0.00000E+00
    0.36979E-09         0.79162E-20         0.00000E+00
    0.36979E-09         0.30268E-20         0.00000E+00
    0.36979E-09         0.46566E-21         0.00000E+00
    0.36979E-09         0.67521E-20         0.00000E+00
    0.36979E-09         0.97789E-20         0.00000E+00
    0.36979E-09         0.12806E-19         0.00000E+00
    0.36979E-09        -0.48894E-20         0.00000E+00
    0.43196E-09        -0.23283E-20         0.00000E+00
    0.43196E-09        -0.88476E-20         0.00000E+00
    0.43196E-09        -0.20955E-20         0.00000E+00
    0.43196E-09         0.46566E-20         0.00000E+00
    0.43196E-09         0.14435E-19         0.00000E+00
    0.43196E-09        -0.46566E-21         0.00000E+00
    0.43196E-09        -0.60536E-20         0.00000E+00
    0.43196E-09         0.53551E-20         0.00000E+00
    0.43196E-09         0.16997E-19         0.00000E+00
    0.43196E-09         0.12107E-19         0.00000E+00
    0.43196E-09         0.97789E-20         0.00000E+00
    0.43196E-09         0.55879E-20         0.00000E+00
    0.43196E-09         0.00000E+00         0.00000E+00
    0.43196E-09        -0.69849E-21         0.00000E+00
    0.43196E-09        -0.65193E-20         0.00000E+00
    0.43196E-09        -0.46566E-21         0.00000E+00
    0.43196E-09         0.32596E-20         0.00000E+00
    0.43196E-09         0.74506E-20         0.00000E+00
    0.43196E-09         0.79162E-20         0.00000E+00
    0.43196E-09        -0.16298E-20         0.00000E+00
    0.43196E-09         0.44238E-20         0.00000E+00
    0.43196E-09        -0.18626E-20         0.00000E+00
    0.43196E-09        -0.11642E-19         0.00000E+00
    0.43196E-09        -0.48894E-20         0.00000E+00
    0.43196E-09        -0.16997E-19         0.00000E+00
    0.43196E-09        -0.27940E-20         0.00000E+00
    0.43196E-09        -0.10710E-19         0.00000E+00
    0.43196E-09        -0.23283E-20         0.00000E+00
    0.43196E-09         0.46566E-21         0.00000E+00
    0.43196E-09        -0.16764E-19         0.00000E+00
    0.43196E-09        -0.13504E-19         0.00000E+00
    0.43196E-09        -0.32596E-20         0.00000E+00
    0.43196E-09         0.65193E-20         0.00000E+00
    0.43196E-09         0.12107E-19         0.00000E+00
    0.43196E-09         0.26077E-19         0.00000E+00
    0.43196E-09         0.14901E-19         0.00000E+00
    0.43196E-09        -0.46566E-21         0.00000E+00
    0.43196E-09         0.41910E-20         0.00000E+00
    0.43196E-09         0.65193E-20         0.00000E+00
    0.43196E-09        -0.46566E-21         0.00000E+00
    0.43196E-09         0.20955E-20         0.00000E+00
    0.43196E-09         0.83819E-20         0.00000E+00
    0.43196E-09         0.46566E-21         0.00000E+00
    0.43196E-09         0.12806E-19         0.00000E+00
    0.43196E-09         0.65193E-20         0.00000E+00
    0.43196E-09         0.90804E-20         0.00000E+00
    0.43196E-09         0.67521E-20         0.00000E+00
    0.43196E-09        -0.32596E-20         0.00000E+00
    0.43196E-09         0.74506E-20         0.00000E+00
    0.43196E-09         0.60536E-20         0.00000E+00
    0.50413E-09        -0.41910E-20         0.00000E+00
    0.50413E-09        -0.25611E-20         0.00000E+00
    0.50413E-09        -0.11874E-19         0.00000E+00
    0.50413E-09        -0.16531E-19         0.00000E+00
    0.50413E-09        -0.16531E-19         0.00000E+00
    0.50413E-09        -0.46566E-21         0.00000E+00
    0.50413E-09        -0.93132E-20         0.00000E+00
    0.50413E-09         0.18626E-20         0.00000E+00
    0.50413E-09        -0.44238E-20         0.00000E+00
    0.50413E-09         0.18626E-20         0.00000E+00
    0.50413E-09        -0.18626E-20         0.00000E+00
    0.50413E-09        -0.32596E-20         0.00000E+00
    0.50413E-09         0.44238E-20         0.00000E+00
    0.50413E-09         0.11642E-20         0.00000E+00
    0.50413E-09         0.88476E-20         0.00000E+00
    0.50413E-09         0.17229E-19         0.00000E+00
    0.50413E-09         0.23982E-19         0.00000E+00
    0.50413E-09         0.22352E-19         0.00000E+00
    0.50413E-09         0.11176E-19         0.00000E+00
    0.50413E-09         0.12573E-19         0.00000E+00
    0.50413E-09        -0.16298E-20         0.00000E+00
    0.50413E-09        -0.32596E-20         0.00000E+00
    0.50413E-09        -0.18626E-20         0.00000E+00
    0.50413E-09        -0.93132E-20         0.00000E+00
    0.50413E-09        -0.32596E-20         0.00000E+00
    0.50413E-09        -0.83819E-20         0.00000E+00
    0.50413E-09        -0.41910E-20         0.00000E+00
    0.50413E-09        -0.46566E-20         0.00000E+00
    0.50413E-09        -0.27940E-20         0.00000E+00
    0.50413E-09        -0.18626E-20         0.00000E+00
    0.50413E-09        -0.32596E-20         0.00000E+00
    0.50413E-09         0.46566E-20         0.00000E+00
    0.50413E-09         0.22352E-19         0.00000E+00
    0.50413E-09         0.17229E-19         0.00000E+00
    0.50413E-09         0.11642E-19         0.00000E+00
    0.50413E-09         0.20955E-19         0.00000E+00
    0.50413E-09         0.19558E-19         0.00000E+00
    0.50413E-09         0.39581E-20         0.00000E+00
    0.50413E-09         0.25611E-20         0.00000E+00
    0.50413E-09         0.95461E-20         0.00000E+00
    0.50413E-09         0.15832E-19         0.00000E+00
    0.50413E-09         0.10710E-19         0.00000E+00
    0.50413E-09         0.20955E-20         0.00000E+00
    0.50413E-09        -0.23283E-20         0.00000E+00
    0.50413E-09         0.23283E-20         0.00000E+00
    0.50413E-09         0.93132E-21         0.00000E+00
    0.50413E-09        -0.41910E-20         0.00000E+00
    0.50413E-09        -0.55879E-20         0.00000E+00
    0.50413E-09        -0.18626E-20         0.00000E+00
    0.50413E-09         0.11642E-20         0.00000E+00
    0.58781E-09         0.46566E-21         0.00000E+00
    0.58781E-09        -0.46566E-20         0.00000E+00
    0.58781E-09        -0.81491E-20         0.00000E+00
    0.58781E-09        -0.17229E-19         0.00000E+00
    0.58781E-09        -0.26776E-19         0.00000E+00
    0.58781E-09        -0.16298E-19         0.00000E+00
    0.58781E-09        -0.13970E-19         0.00000E+00
    0.58781E-09        -0.14435E-19         0.00000E+00
    0.58781E-09        -0.62864E-20         0.00000E+00
    0.58781E-09        -0.46566E-20         0.00000E+00
    0.58781E-09         0.51223E-20         0.00000E+00
    0.58781E-09         0.79162E-20         0.00000E+00
    0.58781E-09         0.69849E-21         0.00000E+00
    0.58781E-09         0.60536E-20         0.00000E+00
    0.58781E-09         0.11642E-19         0.00000E+00
    0.58781E-09         0.97789E-20         0.00000E+00
    0.58781E-09         0.13039E-19         0.00000E+00
    0.58781E-09         0.20023E-19         0.00000E+00
    0.58781E-09         0.30268E-19         0.00000E+00
    0.58781E-09         0.32596E-20         0.00000E+00
    0.58781E-09        -0.23283E-19         0.00000E+00
    0.58781E-09        -0.93132E-21         0.00000E+00
    0.58781E-09         0.86147E-20         0.00000E+00
    0.58781E-09        -0.74506E-20         0.00000E+00
    0.58781E-09        -0.13970E-20         0.00000E+00
    0.58781E-09        -0.93132E-21         0.00000E+00
    0.58781E-09         0.60536E-20         0.00000E+00
    0.58781E-09        -0.46566E-21         0.00000E+00
    0.58781E-09         0.46566E-20         0.00000E+00
    0.58781E-09         0.10245E-19         0.00000E+00
    0.58781E-09         0.10245E-19         0.00000E+00
    0.58781E-09         0.74506E-20         0.00000E+00
    0.58781E-09         0.21188E-19         0.00000E+00
    0.58781E-09         0.26077E-19         0.00000E+00
    0.58781E-09         0.19325E-19         0.00000E+00
    0.58781E-09         0.17928E-19         0.00000E+00
    0.58781E-09         0.18161E-19         0.00000E+00
    0.58781E-09         0.12806E-19         0.00000E+00
    0.58781E-09         0.48894E-20         0.00000E+00
    0.58781E-09         0.17229E-19         0.00000E+00
    0.58781E-09         0.16065E-19         0.00000E+00
    0.58781E-09         0.10012E-19         0.00000E+00
    0.58781E-09        -0.39581E-20         0.00000E+00
    0.58781E-09        -0.27940E-20         0.00000E+00
    0.58781E-09        -0.17229E-19         0.00000E+00
    0.58781E-09        -0.72177E-20         0.00000E+00
    0.58781E-09        -0.18626E-20         0.00000E+00
    0.58781E-09         0.41910E-20         0.00000E+00
    0.58781E-09        -0.83819E-20         0.00000E+00
    0.58781E-09        -0.13970E-20         0.00000E+00
    0.68473E-09        -0.46566E-21         0.00000E+00
    0.68473E-09        -0.27940E-20         0.00000E+00
    0.68473E-09         0.30268E-20         0.00000E+00
    0.68473E-09        -0.97789E-20         0.00000E+00
    0.68473E-09        -0.69849E-21         0.00000E+00
    0.68473E-09        -0.16298E-20         0.00000E+00
    0.68473E-09        -0.97789E-20         0.00000E+00
    0.68473E-09        -0.17928E-19         0.00000E+00
    0.68473E-09        -0.11176E-19         0.00000E+00
    0.68473E-09        -0.12340E-19         0.00000E+00
    0.68473E-09         0.16298E-20         0.00000E+00
    0.68473E-09         0.37253E-20         0.00000E+00
    0.68473E-09        -0.69849E-21         0.00000E+00
    0.68473E-09        -0.23283E-21         0.00000E+00
    0.68473E-09         0.41910E-20         0.00000E+00
    0.68473E-09         0.11409E-19         0.00000E+00
    0.68473E-09        -0.23283E-20         0.00000E+00
    0.68473E-09         0.46566E-20         0.00000E+00
    0.68473E-09         0.17229E-19         0.00000E+00
    0.68473E-09         0.86147E-20         0.00000E+00
    0.68473E-09         0.88476E-20         0.00000E+00
    0.68473E-09        -0.69849E-20         0.00000E+00
    0.68473E-09         0.18626E-20         0.00000E+00
    0.68473E-09        -0.60536E-20         0.00000E+00
    0.68473E-09        -0.65193E-20         0.00000E+00
    0.68473E-09        -0.46566E-21         0.00000E+00
    0.68473E-09         0.93132E-20         0.00000E+00
    0.68473E-09         0.55879E-20         0.00000E+00
    0.68473E-09         0.14901E-19         0.00000E+00
    0.68473E-09         0.18161E-19         0.00000E+00
    0.68473E-09         0.16764E-19         0.00000E+00
    0.68473E-09         0.19558E-19         0.00000E+00
    0.68473E-09         0.30268E-19         0.00000E+00
    0.68473E-09         0.23982E-19         0.00000E+00
    0.68473E-09         0.23283E-19         0.00000E+00
    0.68473E-09         0.16298E-19         0.00000E+00
    0.68473E-09         0.14435E-19         0.00000E+00
    0.68473E-09         0.17695E-19         0.00000E+00
    0.68473E-09         0.14901E-19         0.00000E+00
    0.68473E-09         0.74506E-20         0.00000E+00
    0.68473E-09         0.11642E-19         0.00000E+00
    0.68473E-09         0.18626E-20         0.00000E+00
    0.68473E-09         0.00000E+00         0.00000E+00
    0.68473E-09        -0.44238E-20         0.00000E+00
    0.68473E-09        -0.11176E-19         0.00000E+00
    0.68473E-09        -0.14435E-19         0.00000E+00
    0.68473E-09        -0.93132E-20         0.00000E+00
    0.68473E-09        -0.46566E-20         0.00000E+00
    0.68473E-09         0.20955E-20         0.00000E+00
    0.68473E-09         0.34925E-20         0.00000E+00
    0.79687E-09         0.53551E-20         0.00000E+00
    0.79687E-09         0.18859E-19         0.00000E+00
    0.79687E-09         0.13970E-20         0.00000E+00
    0.79687E-09         0.81491E-20         0.00000E+00
    0.79687E-09         0.93132E-21         0.00000E+00
    0.79687E-09         0.72177E-20         0.00000E+00
    0.79687E-09         0.76834E-20         0.00000E+00
    0.79687E-09         0.83819E-20         0.00000E+00
    0.79687E-09        -0.25611E-20         0.00000E+00
    0.79687E-09        -0.20955E-20         0.00000E+00
    0.79687E-09        -0.62864E-20         0.00000E+00
    0.79687E-09        -0.55879E-20         0.00000E+00
    0.79687E-09        -0.93132E-20         0.00000E+00
    0.79687E-09        -0.83819E-20         0.00000E+00
    0.79687E-09         0.23283E-20         0.00000E+00
    0.79687E-09        -0.51223E-20         0.00000E+00
    0.79687E-09        -0.76834E-20         0.00000E+00
    0.79687E-09        -0.93132E-21         0.00000E+00
    0.79687E-09         0.37253E-20         0.00000E+00
    0.79687E-09         0.27940E-20         0.00000E+00
    0.79687E-09         0.37253E-20         0.00000E+00
    0.79687E-09        -0.93132E-21         0.00000E+00
    0.79687E-09        -0.27940E-20         0.00000E+00
    0.79687E-09        -0.10245E-19         0.00000E+00
    0.79687E-09        -0.41910E-20         0.00000E+00
    0.79687E-09        -0.41910E-20         0.00000E+00
    0.79687E-09         0.10710E-19         0.00000E+00
    0.79687E-09         0.11176E-19         0.00000E+00
    0.79687E-09         0.19558E-19         0.00000E+00
    0.79687E-09         0.27940E-19         0.00000E+00
    0.79687E-09         0.35157E-19         0.00000E+00
    0.79687E-09         0.27241E-19         0.00000E+00
    0.79687E-09         0.21420E-19         0.00000E+00
    0.79687E-09         0.24214E-19         0.00000E+00
    0.79687E-09         0.20489E-19         0.00000E+00
    0.79687E-09         0.15367E-19         0.00000E+00
    0.79687E-09         0.20955E-19         0.00000E+00
    0.79687E-09         0.26776E-19         0.00000E+00
    0.79687E-09         0.22817E-19         0.00000E+00
    0.79687E-09         0.13737E-19         0.00000E+00
    0.79687E-09         0.13737E-19         0.00000E+00
    0.79687E-09         0.32596E-20         0.00000E+00
    0.79687E-09         0.72177E-20         0.00000E+00
    0.79687E-09        -0.79162E-20         0.00000E+00
    0.79687E-09         0.11176E-19         0.00000E+00
    0.79687E-09        -0.27940E-20         0.00000E+00
    0.79687E-09        -0.97789E-20         0.00000E+00
    0.79687E-09        -0.13039E-19         0.00000E+00
    0.79687E-09        -0.93132E-21         0.00000E+00
    0.79687E-09        -0.46566E-20         0.00000E+00
    0.92644E-09         0.39581E-20         0.00000E+00
    0.92644E-09         0.11409E-19         0.00000E+00
    0.92644E-09         0.88476E-20         0.00000E+00
    0.92644E-09         0.12107E-19         0.00000E+00
    0.92644E-09         0.79162E-20         0.00000E+00
    0.92644E-09         0.34925E-20         0.00000E+00
    0.92644E-09         0.11176E-19         0.00000E+00
    0.92644E-09         0.10710E-19         0.00000E+00
    0.92644E-09         0.10477E-19         0.00000E+00
    0.92644E-09         0.11642E-19         0.00000E+00
    0.92644E-09        -0.10710E-19         0.00000E+00
    0.92644E-09        -0.13970E-19         0.00000E+00
    0.92644E-09        -0.17695E-19         0.00000E+00
    0.92644E-09        -0.46566E-20         0.00000E+00
    0.92644E-09         0.67521E-20         0.00000E+00
    0.92644E-09        -0.93132E-20         0.00000E+00
    0.92644E-09        -0.13737E-19         0.00000E+00
    0.92644E-09        -0.20955E-20         0.00000E+00
    0.92644E-09        -0.18626E-20         0.00000E+00
    0.92644E-09        -0.51223E-20         0.00000E+00
    0.92644E-09        -0.13737E-19         0.00000E+00
    0.92644E-09        -0.13039E-19         0.00000E+00
    0.92644E-09        -0.79162E-20         0.00000E+00
    0.92644E-09        -0.27940E-20         0.00000E+00
    0.92644E-09        -0.60536E-20         0.00000E+00
    0.92644E-09        -0.13970E-20         0.00000E+00
    0.92644E-09         0.51223E-20         0.00000E+00
    0.92644E-09         0.22817E-19         0.00000E+00
    0.92644E-09         0.20489E-19         0.00000E+00
    0.92644E-09         0.27008E-19         0.00000E+00
    0.92644E-09         0.30501E-19         0.00000E+00
    0.92644E-09         0.35856E-19         0.00000E+00
    0.92644E-09         0.25379E-19         0.00000E+00
    0.92644E-09         0.25146E-19         0.00000E+00
    0.92644E-09         0.21420E-19         0.00000E+00
    0.92644E-09         0.69849E-20         0.00000E+00
    0.92644E-09         0.95461E-20         0.00000E+00
    0.92644E-09         0.17229E-19         0.00000E+00
    0.92644E-09         0.17928E-19         0.00000E+00
    0.92644E-09         0.21188E-19         0.00000E+00
    0.92644E-09         0.93132E-20         0.00000E+00
    0.92644E-09         0.69849E-21         0.00000E+00
    0.92644E-09        -0.65193E-20         0.00000E+00
    0.92644E-09         0.69849E-20         0.00000E+00
    0.92644E-09         0.51223E-20         0.00000E+00
    0.92644E-09         0.86147E-20         0.00000E+00
    0.92644E-09         0.74506E-20         0.00000E+00
    0.92644E-09         0.44238E-20         0.00000E+00
    0.92644E-09         0.12107E-19         0.00000E+00
    0.92644E-09         0.44238E-20         0.00000E+00
    0.10760E-08        -0.39581E-20         0.00000E+00
    0.10760E-08         0.34925E-20         0.00000E+00
    0.10760E-08         0.25611E-20         0.00000E+00
    0.10760E-08        -0.46566E-21         0.00000E+00
    0.10760E-08         0.12806E-19         0.00000E+00
    0.10760E-08         0.13970E-19         0.00000E+00
    0.10760E-08         0.27940E-20         0.00000E+00
    0.10760E-08        -0.37253E-20         0.00000E+00
    0.10760E-08        -0.18626E-20         0.00000E+00
    0.10760E-08        -0.46566E-21         0.00000E+00
    0.10760E-08         0.27940E-20         0.00000E+00
    0.10760E-08        -0.81491E-20         0.00000E+00
    0.10760E-08        -0.18859E-19         0.00000E+00
    0.10760E-08        -0.86147E-20         0.00000E+00
    0.10760E-08         0.34925E-20         0.00000E+00
    0.10760E-08        -0.11642E-20         0.00000E+00
    0.10760E-08        -0.11176E-19         0.00000E+00
    0.10760E-08        -0.17462E-19         0.00000E+00
    0.10760E-08        -0.21420E-19         0.00000E+00
    0.10760E-08        -0.27940E-20         0.00000E+00
    0.10760E-08        -0.81491E-20         0.00000E+00
    0.10760E-08        -0.16298E-19         0.00000E+00
    0.10760E-08        -0.13970E-19         0.00000E+00
    0.10760E-08        -0.14203E-19         0.00000E+00
    0.10760E-08        -0.41910E-20         0.00000E+00
    0.10760E-08        -0.16298E-20         0.00000E+00
    0.10760E-08         0.79162E-20         0.00000E+00
    0.10760E-08         0.17462E-19         0.00000E+00
    0.10760E-08         0.22817E-19         0.00000E+00
    0.10760E-08         0.24214E-19         0.00000E+00
    0.10760E-08         0.22352E-19         0.00000E+00
    0.10760E-08         0.28173E-19         0.00000E+00
    0.10760E-08         0.22352E-19         0.00000E+00
    0.10760E-08         0.17229E-19         0.00000E+00
    0.10760E-08         0.69849E-20         0.00000E+00
    0.10760E-08         0.23283E-21         0.00000E+00
    0.10760E-08         0.69849E-20         0.00000E+00
    0.10760E-08         0.15832E-19         0.00000E+00
    0.10760E-08         0.15367E-19         0.00000E+00
    0.10760E-08         0.21420E-19         0.00000E+00
    0.10760E-08         0.15367E-19         0.00000E+00
    0.10760E-08         0.48894E-20         0.00000E+00
    0.10760E-08         0.62864E-20         0.00000E+00
    0.10760E-08         0.81491E-20         0.00000E+00
    0.10760E-08        -0.48894E-20         0.00000E+00
    0.10760E-08         0.20955E-20         0.00000E+00
    0.10760E-08         0.27940E-20         0.00000E+00
    0.10760E-08         0.11642E-19         0.00000E+00
    0.10760E-08         0.13039E-19         0.00000E+00
    0.10760E-08         0.46566E-20         0.00000E+00
    0.12483E-08        -0.23283E-20         0.00000E+00
    0.12483E-08         0.93132E-21         0.00000E+00
    0.12483E-08        -0.41910E-20         0.00000E+00
    0.12483E-08        -0.65193E-20         0.00000E+00
    0.12483E-08         0.69849E-21         0.00000E+00
    0.12483E-08        -0.69849E-21         0.00000E+00
    0.12483E-08         0.20955E-20         0.00000E+00
    0.12483E-08        -0.13504E-19         0.00000E+00
    0.12483E-08        -0.76834E-20         0.00000E+00
    0.12483E-08        -0.79162E-20         0.00000E+00
    0.12483E-08        -0.83819E-20         0.00000E+00
    0.12483E-08        -0.86147E-20         0.00000E+00
    0.12483E-08        -0.13970E-19         0.00000E+00
    0.12483E-08        -0.18626E-20         0.00000E+00
    0.12483E-08         0.95461E-20         0.00000E+00
    0.12483E-08         0.16997E-19         0.00000E+00
    0.12483E-08         0.27940E-20         0.00000E+00
    0.12483E-08        -0.20489E-19         0.00000E+00
    0.12483E-08        -0.15367E-19         0.00000E+00
    0.12483E-08        -0.13039E-19         0.00000E+00
    0.12483E-08        -0.14435E-19         0.00000E+00
    0.12483E-08        -0.10245E-19         0.00000E+00
    0.12483E-08        -0.79162E-20         0.00000E+00
    0.12483E-08        -0.15367E-19         0.00000E+00
    0.12483E-08        -0.79162E-20         0.00000E+00
    0.12483E-08        -0.69849E-20         0.00000E+00
    0.12483E-08         0.60536E-20         0.00000E+00
    0.12483E-08         0.12107E-19         0.00000E+00
    0.12483E-08         0.19791E-19         0.00000E+00
    0.12483E-08         0.11176E-19         0.00000E+00
    0.12483E-08         0.69849E-20         0.00000E+00
    0.12483E-08         0.39581E-20         0.00000E+00
    0.12483E-08         0.16764E-19         0.00000E+00
    0.12483E-08         0.13970E-19         0.00000E+00
    0.12483E-08         0.69849E-20         0.00000E+00
    0.12483E-08         0.46566E-21         0.00000E+00
    0.12483E-08         0.27940E-20         0.00000E+00
    0.12483E-08         0.19325E-19         0.00000E+00
    0.12483E-08         0.15367E-19         0.00000E+00
    0.12483E-08         0.17928E-19         0.00000E+00
    0.12483E-08         0.15600E-19         0.00000E+00
    0.12483E-08         0.16764E-19         0.00000E+00
    0.12483E-08         0.15134E-19         0.00000E+00
    0.12483E-08         0.69849E-21         0.00000E+00
    0.12483E-08        -0.74506E-20         0.00000E+00
    0.12483E-08         0.34925E-20         0.00000E+00
    0.12483E-08         0.90804E-20         0.00000E+00
    0.12483E-08         0.95461E-20         0.00000E+00
    0.12483E-08         0.72177E-20         0.00000E+00
    0.12483E-08        -0.18626E-20         0.00000E+00
    0.14467E-08         0.37253E-20         0.00000E+00
    0.14467E-08        -0.74506E-20         0.00000E+00
    0.14467E-08        -0.10245E-19         0.00000E+00
    0.14467E-08         0.32596E-20         0.00000E+00
    0.14467E-08         0.55879E-20         0.00000E+00
    0.14467E-08        -0.25611E-20         0.00000E+00
    0.14467E-08        -0.10245E-19         0.00000E+00
    0.14467E-08        -0.16298E-19         0.00000E+00
    0.14467E-08        -0.93132E-21         0.00000E+00
    0.14467E-08        -0.93132E-20         0.00000E+00
    0.14467E-08        -0.83819E-20         0.00000E+00
    0.14467E-08        -0.14901E-19         0.00000E+00
    0.14467E-08        -0.18626E-20         0.00000E+00
    0.14467E-08         0.19092E-19         0.00000E+00
    0.14467E-08         0.17695E-19         0.00000E+00
    0.14467E-08         0.51223E-20         0.00000E+00
    0.14467E-08        -0.83819E-20         0.00000E+00
    0.14467E-08        -0.51223E-20         0.00000E+00
    0.14467E-08        -0.53551E-20         0.00000E+00
    0.14467E-08        -0.10245E-19         0.00000E+00
    0.14467E-08        -0.74506E-20         0.00000E+00
    0.14467E-08         0.37253E-20         0.00000E+00
    0.14467E-08        -0.83819E-20         0.00000E+00
    0.14467E-08        -0.12573E-19         0.00000E+00
    0.14467E-08        -0.93132E-20         0.00000E+00
    0.14467E-08        -0.46566E-21         0.00000E+00
    0.14467E-08        -0.32596E-20         0.00000E+00
    0.14467E-08        -0.32596E-20         0.00000E+00
    0.14467E-08         0.12107E-19         0.00000E+00
    0.14467E-08         0.46566E-20         0.00000E+00
    0.14467E-08         0.10245E-19         0.00000E+00
    0.14467E-08         0.16298E-19         0.00000E+00
    0.14467E-08         0.93132E-20         0.00000E+00
    0.14467E-08         0.23749E-19         0.00000E+00
    0.14467E-08         0.97789E-20         0.00000E+00
    0.14467E-08         0.18626E-20         0.00000E+00
    0.14467E-08        -0.83819E-20         0.00000E+00
    0.14467E-08        -0.76834E-20         0.00000E+00
    0.14467E-08         0.23283E-20         0.00000E+00
    0.14467E-08         0.27940E-20         0.00000E+00
    0.14467E-08        -0.46566E-21         0.00000E+00
    0.14467E-08         0.46566E-20         0.00000E+00
    0.14467E-08         0.46566E-20         0.00000E+00
    0.14467E-08         0.27940E-20         0.00000E+00
    0.14467E-08        -0.27940E-20         0.00000E+00
    0.14467E-08         0.97789E-20         0.00000E+00
    0.14467E-08         0.10943E-19         0.00000E+00
    0.14467E-08         0.17229E-19         0.00000E+00
    0.14467E-08         0.14901E-19         0.00000E+00
    0.14467E-08         0.46566E-20         0.00000E+00
    0.16748E-08        -0.93132E-21         0.00000E+00
    0.16748E-08         0.23283E-21         0.00000E+00
    0.16748E-08        -0.27940E-20         0.00000E+00
    0.16748E-08         0.18394E-19         0.00000E+00
    0.16748E-08         0.65193E-20         0.00000E+00
    0.16748E-08         0.88476E-20         0.00000E+00
    0.16748E-08        -0.13970E-20         0.00000E+00
    0.16748E-08        -0.55879E-20         0.00000E+00
    0.16748E-08         0.51223E-20         0.00000E+00
    0.16748E-08        -0.25611E-20         0.00000E+00
    0.16748E-08         0.15367E-19         0.00000E+00
    0.16748E-08         0.90804E-20         0.00000E+00
    0.16748E-08         0.81491E-20         0.00000E+00
    0.16748E-08         0.93132E-20         0.00000E+00
    0.16748E-08         0.37253E-20         0.00000E+00
    0.16748E-08        -0.20955E-20         0.00000E+00
    0.16748E-08        -0.13970E-20         0.00000E+00
    0.16748E-08         0.65193E-20         0.00000E+00
    0.16748E-08         0.25611E-20         0.00000E+00
    0.16748E-08         0.25611E-20         0.00000E+00
    0.16748E-08        -0.46566E-20         0.00000E+00
    0.16748E-08        -0.46566E-20         0.00000E+00
    0.16748E-08         0.46566E-21         0.00000E+00
    0.16748E-08        -0.16298E-20         0.00000E+00
    0.16748E-08         0.46566E-20         0.00000E+00
    0.16748E-08         0.74506E-20         0.00000E+00
    0.16748E-08        -0.74506E-20         0.00000E+00
    0.16748E-08        -0.32596E-20         0.00000E+00
    0.16748E-08         0.93132E-21         0.00000E+00
    0.16748E-08         0.79162E-20         0.00000E+00
    0.16748E-08         0.16298E-19         0.00000E+00
    0.16748E-08         0.12107E-19         0.00000E+00
    0.16748E-08         0.46566E-21         0.00000E+00
    0.16748E-08         0.16065E-19         0.00000E+00
    0.16748E-08         0.97789E-20         0.00000E+00
    0.16748E-08         0.00000E+00         0.00000E+00
    0.16748E-08        -0.23283E-20         0.00000E+00
    0.16748E-08        -0.60536E-20         0.00000E+00
    0.16748E-08        -0.48894E-20         0.00000E+00
    0.16748E-08        -0.23283E-20         0.00000E+00
    0.16748E-08        -0.60536E-20         0.00000E+00
    0.16748E-08        -0.69849E-20         0.00000E+00
    0.16748E-08        -0.60536E-20         0.00000E+00
    0.16748E-08        -0.51223E-20         0.00000E+00
    0.16748E-08         0.46566E-21         0.00000E+00
    0.16748E-08         0.55879E-20         0.00000E+00
    0.16748E-08        -0.67521E-20         0.00000E+00
    0.16748E-08         0.48894E-20         0.00000E+00
    0.16748E-08         0.69849E-20         0.00000E+00
    0.16748E-08         0.55879E-20         0.00000E+00
    0.19366E-08        -0.69849E-20         0.00000E+00
    0.19366E-08         0.65193E-20         0.00000E+00
    0.19366E-08         0.13504E-19         0.00000E+00
    0.19366E-08         0.10245E-19         0.00000E+00
    0.19366E-08        -0.44238E-20         0.00000E+00
    0.19366E-08         0.51223E-20         0.00000E+00
    0.19366E-08         0.88476E-20         0.00000E+00
    0.19366E-08         0.65193E-20         0.00000E+00
    0.19366E-08         0.20722E-19         0.00000E+00
    0.19366E-08         0.18394E-19         0.00000E+00
    0.19366E-08         0.18161E-19         0.00000E+00
    0.19366E-08         0.76834E-20         0.00000E+00
    0.19366E-08         0.14668E-19         0.00000E+00
    0.19366E-08         0.93132E-20         0.00000E+00
    0.19366E-08         0.41910E-20         0.00000E+00
    0.19366E-08         0.81491E-20         0.00000E+00
    0.19366E-08         0.39581E-20         0.00000E+00
    0.19366E-08         0.53551E-20         0.00000E+00
    0.19366E-08         0.32596E-20         0.00000E+00
    0.19366E-08        -0.46566E-20         0.00000E+00
    0.19366E-08        -0.79162E-20         0.00000E+00
    0.19366E-08        -0.16764E-19         0.00000E+00
    0.19366E-08        -0.12573E-19         0.00000E+00
    0.19366E-08        -0.27940E-20         0.00000E+00
    0.19366E-08         0.30268E-20         0.00000E+00
    0.19366E-08        -0.23283E-20         0.00000E+00
    0.19366E-08         0.46566E-20         0.00000E+00
    0.19366E-08         0.41910E-20         0.00000E+00
    0.19366E-08         0.55879E-20         0.00000E+00
    0.19366E-08         0.65193E-20         0.00000E+00
    0.19366E-08         0.74506E-20         0.00000E+00
    0.19366E-08         0.20955E-20         0.00000E+00
    0.19366E-08         0.34925E-20         0.00000E+00
    0.19366E-08         0.86147E-20         0.00000E+00
    0.19366E-08        -0.18626E-20         0.00000E+00
    0.19366E-08         0.16298E-20         0.00000E+00
    0.19366E-08         0.46566E-20         0.00000E+00
    0.19366E-08         0.12107E-19         0.00000E+00
    0.19366E-08         0.51223E-20         0.00000E+00
    0.19366E-08        -0.37253E-20         0.00000E+00
    0.19366E-08        -0.32596E-20         0.00000E+00
    0.19366E-08        -0.55879E-20         0.00000E+00
    0.19366E-08        -0.10477E-19         0.00000E+00
    0.19366E-08        -0.16997E-19         0.00000E+00
    0.19366E-08        -0.44238E-20         0.00000E+00
    0.19366E-08        -0.20955E-20         0.00000E+00
    0.19366E-08        -0.65193E-20         0.00000E+00
    0.19366E-08        -0.76834E-20         0.00000E+00
    0.19366E-08        -0.27940E-20         0.00000E+00
    0.19366E-08        -0.27940E-20         0.00000E+00
    0.22368E-08         0.18626E-20         0.00000E+00
    0.22368E-08         0.27940E-20         0.00000E+00
    0.22368E-08        -0.46566E-21         0.00000E+00
    0.22368E-08         0.51223E-20         0.00000E+00
    0.22368E-08         0.93132E-21         0.00000E+00
    0.22368E-08         0.41910E-20         0.00000E+00
    0.22368E-08        -0.13970E-20         0.00000E+00
    0.22368E-08         0.11176E-19         0.00000E+00
    0.22368E-08         0.16298E-19         0.00000E+00
    0.22368E-08         0.69849E-20         0.00000E+00
    0.22368E-08         0.74506E-20         0.00000E+00
    0.22368E-08        -0.69849E-20         0.00000E+00
    0.22368E-08        -0.23283E-20         0.00000E+00
    0.22368E-08        -0.46566E-20         0.00000E+00
    0.22368E-08        -0.51223E-20         0.00000E+00
    0.22368E-08         0.51223E-20         0.00000E+00
    0.22368E-08         0.69849E-20         0.00000E+00
    0.22368E-08        -0.46566E-21         0.00000E+00
    0.22368E-08        -0.46566E-20         0.00000E+00
    0.22368E-08        -0.51223E-20         0.00000E+00
    0.22368E-08         0.30268E-20         0.00000E+00
    0.22368E-08        -0.27940E-20         0.00000E+00
    0.22368E-08        -0.97789E-20         0.00000E+00
    0.22368E-08        -0.18161E-19         0.00000E+00
    0.22368E-08        -0.93132E-21         0.00000E+00
    0.22368E-08        -0.18626E-20         0.00000E+00
    0.22368E-08         0.60536E-20         0.00000E+00
    0.22368E-08         0.10710E-19         0.00000E+00
    0.22368E-08         0.18626E-19         0.00000E+00
    0.22368E-08         0.55879E-20         0.00000E+00
    0.22368E-08        -0.23283E-20         0.00000E+00
    0.22368E-08        -0.25611E-20         0.00000E+00
    0.22368E-08         0.37253E-20         0.00000E+00
    0.22368E-08         0.90804E-20         0.00000E+00
    0.22368E-08        -0.72177E-20         0.00000E+00
    0.22368E-08        -0.37253E-20         0.00000E+00
    0.22368E-08        -0.18626E-20         0.00000E+00
    0.22368E-08         0.12340E-19         0.00000E+00
    0.22368E-08         0.16298E-19         0.00000E+00
    0.22368E-08         0.55879E-20         0.00000E+00
    0.22368E-08        -0.41910E-20         0.00000E+00
    0.22368E-08        -0.83819E-20         0.00000E+00
    0.22368E-08        -0.83819E-20         0.00000E+00
    0.22368E-08        -0.27940E-20         0.00000E+00
    0.22368E-08        -0.37253E-20         0.00000E+00
    0.22368E-08        -0.76834E-20         0.00000E+00
    0.22368E-08        -0.23283E-20         0.00000E+00
    0.22368E-08        -0.37253E-20         0.00000E+00
    0.22368E-08         0.55879E-20         0.00000E+00
    0.22368E-08        -0.37253E-20         0.00000E+00
    0.25802E-08        -0.69849E-20         0.00000E+00
    0.25802E-08        -0.74506E-20         0.00000E+00
    0.25802E-08         0.74506E-20         0.00000E+00
    0.25802E-08         0.18161E-19         0.00000E+00
    0.25802E-08         0.24214E-19         0.00000E+00
    0.25802E-08         0.41910E-20         0.00000E+00
    0.25802E-08         0.00000E+00         0.00000E+00
    0.25802E-08         0.00000E+00         0.00000E+00
    0.25802E-08         0.93132E-21         0.00000E+00
    0.25802E-08        -0.20955E-20         0.00000E+00
    0.25802E-08         0.27940E-20         0.00000E+00
    0.25802E-08        -0.12107E-19         0.00000E+00
    0.25802E-08        -0.16764E-19         0.00000E+00
    0.25802E-08        -0.21886E-19         0.00000E+00
    0.25802E-08        -0.10245E-19         0.00000E+00
    0.25802E-08         0.79162E-20         0.00000E+00
    0.25802E-08         0.14435E-19         0.00000E+00
    0.25802E-08        -0.10012E-19         0.00000E+00
    0.25802E-08         0.23283E-20         0.00000E+00
    0.25802E-08         0.10943E-19         0.00000E+00
    0.25802E-08         0.46566E-20         0.00000E+00
    0.25802E-08         0.93132E-21         0.00000E+00
    0.25802E-08         0.97789E-20         0.00000E+00
    0.25802E-08        -0.51223E-20         0.00000E+00
    0.25802E-08        -0.65193E-20         0.00000E+00
    0.25802E-08        -0.46566E-20         0.00000E+00
    0.25802E-08        -0.74506E-20         0.00000E+00
    0.25802E-08         0.13970E-20         0.00000E+00
    0.25802E-08         0.00000E+00         0.00000E+00
    0.25802E-08         0.48894E-20         0.00000E+00
    0.25802E-08         0.27940E-20         0.00000E+00
    0.25802E-08        -0.20955E-20         0.00000E+00
    0.25802E-08         0.48894E-20         0.00000E+00
    0.25802E-08         0.69849E-21         0.00000E+00
    0.25802E-08        -0.46566E-20         0.00000E+00
    0.25802E-08        -0.32596E-20         0.00000E+00
    0.25802E-08        -0.10477E-19         0.00000E+00
    0.25802E-08         0.00000E+00         0.00000E+00
    0.25802E-08         0.79162E-20         0.00000E+00
    0.25802E-08         0.11642E-19         0.00000E+00
    0.25802E-08        -0.46566E-21         0.00000E+00
    0.25802E-08        -0.23283E-21         0.00000E+00
    0.25802E-08         0.10710E-19         0.00000E+00
    0.25802E-08         0.18626E-20         0.00000E+00
    0.25802E-08        -0.18626E-20         0.00000E+00
    0.25802E-08         0.69849E-21         0.00000E+00
    0.25802E-08        -0.46566E-20         0.00000E+00
    0.25802E-08        -0.12573E-19         0.00000E+00
    0.25802E-08        -0.23283E-20         0.00000E+00
    0.25802E-08        -0.23283E-20         0.00000E+00
    0.29728E-08        -0.32596E-20         0.00000E+00
    0.29728E-08        -0.74506E-20         0.00000E+00
    0.29728E-08         0.74506E-20         0.00000E+00
    0.29728E-08         0.79162E-20         0.00000E+00
    0.29728E-08         0.10943E-19         0.00000E+00
    0.29728E-08         0.62864E-20         0.00000E+00
    0.29728E-08        -0.23283E-20         0.00000E+00
    0.29728E-08         0.41910E-20         0.00000E+00
    0.29728E-08         0.60536E-20         0.00000E+00
    0.29728E-08         0.60536E-20         0.00000E+00
    0.29728E-08        -0.97789E-20         0.00000E+00
    0.29728E-08        -0.10245E-19         0.00000E+00
    0.29728E-08        -0.17229E-19         0.00000E+00
    0.29728E-08        -0.17229E-19         0.00000E+00
    0.29728E-08        -0.88476E-20         0.00000E+00
    0.29728E-08        -0.46566E-21         0.00000E+00
    0.29728E-08         0.60536E-20         0.00000E+00
    0.29728E-08        -0.60536E-20         0.00000E+00
    0.29728E-08         0.88476E-20         0.00000E+00
    0.29728E-08         0.14435E-19         0.00000E+00
    0.29728E-08         0.23283E-20         0.00000E+00
    0.29728E-08         0.16764E-19         0.00000E+00
    0.29728E-08         0.23283E-20         0.00000E+00
    0.29728E-08        -0.23283E-20         0.00000E+00
    0.29728E-08        -0.83819E-20         0.00000E+00
    0.29728E-08         0.93132E-21         0.00000E+00
    0.29728E-08        -0.14435E-19         0.00000E+00
    0.29728E-08        -0.69849E-20         0.00000E+00
    0.29728E-08        -0.12107E-19         0.00000E+00
    0.29728E-08         0.55879E-20         0.00000E+00
    0.29728E-08         0.83819E-20         0.00000E+00
    0.29728E-08         0.10245E-19         0.00000E+00
    0.29728E-08         0.00000E+00         0.00000E+00
    0.29728E-08        -0.79162E-20         0.00000E+00
    0.29728E-08        -0.11176E-19         0.00000E+00
    0.29728E-08        -0.13504E-19         0.00000E+00
    0.29728E-08        -0.10245E-19         0.00000E+00
    0.29728E-08        -0.11642E-19         0.00000E+00
    0.29728E-08        -0.55879E-20         0.00000E+00
    0.29728E-08        -0.27940E-20         0.00000E+00
    0.29728E-08         0.65193E-20         0.00000E+00
    0.29728E-08         0.72177E-20         0.00000E+00
    0.29728E-08         0.65193E-20         0.00000E+00
    0.29728E-08         0.39581E-20         0.00000E+00
    0.29728E-08         0.23283E-20         0.00000E+00
    0.29728E-08         0.53551E-20         0.00000E+00
    0.29728E-08        -0.30268E-20         0.00000E+00
    0.29728E-08        -0.16298E-19         0.00000E+00
    0.29728E-08        -0.46566E-20         0.00000E+00
    0.29728E-08        -0.37253E-20         0.00000E+00
    0.34206E-08         0.46566E-21         0.00000E+00
    0.34206E-08        -0.55879E-20         0.00000E+00
    0.34206E-08        -0.11642E-19         0.00000E+00
    0.34206E-08        -0.12107E-19         0.00000E+00
    0.34206E-08        -0.46566E-21         0.00000E+00
    0.34206E-08         0.00000E+00         0.00000E+00
    0.34206E-08        -0.16298E-20         0.00000E+00
    0.34206E-08         0.11409E-19         0.00000E+00
    0.34206E-08         0.30268E-20         0.00000E+00
    0.34206E-08         0.41910E-20         0.00000E+00
    0.34206E-08        -0.19791E-19         0.00000E+00
    0.34206E-08        -0.12573E-19         0.00000E+00
    0.34206E-08        -0.12107E-19         0.00000E+00
    0.34206E-08        -0.20955E-19         0.00000E+00
    0.34206E-08        -0.10245E-19         0.00000E+00
    0.34206E-08        -0.18626E-20         0.00000E+00
    0.34206E-08         0.69849E-20         0.00000E+00
    0.34206E-08        -0.79162E-20         0.00000E+00
    0.34206E-08         0.32596E-20         0.00000E+00
    0.34206E-08         0.23283E-20         0.00000E+00
    0.34206E-08         0.00000E+00         0.00000E+00
    0.34206E-08         0.23283E-20         0.00000E+00
    0.34206E-08         0.18626E-20         0.00000E+00
    0.34206E-08         0.46566E-20         0.00000E+00
    0.34206E-08         0.65193E-20         0.00000E+00
    0.34206E-08        -0.46566E-21         0.00000E+00
    0.34206E-08        -0.55879E-20         0.00000E+00
    0.34206E-08        -0.41910E-20         0.00000E+00
    0.34206E-08        -0.83819E-20         0.00000E+00
    0.34206E-08         0.46566E-20         0.00000E+00
    0.34206E-08         0.65193E-20         0.00000E+00
    0.34206E-08         0.12573E-19         0.00000E+00
    0.34206E-08         0.00000E+00         0.00000E+00
    0.34206E-08         0.13970E-20         0.00000E+00
    0.34206E-08         0.41910E-20         0.00000E+00
    0.34206E-08        -0.15367E-19         0.00000E+00
    0.34206E-08        -0.18626E-20         0.00000E+00
    0.34206E-08        -0.18626E-20         0.00000E+00
    0.34206E-08        -0.17928E-19         0.00000E+00
    0.34206E-08        -0.10245E-19         0.00000E+00
    0.34206E-08         0.00000E+00         0.00000E+00
    0.34206E-08        -0.23283E-20         0.00000E+00
    0.34206E-08        -0.48894E-20         0.00000E+00
    0.34206E-08         0.13970E-20         0.00000E+00
    0.34206E-08         0.65193E-20         0.00000E+00
    0.34206E-08         0.79162E-20         0.00000E+00
    0.34206E-08         0.62864E-20         0.00000E+00
    0.34206E-08         0.51223E-20         0.00000E+00
    0.34206E-08         0.13970E-20         0.00000E+00
    0.34206E-08         0.00000E+00         0.00000E+00
    0.39307E-08        -0.46566E-21         0.00000E+00
    0.39307E-08        -0.27940E-20         0.00000E+00
    0.39307E-08        -0.16764E-19         0.00000E+00
    0.39307E-08        -0.79162E-20         0.00000E+00
    0.39307E-08         0.11874E-19         0.00000E+00
    0.39307E-08        -0.46566E-21         0.00000E+00
    0.39307E-08         0.11642E-20         0.00000E+00
    0.39307E-08         0.62864E-20         0.00000E+00
    0.39307E-08         0.93132E-21         0.00000E+00
    0.39307E-08         0.90804E-20         0.00000E+00
    0.39307E-08        -0.65193E-20         0.00000E+00
    0.39307E-08        -0.79162E-20         0.00000E+00
    0.39307E-08         0.16298E-20         0.00000E+00
    0.39307E-08        -0.11176E-19         0.00000E+00
    0.39307E-08        -0.88476E-20         0.00000E+00
    0.39307E-08        -0.65193E-20         0.00000E+00
    0.39307E-08        -0.23283E-20         0.00000E+00
    0.39307E-08        -0.15134E-19         0.00000E+00
    0.39307E-08        -0.11409E-19         0.00000E+00
    0.39307E-08        -0.10710E-19         0.00000E+00
    0.39307E-08        -0.46566E-20         0.00000E+00
    0.39307E-08        -0.74506E-20         0.00000E+00
    0.39307E-08        -0.18626E-20         0.00000E+00
    0.39307E-08        -0.18626E-20         0.00000E+00
    0.39307E-08         0.41910E-20         0.00000E+00
    0.39307E-08        -0.23283E-20         0.00000E+00
    0.39307E-08        -0.18626E-20         0.00000E+00
    0.39307E-08         0.32596E-20         0.00000E+00
    0.39307E-08         0.51223E-20         0.00000E+00
    0.39307E-08         0.83819E-20         0.00000E+00
    0.39307E-08         0.11642E-20         0.00000E+00
    0.39307E-08         0.93132E-21         0.00000E+00
    0.39307E-08        -0.34925E-20         0.00000E+00
    0.39307E-08         0.13039E-19         0.00000E+00
    0.39307E-08         0.18161E-19         0.00000E+00
    0.39307E-08         0.00000E+00         0.00000E+00
    0.39307E-08         0.65193E-20         0.00000E+00
    0.39307E-08         0.27940E-20         0.00000E+00
    0.39307E-08        -0.93132E-20         0.00000E+00
    0.39307E-08        -0.19558E-19         0.00000E+00
    0.39307E-08        -0.48894E-20         0.00000E+00
    0.39307E-08        -0.69849E-20         0.00000E+00
    0.39307E-08         0.23283E-20         0.00000E+00
    0.39307E-08         0.65193E-20         0.00000E+00
    0.39307E-08         0.12573E-19         0.00000E+00
    0.39307E-08         0.46566E-20         0.00000E+00
    0.39307E-08         0.12107E-19         0.00000E+00
    0.39307E-08         0.18626E-19         0.00000E+00
    0.39307E-08         0.23283E-20         0.00000E+00
    0.39307E-08         0.48894E-20         0.00000E+00
    0.45107E-08         0.23283E-20         0.00000E+00
    0.45107E-08        -0.20955E-20         0.00000E+00
    0.45107E-08        -0.79162E-20         0.00000E+00
    0.45107E-08        -0.27940E-20         0.00000E+00
    0.45107E-08         0.12806E-19         0.00000E+00
    0.45107E-08         0.14435E-19         0.00000E+00
    0.45107E-08         0.11874E-19         0.00000E+00
    0.45107E-08         0.65193E-20         0.00000E+00
    0.45107E-08         0.53551E-20         0.00000E+00
    0.45107E-08         0.14435E-19         0.00000E+00
    0.45107E-08        -0.32596E-20         0.00000E+00
    0.45107E-08         0.51223E-20         0.00000E+00
    0.45107E-08        -0.23283E-20         0.00000E+00
    0.45107E-08        -0.10710E-19         0.00000E+00
    0.45107E-08        -0.93132E-21         0.00000E+00
    0.45107E-08        -0.12340E-19         0.00000E+00
    0.45107E-08        -0.20955E-20         0.00000E+00
    0.45107E-08        -0.51223E-20         0.00000E+00
    0.45107E-08        -0.93132E-20         0.00000E+00
    0.45107E-08        -0.10012E-19         0.00000E+00
    0.45107E-08         0.46566E-21         0.00000E+00
    0.45107E-08         0.23283E-20         0.00000E+00
    0.45107E-08        -0.41910E-20         0.00000E+00
    0.45107E-08        -0.12107E-19         0.00000E+00
    0.45107E-08        -0.17462E-19         0.00000E+00
    0.45107E-08         0.46566E-20         0.00000E+00
    0.45107E-08        -0.83819E-20         0.00000E+00
    0.45107E-08         0.79162E-20         0.00000E+00
    0.45107E-08         0.90804E-20         0.00000E+00
    0.45107E-08         0.15832E-19         0.00000E+00
    0.45107E-08         0.93132E-21         0.00000E+00
    0.45107E-08        -0.16298E-20         0.00000E+00
    0.45107E-08        -0.48894E-20         0.00000E+00
    0.45107E-08         0.65193E-20         0.00000E+00
    0.45107E-08         0.62864E-20         0.00000E+00
    0.45107E-08         0.88476E-20         0.00000E+00
    0.45107E-08         0.81491E-20         0.00000E+00
    0.45107E-08         0.10245E-19         0.00000E+00
    0.45107E-08        -0.11642E-20         0.00000E+00
    0.45107E-08        -0.22119E-19         0.00000E+00
    0.45107E-08        -0.79162E-20         0.00000E+00
    0.45107E-08        -0.34925E-20         0.00000E+00
    0.45107E-08         0.27940E-20         0.00000E+00
    0.45107E-08         0.72177E-20         0.00000E+00
    0.45107E-08         0.12806E-19         0.00000E+00
    0.45107E-08         0.32596E-20         0.00000E+00
    0.45107E-08         0.69849E-20         0.00000E+00
    0.45107E-08         0.21420E-19         0.00000E+00
    0.45107E-08         0.83819E-20         0.00000E+00
    0.45107E-08         0.93132E-21         0.00000E+00
    0.51689E-08        -0.13970E-20         0.00000E+00
    0.51689E-08         0.60536E-20         0.00000E+00
    0.51689E-08         0.65193E-20         0.00000E+00
    0.51689E-08         0.83819E-20         0.00000E+00
    0.51689E-08         0.13271E-19         0.00000E+00
    0.51689E-08         0.19092E-19         0.00000E+00
    0.51689E-08         0.20955E-19         0.00000E+00
    0.51689E-08         0.25379E-19         0.00000E+00
    0.51689E-08         0.21420E-19         0.00000E+00
    0.51689E-08         0.17928E-19         0.00000E+00
    0.51689E-08         0.27940E-20         0.00000E+00
    0.51689E-08         0.23283E-20         0.00000E+00
    0.51689E-08        -0.46566E-20         0.00000E+00
    0.51689E-08        -0.30268E-20         0.00000E+00
    0.51689E-08        -0.27940E-20         0.00000E+00
    0.51689E-08        -0.18626E-19         0.00000E+00
    0.51689E-08        -0.51223E-20         0.00000E+00
    0.51689E-08        -0.67521E-20         0.00000E+00
    0.51689E-08        -0.74506E-20         0.00000E+00
    0.51689E-08        -0.69849E-20         0.00000E+00
    0.51689E-08         0.60536E-20         0.00000E+00
    0.51689E-08         0.23283E-20         0.00000E+00
    0.51689E-08        -0.55879E-20         0.00000E+00
    0.51689E-08        -0.41910E-20         0.00000E+00
    0.51689E-08        -0.25611E-20         0.00000E+00
    0.51689E-08         0.67521E-20         0.00000E+00
    0.51689E-08         0.37253E-20         0.00000E+00
    0.51689E-08         0.34925E-20         0.00000E+00
    0.51689E-08         0.13970E-20         0.00000E+00
    0.51689E-08         0.22119E-19         0.00000E+00
    0.51689E-08         0.81491E-20         0.00000E+00
    0.51689E-08         0.46566E-20         0.00000E+00
    0.51689E-08        -0.13271E-19         0.00000E+00
    0.51689E-08        -0.93132E-20         0.00000E+00
    0.51689E-08         0.46566E-21         0.00000E+00
    0.51689E-08         0.34925E-20         0.00000E+00
    0.51689E-08         0.11409E-19         0.00000E+00
    0.51689E-08         0.76834E-20         0.00000E+00
    0.51689E-08         0.20955E-20         0.00000E+00
    0.51689E-08        -0.97789E-20         0.00000E+00
    0.51689E-08        -0.55879E-20         0.00000E+00
    0.51689E-08        -0.13970E-20         0.00000E+00
    0.51689E-08         0.41910E-20         0.00000E+00
    0.51689E-08         0.10012E-19         0.00000E+00
    0.51689E-08         0.10943E-19         0.00000E+00
    0.51689E-08         0.27940E-20         0.00000E+00
    0.51689E-08         0.10245E-19         0.00000E+00
    0.51689E-08         0.15832E-19         0.00000E+00
    0.51689E-08         0.13970E-20         0.00000E+00
    0.51689E-08        -0.46566E-21         0.00000E+00
    0.59147E-08         0.00000E+00         0.00000E+00
    0.59147E-08         0.60536E-20         0.00000E+00
    0.59147E-08         0.14435E-19         0.00000E+00
    0.59147E-08         0.13737E-19         0.00000E+00
    0.59147E-08         0.14435E-19         0.00000E+00
    0.59147E-08         0.19092E-19         0.00000E+00
    0.59147E-08         0.27474E-19         0.00000E+00
    0.59147E-08         0.27474E-19         0.00000E+00
    0.59147E-08         0.21653E-19         0.00000E+00
    0.59147E-08         0.14668E-19         0.00000E+00
    0.59147E-08         0.62864E-20         0.00000E+00
    0.59147E-08         0.79162E-20         0.00000E+00
    0.59147E-08         0.46566E-21         0.00000E+00
    0.59147E-08         0.25611E-20         0.00000E+00
    0.59147E-08        -0.13737E-19         0.00000E+00
    0.59147E-08        -0.18859E-19         0.00000E+00
    0.59147E-08        -0.18394E-19         0.00000E+00
    0.59147E-08        -0.17695E-19         0.00000E+00
    0.59147E-08        -0.51223E-20         0.00000E+00
    0.59147E-08        -0.79162E-20         0.00000E+00
    0.59147E-08         0.12107E-19         0.00000E+00
    0.59147E-08         0.90804E-20         0.00000E+00
    0.59147E-08         0.32596E-20         0.00000E+00
    0.59147E-08        -0.23283E-20         0.00000E+00
    0.59147E-08         0.72177E-20         0.00000E+00
    0.59147E-08         0.46566E-20         0.00000E+00
    0.59147E-08         0.93132E-20         0.00000E+00
    0.59147E-08         0.11642E-19         0.00000E+00
    0.59147E-08        -0.18626E-20         0.00000E+00
    0.59147E-08         0.14435E-19         0.00000E+00
    0.59147E-08         0.11409E-19         0.00000E+00
    0.59147E-08         0.51223E-20         0.00000E+00
    0.59147E-08        -0.14203E-19         0.00000E+00
    0.59147E-08        -0.15367E-19         0.00000E+00
    0.59147E-08         0.41910E-20         0.00000E+00
    0.59147E-08         0.23283E-21         0.00000E+00
    0.59147E-08         0.88476E-20         0.00000E+00
    0.59147E-08         0.79162E-20         0.00000E+00
    0.59147E-08         0.46566E-20         0.00000E+00
    0.59147E-08        -0.18626E-20         0.00000E+00
    0.59147E-08        -0.37253E-20         0.00000E+00
    0.59147E-08        -0.11642E-20         0.00000E+00
    0.59147E-08         0.20489E-19         0.00000E+00
    0.59147E-08         0.27707E-19         0.00000E+00
    0.59147E-08         0.20023E-19         0.00000E+00
    0.59147E-08         0.83819E-20         0.00000E+00
    0.59147E-08         0.15134E-19         0.00000E+00
    0.59147E-08         0.13504E-19         0.00000E+00
    0.59147E-08        -0.48894E-20         0.00000E+00
    0.59147E-08         0.46566E-20         0.00000E+00
    0.67579E-08         0.23283E-20         0.00000E+00
    0.67579E-08         0.10245E-19         0.00000E+00
    0.67579E-08         0.83819E-20         0.00000E+00
    0.67579E-08         0.30268E-20         0.00000E+00
    0.67579E-08         0.21420E-19         0.00000E+00
    0.67579E-08         0.22352E-19         0.00000E+00
    0.67579E-08         0.23283E-19         0.00000E+00
    0.67579E-08         0.97789E-20         0.00000E+00
    0.67579E-08         0.74506E-20         0.00000E+00
    0.67579E-08        -0.18626E-20         0.00000E+00
    0.67579E-08        -0.11642E-20         0.00000E+00
    0.67579E-08        -0.13970E-20         0.00000E+00
    0.67579E-08        -0.93132E-21         0.00000E+00
    0.67579E-08        -0.88476E-20         0.00000E+00
    0.67579E-08        -0.16298E-19         0.00000E+00
    0.67579E-08        -0.20256E-19         0.00000E+00
    0.67579E-08        -0.28871E-19         0.00000E+00
    0.67579E-08        -0.15832E-19         0.00000E+00
    0.67579E-08         0.41910E-20         0.00000E+00
    0.67579E-08         0.13970E-20         0.00000E+00
    0.67579E-08         0.21420E-19         0.00000E+00
    0.67579E-08         0.17462E-19         0.00000E+00
    0.67579E-08         0.15832E-19         0.00000E+00
    0.67579E-08         0.11874E-19         0.00000E+00
    0.67579E-08         0.23283E-20         0.00000E+00
    0.67579E-08        -0.62864E-20         0.00000E+00
    0.67579E-08         0.23283E-20         0.00000E+00
    0.67579E-08         0.74506E-20         0.00000E+00
    0.67579E-08        -0.88476E-20         0.00000E+00
    0.67579E-08        -0.93132E-21         0.00000E+00
    0.67579E-08         0.00000E+00         0.00000E+00
    0.67579E-08        -0.69849E-21         0.00000E+00
    0.67579E-08        -0.11409E-19         0.00000E+00
    0.67579E-08        -0.65193E-20         0.00000E+00
    0.67579E-08        -0.11642E-20         0.00000E+00
    0.67579E-08        -0.13970E-20         0.00000E+00
    0.67579E-08         0.12806E-19         0.00000E+00
    0.67579E-08         0.11642E-19         0.00000E+00
    0.67579E-08         0.14901E-19         0.00000E+00
    0.67579E-08         0.34925E-20         0.00000E+00
    0.67579E-08         0.95461E-20         0.00000E+00
    0.67579E-08         0.20955E-20         0.00000E+00
    0.67579E-08         0.20955E-19         0.00000E+00
    0.67579E-08         0.28405E-19         0.00000E+00
    0.67579E-08         0.24680E-19         0.00000E+00
    0.67579E-08         0.10245E-19         0.00000E+00
    0.67579E-08         0.83819E-20         0.00000E+00
    0.67579E-08         0.90804E-20         0.00000E+00
    0.67579E-08         0.93132E-21         0.00000E+00
    0.67579E-08         0.79162E-20         0.00000E+00
    0.77093E-08         0.37253E-20         0.00000E+00
    0.77093E-08         0.14203E-19         0.00000E+00
    0.77093E-08         0.11642E-19         0.00000E+00
    0.77093E-08         0.11409E-19         0.00000E+00
    0.77093E-08         0.20722E-19         0.00000E+00
    0.77093E-08         0.21653E-19         0.00000E+00
    0.77093E-08         0.12806E-19         0.00000E+00
    0.77093E-08         0.10245E-19         0.00000E+00
    0.77093E-08         0.69849E-20         0.00000E+00
    0.77093E-08        -0.93132E-20         0.00000E+00
    0.77093E-08        -0.88476E-20         0.00000E+00
    0.77093E-08        -0.12107E-19         0.00000E+00
    0.77093E-08        -0.97789E-20         0.00000E+00
    0.77093E-08        -0.83819E-20         0.00000E+00
    0.77093E-08        -0.20023E-19         0.00000E+00
    0.77093E-08        -0.36322E-19         0.00000E+00
    0.77093E-08        -0.28405E-19         0.00000E+00
    0.77093E-08        -0.10245E-19         0.00000E+00
    0.77093E-08         0.46566E-20         0.00000E+00
    0.77093E-08         0.32596E-20         0.00000E+00
    0.77093E-08         0.15832E-19         0.00000E+00
    0.77093E-08         0.26776E-19         0.00000E+00
    0.77093E-08         0.26543E-19         0.00000E+00
    0.77093E-08         0.30501E-19         0.00000E+00
    0.77093E-08         0.11176E-19         0.00000E+00
    0.77093E-08         0.34925E-20         0.00000E+00
    0.77093E-08        -0.46566E-21         0.00000E+00
    0.77093E-08        -0.90804E-20         0.00000E+00
    0.77093E-08        -0.17229E-19         0.00000E+00
    0.77093E-08         0.93132E-21         0.00000E+00
    0.77093E-08        -0.93132E-20         0.00000E+00
    0.77093E-08         0.25611E-20         0.00000E+00
    0.77093E-08        -0.14901E-19         0.00000E+00
    0.77093E-08        -0.18626E-19         0.00000E+00
    0.77093E-08        -0.69849E-20         0.00000E+00
    0.77093E-08        -0.48894E-20         0.00000E+00
    0.77093E-08        -0.46566E-21         0.00000E+00
    0.77093E-08         0.11642E-19         0.00000E+00
    0.77093E-08         0.14435E-19         0.00000E+00
    0.77093E-08         0.79162E-20         0.00000E+00
    0.77093E-08         0.11874E-19         0.00000E+00
    0.77093E-08         0.13271E-19         0.00000E+00
    0.77093E-08         0.20955E-19         0.00000E+00
    0.77093E-08         0.24680E-19         0.00000E+00
    0.77093E-08         0.16997E-19         0.00000E+00
    0.77093E-08         0.12107E-19         0.00000E+00
    0.77093E-08         0.23283E-20         0.00000E+00
    0.77093E-08         0.95461E-20         0.00000E+00
    0.77093E-08         0.10245E-19         0.00000E+00
    0.77093E-08         0.65193E-20         0.00000E+00
    0.87806E-08         0.00000E+00         0.00000E+00
    0.87806E-08         0.13970E-20         0.00000E+00
    0.87806E-08         0.10710E-19         0.00000E+00
    0.87806E-08         0.10245E-19         0.00000E+00
    0.87806E-08         0.22352E-19         0.00000E+00
    0.87806E-08         0.26077E-19         0.00000E+00
    0.87806E-08         0.26077E-19         0.00000E+00
    0.87806E-08         0.14203E-19         0.00000E+00
    0.87806E-08         0.16298E-19         0.00000E+00
    0.87806E-08        -0.13970E-20         0.00000E+00
    0.87806E-08        -0.23283E-20         0.00000E+00
    0.87806E-08        -0.86147E-20         0.00000E+00
    0.87806E-08         0.69849E-20         0.00000E+00
    0.87806E-08        -0.60536E-20         0.00000E+00
    0.87806E-08        -0.19092E-19         0.00000E+00
    0.87806E-08        -0.27008E-19         0.00000E+00
    0.87806E-08        -0.28405E-19         0.00000E+00
    0.87806E-08        -0.93132E-20         0.00000E+00
    0.87806E-08         0.41910E-20         0.00000E+00
    0.87806E-08         0.23283E-20         0.00000E+00
    0.87806E-08         0.83819E-20         0.00000E+00
    0.87806E-08         0.22817E-19         0.00000E+00
    0.87806E-08         0.23749E-19         0.00000E+00
    0.87806E-08         0.22585E-19         0.00000E+00
    0.87806E-08         0.17928E-19         0.00000E+00
    0.87806E-08         0.12107E-19         0.00000E+00
    0.87806E-08        -0.18626E-20         0.00000E+00
    0.87806E-08         0.93132E-21         0.00000E+00
    0.87806E-08        -0.11176E-19         0.00000E+00
    0.87806E-08         0.60536E-20         0.00000E+00
    0.87806E-08        -0.41910E-20         0.00000E+00
    0.87806E-08        -0.11642E-20         0.00000E+00
    0.87806E-08        -0.33062E-19         0.00000E+00
    0.87806E-08        -0.27474E-19         0.00000E+00
    0.87806E-08        -0.24447E-19         0.00000E+00
    0.87806E-08        -0.13970E-19         0.00000E+00
    0.87806E-08        -0.79162E-20         0.00000E+00
    0.87806E-08         0.18626E-20         0.00000E+00
    0.87806E-08         0.46566E-21         0.00000E+00
    0.87806E-08        -0.46566E-21         0.00000E+00
    0.87806E-08         0.79162E-20         0.00000E+00
    0.87806E-08         0.15832E-19         0.00000E+00
    0.87806E-08         0.18394E-19         0.00000E+00
    0.87806E-08         0.23283E-19         0.00000E+00
    0.87806E-08         0.12340E-19         0.00000E+00
    0.87806E-08         0.48894E-20         0.00000E+00
    0.87806E-08         0.41910E-20         0.00000E+00
    0.87806E-08         0.12340E-19         0.00000E+00
    0.87806E-08         0.37253E-20         0.00000E+00
    0.87806E-08         0.37253E-20         0.00000E+00
    0.99843E-08         0.46566E-20         0.00000E+00
    0.99843E-08         0.23283E-20         0.00000E+00
    0.99843E-08         0.55879E-20         0.00000E+00
    0.99843E-08        -0.41910E-20         0.00000E+00
    0.99843E-08         0.22585E-19         0.00000E+00
    0.99843E-08         0.33760E-19         0.00000E+00
    0.99843E-08         0.35390E-19         0.00000E+00
    0.99843E-08         0.13737E-19         0.00000E+00
    0.99843E-08         0.24447E-19         0.00000E+00
    0.99843E-08         0.18626E-20         0.00000E+00
    0.99843E-08         0.10710E-19         0.00000E+00
    0.99843E-08         0.55879E-20         0.00000E+00
    0.99843E-08         0.16764E-19         0.00000E+00
    0.99843E-08         0.41910E-20         0.00000E+00
    0.99843E-08        -0.65193E-20         0.00000E+00
    0.99843E-08        -0.13039E-19         0.00000E+00
    0.99843E-08        -0.21886E-19         0.00000E+00
    0.99843E-08        -0.17229E-19         0.00000E+00
    0.99843E-08         0.60536E-20         0.00000E+00
    0.99843E-08        -0.18626E-20         0.00000E+00
    0.99843E-08         0.65193E-20         0.00000E+00
    0.99843E-08         0.13970E-19         0.00000E+00
    0.99843E-08         0.14901E-19         0.00000E+00
    0.99843E-08         0.16764E-19         0.00000E+00
    0.99843E-08         0.12107E-19         0.00000E+00
    0.99843E-08         0.51223E-20         0.00000E+00
    0.99843E-08        -0.69849E-20         0.00000E+00
    0.99843E-08         0.69849E-20         0.00000E+00
    0.99843E-08        -0.97789E-20         0.00000E+00
    0.99843E-08        -0.46566E-21         0.00000E+00
    0.99843E-08        -0.41910E-20         0.00000E+00
    0.99843E-08        -0.93132E-20         0.00000E+00
    0.99843E-08        -0.30734E-19         0.00000E+00
    0.99843E-08        -0.27707E-19         0.00000E+00
    0.99843E-08        -0.29802E-19         0.00000E+00
    0.99843E-08        -0.23749E-19         0.00000E+00
    0.99843E-08        -0.18161E-19         0.00000E+00
    0.99843E-08        -0.11642E-19         0.00000E+00
    0.99843E-08        -0.14901E-19         0.00000E+00
    0.99843E-08        -0.93132E-20         0.00000E+00
    0.99843E-08         0.13970E-20         0.00000E+00
    0.99843E-08         0.90804E-20         0.00000E+00
    0.99843E-08         0.16531E-19         0.00000E+00
    0.99843E-08         0.13970E-19         0.00000E+00
    0.99843E-08         0.10477E-19         0.00000E+00
    0.99843E-08         0.69849E-20         0.00000E+00
    0.99843E-08         0.93132E-21         0.00000E+00
    0.99843E-08         0.32596E-20         0.00000E+00
    0.99843E-08        -0.23283E-20         0.00000E+00
    0.99843E-08         0.44238E-20         0.00000E+00
    0.11334E-07         0.55879E-20         0.00000E+00
    0.11334E-07         0.41910E-20         0.00000E+00
    0.11334E-07         0.27940E-20         0.00000E+00
    0.11334E-07         0.51223E-20         0.00000E+00
    0.11334E-07         0.25146E-19         0.00000E+00
    0.11334E-07         0.36089E-19         0.00000E+00
    0.11334E-07         0.30035E-19         0.00000E+00
    0.11334E-07         0.22817E-19         0.00000E+00
    0.11334E-07         0.24680E-19         0.00000E+00
    0.11334E-07         0.13970E-19         0.00000E+00
    0.11334E-07         0.16298E-19         0.00000E+00
    0.11334E-07         0.17229E-19         0.00000E+00
    0.11334E-07         0.17229E-19         0.00000E+00
    0.11334E-07         0.88476E-20         0.00000E+00
    0.11334E-07        -0.83819E-20         0.00000E+00
    0.11334E-07        -0.11874E-19         0.00000E+00
    0.11334E-07        -0.97789E-20         0.00000E+00
    0.11334E-07        -0.46566E-20         0.00000E+00
    0.11334E-07         0.48894E-20         0.00000E+00
    0.11334E-07        -0.23283E-20         0.00000E+00
    0.11334E-07         0.13970E-20         0.00000E+00
    0.11334E-07         0.60536E-20         0.00000E+00
    0.11334E-07         0.12573E-19         0.00000E+00
    0.11334E-07         0.13271E-19         0.00000E+00
    0.11334E-07         0.12806E-19         0.00000E+00
    0.11334E-07         0.93132E-21         0.00000E+00
    0.11334E-07        -0.18626E-20         0.00000E+00
    0.11334E-07        -0.55879E-20         0.00000E+00
    0.11334E-07        -0.19325E-19         0.00000E+00
    0.11334E-07        -0.18626E-20         0.00000E+00
    0.11334E-07        -0.41910E-20         0.00000E+00
    0.11334E-07        -0.83819E-20         0.00000E+00
    0.11334E-07        -0.25611E-19         0.00000E+00
    0.11334E-07        -0.29337E-19         0.00000E+00
    0.11334E-07        -0.38184E-19         0.00000E+00
    0.11334E-07        -0.28871E-19         0.00000E+00
    0.11334E-07        -0.24680E-19         0.00000E+00
    0.11334E-07        -0.23283E-19         0.00000E+00
    0.11334E-07        -0.23283E-19         0.00000E+00
    0.11334E-07        -0.16764E-19         0.00000E+00
    0.11334E-07        -0.18626E-20         0.00000E+00
    0.11334E-07         0.65193E-20         0.00000E+00
    0.11334E-07         0.13504E-19         0.00000E+00
    0.11334E-07         0.18626E-19         0.00000E+00
    0.11334E-07         0.12573E-19         0.00000E+00
    0.11334E-07         0.55879E-20         0.00000E+00
    0.11334E-07        -0.93132E-21         0.00000E+00
    0.11334E-07         0.20955E-20         0.00000E+00
    0.11334E-07        -0.18626E-20         0.00000E+00
    0.11334E-07         0.39581E-20         0.00000E+00
    0.12842E-07         0.32596E-20         0.00000E+00
    0.12842E-07         0.55879E-20         0.00000E+00
    0.12842E-07         0.65193E-20         0.00000E+00
    0.12842E-07         0.97789E-20         0.00000E+00
    0.12842E-07         0.22817E-19         0.00000E+00
    0.12842E-07         0.41910E-19         0.00000E+00
    0.12842E-07         0.35390E-19         0.00000E+00
    0.12842E-07         0.25379E-19         0.00000E+00
    0.12842E-07         0.29802E-19         0.00000E+00
    0.12842E-07         0.20489E-19         0.00000E+00
    0.12842E-07         0.19092E-19         0.00000E+00
    0.12842E-07         0.18161E-19         0.00000E+00
    0.12842E-07         0.20955E-19         0.00000E+00
    0.12842E-07         0.10710E-19         0.00000E+00
    0.12842E-07        -0.93132E-20         0.00000E+00
    0.12842E-07        -0.41910E-20         0.00000E+00
    0.12842E-07        -0.11176E-19         0.00000E+00
    0.12842E-07        -0.32596E-20         0.00000E+00
    0.12842E-07         0.23283E-20         0.00000E+00
    0.12842E-07        -0.48894E-20         0.00000E+00
    0.12842E-07        -0.37253E-20         0.00000E+00
    0.12842E-07         0.23283E-20         0.00000E+00
    0.12842E-07         0.83819E-20         0.00000E+00
    0.12842E-07         0.69849E-20         0.00000E+00
    0.12842E-07         0.11642E-19         0.00000E+00
    0.12842E-07         0.83819E-20         0.00000E+00
    0.12842E-07         0.37253E-20         0.00000E+00
    0.12842E-07        -0.18626E-20         0.00000E+00
    0.12842E-07        -0.20955E-19         0.00000E+00
    0.12842E-07        -0.23283E-20         0.00000E+00
    0.12842E-07        -0.46566E-20         0.00000E+00
    0.12842E-07        -0.14901E-19         0.00000E+00
    0.12842E-07        -0.31665E-19         0.00000E+00
    0.12842E-07        -0.34459E-19         0.00000E+00
    0.12842E-07        -0.35856E-19         0.00000E+00
    0.12842E-07        -0.27008E-19         0.00000E+00
    0.12842E-07        -0.21886E-19         0.00000E+00
    0.12842E-07        -0.20955E-19         0.00000E+00
    0.12842E-07        -0.26543E-19         0.00000E+00
    0.12842E-07        -0.19558E-19         0.00000E+00
    0.12842E-07        -0.37253E-20         0.00000E+00
    0.12842E-07         0.11176E-19         0.00000E+00
    0.12842E-07         0.18161E-19         0.00000E+00
    0.12842E-07         0.16298E-19         0.00000E+00
    0.12842E-07         0.12806E-19         0.00000E+00
    0.12842E-07         0.44238E-20         0.00000E+00
    0.12842E-07        -0.46566E-21         0.00000E+00
    0.12842E-07         0.41910E-20         0.00000E+00
    0.12842E-07        -0.18626E-20         0.00000E+00
    0.12842E-07         0.27940E-20         0.00000E+00
    0.14526E-07         0.41910E-20         0.00000E+00
    0.14526E-07         0.41910E-20         0.00000E+00
    0.14526E-07         0.74506E-20         0.00000E+00
    0.14526E-07         0.65193E-20         0.00000E+00
    0.14526E-07         0.23749E-19         0.00000E+00
    0.14526E-07         0.43306E-19         0.00000E+00
    0.14526E-07         0.50757E-19         0.00000E+00
    0.14526E-07         0.33993E-19         0.00000E+00
    0.14526E-07         0.28871E-19         0.00000E+00
    0.14526E-07         0.97789E-20         0.00000E+00
    0.14526E-07         0.16298E-19         0.00000E+00
    0.14526E-07         0.23283E-19         0.00000E+00
    0.14526E-07         0.23283E-19         0.00000E+00
    0.14526E-07         0.83819E-20         0.00000E+00
    0.14526E-07        -0.11642E-19         0.00000E+00
    0.14526E-07        -0.18626E-20         0.00000E+00
    0.14526E-07        -0.37253E-20         0.00000E+00
    0.14526E-07        -0.13970E-19         0.00000E+00
    0.14526E-07         0.00000E+00         0.00000E+00
    0.14526E-07        -0.93132E-20         0.00000E+00
    0.14526E-07        -0.18626E-20         0.00000E+00
    0.14526E-07         0.23283E-20         0.00000E+00
    0.14526E-07         0.60536E-20         0.00000E+00
    0.14526E-07         0.53551E-20         0.00000E+00
    0.14526E-07         0.11874E-19         0.00000E+00
    0.14526E-07         0.27940E-20         0.00000E+00
    0.14526E-07        -0.93132E-21         0.00000E+00
    0.14526E-07         0.23283E-20         0.00000E+00
    0.14526E-07        -0.13970E-19         0.00000E+00
    0.14526E-07        -0.32596E-20         0.00000E+00
    0.14526E-07        -0.83819E-20         0.00000E+00
    0.14526E-07        -0.12107E-19         0.00000E+00
    0.14526E-07        -0.37719E-19         0.00000E+00
    0.14526E-07        -0.36322E-19         0.00000E+00
    0.14526E-07        -0.29337E-19         0.00000E+00
    0.14526E-07        -0.22817E-19         0.00000E+00
    0.14526E-07        -0.16065E-19         0.00000E+00
    0.14526E-07        -0.13970E-19         0.00000E+00
    0.14526E-07        -0.20489E-19         0.00000E+00
    0.14526E-07        -0.22817E-19         0.00000E+00
    0.14526E-07         0.46566E-21         0.00000E+00
    0.14526E-07         0.11176E-19         0.00000E+00
    0.14526E-07         0.14901E-19         0.00000E+00
    0.14526E-07         0.18161E-19         0.00000E+00
    0.14526E-07         0.32596E-20         0.00000E+00
    0.14526E-07        -0.46566E-20         0.00000E+00
    0.14526E-07         0.00000E+00         0.00000E+00
    0.14526E-07         0.41910E-20         0.00000E+00
    0.14526E-07        -0.69849E-20         0.00000E+00
    0.14526E-07         0.25611E-20         0.00000E+00
    0.16398E-07         0.65193E-20         0.00000E+00
    0.16398E-07         0.74506E-20         0.00000E+00
    0.16398E-07         0.12573E-19         0.00000E+00
    0.16398E-07         0.17229E-19         0.00000E+00
    0.16398E-07         0.25146E-19         0.00000E+00
    0.16398E-07         0.39581E-19         0.00000E+00
    0.16398E-07         0.43772E-19         0.00000E+00
    0.16398E-07         0.34925E-19         0.00000E+00
    0.16398E-07         0.27474E-19         0.00000E+00
    0.16398E-07         0.18161E-19         0.00000E+00
    0.16398E-07         0.97789E-20         0.00000E+00
    0.16398E-07         0.20023E-19         0.00000E+00
    0.16398E-07         0.22817E-19         0.00000E+00
    0.16398E-07         0.13039E-19         0.00000E+00
    0.16398E-07         0.93132E-21         0.00000E+00
    0.16398E-07        -0.11642E-20         0.00000E+00
    0.16398E-07         0.46566E-21         0.00000E+00
    0.16398E-07        -0.62864E-20         0.00000E+00
    0.16398E-07         0.46566E-20         0.00000E+00
    0.16398E-07        -0.86147E-20         0.00000E+00
    0.16398E-07        -0.13970E-20         0.00000E+00
    0.16398E-07         0.69849E-21         0.00000E+00
    0.16398E-07         0.16298E-20         0.00000E+00
    0.16398E-07         0.32596E-20         0.00000E+00
    0.16398E-07         0.60536E-20         0.00000E+00
    0.16398E-07         0.16298E-20         0.00000E+00
    0.16398E-07         0.32596E-20         0.00000E+00
    0.16398E-07        -0.27940E-20         0.00000E+00
    0.16398E-07        -0.18161E-19         0.00000E+00
    0.16398E-07        -0.46566E-21         0.00000E+00
    0.16398E-07        -0.11874E-19         0.00000E+00
    0.16398E-07        -0.13970E-19         0.00000E+00
    0.16398E-07        -0.29802E-19         0.00000E+00
    0.16398E-07        -0.36787E-19         0.00000E+00
    0.16398E-07        -0.28405E-19         0.00000E+00
    0.16398E-07        -0.25611E-19         0.00000E+00
    0.16398E-07        -0.67521E-20         0.00000E+00
    0.16398E-07        -0.12806E-19         0.00000E+00
    0.16398E-07        -0.13504E-19         0.00000E+00
    0.16398E-07        -0.17695E-19         0.00000E+00
    0.16398E-07        -0.44238E-20         0.00000E+00
    0.16398E-07         0.41910E-20         0.00000E+00
    0.16398E-07         0.97789E-20         0.00000E+00
    0.16398E-07         0.14901E-19         0.00000E+00
    0.16398E-07         0.69849E-21         0.00000E+00
    0.16398E-07        -0.18626E-20         0.00000E+00
    0.16398E-07        -0.27940E-20         0.00000E+00
    0.16398E-07        -0.93132E-21         0.00000E+00
    0.16398E-07        -0.88476E-20         0.00000E+00
    0.16398E-07        -0.69849E-21         0.00000E+00
    0.18476E-07         0.69849E-20         0.00000E+00
    0.18476E-07         0.14435E-19         0.00000E+00
    0.18476E-07         0.86147E-20         0.00000E+00
    0.18476E-07         0.13039E-19         0.00000E+00
    0.18476E-07         0.20955E-19         0.00000E+00
    0.18476E-07         0.39581E-19         0.00000E+00
    0.18476E-07         0.35390E-19         0.00000E+00
    0.18476E-07         0.31665E-19         0.00000E+00
    0.18476E-07         0.28638E-19         0.00000E+00
    0.18476E-07         0.14901E-19         0.00000E+00
    0.18476E-07         0.14901E-19         0.00000E+00
    0.18476E-07         0.13970E-19         0.00000E+00
    0.18476E-07         0.24214E-19         0.00000E+00
    0.18476E-07         0.24214E-19         0.00000E+00
    0.18476E-07         0.83819E-20         0.00000E+00
    0.18476E-07        -0.93132E-21         0.00000E+00
    0.18476E-07         0.46566E-20         0.00000E+00
    0.18476E-07         0.51223E-20         0.00000E+00
    0.18476E-07         0.88476E-20         0.00000E+00
    0.18476E-07         0.30268E-20         0.00000E+00
    0.18476E-07         0.16298E-20         0.00000E+00
    0.18476E-07         0.67521E-20         0.00000E+00
    0.18476E-07         0.65193E-20         0.00000E+00
    0.18476E-07         0.39581E-20         0.00000E+00
    0.18476E-07        -0.37253E-20         0.00000E+00
    0.18476E-07         0.00000E+00         0.00000E+00
    0.18476E-07        -0.10710E-19         0.00000E+00
    0.18476E-07        -0.13970E-19         0.00000E+00
    0.18476E-07        -0.19092E-19         0.00000E+00
    0.18476E-07        -0.14435E-19         0.00000E+00
    0.18476E-07        -0.20955E-19         0.00000E+00
    0.18476E-07        -0.22585E-19         0.00000E+00
    0.18476E-07        -0.25146E-19         0.00000E+00
    0.18476E-07        -0.33528E-19         0.00000E+00
    0.18476E-07        -0.26543E-19         0.00000E+00
    0.18476E-07        -0.23050E-19         0.00000E+00
    0.18476E-07        -0.10943E-19         0.00000E+00
    0.18476E-07        -0.10245E-19         0.00000E+00
    0.18476E-07        -0.65193E-20         0.00000E+00
    0.18476E-07        -0.16065E-19         0.00000E+00
    0.18476E-07        -0.93132E-21         0.00000E+00
    0.18476E-07         0.13039E-19         0.00000E+00
    0.18476E-07         0.12107E-19         0.00000E+00
    0.18476E-07         0.10710E-19         0.00000E+00
    0.18476E-07         0.41910E-20         0.00000E+00
    0.18476E-07         0.41910E-20         0.00000E+00
    0.18476E-07         0.41910E-20         0.00000E+00
    0.18476E-07         0.69849E-20         0.00000E+00
    0.18476E-07        -0.69849E-20         0.00000E+00
    0.18476E-07         0.65193E-20         0.00000E+00
    0.20775E-07         0.11176E-19         0.00000E+00
    0.20775E-07         0.19092E-19         0.00000E+00
    0.20775E-07         0.14901E-19         0.00000E+00
    0.20775E-07         0.10710E-19         0.00000E+00
    0.20775E-07         0.27474E-19         0.00000E+00
    0.20775E-07         0.40513E-19         0.00000E+00
    0.20775E-07         0.34226E-19         0.00000E+00
    0.20775E-07         0.24680E-19         0.00000E+00
    0.20775E-07         0.27707E-19         0.00000E+00
    0.20775E-07         0.15832E-19         0.00000E+00
    0.20775E-07         0.16764E-19         0.00000E+00
    0.20775E-07         0.21420E-19         0.00000E+00
    0.20775E-07         0.29337E-19         0.00000E+00
    0.20775E-07         0.20955E-19         0.00000E+00
    0.20775E-07         0.11642E-19         0.00000E+00
    0.20775E-07         0.10710E-19         0.00000E+00
    0.20775E-07         0.10710E-19         0.00000E+00
    0.20775E-07         0.69849E-20         0.00000E+00
    0.20775E-07         0.12573E-19         0.00000E+00
    0.20775E-07         0.55879E-20         0.00000E+00
    0.20775E-07         0.41910E-20         0.00000E+00
    0.20775E-07         0.11642E-19         0.00000E+00
    0.20775E-07         0.14901E-19         0.00000E+00
    0.20775E-07         0.65193E-20         0.00000E+00
    0.20775E-07         0.13970E-20         0.00000E+00
    0.20775E-07        -0.51223E-20         0.00000E+00
    0.20775E-07        -0.76834E-20         0.00000E+00
    0.20775E-07        -0.79162E-20         0.00000E+00
    0.20775E-07        -0.20489E-19         0.00000E+00
    0.20775E-07        -0.15832E-19         0.00000E+00
    0.20775E-07        -0.24680E-19         0.00000E+00
    0.20775E-07        -0.21420E-19         0.00000E+00
    0.20775E-07        -0.30268E-19         0.00000E+00
    0.20775E-07        -0.30734E-19         0.00000E+00
    0.20775E-07        -0.31199E-19         0.00000E+00
    0.20775E-07        -0.26077E-19         0.00000E+00
    0.20775E-07        -0.15367E-19         0.00000E+00
    0.20775E-07        -0.41910E-20         0.00000E+00
    0.20775E-07        -0.11176E-19         0.00000E+00
    0.20775E-07        -0.14901E-19         0.00000E+00
    0.20775E-07         0.46566E-20         0.00000E+00
    0.20775E-07         0.15832E-19         0.00000E+00
    0.20775E-07         0.20489E-19         0.00000E+00
    0.20775E-07         0.10710E-19         0.00000E+00
    0.20775E-07         0.79162E-20         0.00000E+00
    0.20775E-07         0.65193E-20         0.00000E+00
    0.20775E-07        -0.23283E-21         0.00000E+00
    0.20775E-07         0.60536E-20         0.00000E+00
    0.20775E-07        -0.27940E-20         0.00000E+00
    0.20775E-07         0.13970E-20         0.00000E+00
    0.23311E-07         0.65193E-20         0.00000E+00
    0.23311E-07         0.20489E-19         0.00000E+00
    0.23311E-07         0.16531E-19         0.00000E+00
    0.23311E-07         0.12573E-19         0.00000E+00
    0.23311E-07         0.24214E-19         0.00000E+00
    0.23311E-07         0.41444E-19         0.00000E+00
    0.23311E-07         0.36322E-19         0.00000E+00
    0.23311E-07         0.23283E-19         0.00000E+00
    0.23311E-07         0.28405E-19         0.00000E+00
    0.23311E-07         0.23283E-19         0.00000E+00
    0.23311E-07         0.28405E-19         0.00000E+00
    0.23311E-07         0.26077E-19         0.00000E+00
    0.23311E-07         0.25611E-19         0.00000E+00
    0.23311E-07         0.15367E-19         0.00000E+00
    0.23311E-07         0.51223E-20         0.00000E+00
    0.23311E-07         0.51223E-20         0.00000E+00
    0.23311E-07         0.00000E+00         0.00000E+00
    0.23311E-07         0.74506E-20         0.00000E+00
    0.23311E-07         0.19558E-19         0.00000E+00
    0.23311E-07         0.46566E-20         0.00000E+00
    0.23311E-07         0.18626E-20         0.00000E+00
    0.23311E-07         0.00000E+00         0.00000E+00
    0.23311E-07         0.13970E-19         0.00000E+00
    0.23311E-07         0.13271E-19         0.00000E+00
    0.23311E-07         0.60536E-20         0.00000E+00
    0.23311E-07         0.37253E-20         0.00000E+00
    0.23311E-07         0.18626E-20         0.00000E+00
    0.23311E-07        -0.13504E-19         0.00000E+00
    0.23311E-07        -0.28405E-19         0.00000E+00
    0.23311E-07        -0.12107E-19         0.00000E+00
    0.23311E-07        -0.18161E-19         0.00000E+00
    0.23311E-07        -0.17695E-19         0.00000E+00
    0.23311E-07        -0.24214E-19         0.00000E+00
    0.23311E-07        -0.31199E-19         0.00000E+00
    0.23311E-07        -0.32596E-19         0.00000E+00
    0.23311E-07        -0.23283E-19         0.00000E+00
    0.23311E-07        -0.12573E-19         0.00000E+00
    0.23311E-07        -0.69849E-20         0.00000E+00
    0.23311E-07        -0.10245E-19         0.00000E+00
    0.23311E-07        -0.76834E-20         0.00000E+00
    0.23311E-07         0.27940E-20         0.00000E+00
    0.23311E-07         0.13504E-19         0.00000E+00
    0.23311E-07         0.16298E-19         0.00000E+00
    0.23311E-07         0.10245E-19         0.00000E+00
    0.23311E-07         0.60536E-20         0.00000E+00
    0.23311E-07        -0.46566E-21         0.00000E+00
    0.23311E-07        -0.27940E-20         0.00000E+00
    0.23311E-07         0.69849E-21         0.00000E+00
    0.23311E-07        -0.41910E-20         0.00000E+00
    0.23311E-07         0.23283E-20         0.00000E+00
    0.26099E-07         0.27940E-20         0.00000E+00
    0.26099E-07         0.14435E-19         0.00000E+00
    0.26099E-07         0.11176E-19         0.00000E+00
    0.26099E-07         0.14901E-19         0.00000E+00
    0.26099E-07         0.23283E-19         0.00000E+00
    0.26099E-07         0.40047E-19         0.00000E+00
    0.26099E-07         0.41444E-19         0.00000E+00
    0.26099E-07         0.30268E-19         0.00000E+00
    0.26099E-07         0.19092E-19         0.00000E+00
    0.26099E-07         0.12573E-19         0.00000E+00
    0.26099E-07         0.20955E-19         0.00000E+00
    0.26099E-07         0.27940E-19         0.00000E+00
    0.26099E-07         0.29337E-19         0.00000E+00
    0.26099E-07         0.10710E-19         0.00000E+00
    0.26099E-07         0.62864E-20         0.00000E+00
    0.26099E-07         0.74506E-20         0.00000E+00
    0.26099E-07         0.18626E-20         0.00000E+00
    0.26099E-07        -0.13970E-20         0.00000E+00
    0.26099E-07         0.83819E-20         0.00000E+00
    0.26099E-07         0.55879E-20         0.00000E+00
    0.26099E-07        -0.23283E-20         0.00000E+00
    0.26099E-07         0.23283E-20         0.00000E+00
    0.26099E-07         0.10710E-19         0.00000E+00
    0.26099E-07         0.11642E-19         0.00000E+00
    0.26099E-07         0.10245E-19         0.00000E+00
    0.26099E-07         0.88476E-20         0.00000E+00
    0.26099E-07         0.32596E-20         0.00000E+00
    0.26099E-07        -0.93132E-20         0.00000E+00
    0.26099E-07        -0.28405E-19         0.00000E+00
    0.26099E-07        -0.13039E-19         0.00000E+00
    0.26099E-07        -0.18626E-19         0.00000E+00
    0.26099E-07        -0.16298E-19         0.00000E+00
    0.26099E-07        -0.25146E-19         0.00000E+00
    0.26099E-07        -0.28405E-19         0.00000E+00
    0.26099E-07        -0.24214E-19         0.00000E+00
    0.26099E-07        -0.19558E-19         0.00000E+00
    0.26099E-07        -0.97789E-20         0.00000E+00
    0.26099E-07        -0.11409E-19         0.00000E+00
    0.26099E-07        -0.48894E-20         0.00000E+00
    0.26099E-07        -0.79162E-20         0.00000E+00
    0.26099E-07         0.69849E-20         0.00000E+00
    0.26099E-07         0.13970E-19         0.00000E+00
    0.26099E-07         0.12107E-19         0.00000E+00
    0.26099E-07         0.15832E-19         0.00000E+00
    0.26099E-07         0.25611E-20         0.00000E+00
    0.26099E-07        -0.13970E-20         0.00000E+00
    0.26099E-07         0.00000E+00         0.00000E+00
    0.26099E-07         0.79162E-20         0.00000E+00
    0.26099E-07        -0.18626E-20         0.00000E+00
    0.26099E-07         0.23283E-21         0.00000E+00
    0.29155E-07         0.69849E-20         0.00000E+00
    0.29155E-07         0.10477E-19         0.00000E+00
    0.29155E-07         0.11176E-19         0.00000E+00
    0.29155E-07         0.12573E-19         0.00000E+00
    0.29155E-07         0.20023E-19         0.00000E+00
    0.29155E-07         0.33528E-19         0.00000E+00
    0.29155E-07         0.41444E-19         0.00000E+00
    0.29155E-07         0.27474E-19         0.00000E+00
    0.29155E-07         0.24680E-19         0.00000E+00
    0.29155E-07         0.74506E-20         0.00000E+00
    0.29155E-07         0.11176E-19         0.00000E+00
    0.29155E-07         0.21886E-19         0.00000E+00
    0.29155E-07         0.24214E-19         0.00000E+00
    0.29155E-07         0.93132E-20         0.00000E+00
    0.29155E-07         0.10710E-19         0.00000E+00
    0.29155E-07         0.69849E-20         0.00000E+00
    0.29155E-07         0.27940E-20         0.00000E+00
    0.29155E-07        -0.37253E-20         0.00000E+00
    0.29155E-07         0.27940E-20         0.00000E+00
    0.29155E-07         0.00000E+00         0.00000E+00
    0.29155E-07         0.32596E-20         0.00000E+00
    0.29155E-07         0.65193E-20         0.00000E+00
    0.29155E-07         0.14901E-19         0.00000E+00
    0.29155E-07         0.11409E-19         0.00000E+00
    0.29155E-07         0.46566E-20         0.00000E+00
    0.29155E-07         0.20955E-20         0.00000E+00
    0.29155E-07         0.30268E-20         0.00000E+00
    0.29155E-07         0.23283E-20         0.00000E+00
    0.29155E-07        -0.18626E-19         0.00000E+00
    0.29155E-07        -0.11642E-19         0.00000E+00
    0.29155E-07        -0.97789E-20         0.00000E+00
    0.29155E-07        -0.14901E-19         0.00000E+00
    0.29155E-07        -0.30501E-19         0.00000E+00
    0.29155E-07        -0.25611E-19         0.00000E+00
    0.29155E-07        -0.28638E-19         0.00000E+00
    0.29155E-07        -0.28871E-19         0.00000E+00
    0.29155E-07        -0.14435E-19         0.00000E+00
    0.29155E-07        -0.11642E-19         0.00000E+00
    0.29155E-07        -0.13970E-19         0.00000E+00
    0.29155E-07        -0.14435E-19         0.00000E+00
    0.29155E-07         0.27940E-20         0.00000E+00
    0.29155E-07         0.16298E-19         0.00000E+00
    0.29155E-07         0.17229E-19         0.00000E+00
    0.29155E-07         0.11176E-19         0.00000E+00
    0.29155E-07         0.13970E-20         0.00000E+00
    0.29155E-07        -0.16298E-20         0.00000E+00
    0.29155E-07        -0.18626E-20         0.00000E+00
    0.29155E-07         0.41910E-20         0.00000E+00
    0.29155E-07         0.46566E-21         0.00000E+00
    0.29155E-07         0.23283E-20         0.00000E+00
    0.32493E-07         0.32596E-20         0.00000E+00
    0.32493E-07         0.11874E-19         0.00000E+00
    0.32493E-07         0.12806E-19         0.00000E+00
    0.32493E-07         0.11642E-19         0.00000E+00
    0.32493E-07         0.13039E-19         0.00000E+00
    0.32493E-07         0.33528E-19         0.00000E+00
    0.32493E-07         0.33528E-19         0.00000E+00
    0.32493E-07         0.25611E-19         0.00000E+00
    0.32493E-07         0.25146E-19         0.00000E+00
    0.32493E-07         0.16764E-19         0.00000E+00
    0.32493E-07         0.21420E-19         0.00000E+00
    0.32493E-07         0.22817E-19         0.00000E+00
    0.32493E-07         0.23749E-19         0.00000E+00
    0.32493E-07         0.16997E-19         0.00000E+00
    0.32493E-07        -0.65193E-20         0.00000E+00
    0.32493E-07        -0.46566E-20         0.00000E+00
    0.32493E-07         0.00000E+00         0.00000E+00
    0.32493E-07         0.32596E-20         0.00000E+00
    0.32493E-07         0.12107E-19         0.00000E+00
    0.32493E-07         0.51223E-20         0.00000E+00
    0.32493E-07         0.79162E-20         0.00000E+00
    0.32493E-07         0.55879E-20         0.00000E+00
    0.32493E-07         0.74506E-20         0.00000E+00
    0.32493E-07         0.60536E-20         0.00000E+00
    0.32493E-07         0.41910E-20         0.00000E+00
    0.32493E-07        -0.13970E-20         0.00000E+00
    0.32493E-07         0.51223E-20         0.00000E+00
    0.32493E-07         0.37253E-20         0.00000E+00
    0.32493E-07        -0.17229E-19         0.00000E+00
    0.32493E-07        -0.46566E-20         0.00000E+00
    0.32493E-07        -0.93132E-20         0.00000E+00
    0.32493E-07        -0.12340E-19         0.00000E+00
    0.32493E-07        -0.29337E-19         0.00000E+00
    0.32493E-07        -0.33062E-19         0.00000E+00
    0.32493E-07        -0.30734E-19         0.00000E+00
    0.32493E-07        -0.26310E-19         0.00000E+00
    0.32493E-07        -0.81491E-20         0.00000E+00
    0.32493E-07        -0.16764E-19         0.00000E+00
    0.32493E-07        -0.24680E-19         0.00000E+00
    0.32493E-07        -0.14435E-19         0.00000E+00
    0.32493E-07         0.37253E-20         0.00000E+00
    0.32493E-07         0.11874E-19         0.00000E+00
    0.32493E-07         0.12573E-19         0.00000E+00
    0.32493E-07         0.81491E-20         0.00000E+00
    0.32493E-07        -0.34925E-20         0.00000E+00
    0.32493E-07        -0.76834E-20         0.00000E+00
    0.32493E-07        -0.41910E-20         0.00000E+00
    0.32493E-07         0.00000E+00         0.00000E+00
    0.32493E-07        -0.18626E-20         0.00000E+00
    0.32493E-07        -0.16298E-20         0.00000E+00
    0.36124E-07         0.46566E-20         0.00000E+00
    0.36124E-07         0.12573E-19         0.00000E+00
    0.36124E-07         0.11176E-19         0.00000E+00
    0.36124E-07         0.17695E-19         0.00000E+00
    0.36124E-07         0.19558E-19         0.00000E+00
    0.36124E-07         0.39581E-19         0.00000E+00
    0.36124E-07         0.37719E-19         0.00000E+00
    0.36124E-07         0.35856E-19         0.00000E+00
    0.36124E-07         0.32131E-19         0.00000E+00
    0.36124E-07         0.23283E-19         0.00000E+00
    0.36124E-07         0.25146E-19         0.00000E+00
    0.36124E-07         0.31665E-19         0.00000E+00
    0.36124E-07         0.30268E-19         0.00000E+00
    0.36124E-07         0.19558E-19         0.00000E+00
    0.36124E-07        -0.27940E-20         0.00000E+00
    0.36124E-07         0.27940E-20         0.00000E+00
    0.36124E-07         0.46566E-20         0.00000E+00
    0.36124E-07         0.23283E-20         0.00000E+00
    0.36124E-07         0.65193E-20         0.00000E+00
    0.36124E-07         0.74506E-20         0.00000E+00
    0.36124E-07         0.18626E-20         0.00000E+00
    0.36124E-07         0.46566E-20         0.00000E+00
    0.36124E-07         0.88476E-20         0.00000E+00
    0.36124E-07         0.69849E-20         0.00000E+00
    0.36124E-07         0.60536E-20         0.00000E+00
    0.36124E-07         0.10245E-19         0.00000E+00
    0.36124E-07         0.18626E-20         0.00000E+00
    0.36124E-07        -0.74506E-20         0.00000E+00
    0.36124E-07        -0.22817E-19         0.00000E+00
    0.36124E-07        -0.10710E-19         0.00000E+00
    0.36124E-07        -0.16298E-19         0.00000E+00
    0.36124E-07        -0.74506E-20         0.00000E+00
    0.36124E-07        -0.28871E-19         0.00000E+00
    0.36124E-07        -0.28405E-19         0.00000E+00
    0.36124E-07        -0.28871E-19         0.00000E+00
    0.36124E-07        -0.14668E-19         0.00000E+00
    0.36124E-07        -0.14203E-19         0.00000E+00
    0.36124E-07        -0.12107E-19         0.00000E+00
    0.36124E-07        -0.18626E-19         0.00000E+00
    0.36124E-07        -0.19092E-19         0.00000E+00
    0.36124E-07         0.00000E+00         0.00000E+00
    0.36124E-07         0.13039E-19         0.00000E+00
    0.36124E-07         0.13039E-19         0.00000E+00
    0.36124E-07         0.18626E-20         0.00000E+00
    0.36124E-07        -0.10245E-19         0.00000E+00
    0.36124E-07        -0.13970E-19         0.00000E+00
    0.36124E-07        -0.69849E-20         0.00000E+00
    0.36124E-07         0.16298E-20         0.00000E+00
    0.36124E-07        -0.23283E-20         0.00000E+00
    0.36124E-07         0.00000E+00         0.00000E+00
    0.40060E-07         0.37253E-20         0.00000E+00
    0.40060E-07         0.79162E-20         0.00000E+00
    0.40060E-07         0.62864E-20         0.00000E+00
    0.40060E-07         0.15367E-19         0.00000E+00
    0.40060E-07         0.24680E-19         0.00000E+00
    0.40060E-07         0.41444E-19         0.00000E+00
    0.40060E-07         0.39116E-19         0.00000E+00
    0.40060E-07         0.32596E-19         0.00000E+00
    0.40060E-07         0.37253E-19         0.00000E+00
    0.40060E-07         0.29569E-19         0.00000E+00
    0.40060E-07         0.30268E-19         0.00000E+00
    0.40060E-07         0.30501E-19         0.00000E+00
    0.40060E-07         0.27940E-19         0.00000E+00
    0.40060E-07         0.28871E-19         0.00000E+00
    0.40060E-07         0.13039E-19         0.00000E+00
    0.40060E-07         0.41910E-20         0.00000E+00
    0.40060E-07         0.55879E-20         0.00000E+00
    0.40060E-07        -0.32596E-20         0.00000E+00
    0.40060E-07         0.11176E-19         0.00000E+00
    0.40060E-07         0.46566E-20         0.00000E+00
    0.40060E-07         0.00000E+00         0.00000E+00
    0.40060E-07         0.60536E-20         0.00000E+00
    0.40060E-07         0.13970E-19         0.00000E+00
    0.40060E-07         0.14435E-19         0.00000E+00
    0.40060E-07         0.11642E-19         0.00000E+00
    0.40060E-07         0.83819E-20         0.00000E+00
    0.40060E-07        -0.65193E-20         0.00000E+00
    0.40060E-07        -0.12107E-19         0.00000E+00
    0.40060E-07        -0.20489E-19         0.00000E+00
    0.40060E-07        -0.14901E-19         0.00000E+00
    0.40060E-07        -0.17229E-19         0.00000E+00
    0.40060E-07        -0.11642E-19         0.00000E+00
    0.40060E-07        -0.26543E-19         0.00000E+00
    0.40060E-07        -0.30734E-19         0.00000E+00
    0.40060E-07        -0.27241E-19         0.00000E+00
    0.40060E-07        -0.18161E-19         0.00000E+00
    0.40060E-07        -0.16764E-19         0.00000E+00
    0.40060E-07        -0.13039E-19         0.00000E+00
    0.40060E-07        -0.16298E-19         0.00000E+00
    0.40060E-07        -0.15832E-19         0.00000E+00
    0.40060E-07        -0.32596E-20         0.00000E+00
    0.40060E-07         0.13970E-19         0.00000E+00
    0.40060E-07         0.12573E-19         0.00000E+00
    0.40060E-07         0.74506E-20         0.00000E+00
    0.40060E-07        -0.46566E-20         0.00000E+00
    0.40060E-07        -0.41910E-20         0.00000E+00
    0.40060E-07        -0.93132E-20         0.00000E+00
    0.40060E-07        -0.30268E-20         0.00000E+00
    0.40060E-07        -0.46566E-20         0.00000E+00
    0.40060E-07         0.60536E-20         0.00000E+00
    0.44308E-07         0.41910E-20         0.00000E+00
    0.44308E-07         0.88476E-20         0.00000E+00
    0.44308E-07         0.69849E-21         0.00000E+00
    0.44308E-07         0.10012E-19         0.00000E+00
    0.44308E-07         0.25146E-19         0.00000E+00
    0.44308E-07         0.44238E-19         0.00000E+00
    0.44308E-07         0.42841E-19         0.00000E+00
    0.44308E-07         0.31665E-19         0.00000E+00
    0.44308E-07         0.30035E-19         0.00000E+00
    0.44308E-07         0.25844E-19         0.00000E+00
    0.44308E-07         0.31199E-19         0.00000E+00
    0.44308E-07         0.30035E-19         0.00000E+00
    0.44308E-07         0.25146E-19         0.00000E+00
    0.44308E-07         0.24447E-19         0.00000E+00
    0.44308E-07         0.11409E-19         0.00000E+00
    0.44308E-07         0.69849E-20         0.00000E+00
    0.44308E-07         0.60536E-20         0.00000E+00
    0.44308E-07         0.41910E-20         0.00000E+00
    0.44308E-07         0.10245E-19         0.00000E+00
    0.44308E-07         0.65193E-20         0.00000E+00
    0.44308E-07         0.51223E-20         0.00000E+00
    0.44308E-07         0.41910E-20         0.00000E+00
    0.44308E-07         0.13039E-19         0.00000E+00
    0.44308E-07         0.10710E-19         0.00000E+00
    0.44308E-07         0.11642E-19         0.00000E+00
    0.44308E-07         0.65193E-20         0.00000E+00
    0.44308E-07        -0.69849E-20         0.00000E+00
    0.44308E-07        -0.10245E-19         0.00000E+00
    0.44308E-07        -0.23283E-19         0.00000E+00
    0.44308E-07        -0.16764E-19         0.00000E+00
    0.44308E-07        -0.16764E-19         0.00000E+00
    0.44308E-07        -0.13970E-19         0.00000E+00
    0.44308E-07        -0.30268E-19         0.00000E+00
    0.44308E-07        -0.37253E-19         0.00000E+00
    0.44308E-07        -0.31898E-19         0.00000E+00
    0.44308E-07        -0.29337E-19         0.00000E+00
    0.44308E-07        -0.13970E-19         0.00000E+00
    0.44308E-07        -0.12107E-19         0.00000E+00
    0.44308E-07        -0.13970E-19         0.00000E+00
    0.44308E-07        -0.14901E-19         0.00000E+00
    0.44308E-07         0.16298E-20         0.00000E+00
    0.44308E-07         0.10710E-19         0.00000E+00
    0.44308E-07         0.74506E-20         0.00000E+00
    0.44308E-07         0.10943E-19         0.00000E+00
    0.44308E-07         0.72177E-20         0.00000E+00
    0.44308E-07         0.60536E-20         0.00000E+00
    0.44308E-07         0.20955E-20         0.00000E+00
    0.44308E-07         0.11642E-20         0.00000E+00
    0.44308E-07        -0.37253E-20         0.00000E+00
    0.44308E-07         0.32596E-20         0.00000E+00
    0.48873E-07         0.65193E-20         0.00000E+00
    0.48873E-07         0.12573E-19         0.00000E+00
    0.48873E-07         0.13504E-19         0.00000E+00
    0.48873E-07         0.17229E-19         0.00000E+00
    0.48873E-07         0.30734E-19         0.00000E+00
    0.48873E-07         0.46100E-19         0.00000E+00
    0.48873E-07         0.48894E-19         0.00000E+00
    0.48873E-07         0.34692E-19         0.00000E+00
    0.48873E-07         0.31665E-19         0.00000E+00
    0.48873E-07         0.21420E-19         0.00000E+00
    0.48873E-07         0.26543E-19         0.00000E+00
    0.48873E-07         0.25611E-19         0.00000E+00
    0.48873E-07         0.23283E-19         0.00000E+00
    0.48873E-07         0.20023E-19         0.00000E+00
    0.48873E-07         0.95461E-20         0.00000E+00
    0.48873E-07         0.10710E-19         0.00000E+00
    0.48873E-07         0.79162E-20         0.00000E+00
    0.48873E-07         0.23283E-20         0.00000E+00
    0.48873E-07         0.13504E-19         0.00000E+00
    0.48873E-07         0.10245E-19         0.00000E+00
    0.48873E-07         0.10245E-19         0.00000E+00
    0.48873E-07         0.69849E-20         0.00000E+00
    0.48873E-07         0.93132E-20         0.00000E+00
    0.48873E-07         0.11642E-19         0.00000E+00
    0.48873E-07         0.41910E-20         0.00000E+00
    0.48873E-07         0.41910E-20         0.00000E+00
    0.48873E-07        -0.32596E-20         0.00000E+00
    0.48873E-07        -0.10245E-19         0.00000E+00
    0.48873E-07        -0.24680E-19         0.00000E+00
    0.48873E-07        -0.16764E-19         0.00000E+00
    0.48873E-07        -0.21420E-19         0.00000E+00
    0.48873E-07        -0.23283E-19         0.00000E+00
    0.48873E-07        -0.34459E-19         0.00000E+00
    0.48873E-07        -0.30268E-19         0.00000E+00
    0.48873E-07        -0.33062E-19         0.00000E+00
    0.48873E-07        -0.23749E-19         0.00000E+00
    0.48873E-07        -0.46566E-20         0.00000E+00
    0.48873E-07        -0.37253E-20         0.00000E+00
    0.48873E-07        -0.69849E-20         0.00000E+00
    0.48873E-07        -0.10710E-19         0.00000E+00
    0.48873E-07         0.00000E+00         0.00000E+00
    0.48873E-07         0.65193E-20         0.00000E+00
    0.48873E-07         0.79162E-20         0.00000E+00
    0.48873E-07         0.83819E-20         0.00000E+00
    0.48873E-07         0.97789E-20         0.00000E+00
    0.48873E-07         0.55879E-20         0.00000E+00
    0.48873E-07        -0.37616E-36         0.00000E+00
    0.48873E-07         0.97789E-20         0.00000E+00
    0.48873E-07        -0.55879E-20         0.00000E+00
    0.48873E-07         0.18626E-20         0.00000E+00
    0.53756E-07         0.48894E-20         0.00000E+00
    0.53756E-07         0.14435E-19         0.00000E+00
    0.53756E-07         0.15367E-19         0.00000E+00
    0.53756E-07         0.20256E-19         0.00000E+00
    0.53756E-07         0.35856E-19         0.00000E+00
    0.53756E-07         0.41444E-19         0.00000E+00
    0.53756E-07         0.45169E-19         0.00000E+00
    0.53756E-07         0.38650E-19         0.00000E+00
    0.53756E-07         0.35390E-19         0.00000E+00
    0.53756E-07         0.22817E-19         0.00000E+00
    0.53756E-07         0.23283E-19         0.00000E+00
    0.53756E-07         0.25146E-19         0.00000E+00
    0.53756E-07         0.27008E-19         0.00000E+00
    0.53756E-07         0.24680E-19         0.00000E+00
    0.53756E-07         0.14435E-19         0.00000E+00
    0.53756E-07         0.10012E-19         0.00000E+00
    0.53756E-07         0.79162E-20         0.00000E+00
    0.53756E-07         0.00000E+00         0.00000E+00
    0.53756E-07         0.15134E-19         0.00000E+00
    0.53756E-07         0.83819E-20         0.00000E+00
    0.53756E-07         0.37253E-20         0.00000E+00
    0.53756E-07         0.27940E-20         0.00000E+00
    0.53756E-07         0.46566E-21         0.00000E+00
    0.53756E-07         0.10245E-19         0.00000E+00
    0.53756E-07         0.65193E-20         0.00000E+00
    0.53756E-07         0.41910E-20         0.00000E+00
    0.53756E-07        -0.65193E-20         0.00000E+00
    0.53756E-07        -0.10245E-19         0.00000E+00
    0.53756E-07        -0.27940E-19         0.00000E+00
    0.53756E-07        -0.19092E-19         0.00000E+00
    0.53756E-07        -0.19558E-19         0.00000E+00
    0.53756E-07        -0.18161E-19         0.00000E+00
    0.53756E-07        -0.32596E-19         0.00000E+00
    0.53756E-07        -0.21420E-19         0.00000E+00
    0.53756E-07        -0.22352E-19         0.00000E+00
    0.53756E-07        -0.21886E-19         0.00000E+00
    0.53756E-07        -0.93132E-20         0.00000E+00
    0.53756E-07        -0.74506E-20         0.00000E+00
    0.53756E-07        -0.72177E-20         0.00000E+00
    0.53756E-07        -0.14435E-19         0.00000E+00
    0.53756E-07        -0.13970E-20         0.00000E+00
    0.53756E-07         0.27940E-20         0.00000E+00
    0.53756E-07         0.60536E-20         0.00000E+00
    0.53756E-07         0.69849E-20         0.00000E+00
    0.53756E-07        -0.20955E-20         0.00000E+00
    0.53756E-07        -0.69849E-21         0.00000E+00
    0.53756E-07        -0.58208E-20         0.00000E+00
    0.53756E-07        -0.46566E-21         0.00000E+00
    0.53756E-07        -0.44238E-20         0.00000E+00
    0.53756E-07        -0.18626E-20         0.00000E+00
    0.58952E-07         0.65193E-20         0.00000E+00
    0.58952E-07         0.13970E-19         0.00000E+00
    0.58952E-07         0.83819E-20         0.00000E+00
    0.58952E-07         0.16298E-19         0.00000E+00
    0.58952E-07         0.35623E-19         0.00000E+00
    0.58952E-07         0.39581E-19         0.00000E+00
    0.58952E-07         0.38184E-19         0.00000E+00
    0.58952E-07         0.35390E-19         0.00000E+00
    0.58952E-07         0.40978E-19         0.00000E+00
    0.58952E-07         0.27008E-19         0.00000E+00
    0.58952E-07         0.23283E-19         0.00000E+00
    0.58952E-07         0.31665E-19         0.00000E+00
    0.58952E-07         0.28871E-19         0.00000E+00
    0.58952E-07         0.32131E-19         0.00000E+00
    0.58952E-07         0.15134E-19         0.00000E+00
    0.58952E-07         0.41910E-20         0.00000E+00
    0.58952E-07         0.79162E-20         0.00000E+00
    0.58952E-07         0.65193E-20         0.00000E+00
    0.58952E-07        -0.23283E-20         0.00000E+00
    0.58952E-07        -0.93132E-21         0.00000E+00
    0.58952E-07        -0.46566E-21         0.00000E+00
    0.58952E-07         0.46566E-21         0.00000E+00
    0.58952E-07         0.13970E-20         0.00000E+00
    0.58952E-07         0.12107E-19         0.00000E+00
    0.58952E-07         0.12573E-19         0.00000E+00
    0.58952E-07         0.65193E-20         0.00000E+00
    0.58952E-07        -0.41910E-20         0.00000E+00
    0.58952E-07        -0.11176E-19         0.00000E+00
    0.58952E-07        -0.26543E-19         0.00000E+00
    0.58952E-07        -0.22817E-19         0.00000E+00
    0.58952E-07        -0.14901E-19         0.00000E+00
    0.58952E-07        -0.17229E-19         0.00000E+00
    0.58952E-07        -0.28871E-19         0.00000E+00
    0.58952E-07        -0.25146E-19         0.00000E+00
    0.58952E-07        -0.21420E-19         0.00000E+00
    0.58952E-07        -0.19092E-19         0.00000E+00
    0.58952E-07        -0.19092E-19         0.00000E+00
    0.58952E-07        -0.14435E-19         0.00000E+00
    0.58952E-07        -0.19791E-19         0.00000E+00
    0.58952E-07        -0.22817E-19         0.00000E+00
    0.58952E-07        -0.69849E-20         0.00000E+00
    0.58952E-07         0.51223E-20         0.00000E+00
    0.58952E-07         0.55879E-20         0.00000E+00
    0.58952E-07         0.46566E-21         0.00000E+00
    0.58952E-07        -0.58208E-20         0.00000E+00
    0.58952E-07        -0.51223E-20         0.00000E+00
    0.58952E-07        -0.44238E-20         0.00000E+00
    0.58952E-07        -0.41910E-20         0.00000E+00
    0.58952E-07        -0.37253E-20         0.00000E+00
    0.58952E-07        -0.69849E-21         0.00000E+00
    0.64454E-07         0.51223E-20         0.00000E+00
    0.64454E-07         0.11642E-19         0.00000E+00
    0.64454E-07         0.14668E-19         0.00000E+00
    0.64454E-07         0.16298E-19         0.00000E+00
    0.64454E-07         0.26310E-19         0.00000E+00
    0.64454E-07         0.32363E-19         0.00000E+00
    0.64454E-07         0.38883E-19         0.00000E+00
    0.64454E-07         0.29802E-19         0.00000E+00
    0.64454E-07         0.30734E-19         0.00000E+00
    0.64454E-07         0.22817E-19         0.00000E+00
    0.64454E-07         0.25146E-19         0.00000E+00
    0.64454E-07         0.27940E-19         0.00000E+00
    0.64454E-07         0.30501E-19         0.00000E+00
    0.64454E-07         0.22817E-19         0.00000E+00
    0.64454E-07         0.90804E-20         0.00000E+00
    0.64454E-07         0.74506E-20         0.00000E+00
    0.64454E-07         0.18626E-20         0.00000E+00
    0.64454E-07         0.83819E-20         0.00000E+00
    0.64454E-07         0.39581E-20         0.00000E+00
    0.64454E-07        -0.65193E-20         0.00000E+00
    0.64454E-07         0.46566E-21         0.00000E+00
    0.64454E-07         0.18626E-20         0.00000E+00
    0.64454E-07         0.27940E-20         0.00000E+00
    0.64454E-07         0.12573E-19         0.00000E+00
    0.64454E-07         0.15832E-19         0.00000E+00
    0.64454E-07         0.69849E-20         0.00000E+00
    0.64454E-07         0.00000E+00         0.00000E+00
    0.64454E-07        -0.12107E-19         0.00000E+00
    0.64454E-07        -0.25611E-19         0.00000E+00
    0.64454E-07        -0.17695E-19         0.00000E+00
    0.64454E-07        -0.19791E-19         0.00000E+00
    0.64454E-07        -0.19325E-19         0.00000E+00
    0.64454E-07        -0.32131E-19         0.00000E+00
    0.64454E-07        -0.31432E-19         0.00000E+00
    0.64454E-07        -0.25146E-19         0.00000E+00
    0.64454E-07        -0.29337E-19         0.00000E+00
    0.64454E-07        -0.18859E-19         0.00000E+00
    0.64454E-07        -0.21420E-19         0.00000E+00
    0.64454E-07        -0.18626E-19         0.00000E+00
    0.64454E-07        -0.20722E-19         0.00000E+00
    0.64454E-07        -0.79162E-20         0.00000E+00
    0.64454E-07         0.48894E-20         0.00000E+00
    0.64454E-07         0.46566E-20         0.00000E+00
    0.64454E-07         0.39581E-20         0.00000E+00
    0.64454E-07        -0.46566E-20         0.00000E+00
    0.64454E-07        -0.18626E-20         0.00000E+00
    0.64454E-07        -0.41910E-20         0.00000E+00
    0.64454E-07         0.46566E-21         0.00000E+00
    0.64454E-07        -0.18626E-20         0.00000E+00
    0.64454E-07         0.16298E-20         0.00000E+00
    0.70245E-07         0.62864E-20         0.00000E+00
    0.70245E-07         0.11409E-19         0.00000E+00
    0.70245E-07         0.10245E-19         0.00000E+00
    0.70245E-07         0.97789E-20         0.00000E+00
    0.70245E-07         0.20023E-19         0.00000E+00
    0.70245E-07         0.29104E-19         0.00000E+00
    0.70245E-07         0.35390E-19         0.00000E+00
    0.70245E-07         0.20023E-19         0.00000E+00
    0.70245E-07         0.24214E-19         0.00000E+00
    0.70245E-07         0.17695E-19         0.00000E+00
    0.70245E-07         0.17928E-19         0.00000E+00
    0.70245E-07         0.23749E-19         0.00000E+00
    0.70245E-07         0.26310E-19         0.00000E+00
    0.70245E-07         0.17695E-19         0.00000E+00
    0.70245E-07         0.69849E-20         0.00000E+00
    0.70245E-07         0.79162E-20         0.00000E+00
    0.70245E-07         0.37253E-20         0.00000E+00
    0.70245E-07         0.41910E-20         0.00000E+00
    0.70245E-07         0.60536E-20         0.00000E+00
    0.70245E-07        -0.46566E-21         0.00000E+00
    0.70245E-07         0.41910E-20         0.00000E+00
    0.70245E-07         0.23283E-20         0.00000E+00
    0.70245E-07         0.79162E-20         0.00000E+00
    0.70245E-07         0.14435E-19         0.00000E+00
    0.70245E-07         0.10245E-19         0.00000E+00
    0.70245E-07         0.12107E-19         0.00000E+00
    0.70245E-07        -0.69849E-20         0.00000E+00
    0.70245E-07        -0.13504E-19         0.00000E+00
    0.70245E-07        -0.30734E-19         0.00000E+00
    0.70245E-07        -0.12573E-19         0.00000E+00
    0.70245E-07        -0.20256E-19         0.00000E+00
    0.70245E-07        -0.18626E-19         0.00000E+00
    0.70245E-07        -0.33993E-19         0.00000E+00
    0.70245E-07        -0.36089E-19         0.00000E+00
    0.70245E-07        -0.34692E-19         0.00000E+00
    0.70245E-07        -0.30268E-19         0.00000E+00
    0.70245E-07        -0.19325E-19         0.00000E+00
    0.70245E-07        -0.16298E-19         0.00000E+00
    0.70245E-07        -0.17695E-19         0.00000E+00
    0.70245E-07        -0.16764E-19         0.00000E+00
    0.70245E-07         0.13970E-20         0.00000E+00
    0.70245E-07         0.74506E-20         0.00000E+00
    0.70245E-07         0.13970E-19         0.00000E+00
    0.70245E-07         0.10245E-19         0.00000E+00
    0.70245E-07        -0.93132E-21         0.00000E+00
    0.70245E-07        -0.39581E-20         0.00000E+00
    0.70245E-07         0.23283E-20         0.00000E+00
    0.70245E-07         0.23283E-20         0.00000E+00
    0.70245E-07        -0.13970E-20         0.00000E+00
    0.70245E-07         0.93132E-21         0.00000E+00
    0.76303E-07         0.41910E-20         0.00000E+00
    0.76303E-07         0.93132E-20         0.00000E+00
    0.76303E-07         0.69849E-20         0.00000E+00
    0.76303E-07         0.55879E-20         0.00000E+00
    0.76303E-07         0.14901E-19         0.00000E+00
    0.76303E-07         0.30268E-19         0.00000E+00
    0.76303E-07         0.24214E-19         0.00000E+00
    0.76303E-07         0.25146E-19         0.00000E+00
    0.76303E-07         0.26543E-19         0.00000E+00
    0.76303E-07         0.13039E-19         0.00000E+00
    0.76303E-07         0.13039E-19         0.00000E+00
    0.76303E-07         0.19325E-19         0.00000E+00
    0.76303E-07         0.22817E-19         0.00000E+00
    0.76303E-07         0.21420E-19         0.00000E+00
    0.76303E-07         0.46566E-20         0.00000E+00
    0.76303E-07         0.37253E-20         0.00000E+00
    0.76303E-07         0.74506E-20         0.00000E+00
    0.76303E-07         0.27940E-20         0.00000E+00
    0.76303E-07         0.88476E-20         0.00000E+00
    0.76303E-07         0.00000E+00         0.00000E+00
    0.76303E-07         0.51223E-20         0.00000E+00
    0.76303E-07        -0.23283E-20         0.00000E+00
    0.76303E-07         0.18626E-20         0.00000E+00
    0.76303E-07         0.51223E-20         0.00000E+00
    0.76303E-07         0.00000E+00         0.00000E+00
    0.76303E-07        -0.30268E-20         0.00000E+00
    0.76303E-07        -0.14435E-19         0.00000E+00
    0.76303E-07        -0.14435E-19         0.00000E+00
    0.76303E-07        -0.27474E-19         0.00000E+00
    0.76303E-07        -0.12573E-19         0.00000E+00
    0.76303E-07        -0.20489E-19         0.00000E+00
    0.76303E-07        -0.13504E-19         0.00000E+00
    0.76303E-07        -0.28405E-19         0.00000E+00
    0.76303E-07        -0.34925E-19         0.00000E+00
    0.76303E-07        -0.34925E-19         0.00000E+00
    0.76303E-07        -0.26077E-19         0.00000E+00
    0.76303E-07        -0.20023E-19         0.00000E+00
    0.76303E-07        -0.93132E-20         0.00000E+00
    0.76303E-07        -0.12573E-19         0.00000E+00
    0.76303E-07        -0.13039E-19         0.00000E+00
    0.76303E-07         0.41910E-20         0.00000E+00
    0.76303E-07         0.20955E-19         0.00000E+00
    0.76303E-07         0.22352E-19         0.00000E+00
    0.76303E-07         0.14901E-19         0.00000E+00
    0.76303E-07         0.55879E-20         0.00000E+00
    0.76303E-07        -0.46566E-21         0.00000E+00
    0.76303E-07         0.93132E-21         0.00000E+00
    0.76303E-07         0.32596E-20         0.00000E+00
    0.76303E-07        -0.32596E-20         0.00000E+00
    0.76303E-07         0.13970E-20         0.00000E+00
    0.82600E-07         0.60536E-20         0.00000E+00
    0.82600E-07         0.58208E-20         0.00000E+00
    0.82600E-07         0.93132E-21         0.00000E+00
    0.82600E-07         0.55879E-20         0.00000E+00
    0.82600E-07         0.13970E-19         0.00000E+00
    0.82600E-07         0.28405E-19         0.00000E+00
    0.82600E-07         0.27008E-19         0.00000E+00
    0.82600E-07         0.31665E-19         0.00000E+00
    0.82600E-07         0.17462E-19         0.00000E+00
    0.82600E-07         0.16764E-19         0.00000E+00
    0.82600E-07         0.12340E-19         0.00000E+00
    0.82600E-07         0.18161E-19         0.00000E+00
    0.82600E-07         0.15367E-19         0.00000E+00
    0.82600E-07         0.16065E-19         0.00000E+00
    0.82600E-07         0.23283E-21         0.00000E+00
    0.82600E-07         0.11642E-20         0.00000E+00
    0.82600E-07         0.00000E+00         0.00000E+00
    0.82600E-07         0.32596E-20         0.00000E+00
    0.82600E-07         0.58208E-20         0.00000E+00
    0.82600E-07        -0.53551E-20         0.00000E+00
    0.82600E-07        -0.23283E-21         0.00000E+00
    0.82600E-07        -0.90804E-20         0.00000E+00
    0.82600E-07        -0.55879E-20         0.00000E+00
    0.82600E-07        -0.58208E-20         0.00000E+00
    0.82600E-07        -0.79162E-20         0.00000E+00
    0.82600E-07        -0.90804E-20         0.00000E+00
    0.82600E-07        -0.88476E-20         0.00000E+00
    0.82600E-07        -0.14901E-19         0.00000E+00
    0.82600E-07        -0.26077E-19         0.00000E+00
    0.82600E-07        -0.17229E-19         0.00000E+00
    0.82600E-07        -0.21420E-19         0.00000E+00
    0.82600E-07        -0.17928E-19         0.00000E+00
    0.82600E-07        -0.27940E-19         0.00000E+00
    0.82600E-07        -0.29337E-19         0.00000E+00
    0.82600E-07        -0.28638E-19         0.00000E+00
    0.82600E-07        -0.22585E-19         0.00000E+00
    0.82600E-07        -0.14435E-19         0.00000E+00
    0.82600E-07        -0.13504E-19         0.00000E+00
    0.82600E-07        -0.11176E-19         0.00000E+00
    0.82600E-07        -0.51223E-20         0.00000E+00
    0.82600E-07         0.97789E-20         0.00000E+00
    0.82600E-07         0.15134E-19         0.00000E+00
    0.82600E-07         0.23050E-19         0.00000E+00
    0.82600E-07         0.17229E-19         0.00000E+00
    0.82600E-07         0.58208E-20         0.00000E+00
    0.82600E-07         0.18626E-20         0.00000E+00
    0.82600E-07         0.30268E-20         0.00000E+00
    0.82600E-07         0.11642E-20         0.00000E+00
    0.82600E-07        -0.18626E-20         0.00000E+00
    0.82600E-07        -0.23283E-21         0.00000E+00
    0.89097E-07         0.79162E-20         0.00000E+00
    0.89097E-07         0.10012E-19         0.00000E+00
    0.89097E-07         0.37253E-20         0.00000E+00
    0.89097E-07         0.60536E-20         0.00000E+00
    0.89097E-07         0.22585E-19         0.00000E+00
    0.89097E-07         0.25611E-19         0.00000E+00
    0.89097E-07         0.31665E-19         0.00000E+00
    0.89097E-07         0.25146E-19         0.00000E+00
    0.89097E-07         0.14435E-19         0.00000E+00
    0.89097E-07         0.13504E-19         0.00000E+00
    0.89097E-07         0.93132E-20         0.00000E+00
    0.89097E-07         0.11874E-19         0.00000E+00
    0.89097E-07         0.15832E-19         0.00000E+00
    0.89097E-07         0.12573E-19         0.00000E+00
    0.89097E-07         0.37253E-20         0.00000E+00
    0.89097E-07        -0.69849E-21         0.00000E+00
    0.89097E-07        -0.88476E-20         0.00000E+00
    0.89097E-07        -0.93132E-20         0.00000E+00
    0.89097E-07        -0.11642E-20         0.00000E+00
    0.89097E-07        -0.53551E-20         0.00000E+00
    0.89097E-07        -0.79162E-20         0.00000E+00
    0.89097E-07        -0.10943E-19         0.00000E+00
    0.89097E-07        -0.46566E-20         0.00000E+00
    0.89097E-07        -0.34925E-20         0.00000E+00
    0.89097E-07         0.93132E-21         0.00000E+00
    0.89097E-07        -0.76834E-20         0.00000E+00
    0.89097E-07        -0.51223E-20         0.00000E+00
    0.89097E-07        -0.13039E-19         0.00000E+00
    0.89097E-07        -0.20955E-19         0.00000E+00
    0.89097E-07        -0.18626E-19         0.00000E+00
    0.89097E-07        -0.21886E-19         0.00000E+00
    0.89097E-07        -0.19325E-19         0.00000E+00
    0.89097E-07        -0.27474E-19         0.00000E+00
    0.89097E-07        -0.27940E-19         0.00000E+00
    0.89097E-07        -0.25611E-19         0.00000E+00
    0.89097E-07        -0.20489E-19         0.00000E+00
    0.89097E-07        -0.88476E-20         0.00000E+00
    0.89097E-07        -0.86147E-20         0.00000E+00
    0.89097E-07        -0.74506E-20         0.00000E+00
    0.89097E-07        -0.10710E-19         0.00000E+00
    0.89097E-07         0.55879E-20         0.00000E+00
    0.89097E-07         0.76834E-20         0.00000E+00
    0.89097E-07         0.76834E-20         0.00000E+00
    0.89097E-07         0.13039E-19         0.00000E+00
    0.89097E-07         0.51223E-20         0.00000E+00
    0.89097E-07         0.88476E-20         0.00000E+00
    0.89097E-07         0.67521E-20         0.00000E+00
    0.89097E-07         0.60536E-20         0.00000E+00
    0.89097E-07         0.00000E+00         0.00000E+00
    0.89097E-07         0.23283E-20         0.00000E+00
    0.95749E-07         0.55879E-20         0.00000E+00
    0.95749E-07         0.13039E-19         0.00000E+00
    0.95749E-07         0.13621E-19         0.00000E+00
    0.95749E-07         0.52387E-20         0.00000E+00
    0.95749E-07         0.24214E-19         0.00000E+00
    0.95749E-07         0.33528E-19         0.00000E+00
    0.95749E-07         0.37486E-19         0.00000E+00
    0.95749E-07         0.20722E-19         0.00000E+00
    0.95749E-07         0.24447E-19         0.00000E+00
    0.95749E-07         0.94296E-20         0.00000E+00
    0.95749E-07         0.69849E-20         0.00000E+00
    0.95749E-07         0.88476E-20         0.00000E+00
    0.95749E-07         0.77998E-20         0.00000E+00
    0.95749E-07         0.54715E-20         0.00000E+00
    0.95749E-07        -0.27940E-20         0.00000E+00
    0.95749E-07        -0.67521E-20         0.00000E+00
    0.95749E-07        -0.11758E-19         0.00000E+00
    0.95749E-07        -0.90804E-20         0.00000E+00
    0.95749E-07        -0.58208E-21         0.00000E+00
    0.95749E-07        -0.17462E-20         0.00000E+00
    0.95749E-07        -0.59372E-20         0.00000E+00
    0.95749E-07        -0.74506E-20         0.00000E+00
    0.95749E-07        -0.58208E-20         0.00000E+00
    0.95749E-07         0.34925E-21         0.00000E+00
    0.95749E-07         0.30268E-20         0.00000E+00
    0.95749E-07        -0.34925E-20         0.00000E+00
    0.95749E-07         0.10477E-20         0.00000E+00
    0.95749E-07        -0.37253E-20         0.00000E+00
    0.95749E-07        -0.11874E-19         0.00000E+00
    0.95749E-07        -0.67521E-20         0.00000E+00
    0.95749E-07        -0.15250E-19         0.00000E+00
    0.95749E-07        -0.17113E-19         0.00000E+00
    0.95749E-07        -0.23749E-19         0.00000E+00
    0.95749E-07        -0.27940E-19         0.00000E+00
    0.95749E-07        -0.23283E-19         0.00000E+00
    0.95749E-07        -0.16531E-19         0.00000E+00
    0.95749E-07        -0.88476E-20         0.00000E+00
    0.95749E-07        -0.75670E-20         0.00000E+00
    0.95749E-07        -0.14668E-19         0.00000E+00
    0.95749E-07        -0.14552E-19         0.00000E+00
    0.95749E-07        -0.34925E-20         0.00000E+00
    0.95749E-07         0.54715E-20         0.00000E+00
    0.95749E-07         0.48894E-20         0.00000E+00
    0.95749E-07         0.67521E-20         0.00000E+00
    0.95749E-07         0.57044E-20         0.00000E+00
    0.95749E-07         0.10477E-19         0.00000E+00
    0.95749E-07         0.62864E-20         0.00000E+00
    0.95749E-07         0.55879E-20         0.00000E+00
    0.95749E-07         0.46566E-21         0.00000E+00
    0.95749E-07         0.32596E-20         0.00000E+00
    0.10250E-06         0.60536E-20         0.00000E+00
    0.10250E-06         0.13271E-19         0.00000E+00
    0.10250E-06         0.93132E-20         0.00000E+00
    0.10250E-06         0.11642E-19         0.00000E+00
    0.10250E-06         0.24680E-19         0.00000E+00
    0.10250E-06         0.38417E-19         0.00000E+00
    0.10250E-06         0.39814E-19         0.00000E+00
    0.10250E-06         0.31316E-19         0.00000E+00
    0.10250E-06         0.20489E-19         0.00000E+00
    0.10250E-06         0.11874E-19         0.00000E+00
    0.10250E-06         0.60536E-20         0.00000E+00
    0.10250E-06         0.15134E-19         0.00000E+00
    0.10250E-06         0.72177E-20         0.00000E+00
    0.10250E-06        -0.16298E-20         0.00000E+00
    0.10250E-06        -0.76834E-20         0.00000E+00
    0.10250E-06        -0.96625E-20         0.00000E+00
    0.10250E-06        -0.66357E-20         0.00000E+00
    0.10250E-06        -0.71013E-20         0.00000E+00
    0.10250E-06        -0.79162E-20         0.00000E+00
    0.10250E-06        -0.58208E-20         0.00000E+00
    0.10250E-06        -0.23283E-20         0.00000E+00
    0.10250E-06        -0.81491E-21         0.00000E+00
    0.10250E-06        -0.39581E-20         0.00000E+00
    0.10250E-06        -0.34925E-20         0.00000E+00
    0.10250E-06        -0.20955E-20         0.00000E+00
    0.10250E-06        -0.39581E-20         0.00000E+00
    0.10250E-06        -0.34925E-20         0.00000E+00
    0.10250E-06         0.81491E-21         0.00000E+00
    0.10250E-06        -0.86147E-20         0.00000E+00
    0.10250E-06        -0.11642E-20         0.00000E+00
    0.10250E-06        -0.23283E-21         0.00000E+00
    0.10250E-06        -0.13039E-19         0.00000E+00
    0.10250E-06        -0.18743E-19         0.00000E+00
    0.10250E-06        -0.23982E-19         0.00000E+00
    0.10250E-06        -0.27358E-19         0.00000E+00
    0.10250E-06        -0.14435E-19         0.00000E+00
    0.10250E-06        -0.11409E-19         0.00000E+00
    0.10250E-06        -0.14319E-19         0.00000E+00
    0.10250E-06        -0.16880E-19         0.00000E+00
    0.10250E-06        -0.10477E-19         0.00000E+00
    0.10250E-06         0.16298E-20         0.00000E+00
    0.10250E-06         0.69849E-20         0.00000E+00
    0.10250E-06         0.12340E-19         0.00000E+00
    0.10250E-06         0.10477E-19         0.00000E+00
    0.10250E-06         0.20955E-20         0.00000E+00
    0.10250E-06        -0.46566E-21         0.00000E+00
    0.10250E-06         0.23283E-21         0.00000E+00
    0.10250E-06         0.13970E-20         0.00000E+00
    0.10250E-06         0.13970E-20         0.00000E+00
    0.10250E-06         0.39581E-20         0.00000E+00
    0.10929E-06         0.18626E-20         0.00000E+00
    0.10929E-06         0.10012E-19         0.00000E+00
    0.10929E-06         0.81491E-20         0.00000E+00
    0.10929E-06         0.13271E-19         0.00000E+00
    0.10929E-06         0.24447E-19         0.00000E+00
    0.10929E-06         0.35972E-19         0.00000E+00
    0.10929E-06         0.33528E-19         0.00000E+00
    0.10929E-06         0.30966E-19         0.00000E+00
    0.10929E-06         0.15832E-19         0.00000E+00
    0.10929E-06         0.37253E-20         0.00000E+00
    0.10929E-06        -0.69849E-21         0.00000E+00
    0.10929E-06         0.82655E-20         0.00000E+00
    0.10929E-06         0.16647E-19         0.00000E+00
    0.10929E-06         0.68685E-20         0.00000E+00
    0.10929E-06        -0.18626E-20         0.00000E+00
    0.10929E-06        -0.10710E-19         0.00000E+00
    0.10929E-06        -0.97789E-20         0.00000E+00
    0.10929E-06        -0.14552E-19         0.00000E+00
    0.10929E-06        -0.12922E-19         0.00000E+00
    0.10929E-06        -0.81491E-20         0.00000E+00
    0.10929E-06        -0.53551E-20         0.00000E+00
    0.10929E-06        -0.39581E-20         0.00000E+00
    0.10929E-06        -0.18626E-20         0.00000E+00
    0.10929E-06         0.34925E-20         0.00000E+00
    0.10929E-06        -0.18808E-36         0.00000E+00
    0.10929E-06        -0.76834E-20         0.00000E+00
    0.10929E-06        -0.11176E-19         0.00000E+00
    0.10929E-06        -0.77998E-20         0.00000E+00
    0.10929E-06        -0.18161E-19         0.00000E+00
    0.10929E-06        -0.33760E-20         0.00000E+00
    0.10929E-06        -0.61700E-20         0.00000E+00
    0.10929E-06        -0.19791E-20         0.00000E+00
    0.10929E-06        -0.12573E-19         0.00000E+00
    0.10929E-06        -0.20722E-19         0.00000E+00
    0.10929E-06        -0.20838E-19         0.00000E+00
    0.10929E-06        -0.18394E-19         0.00000E+00
    0.10929E-06        -0.14668E-19         0.00000E+00
    0.10929E-06        -0.10477E-19         0.00000E+00
    0.10929E-06        -0.32596E-20         0.00000E+00
    0.10929E-06        -0.79162E-20         0.00000E+00
    0.10929E-06         0.27940E-20         0.00000E+00
    0.10929E-06         0.87311E-20         0.00000E+00
    0.10929E-06         0.11176E-19         0.00000E+00
    0.10929E-06         0.10245E-19         0.00000E+00
    0.10929E-06        -0.23283E-20         0.00000E+00
    0.10929E-06        -0.10477E-20         0.00000E+00
    0.10929E-06         0.18626E-20         0.00000E+00
    0.10929E-06         0.52387E-20         0.00000E+00
    0.10929E-06         0.93132E-21         0.00000E+00
    0.10929E-06        -0.93132E-21         0.00000E+00
    0.11605E-06         0.34925E-20         0.00000E+00
    0.11605E-06         0.86147E-20         0.00000E+00
    0.11605E-06         0.97789E-20         0.00000E+00
    0.11605E-06         0.12806E-19         0.00000E+00
    0.11605E-06         0.18859E-19         0.00000E+00
    0.11605E-06         0.29453E-19         0.00000E+00
    0.11605E-06         0.22585E-19         0.00000E+00
    0.11605E-06         0.16764E-19         0.00000E+00
    0.11605E-06         0.12922E-19         0.00000E+00
    0.11605E-06         0.58208E-20         0.00000E+00
    0.11605E-06         0.33760E-20         0.00000E+00
    0.11605E-06         0.53551E-20         0.00000E+00
    0.11605E-06         0.72177E-20         0.00000E+00
    0.11605E-06         0.93132E-21         0.00000E+00
    0.11605E-06        -0.72177E-20         0.00000E+00
    0.11605E-06        -0.41910E-20         0.00000E+00
    0.11605E-06        -0.13271E-19         0.00000E+00
    0.11605E-06        -0.16997E-19         0.00000E+00
    0.11605E-06        -0.11409E-19         0.00000E+00
    0.11605E-06        -0.97789E-20         0.00000E+00
    0.11605E-06        -0.37253E-20         0.00000E+00
    0.11605E-06        -0.55879E-20         0.00000E+00
    0.11605E-06        -0.23283E-21         0.00000E+00
    0.11605E-06         0.89640E-20         0.00000E+00
    0.11605E-06         0.89640E-20         0.00000E+00
    0.11605E-06        -0.55879E-20         0.00000E+00
    0.11605E-06        -0.93132E-20         0.00000E+00
    0.11605E-06        -0.10943E-19         0.00000E+00
    0.11605E-06        -0.20722E-19         0.00000E+00
    0.11605E-06        -0.64028E-20         0.00000E+00
    0.11605E-06        -0.97789E-20         0.00000E+00
    0.11605E-06        -0.39581E-20         0.00000E+00
    0.11605E-06        -0.17579E-19         0.00000E+00
    0.11605E-06        -0.27590E-19         0.00000E+00
    0.11605E-06        -0.18161E-19         0.00000E+00
    0.11605E-06        -0.13737E-19         0.00000E+00
    0.11605E-06        -0.89640E-20         0.00000E+00
    0.11605E-06        -0.51223E-20         0.00000E+00
    0.11605E-06        -0.10477E-19         0.00000E+00
    0.11605E-06        -0.84983E-20         0.00000E+00
    0.11605E-06         0.69849E-21         0.00000E+00
    0.11605E-06         0.12456E-19         0.00000E+00
    0.11605E-06         0.13039E-19         0.00000E+00
    0.11605E-06         0.12573E-19         0.00000E+00
    0.11605E-06         0.48894E-20         0.00000E+00
    0.11605E-06         0.55879E-20         0.00000E+00
    0.11605E-06         0.00000E+00         0.00000E+00
    0.11605E-06         0.22119E-20         0.00000E+00
    0.11605E-06        -0.30268E-20         0.00000E+00
    0.11605E-06        -0.44238E-20         0.00000E+00
    0.12270E-06         0.58208E-20         0.00000E+00
    0.12270E-06         0.10477E-19         0.00000E+00
    0.12270E-06         0.45402E-20         0.00000E+00
    0.12270E-06         0.95461E-20         0.00000E+00
    0.12270E-06         0.13388E-19         0.00000E+00
    0.12270E-06         0.22934E-19         0.00000E+00
    0.12270E-06         0.19558E-19         0.00000E+00
    0.12270E-06         0.11059E-19         0.00000E+00
    0.12270E-06         0.81491E-20         0.00000E+00
    0.12270E-06         0.16298E-20         0.00000E+00
    0.12270E-06         0.00000E+00         0.00000E+00
    0.12270E-06         0.83819E-20         0.00000E+00
    0.12270E-06         0.83819E-20         0.00000E+00
    0.12270E-06        -0.23283E-21         0.00000E+00
    0.12270E-06        -0.67521E-20         0.00000E+00
    0.12270E-06        -0.11642E-20         0.00000E+00
    0.12270E-06        -0.62864E-20         0.00000E+00
    0.12270E-06        -0.11758E-19         0.00000E+00
    0.12270E-06         0.24447E-20         0.00000E+00
    0.12270E-06        -0.18626E-20         0.00000E+00
    0.12270E-06        -0.69849E-21         0.00000E+00
    0.12270E-06         0.69849E-21         0.00000E+00
    0.12270E-06        -0.26776E-20         0.00000E+00
    0.12270E-06         0.40745E-20         0.00000E+00
    0.12270E-06         0.38417E-20         0.00000E+00
    0.12270E-06        -0.39581E-20         0.00000E+00
    0.12270E-06        -0.53551E-20         0.00000E+00
    0.12270E-06        -0.60536E-20         0.00000E+00
    0.12270E-06        -0.16065E-19         0.00000E+00
    0.12270E-06        -0.12806E-19         0.00000E+00
    0.12270E-06        -0.11176E-19         0.00000E+00
    0.12270E-06        -0.13271E-19         0.00000E+00
    0.12270E-06        -0.23050E-19         0.00000E+00
    0.12270E-06        -0.24913E-19         0.00000E+00
    0.12270E-06        -0.22468E-19         0.00000E+00
    0.12270E-06        -0.15716E-19         0.00000E+00
    0.12270E-06        -0.10012E-19         0.00000E+00
    0.12270E-06        -0.53551E-20         0.00000E+00
    0.12270E-06        -0.11991E-19         0.00000E+00
    0.12270E-06        -0.16880E-19         0.00000E+00
    0.12270E-06        -0.36089E-20         0.00000E+00
    0.12270E-06         0.11525E-19         0.00000E+00
    0.12270E-06         0.13504E-19         0.00000E+00
    0.12270E-06         0.11874E-19         0.00000E+00
    0.12270E-06         0.55879E-20         0.00000E+00
    0.12270E-06         0.81491E-20         0.00000E+00
    0.12270E-06        -0.93132E-21         0.00000E+00
    0.12270E-06         0.81491E-20         0.00000E+00
    0.12270E-06        -0.27940E-20         0.00000E+00
    0.12270E-06        -0.23283E-21         0.00000E+00
    0.12915E-06         0.38417E-20         0.00000E+00
    0.12915E-06         0.90804E-20         0.00000E+00
    0.12915E-06         0.38417E-20         0.00000E+00
    0.12915E-06         0.22119E-20         0.00000E+00
    0.12915E-06         0.12573E-19         0.00000E+00
    0.12915E-06         0.24913E-19         0.00000E+00
    0.12915E-06         0.20955E-19         0.00000E+00
    0.12915E-06         0.87311E-20         0.00000E+00
    0.12915E-06         0.86147E-20         0.00000E+00
    0.12915E-06         0.61700E-20         0.00000E+00
    0.12915E-06         0.29104E-20         0.00000E+00
    0.12915E-06         0.93132E-20         0.00000E+00
    0.12915E-06         0.12806E-19         0.00000E+00
    0.12915E-06         0.11059E-19         0.00000E+00
    0.12915E-06         0.13970E-20         0.00000E+00
    0.12915E-06        -0.47730E-20         0.00000E+00
    0.12915E-06        -0.68685E-20         0.00000E+00
    0.12915E-06        -0.81491E-20         0.00000E+00
    0.12915E-06         0.39581E-20         0.00000E+00
    0.12915E-06         0.23283E-21         0.00000E+00
    0.12915E-06        -0.45402E-20         0.00000E+00
    0.12915E-06         0.46566E-21         0.00000E+00
    0.12915E-06        -0.37253E-20         0.00000E+00
    0.12915E-06         0.13970E-20         0.00000E+00
    0.12915E-06        -0.46566E-20         0.00000E+00
    0.12915E-06        -0.95461E-20         0.00000E+00
    0.12915E-06        -0.72177E-20         0.00000E+00
    0.12915E-06        -0.58208E-20         0.00000E+00
    0.12915E-06        -0.15832E-19         0.00000E+00
    0.12915E-06        -0.11991E-19         0.00000E+00
    0.12915E-06        -0.14319E-19         0.00000E+00
    0.12915E-06        -0.14203E-19         0.00000E+00
    0.12915E-06        -0.19791E-19         0.00000E+00
    0.12915E-06        -0.21653E-19         0.00000E+00
    0.12915E-06        -0.22701E-19         0.00000E+00
    0.12915E-06        -0.16415E-19         0.00000E+00
    0.12915E-06        -0.14203E-19         0.00000E+00
    0.12915E-06        -0.11176E-19         0.00000E+00
    0.12915E-06        -0.93132E-20         0.00000E+00
    0.12915E-06        -0.11059E-19         0.00000E+00
    0.12915E-06         0.43074E-20         0.00000E+00
    0.12915E-06         0.12806E-19         0.00000E+00
    0.12915E-06         0.13271E-19         0.00000E+00
    0.12915E-06         0.81491E-20         0.00000E+00
    0.12915E-06         0.19791E-20         0.00000E+00
    0.12915E-06         0.53551E-20         0.00000E+00
    0.12915E-06        -0.11642E-20         0.00000E+00
    0.12915E-06         0.74506E-20         0.00000E+00
    0.12915E-06        -0.37253E-20         0.00000E+00
    0.12915E-06         0.10477E-20         0.00000E+00
    0.13532E-06         0.30268E-20         0.00000E+00
    0.13532E-06         0.83819E-20         0.00000E+00
    0.13532E-06         0.23283E-20         0.00000E+00
    0.13532E-06         0.37253E-20         0.00000E+00
    0.13532E-06         0.83819E-20         0.00000E+00
    0.13532E-06         0.21188E-19         0.00000E+00
    0.13532E-06         0.16065E-19         0.00000E+00
    0.13532E-06         0.13504E-19         0.00000E+00
    0.13532E-06         0.18161E-19         0.00000E+00
    0.13532E-06         0.14203E-19         0.00000E+00
    0.13532E-06         0.12573E-19         0.00000E+00
    0.13532E-06         0.86147E-20         0.00000E+00
    0.13532E-06         0.95461E-20         0.00000E+00
    0.13532E-06         0.10710E-19         0.00000E+00
    0.13532E-06         0.44238E-20         0.00000E+00
    0.13532E-06         0.46566E-21         0.00000E+00
    0.13532E-06        -0.39581E-20         0.00000E+00
    0.13532E-06        -0.76834E-20         0.00000E+00
    0.13532E-06        -0.83819E-20         0.00000E+00
    0.13532E-06        -0.10943E-19         0.00000E+00
    0.13532E-06        -0.76834E-20         0.00000E+00
    0.13532E-06        -0.69849E-20         0.00000E+00
    0.13532E-06        -0.58208E-20         0.00000E+00
    0.13532E-06        -0.98953E-20         0.00000E+00
    0.13532E-06        -0.12806E-20         0.00000E+00
    0.13532E-06        -0.65193E-20         0.00000E+00
    0.13532E-06        -0.86147E-20         0.00000E+00
    0.13532E-06        -0.11176E-19         0.00000E+00
    0.13532E-06        -0.16298E-19         0.00000E+00
    0.13532E-06        -0.58208E-20         0.00000E+00
    0.13532E-06        -0.83819E-20         0.00000E+00
    0.13532E-06        -0.10012E-19         0.00000E+00
    0.13532E-06        -0.18161E-19         0.00000E+00
    0.13532E-06        -0.27940E-19         0.00000E+00
    0.13532E-06        -0.21886E-19         0.00000E+00
    0.13532E-06        -0.23050E-19         0.00000E+00
    0.13532E-06        -0.13504E-19         0.00000E+00
    0.13532E-06        -0.11409E-19         0.00000E+00
    0.13532E-06        -0.95461E-20         0.00000E+00
    0.13532E-06        -0.76834E-20         0.00000E+00
    0.13532E-06         0.62864E-20         0.00000E+00
    0.13532E-06         0.10012E-19         0.00000E+00
    0.13532E-06         0.10477E-19         0.00000E+00
    0.13532E-06         0.14203E-19         0.00000E+00
    0.13532E-06         0.44238E-20         0.00000E+00
    0.13532E-06         0.58208E-20         0.00000E+00
    0.13532E-06         0.13970E-20         0.00000E+00
    0.13532E-06         0.37253E-20         0.00000E+00
    0.13532E-06        -0.51223E-20         0.00000E+00
    0.13532E-06        -0.16298E-20         0.00000E+00
    0.14112E-06         0.51223E-20         0.00000E+00
    0.14112E-06         0.93132E-20         0.00000E+00
    0.14112E-06         0.40745E-20         0.00000E+00
    0.14112E-06         0.48894E-20         0.00000E+00
    0.14112E-06         0.76834E-20         0.00000E+00
    0.14112E-06         0.18161E-19         0.00000E+00
    0.14112E-06         0.18976E-19         0.00000E+00
    0.14112E-06         0.16298E-19         0.00000E+00
    0.14112E-06         0.18626E-19         0.00000E+00
    0.14112E-06         0.69849E-20         0.00000E+00
    0.14112E-06         0.90804E-20         0.00000E+00
    0.14112E-06         0.12340E-19         0.00000E+00
    0.14112E-06         0.12573E-19         0.00000E+00
    0.14112E-06         0.86147E-20         0.00000E+00
    0.14112E-06         0.43074E-20         0.00000E+00
    0.14112E-06        -0.23283E-20         0.00000E+00
    0.14112E-06         0.13970E-20         0.00000E+00
    0.14112E-06        -0.60536E-20         0.00000E+00
    0.14112E-06        -0.46566E-20         0.00000E+00
    0.14112E-06        -0.11874E-19         0.00000E+00
    0.14112E-06        -0.48894E-20         0.00000E+00
    0.14112E-06        -0.76834E-20         0.00000E+00
    0.14112E-06        -0.98953E-20         0.00000E+00
    0.14112E-06        -0.13504E-19         0.00000E+00
    0.14112E-06        -0.11059E-19         0.00000E+00
    0.14112E-06        -0.77998E-20         0.00000E+00
    0.14112E-06        -0.53551E-20         0.00000E+00
    0.14112E-06        -0.13504E-19         0.00000E+00
    0.14112E-06        -0.20955E-19         0.00000E+00
    0.14112E-06        -0.12340E-19         0.00000E+00
    0.14112E-06        -0.10012E-19         0.00000E+00
    0.14112E-06        -0.10128E-19         0.00000E+00
    0.14112E-06        -0.17229E-19         0.00000E+00
    0.14112E-06        -0.23749E-19         0.00000E+00
    0.14112E-06        -0.21886E-19         0.00000E+00
    0.14112E-06        -0.20838E-19         0.00000E+00
    0.14112E-06        -0.14901E-19         0.00000E+00
    0.14112E-06        -0.77998E-20         0.00000E+00
    0.14112E-06        -0.10245E-19         0.00000E+00
    0.14112E-06        -0.12340E-19         0.00000E+00
    0.14112E-06         0.16298E-20         0.00000E+00
    0.14112E-06         0.52387E-20         0.00000E+00
    0.14112E-06         0.62864E-20         0.00000E+00
    0.14112E-06         0.11409E-19         0.00000E+00
    0.14112E-06         0.69849E-21         0.00000E+00
    0.14112E-06         0.46566E-20         0.00000E+00
    0.14112E-06         0.10477E-20         0.00000E+00
    0.14112E-06         0.48894E-20         0.00000E+00
    0.14112E-06        -0.39581E-20         0.00000E+00
    0.14112E-06        -0.11642E-21         0.00000E+00
    0.14644E-06         0.13970E-20         0.00000E+00
    0.14644E-06         0.86147E-20         0.00000E+00
    0.14644E-06         0.23283E-21         0.00000E+00
    0.14644E-06         0.32596E-20         0.00000E+00
    0.14644E-06         0.10245E-19         0.00000E+00
    0.14644E-06         0.18976E-19         0.00000E+00
    0.14644E-06         0.18859E-19         0.00000E+00
    0.14644E-06         0.15832E-19         0.00000E+00
    0.14644E-06         0.82655E-20         0.00000E+00
    0.14644E-06         0.10245E-19         0.00000E+00
    0.14644E-06         0.10245E-19         0.00000E+00
    0.14644E-06         0.13388E-19         0.00000E+00
    0.14644E-06         0.93132E-20         0.00000E+00
    0.14644E-06         0.41910E-20         0.00000E+00
    0.14644E-06        -0.29104E-20         0.00000E+00
    0.14644E-06        -0.43074E-20         0.00000E+00
    0.14644E-06        -0.60536E-20         0.00000E+00
    0.14644E-06        -0.10594E-19         0.00000E+00
    0.14644E-06        -0.23283E-21         0.00000E+00
    0.14644E-06        -0.83819E-20         0.00000E+00
    0.14644E-06        -0.10477E-19         0.00000E+00
    0.14644E-06        -0.55879E-20         0.00000E+00
    0.14644E-06        -0.48894E-20         0.00000E+00
    0.14644E-06        -0.71013E-20         0.00000E+00
    0.14644E-06        -0.96625E-20         0.00000E+00
    0.14644E-06        -0.11874E-19         0.00000E+00
    0.14644E-06        -0.95461E-20         0.00000E+00
    0.14644E-06        -0.12107E-19         0.00000E+00
    0.14644E-06        -0.21420E-19         0.00000E+00
    0.14644E-06        -0.13388E-19         0.00000E+00
    0.14644E-06        -0.15367E-19         0.00000E+00
    0.14644E-06        -0.10827E-19         0.00000E+00
    0.14644E-06        -0.17579E-19         0.00000E+00
    0.14644E-06        -0.20722E-19         0.00000E+00
    0.14644E-06        -0.17462E-19         0.00000E+00
    0.14644E-06        -0.15367E-19         0.00000E+00
    0.14644E-06        -0.14435E-19         0.00000E+00
    0.14644E-06        -0.91968E-20         0.00000E+00
    0.14644E-06        -0.13039E-19         0.00000E+00
    0.14644E-06        -0.14319E-19         0.00000E+00
    0.14644E-06        -0.37253E-20         0.00000E+00
    0.14644E-06         0.24447E-20         0.00000E+00
    0.14644E-06         0.60536E-20         0.00000E+00
    0.14644E-06         0.46566E-20         0.00000E+00
    0.14644E-06        -0.23283E-20         0.00000E+00
    0.14644E-06        -0.93132E-21         0.00000E+00
    0.14644E-06         0.15134E-20         0.00000E+00
    0.14644E-06         0.00000E+00         0.00000E+00
    0.14644E-06        -0.30268E-20         0.00000E+00
    0.14644E-06         0.29104E-20         0.00000E+00
    0.15121E-06         0.41910E-20         0.00000E+00
    0.15121E-06         0.45402E-20         0.00000E+00
    0.15121E-06         0.00000E+00         0.00000E+00
    0.15121E-06         0.18626E-20         0.00000E+00
    0.15121E-06         0.86147E-20         0.00000E+00
    0.15121E-06         0.19791E-19         0.00000E+00
    0.15121E-06         0.13737E-19         0.00000E+00
    0.15121E-06         0.12456E-19         0.00000E+00
    0.15121E-06         0.11292E-19         0.00000E+00
    0.15121E-06         0.32596E-20         0.00000E+00
    0.15121E-06         0.53551E-20         0.00000E+00
    0.15121E-06         0.72177E-20         0.00000E+00
    0.15121E-06         0.18626E-20         0.00000E+00
    0.15121E-06        -0.23283E-20         0.00000E+00
    0.15121E-06        -0.39581E-20         0.00000E+00
    0.15121E-06        -0.10012E-19         0.00000E+00
    0.15121E-06        -0.10710E-19         0.00000E+00
    0.15121E-06        -0.96625E-20         0.00000E+00
    0.15121E-06        -0.58208E-20         0.00000E+00
    0.15121E-06        -0.10477E-19         0.00000E+00
    0.15121E-06        -0.90804E-20         0.00000E+00
    0.15121E-06        -0.30268E-20         0.00000E+00
    0.15121E-06        -0.13970E-20         0.00000E+00
    0.15121E-06        -0.37253E-20         0.00000E+00
    0.15121E-06         0.10477E-20         0.00000E+00
    0.15121E-06        -0.69849E-20         0.00000E+00
    0.15121E-06        -0.90804E-20         0.00000E+00
    0.15121E-06        -0.59372E-20         0.00000E+00
    0.15121E-06        -0.13853E-19         0.00000E+00
    0.15121E-06        -0.11292E-19         0.00000E+00
    0.15121E-06        -0.12340E-19         0.00000E+00
    0.15121E-06        -0.12806E-19         0.00000E+00
    0.15121E-06        -0.24680E-19         0.00000E+00
    0.15121E-06        -0.30734E-19         0.00000E+00
    0.15121E-06        -0.24913E-19         0.00000E+00
    0.15121E-06        -0.20722E-19         0.00000E+00
    0.15121E-06        -0.15832E-19         0.00000E+00
    0.15121E-06        -0.89640E-20         0.00000E+00
    0.15121E-06        -0.12340E-19         0.00000E+00
    0.15121E-06        -0.12107E-19         0.00000E+00
    0.15121E-06        -0.46566E-20         0.00000E+00
    0.15121E-06         0.58208E-20         0.00000E+00
    0.15121E-06         0.58208E-20         0.00000E+00
    0.15121E-06         0.51223E-20         0.00000E+00
    0.15121E-06        -0.34925E-20         0.00000E+00
    0.15121E-06        -0.34925E-21         0.00000E+00
    0.15121E-06        -0.11642E-20         0.00000E+00
    0.15121E-06        -0.33760E-20         0.00000E+00
    0.15121E-06        -0.11642E-20         0.00000E+00
    0.15121E-06         0.20955E-20         0.00000E+00
    0.15533E-06         0.27940E-20         0.00000E+00
    0.15533E-06         0.60536E-20         0.00000E+00
    0.15533E-06         0.23283E-20         0.00000E+00
    0.15533E-06         0.34925E-20         0.00000E+00
    0.15533E-06         0.87311E-20         0.00000E+00
    0.15533E-06         0.21420E-19         0.00000E+00
    0.15533E-06         0.17346E-19         0.00000E+00
    0.15533E-06         0.13737E-19         0.00000E+00
    0.15533E-06         0.10012E-19         0.00000E+00
    0.15533E-06         0.32596E-20         0.00000E+00
    0.15533E-06         0.11642E-20         0.00000E+00
    0.15533E-06         0.74506E-20         0.00000E+00
    0.15533E-06         0.51223E-20         0.00000E+00
    0.15533E-06         0.69849E-21         0.00000E+00
    0.15533E-06        -0.73342E-20         0.00000E+00
    0.15533E-06        -0.14668E-19         0.00000E+00
    0.15533E-06        -0.12107E-19         0.00000E+00
    0.15533E-06        -0.16298E-19         0.00000E+00
    0.15533E-06        -0.46566E-20         0.00000E+00
    0.15533E-06        -0.55879E-20         0.00000E+00
    0.15533E-06        -0.45402E-20         0.00000E+00
    0.15533E-06         0.23283E-21         0.00000E+00
    0.15533E-06        -0.23283E-20         0.00000E+00
    0.15533E-06         0.15134E-20         0.00000E+00
    0.15533E-06         0.12806E-20         0.00000E+00
    0.15533E-06        -0.22119E-20         0.00000E+00
    0.15533E-06        -0.39581E-20         0.00000E+00
    0.15533E-06        -0.54715E-20         0.00000E+00
    0.15533E-06        -0.17229E-19         0.00000E+00
    0.15533E-06        -0.15832E-19         0.00000E+00
    0.15533E-06        -0.15134E-19         0.00000E+00
    0.15533E-06        -0.15600E-19         0.00000E+00
    0.15533E-06        -0.23865E-19         0.00000E+00
    0.15533E-06        -0.30734E-19         0.00000E+00
    0.15533E-06        -0.28405E-19         0.00000E+00
    0.15533E-06        -0.20140E-19         0.00000E+00
    0.15533E-06        -0.15134E-19         0.00000E+00
    0.15533E-06        -0.10943E-19         0.00000E+00
    0.15533E-06        -0.11176E-19         0.00000E+00
    0.15533E-06        -0.12806E-19         0.00000E+00
    0.15533E-06        -0.46566E-21         0.00000E+00
    0.15533E-06         0.48894E-20         0.00000E+00
    0.15533E-06         0.36089E-20         0.00000E+00
    0.15533E-06         0.51223E-20         0.00000E+00
    0.15533E-06         0.81491E-21         0.00000E+00
    0.15533E-06         0.11642E-20         0.00000E+00
    0.15533E-06        -0.18626E-20         0.00000E+00
    0.15533E-06        -0.69849E-21         0.00000E+00
    0.15533E-06        -0.27940E-20         0.00000E+00
    0.15533E-06         0.18626E-20         0.00000E+00
    0.15873E-06         0.20955E-20         0.00000E+00
    0.15873E-06         0.72177E-20         0.00000E+00
    0.15873E-06         0.22119E-20         0.00000E+00
    0.15873E-06         0.27940E-20         0.00000E+00
    0.15873E-06         0.11059E-19         0.00000E+00
    0.15873E-06         0.18976E-19         0.00000E+00
    0.15873E-06         0.13853E-19         0.00000E+00
    0.15873E-06         0.12340E-19         0.00000E+00
    0.15873E-06         0.90804E-20         0.00000E+00
    0.15873E-06         0.24447E-20         0.00000E+00
    0.15873E-06         0.12806E-20         0.00000E+00
    0.15873E-06         0.10245E-19         0.00000E+00
    0.15873E-06         0.10245E-19         0.00000E+00
    0.15873E-06         0.79162E-20         0.00000E+00
    0.15873E-06         0.23283E-21         0.00000E+00
    0.15873E-06        -0.46566E-20         0.00000E+00
    0.15873E-06        -0.86147E-20         0.00000E+00
    0.15873E-06        -0.11525E-19         0.00000E+00
    0.15873E-06        -0.23283E-20         0.00000E+00
    0.15873E-06        -0.46566E-20         0.00000E+00
    0.15873E-06        -0.79162E-20         0.00000E+00
    0.15873E-06        -0.37253E-20         0.00000E+00
    0.15873E-06        -0.72177E-20         0.00000E+00
    0.15873E-06        -0.46566E-21         0.00000E+00
    0.15873E-06        -0.23283E-21         0.00000E+00
    0.15873E-06        -0.25611E-20         0.00000E+00
    0.15873E-06        -0.79162E-20         0.00000E+00
    0.15873E-06        -0.54715E-20         0.00000E+00
    0.15873E-06        -0.17462E-19         0.00000E+00
    0.15873E-06        -0.14668E-19         0.00000E+00
    0.15873E-06        -0.15600E-19         0.00000E+00
    0.15873E-06        -0.13271E-19         0.00000E+00
    0.15873E-06        -0.20489E-19         0.00000E+00
    0.15873E-06        -0.23749E-19         0.00000E+00
    0.15873E-06        -0.21886E-19         0.00000E+00
    0.15873E-06        -0.17695E-19         0.00000E+00
    0.15873E-06        -0.13504E-19         0.00000E+00
    0.15873E-06        -0.11874E-19         0.00000E+00
    0.15873E-06        -0.51223E-20         0.00000E+00
    0.15873E-06        -0.80327E-20         0.00000E+00
    0.15873E-06        -0.27940E-20         0.00000E+00
    0.15873E-06         0.58208E-21         0.00000E+00
    0.15873E-06         0.13970E-20         0.00000E+00
    0.15873E-06         0.27940E-20         0.00000E+00
    0.15873E-06        -0.46566E-21         0.00000E+00
    0.15873E-06        -0.27940E-20         0.00000E+00
    0.15873E-06         0.00000E+00         0.00000E+00
    0.15873E-06         0.46566E-21         0.00000E+00
    0.15873E-06        -0.32596E-20         0.00000E+00
    0.15873E-06         0.30268E-20         0.00000E+00
    0.16134E-06         0.22119E-20         0.00000E+00
    0.16134E-06         0.46566E-20         0.00000E+00
    0.16134E-06        -0.23283E-20         0.00000E+00
    0.16134E-06         0.58208E-21         0.00000E+00
    0.16134E-06         0.94296E-20         0.00000E+00
    0.16134E-06         0.16415E-19         0.00000E+00
    0.16134E-06         0.12922E-19         0.00000E+00
    0.16134E-06         0.89640E-20         0.00000E+00
    0.16134E-06         0.10245E-19         0.00000E+00
    0.16134E-06         0.46566E-20         0.00000E+00
    0.16134E-06         0.24447E-20         0.00000E+00
    0.16134E-06         0.62864E-20         0.00000E+00
    0.16134E-06         0.75670E-20         0.00000E+00
    0.16134E-06         0.58208E-20         0.00000E+00
    0.16134E-06        -0.23283E-21         0.00000E+00
    0.16134E-06        -0.18626E-20         0.00000E+00
    0.16134E-06        -0.12806E-20         0.00000E+00
    0.16134E-06        -0.44238E-20         0.00000E+00
    0.16134E-06        -0.16298E-20         0.00000E+00
    0.16134E-06        -0.34925E-20         0.00000E+00
    0.16134E-06        -0.67521E-20         0.00000E+00
    0.16134E-06        -0.48894E-20         0.00000E+00
    0.16134E-06        -0.48894E-20         0.00000E+00
    0.16134E-06         0.23283E-21         0.00000E+00
    0.16134E-06         0.27940E-20         0.00000E+00
    0.16134E-06        -0.53551E-20         0.00000E+00
    0.16134E-06        -0.79162E-20         0.00000E+00
    0.16134E-06        -0.65193E-20         0.00000E+00
    0.16134E-06        -0.12107E-19         0.00000E+00
    0.16134E-06        -0.86147E-20         0.00000E+00
    0.16134E-06        -0.11409E-19         0.00000E+00
    0.16134E-06        -0.12922E-19         0.00000E+00
    0.16134E-06        -0.20023E-19         0.00000E+00
    0.16134E-06        -0.21188E-19         0.00000E+00
    0.16134E-06        -0.19558E-19         0.00000E+00
    0.16134E-06        -0.15367E-19         0.00000E+00
    0.16134E-06        -0.12107E-19         0.00000E+00
    0.16134E-06        -0.74506E-20         0.00000E+00
    0.16134E-06        -0.10245E-19         0.00000E+00
    0.16134E-06        -0.84983E-20         0.00000E+00
    0.16134E-06        -0.26776E-20         0.00000E+00
    0.16134E-06        -0.46566E-21         0.00000E+00
    0.16134E-06         0.13970E-20         0.00000E+00
    0.16134E-06         0.11642E-20         0.00000E+00
    0.16134E-06        -0.30268E-20         0.00000E+00
    0.16134E-06        -0.69849E-21         0.00000E+00
    0.16134E-06         0.33760E-20         0.00000E+00
    0.16134E-06         0.37253E-20         0.00000E+00
    0.16134E-06        -0.19791E-20         0.00000E+00
    0.16134E-06         0.18626E-20         0.00000E+00
    0.16311E-06        -0.93132E-21         0.00000E+00
    0.16311E-06         0.16298E-20         0.00000E+00
    0.16311E-06        -0.27940E-20         0.00000E+00
    0.16311E-06         0.46566E-21         0.00000E+00
    0.16311E-06         0.44238E-20         0.00000E+00
    0.16311E-06         0.14552E-19         0.00000E+00
    0.16311E-06         0.13853E-19         0.00000E+00
    0.16311E-06         0.12107E-19         0.00000E+00
    0.16311E-06         0.37253E-20         0.00000E+00
    0.16311E-06         0.39581E-20         0.00000E+00
    0.16311E-06         0.16298E-20         0.00000E+00
    0.16311E-06         0.51223E-20         0.00000E+00
    0.16311E-06         0.23283E-20         0.00000E+00
    0.16311E-06         0.30268E-20         0.00000E+00
    0.16311E-06        -0.27940E-20         0.00000E+00
    0.16311E-06        -0.16298E-20         0.00000E+00
    0.16311E-06        -0.20955E-20         0.00000E+00
    0.16311E-06        -0.32596E-20         0.00000E+00
    0.16311E-06         0.30268E-20         0.00000E+00
    0.16311E-06         0.69849E-21         0.00000E+00
    0.16311E-06        -0.11642E-20         0.00000E+00
    0.16311E-06        -0.20955E-20         0.00000E+00
    0.16311E-06         0.23283E-20         0.00000E+00
    0.16311E-06         0.46566E-20         0.00000E+00
    0.16311E-06         0.25611E-20         0.00000E+00
    0.16311E-06        -0.13970E-20         0.00000E+00
    0.16311E-06        -0.20955E-20         0.00000E+00
    0.16311E-06        -0.67521E-20         0.00000E+00
    0.16311E-06        -0.95461E-20         0.00000E+00
    0.16311E-06        -0.41910E-20         0.00000E+00
    0.16311E-06        -0.79162E-20         0.00000E+00
    0.16311E-06        -0.76834E-20         0.00000E+00
    0.16311E-06        -0.15600E-19         0.00000E+00
    0.16311E-06        -0.18510E-19         0.00000E+00
    0.16311E-06        -0.17695E-19         0.00000E+00
    0.16311E-06        -0.12573E-19         0.00000E+00
    0.16311E-06        -0.81491E-20         0.00000E+00
    0.16311E-06        -0.94296E-20         0.00000E+00
    0.16311E-06        -0.11176E-19         0.00000E+00
    0.16311E-06        -0.93132E-20         0.00000E+00
    0.16311E-06        -0.18626E-20         0.00000E+00
    0.16311E-06         0.34925E-20         0.00000E+00
    0.16311E-06         0.55879E-20         0.00000E+00
    0.16311E-06         0.45402E-20         0.00000E+00
    0.16311E-06        -0.23283E-21         0.00000E+00
    0.16311E-06         0.37253E-20         0.00000E+00
    0.16311E-06         0.18626E-20         0.00000E+00
    0.16311E-06         0.37253E-20         0.00000E+00
    0.16311E-06         0.22119E-20         0.00000E+00
    0.16311E-06        -0.81491E-21         0.00000E+00
    0.16401E-06         0.00000E+00         0.00000E+00
    0.16401E-06         0.93132E-21         0.00000E+00
    0.16401E-06        -0.23283E-20         0.00000E+00
    0.16401E-06        -0.23283E-20         0.00000E+00
    0.16401E-06         0.00000E+00         0.00000E+00
    0.16401E-06         0.69849E-20         0.00000E+00
    0.16401E-06         0.98953E-20         0.00000E+00
    0.16401E-06         0.46566E-20         0.00000E+00
    0.16401E-06         0.00000E+00         0.00000E+00
    0.16401E-06        -0.41910E-20         0.00000E+00
    0.16401E-06         0.43074E-20         0.00000E+00
    0.16401E-06         0.23283E-20         0.00000E+00
    0.16401E-06         0.27940E-20         0.00000E+00
    0.16401E-06         0.27940E-20         0.00000E+00
    0.16401E-06        -0.13970E-20         0.00000E+00
    0.16401E-06         0.93132E-21         0.00000E+00
    0.16401E-06         0.00000E+00         0.00000E+00
    0.16401E-06         0.18626E-20         0.00000E+00
    0.16401E-06        -0.32596E-20         0.00000E+00
    0.16401E-06        -0.93132E-21         0.00000E+00
    0.16401E-06        -0.93132E-21         0.00000E+00
    0.16401E-06        -0.13970E-20         0.00000E+00
    0.16401E-06         0.13970E-20         0.00000E+00
    0.16401E-06         0.37253E-20         0.00000E+00
    0.16401E-06         0.32596E-20         0.00000E+00
    0.16401E-06         0.13970E-20         0.00000E+00
    0.16401E-06        -0.93132E-21         0.00000E+00
    0.16401E-06        -0.13970E-20         0.00000E+00
    0.16401E-06        -0.46566E-20         0.00000E+00
    0.16401E-06        -0.32596E-20         0.00000E+00
    0.16401E-06        -0.93132E-21         0.00000E+00
    0.16401E-06        -0.40745E-20         0.00000E+00
    0.16401E-06        -0.17462E-20         0.00000E+00
    0.16401E-06        -0.79162E-20         0.00000E+00
    0.16401E-06        -0.83819E-20         0.00000E+00
    0.16401E-06        -0.69849E-20         0.00000E+00
    0.16401E-06        -0.32596E-20         0.00000E+00
    0.16401E-06        -0.51223E-20         0.00000E+00
    0.16401E-06        -0.37253E-20         0.00000E+00
    0.16401E-06        -0.98953E-20         0.00000E+00
    0.16401E-06        -0.13970E-20         0.00000E+00
    0.16401E-06         0.88476E-20         0.00000E+00
    0.16401E-06         0.46566E-20         0.00000E+00
    0.16401E-06         0.37253E-20         0.00000E+00
    0.16401E-06         0.00000E+00         0.00000E+00
    0.16401E-06         0.00000E+00         0.00000E+00
    0.16401E-06         0.00000E+00         0.00000E+00
    0.16401E-06         0.53551E-20         0.00000E+00
    0.16401E-06        -0.27940E-20         0.00000E+00
    0.16401E-06         0.48894E-20         0.00000E+00
POINT_DATA       5151
VECTORS vDarcyNodal double 
    0.78722E-12         0.00000E+00         0.00000E+00
    0.78722E-12         0.00000E+00         0.00000E+00
    0.78722E-12         0.00000E+00         0.00000E+00
    0.78722E-12         0.00000E+00         0.00000E+00
    0.78722E-12         0.00000E+00         0.00000E+00
    0.78722E-12         0.00000E+00         0.00000E+00
    0.78722E-12         0.00000E+00         0.00000E+00
    0.78722E-12         0.00000E+00         0.00000E+00
    0.78722E-12         0.00000E+00         0.00000E+00
    0.78722E-12         0.00000E+00         0.00000E+00
    0.78722E-12         0.00000E+00         0.00000E+00
    0.78722E-12         0.00000E+00         0.00000E+00
    0.78722E-12         0.00000E+00         0.00000E+00
    0.78722E-12        -0.18626E-20         0.00000E+00
    0.78722E-12         0.00000E+00         0.00000E+00
    0.78722E-12         0.18626E-20         0.00000E+00
    0.78722E-12         0.00000E+00         0.00000E+00
    0.78722E-12         0.00000E+00         0.00000E+00
    0.78722E-12         0.00000E+00         0.00000E+00
    0.78722E-12         0.00000E+00         0.00000E+00
    0.78722E-12         0.00000E+00         0.00000E+00
    0.78722E-12         0.00000E+00         0.00000E+00
    0.78722E-12         0.00000E+00         0.00000E+00
    0.78722E-12         0.00000E+00         0.00000E+00
    0.78722E-12         0.00000E+00         0.00000E+00
    0.78722E-12         0.00000E+00         0.00000E+00
    0.78722E-12         0.00000E+00         0.00000E+00
    0.78722E-12         0.00000E+00         0.00000E+00
    0.78722E-12         0.00000E+00         0.00000E+00
    0.78722E-12         0.00000E+00         0.00000E+00
    0.78722E-12         0.00000E+00         0.00000E+00
    0.78722E-12         0.00000E+00         0.00000E+00
    0.78722E-12         0.00000E+00         0.00000E+00
    0.78722E-12         0.00000E+00         0.00000E+00
    0.78722E-12         0.00000E+00         0.00000E+00
    0.78722E-12         0.00000E+00         0.00000E+00
    0.78722E-12         0.00000E+00         0.00000E+00
    0.78722E-12         0.00000E+00         0.00000E+00
    0.78722E-12         0.00000E+00         0.00000E+00
    0.78722E-12         0.00000E+00         0.00000E+00
    0.78722E-12         0.00000E+00         0.00000E+00
    0.78722E-12         0.00000E+00         0.00000E+00
    0.78722E-12         0.00000E+00         0.00000E+00
    0.78722E-12         0.00000E+00         0.00000E+00
    0.78722E-12         0.00000E+00         0.00000E+00
    0.78722E-12         0.00000E+00         0.00000E+00
    0.78722E-12         0.00000E+00         0.00000E+00
    0.78722E-12         0.00000E+00         0.00000E+00
    0.78722E-12         0.00000E+00         0.00000E+00
    0.78722E-12         0.18626E-20         0.00000E+00
    0.78722E-12         0.37253E-20         0.00000E+00
    0.79973E-12         0.00000E+00         0.00000E+00
    0.79973E-12         0.00000E+00         0.00000E+00
    0.79973E-12         0.37253E-20         0.00000E+00
    0.79973E-12         0.57668E-20         0.00000E+00
    0.79973E-12         0.74506E-20         0.00000E+00
    0.79973E-12         0.11749E-19         0.00000E+00
    0.79973E-12         0.13970E-19         0.00000E+00
    0.79973E-12         0.76295E-20         0.00000E+00
    0.79973E-12         0.55879E-20         0.00000E+00
    0.79973E-12         0.55879E-20         0.00000E+00
    0.79973E-12         0.18626E-20         0.00000E+00
    0.79973E-12         0.29729E-20         0.00000E+00
    0.79973E-12        -0.18626E-20         0.00000E+00
    0.79973E-12         0.46566E-20         0.00000E+00
    0.79973E-12         0.65193E-20         0.00000E+00
    0.79973E-12        -0.29729E-20         0.00000E+00
    0.79973E-12        -0.18626E-20         0.00000E+00
    0.79973E-12         0.37253E-20         0.00000E+00
    0.79973E-12         0.37253E-20         0.00000E+00
    0.79973E-12         0.00000E+00         0.00000E+00
    0.79973E-12         0.18626E-20         0.00000E+00
    0.79973E-12         0.00000E+00         0.00000E+00
    0.79973E-12        -0.18626E-20         0.00000E+00
    0.79973E-12         0.39042E-20         0.00000E+00
    0.79973E-12         0.26151E-20         0.00000E+00
    0.79973E-12         0.93132E-21         0.00000E+00
    0.79973E-12        -0.26151E-20         0.00000E+00
    0.79973E-12        -0.11102E-20         0.00000E+00
    0.79973E-12         0.18626E-20         0.00000E+00
    0.79973E-12         0.00000E+00         0.00000E+00
    0.79973E-12         0.18626E-20         0.00000E+00
    0.79973E-12         0.55879E-20         0.00000E+00
    0.79973E-12         0.55879E-20         0.00000E+00
    0.79973E-12         0.18626E-20         0.00000E+00
    0.79973E-12         0.37253E-20         0.00000E+00
    0.79973E-12         0.37253E-20         0.00000E+00
    0.79973E-12         0.18626E-20         0.00000E+00
    0.79973E-12         0.00000E+00         0.00000E+00
    0.79973E-12        -0.18626E-20         0.00000E+00
    0.79973E-12         0.00000E+00         0.00000E+00
    0.79973E-12         0.35464E-20         0.00000E+00
    0.79973E-12         0.18626E-20         0.00000E+00
    0.79973E-12         0.20415E-20         0.00000E+00
    0.79973E-12         0.26151E-20         0.00000E+00
    0.79973E-12         0.48355E-20         0.00000E+00
    0.79973E-12         0.40831E-20         0.00000E+00
    0.79973E-12         0.26151E-20         0.00000E+00
    0.79973E-12         0.10066E-19         0.00000E+00
    0.79973E-12         0.74506E-20         0.00000E+00
    0.79973E-12        -0.11102E-20         0.00000E+00
    0.79973E-12         0.15048E-20         0.00000E+00
    0.83765E-12        -0.37253E-20         0.00000E+00
    0.83765E-12         0.74506E-20         0.00000E+00
    0.83765E-12         0.22352E-19         0.00000E+00
    0.83765E-12         0.32023E-19         0.00000E+00
    0.83765E-12         0.27008E-19         0.00000E+00
    0.83765E-12         0.10460E-19         0.00000E+00
    0.83765E-12         0.37253E-20         0.00000E+00
    0.83765E-12         0.50144E-20         0.00000E+00
    0.83765E-12         0.18626E-20         0.00000E+00
    0.83765E-12         0.18626E-20         0.00000E+00
    0.83765E-12         0.37253E-20         0.00000E+00
    0.83765E-12        -0.24362E-20         0.00000E+00
    0.83765E-12        -0.18626E-20         0.00000E+00
    0.83765E-12         0.18626E-20         0.00000E+00
    0.83765E-12         0.10245E-19         0.00000E+00
    0.83765E-12         0.18269E-19         0.00000E+00
    0.83765E-12         0.11176E-19         0.00000E+00
    0.83765E-12        -0.18626E-20         0.00000E+00
    0.83765E-12         0.00000E+00         0.00000E+00
    0.83765E-12         0.11176E-19         0.00000E+00
    0.83765E-12         0.27940E-19         0.00000E+00
    0.83765E-12         0.31665E-19         0.00000E+00
    0.83765E-12         0.11176E-19         0.00000E+00
    0.83765E-12        -0.42988E-20         0.00000E+00
    0.83765E-12         0.24362E-20         0.00000E+00
    0.83765E-12         0.46566E-20         0.00000E+00
    0.83765E-12         0.22204E-20         0.00000E+00
    0.83765E-12        -0.31518E-20         0.00000E+00
    0.83765E-12        -0.13039E-19         0.00000E+00
    0.83765E-12        -0.18626E-19         0.00000E+00
    0.83765E-12        -0.74506E-20         0.00000E+00
    0.83765E-12         0.18626E-20         0.00000E+00
    0.83765E-12         0.18626E-20         0.00000E+00
    0.83765E-12         0.55879E-20         0.00000E+00
    0.83765E-12         0.18626E-20         0.00000E+00
    0.83765E-12         0.00000E+00         0.00000E+00
    0.83765E-12         0.74506E-20         0.00000E+00
    0.83765E-12         0.74506E-20         0.00000E+00
    0.83765E-12         0.18626E-20         0.00000E+00
    0.83765E-12         0.00000E+00         0.00000E+00
    0.83765E-12        -0.87397E-20         0.00000E+00
    0.83765E-12        -0.93132E-21         0.00000E+00
    0.83765E-12        -0.15048E-20         0.00000E+00
    0.83765E-12        -0.13396E-19         0.00000E+00
    0.83765E-12        -0.89554E-20         0.00000E+00
    0.83765E-12         0.25782E-20         0.00000E+00
    0.83765E-12         0.98867E-20         0.00000E+00
    0.83765E-12         0.15475E-19         0.00000E+00
    0.83765E-12         0.16764E-19         0.00000E+00
    0.83765E-12         0.89554E-20         0.00000E+00
    0.83765E-12        -0.44409E-20         0.00000E+00
    0.90211E-12         0.37253E-20         0.00000E+00
    0.90211E-12         0.68771E-20         0.00000E+00
    0.90211E-12         0.14901E-19         0.00000E+00
    0.90211E-12         0.19200E-19         0.00000E+00
    0.90211E-12         0.24214E-19         0.00000E+00
    0.90211E-12         0.29229E-19         0.00000E+00
    0.90211E-12         0.22352E-19         0.00000E+00
    0.90211E-12         0.55879E-20         0.00000E+00
    0.90211E-12        -0.18626E-20         0.00000E+00
    0.90211E-12         0.55879E-20         0.00000E+00
    0.90211E-12         0.50144E-20         0.00000E+00
    0.90211E-12        -0.87397E-20         0.00000E+00
    0.90211E-12        -0.16406E-19         0.00000E+00
    0.90211E-12        -0.12681E-19         0.00000E+00
    0.90211E-12        -0.71560E-21         0.00000E+00
    0.90211E-12        -0.68771E-20         0.00000E+00
    0.90211E-12        -0.37253E-20         0.00000E+00
    0.90211E-12         0.18269E-19         0.00000E+00
    0.90211E-12         0.19558E-19         0.00000E+00
    0.90211E-12         0.87397E-20         0.00000E+00
    0.90211E-12        -0.24362E-20         0.00000E+00
    0.90211E-12        -0.80241E-20         0.00000E+00
    0.90211E-12        -0.40831E-20         0.00000E+00
    0.90211E-12         0.37253E-20         0.00000E+00
    0.90211E-12         0.93132E-21         0.00000E+00
    0.90211E-12         0.18626E-20         0.00000E+00
    0.90211E-12        -0.46566E-20         0.00000E+00
    0.90211E-12        -0.93132E-21         0.00000E+00
    0.90211E-12         0.12465E-19         0.00000E+00
    0.90211E-12         0.57352E-21         0.00000E+00
    0.90211E-12        -0.31518E-20         0.00000E+00
    0.90211E-12         0.50144E-20         0.00000E+00
    0.90211E-12         0.12107E-19         0.00000E+00
    0.90211E-12         0.70928E-20         0.00000E+00
    0.90211E-12         0.13039E-19         0.00000E+00
    0.90211E-12         0.74506E-20         0.00000E+00
    0.90211E-12        -0.10818E-19         0.00000E+00
    0.90211E-12        -0.93132E-20         0.00000E+00
    0.90211E-12         0.27940E-20         0.00000E+00
    0.90211E-12        -0.57352E-21         0.00000E+00
    0.90211E-12        -0.35780E-21         0.00000E+00
    0.90211E-12        -0.35780E-21         0.00000E+00
    0.90211E-12         0.37253E-20         0.00000E+00
    0.90211E-12        -0.18626E-20         0.00000E+00
    0.90211E-12        -0.14901E-19         0.00000E+00
    0.90211E-12        -0.33675E-20         0.00000E+00
    0.90211E-12        -0.27940E-20         0.00000E+00
    0.90211E-12        -0.37253E-20         0.00000E+00
    0.90211E-12        -0.15832E-19         0.00000E+00
    0.90211E-12        -0.78084E-20         0.00000E+00
    0.90211E-12         0.74506E-20         0.00000E+00
    0.99506E-12        -0.11176E-19         0.00000E+00
    0.99506E-12        -0.11176E-19         0.00000E+00
    0.99506E-12         0.00000E+00         0.00000E+00
    0.99506E-12         0.63035E-20         0.00000E+00
    0.99506E-12        -0.46566E-20         0.00000E+00
    0.99506E-12        -0.51565E-20         0.00000E+00
    0.99506E-12         0.93132E-21         0.00000E+00
    0.99506E-12         0.81662E-20         0.00000E+00
    0.99506E-12         0.00000E+00         0.00000E+00
    0.99506E-12        -0.37253E-20         0.00000E+00
    0.99506E-12        -0.55879E-20         0.00000E+00
    0.99506E-12        -0.95290E-20         0.00000E+00
    0.99506E-12        -0.27940E-20         0.00000E+00
    0.99506E-12         0.93132E-21         0.00000E+00
    0.99506E-12         0.46566E-20         0.00000E+00
    0.99506E-12         0.16048E-19         0.00000E+00
    0.99506E-12         0.13039E-19         0.00000E+00
    0.99506E-12        -0.55879E-20         0.00000E+00
    0.99506E-12         0.00000E+00         0.00000E+00
    0.99506E-12         0.24214E-19         0.00000E+00
    0.99506E-12         0.24214E-19         0.00000E+00
    0.99506E-12         0.11176E-19         0.00000E+00
    0.99506E-12         0.00000E+00         0.00000E+00
    0.99506E-12        -0.76663E-20         0.00000E+00
    0.99506E-12        -0.25782E-20         0.00000E+00
    0.99506E-12        -0.83819E-20         0.00000E+00
    0.99506E-12        -0.76663E-20         0.00000E+00
    0.99506E-12         0.21572E-21         0.00000E+00
    0.99506E-12         0.74506E-20         0.00000E+00
    0.99506E-12         0.18626E-19         0.00000E+00
    0.99506E-12         0.16764E-19         0.00000E+00
    0.99506E-12         0.11176E-19         0.00000E+00
    0.99506E-12         0.55879E-20         0.00000E+00
    0.99506E-12        -0.74506E-20         0.00000E+00
    0.99506E-12        -0.16764E-19         0.00000E+00
    0.99506E-12        -0.11176E-19         0.00000E+00
    0.99506E-12         0.00000E+00         0.00000E+00
    0.99506E-12         0.55879E-20         0.00000E+00
    0.99506E-12         0.37253E-20         0.00000E+00
    0.99506E-12         0.55879E-20         0.00000E+00
    0.99506E-12         0.48723E-20         0.00000E+00
    0.99506E-12         0.13039E-19         0.00000E+00
    0.99506E-12         0.11891E-19         0.00000E+00
    0.99506E-12         0.39410E-20         0.00000E+00
    0.99506E-12         0.12823E-19         0.00000E+00
    0.99506E-12         0.12607E-19         0.00000E+00
    0.99506E-12         0.30097E-20         0.00000E+00
    0.99506E-12         0.85976E-20         0.00000E+00
    0.99506E-12         0.74506E-20         0.00000E+00
    0.99506E-12         0.30097E-20         0.00000E+00
    0.99506E-12         0.60194E-20         0.00000E+00
    0.11193E-11        -0.37253E-20         0.00000E+00
    0.11193E-11        -0.11176E-19         0.00000E+00
    0.11193E-11        -0.20273E-19         0.00000E+00
    0.11193E-11        -0.20489E-19         0.00000E+00
    0.11193E-11        -0.95290E-20         0.00000E+00
    0.11193E-11         0.37253E-20         0.00000E+00
    0.11193E-11         0.11176E-19         0.00000E+00
    0.11193E-11         0.55879E-20         0.00000E+00
    0.11193E-11         0.00000E+00         0.00000E+00
    0.11193E-11        -0.18626E-20         0.00000E+00
    0.11193E-11        -0.10029E-19         0.00000E+00
    0.11193E-11        -0.22352E-19         0.00000E+00
    0.11193E-11        -0.21636E-19         0.00000E+00
    0.11193E-11        -0.74506E-20         0.00000E+00
    0.11193E-11         0.37253E-20         0.00000E+00
    0.11193E-11         0.18626E-20         0.00000E+00
    0.11193E-11         0.37253E-20         0.00000E+00
    0.11193E-11         0.14901E-19         0.00000E+00
    0.11193E-11         0.20489E-19         0.00000E+00
    0.11193E-11         0.74506E-20         0.00000E+00
    0.11193E-11        -0.18626E-20         0.00000E+00
    0.11193E-11         0.93132E-20         0.00000E+00
    0.11193E-11         0.13039E-19         0.00000E+00
    0.11193E-11         0.13039E-19         0.00000E+00
    0.11193E-11         0.26077E-19         0.00000E+00
    0.11193E-11         0.22352E-19         0.00000E+00
    0.11193E-11         0.55879E-20         0.00000E+00
    0.11193E-11        -0.18626E-20         0.00000E+00
    0.11193E-11         0.18626E-20         0.00000E+00
    0.11193E-11        -0.37253E-20         0.00000E+00
    0.11193E-11        -0.55879E-20         0.00000E+00
    0.11193E-11        -0.55879E-20         0.00000E+00
    0.11193E-11        -0.14901E-19         0.00000E+00
    0.11193E-11        -0.37253E-20         0.00000E+00
    0.11193E-11         0.74506E-20         0.00000E+00
    0.11193E-11        -0.18626E-20         0.00000E+00
    0.11193E-11        -0.81662E-20         0.00000E+00
    0.11193E-11         0.48723E-20         0.00000E+00
    0.11193E-11         0.16548E-19         0.00000E+00
    0.11193E-11         0.14685E-19         0.00000E+00
    0.11193E-11         0.22352E-19         0.00000E+00
    0.11193E-11         0.20489E-19         0.00000E+00
    0.11193E-11         0.18626E-19         0.00000E+00
    0.11193E-11         0.24214E-19         0.00000E+00
    0.11193E-11         0.67350E-20         0.00000E+00
    0.11193E-11        -0.25782E-20         0.00000E+00
    0.11193E-11         0.44409E-20         0.00000E+00
    0.11193E-11         0.81662E-20         0.00000E+00
    0.11193E-11         0.18626E-20         0.00000E+00
    0.11193E-11        -0.44409E-20         0.00000E+00
    0.11193E-11        -0.51565E-20         0.00000E+00
    0.12785E-11        -0.37253E-20         0.00000E+00
    0.12785E-11         0.10029E-19         0.00000E+00
    0.12785E-11         0.22352E-19         0.00000E+00
    0.12785E-11         0.17911E-19         0.00000E+00
    0.12785E-11         0.13039E-19         0.00000E+00
    0.12785E-11        -0.11392E-19         0.00000E+00
    0.12785E-11        -0.16764E-19         0.00000E+00
    0.12785E-11        -0.74506E-20         0.00000E+00
    0.12785E-11        -0.16764E-19         0.00000E+00
    0.12785E-11        -0.32596E-19         0.00000E+00
    0.12785E-11        -0.19774E-19         0.00000E+00
    0.12785E-11         0.21573E-21         0.00000E+00
    0.12785E-11         0.71560E-21         0.00000E+00
    0.12785E-11        -0.39410E-20         0.00000E+00
    0.12785E-11        -0.19126E-19         0.00000E+00
    0.12785E-11        -0.25861E-19         0.00000E+00
    0.12785E-11        -0.20489E-19         0.00000E+00
    0.12785E-11        -0.17479E-19         0.00000E+00
    0.12785E-11        -0.20489E-19         0.00000E+00
    0.12785E-11        -0.67350E-20         0.00000E+00
    0.12785E-11        -0.21573E-21         0.00000E+00
    0.12785E-11        -0.39410E-20         0.00000E+00
    0.12785E-11         0.11470E-20         0.00000E+00
    0.12785E-11        -0.83819E-20         0.00000E+00
    0.12785E-11        -0.13970E-19         0.00000E+00
    0.12785E-11         0.55879E-20         0.00000E+00
    0.12785E-11         0.15832E-19         0.00000E+00
    0.12785E-11         0.12107E-19         0.00000E+00
    0.12785E-11         0.63035E-20         0.00000E+00
    0.12785E-11         0.12323E-19         0.00000E+00
    0.12785E-11         0.85976E-20         0.00000E+00
    0.12785E-11         0.10029E-19         0.00000E+00
    0.12785E-11         0.13970E-19         0.00000E+00
    0.12785E-11         0.21573E-21         0.00000E+00
    0.12785E-11        -0.74506E-20         0.00000E+00
    0.12785E-11         0.37253E-20         0.00000E+00
    0.12785E-11         0.19342E-19         0.00000E+00
    0.12785E-11         0.74506E-20         0.00000E+00
    0.12785E-11        -0.55879E-20         0.00000E+00
    0.12785E-11        -0.30097E-20         0.00000E+00
    0.12785E-11         0.76663E-20         0.00000E+00
    0.12785E-11         0.18842E-19         0.00000E+00
    0.12785E-11         0.16764E-19         0.00000E+00
    0.12785E-11         0.11176E-19         0.00000E+00
    0.12785E-11         0.22352E-19         0.00000E+00
    0.12785E-11         0.23067E-19         0.00000E+00
    0.12785E-11         0.55879E-20         0.00000E+00
    0.12785E-11         0.18626E-20         0.00000E+00
    0.12785E-11        -0.37253E-20         0.00000E+00
    0.12785E-11        -0.71560E-21         0.00000E+00
    0.12785E-11         0.37253E-20         0.00000E+00
    0.14774E-11         0.10176E-19         0.00000E+00
    0.14774E-11        -0.64511E-34         0.00000E+00
    0.14774E-11         0.49987E-21         0.00000E+00
    0.14774E-11        -0.11176E-19         0.00000E+00
    0.14774E-11        -0.30302E-19         0.00000E+00
    0.14774E-11        -0.22852E-19         0.00000E+00
    0.14774E-11        -0.60194E-20         0.00000E+00
    0.14774E-11        -0.17195E-19         0.00000E+00
    0.14774E-11        -0.33528E-19         0.00000E+00
    0.14774E-11        -0.29802E-19         0.00000E+00
    0.14774E-11        -0.22352E-19         0.00000E+00
    0.14774E-11        -0.18626E-19         0.00000E+00
    0.14774E-11        -0.16764E-19         0.00000E+00
    0.14774E-11        -0.14901E-19         0.00000E+00
    0.14774E-11        -0.74506E-20         0.00000E+00
    0.14774E-11        -0.74506E-20         0.00000E+00
    0.14774E-11        -0.16764E-19         0.00000E+00
    0.14774E-11        -0.22352E-19         0.00000E+00
    0.14774E-11        -0.22352E-19         0.00000E+00
    0.14774E-11        -0.31665E-19         0.00000E+00
    0.14774E-11        -0.27940E-19         0.00000E+00
    0.14774E-11        -0.74506E-20         0.00000E+00
    0.14774E-11         0.18626E-20         0.00000E+00
    0.14774E-11         0.55879E-20         0.00000E+00
    0.14774E-11         0.37253E-20         0.00000E+00
    0.14774E-11        -0.93132E-20         0.00000E+00
    0.14774E-11        -0.55879E-20         0.00000E+00
    0.14774E-11         0.14901E-19         0.00000E+00
    0.14774E-11         0.20489E-19         0.00000E+00
    0.14774E-11         0.55879E-20         0.00000E+00
    0.14774E-11        -0.18626E-20         0.00000E+00
    0.14774E-11         0.00000E+00         0.00000E+00
    0.14774E-11        -0.18626E-20         0.00000E+00
    0.14774E-11        -0.74506E-20         0.00000E+00
    0.14774E-11        -0.55879E-20         0.00000E+00
    0.14774E-11         0.55879E-20         0.00000E+00
    0.14774E-11         0.55879E-20         0.00000E+00
    0.14774E-11         0.93132E-20         0.00000E+00
    0.14774E-11         0.14901E-19         0.00000E+00
    0.14774E-11         0.22783E-19         0.00000E+00
    0.14774E-11         0.24214E-19         0.00000E+00
    0.14774E-11         0.14470E-19         0.00000E+00
    0.14774E-11         0.13039E-19         0.00000E+00
    0.14774E-11         0.16764E-19         0.00000E+00
    0.14774E-11         0.00000E+00         0.00000E+00
    0.14774E-11        -0.13039E-19         0.00000E+00
    0.14774E-11        -0.23625E-20         0.00000E+00
    0.14774E-11         0.74506E-20         0.00000E+00
    0.14774E-11         0.23625E-20         0.00000E+00
    0.14774E-11        -0.74506E-20         0.00000E+00
    0.14774E-11        -0.14901E-19         0.00000E+00
    0.17220E-11        -0.37253E-20         0.00000E+00
    0.17220E-11        -0.13039E-19         0.00000E+00
    0.17220E-11        -0.24214E-19         0.00000E+00
    0.17220E-11        -0.21852E-19         0.00000E+00
    0.17220E-11        -0.93132E-20         0.00000E+00
    0.17220E-11        -0.11244E-19         0.00000E+00
    0.17220E-11        -0.23283E-19         0.00000E+00
    0.17220E-11        -0.19989E-19         0.00000E+00
    0.17220E-11        -0.13039E-19         0.00000E+00
    0.17220E-11        -0.18626E-19         0.00000E+00
    0.17220E-11        -0.14901E-19         0.00000E+00
    0.17220E-11        -0.16264E-19         0.00000E+00
    0.17220E-11        -0.13039E-19         0.00000E+00
    0.17220E-11         0.93132E-21         0.00000E+00
    0.17220E-11         0.65193E-20         0.00000E+00
    0.17220E-11        -0.98131E-20         0.00000E+00
    0.17220E-11        -0.16764E-19         0.00000E+00
    0.17220E-11        -0.55879E-20         0.00000E+00
    0.17220E-11        -0.55879E-20         0.00000E+00
    0.17220E-11        -0.37253E-20         0.00000E+00
    0.17220E-11        -0.18626E-20         0.00000E+00
    0.17220E-11        -0.14901E-19         0.00000E+00
    0.17220E-11        -0.16764E-19         0.00000E+00
    0.17220E-11        -0.69507E-20         0.00000E+00
    0.17220E-11         0.22941E-20         0.00000E+00
    0.17220E-11         0.18626E-19         0.00000E+00
    0.17220E-11         0.13538E-19         0.00000E+00
    0.17220E-11        -0.10744E-19         0.00000E+00
    0.17220E-11        -0.20489E-19         0.00000E+00
    0.17220E-11        -0.11176E-19         0.00000E+00
    0.17220E-11         0.00000E+00         0.00000E+00
    0.17220E-11         0.55879E-20         0.00000E+00
    0.17220E-11         0.14901E-19         0.00000E+00
    0.17220E-11         0.22352E-19         0.00000E+00
    0.17220E-11         0.13039E-19         0.00000E+00
    0.17220E-11         0.18626E-20         0.00000E+00
    0.17220E-11         0.93132E-20         0.00000E+00
    0.17220E-11         0.37253E-20         0.00000E+00
    0.17220E-11         0.00000E+00         0.00000E+00
    0.17220E-11         0.37253E-20         0.00000E+00
    0.17220E-11        -0.49986E-21         0.00000E+00
    0.17220E-11        -0.46566E-20         0.00000E+00
    0.17220E-11        -0.11607E-19         0.00000E+00
    0.17220E-11        -0.13538E-19         0.00000E+00
    0.17220E-11        -0.60194E-20         0.00000E+00
    0.17220E-11        -0.55195E-20         0.00000E+00
    0.17220E-11        -0.49986E-21         0.00000E+00
    0.17220E-11         0.50881E-20         0.00000E+00
    0.17220E-11         0.93132E-20         0.00000E+00
    0.17220E-11         0.69507E-20         0.00000E+00
    0.17220E-11        -0.47250E-20         0.00000E+00
    0.20194E-11         0.99972E-21         0.00000E+00
    0.20194E-11        -0.18626E-20         0.00000E+00
    0.20194E-11         0.93132E-20         0.00000E+00
    0.20194E-11         0.93132E-20         0.00000E+00
    0.20194E-11        -0.11176E-19         0.00000E+00
    0.20194E-11        -0.93132E-20         0.00000E+00
    0.20194E-11        -0.10245E-19         0.00000E+00
    0.20194E-11        -0.20921E-19         0.00000E+00
    0.20194E-11        -0.18626E-19         0.00000E+00
    0.20194E-11        -0.49986E-21         0.00000E+00
    0.20194E-11        -0.60878E-20         0.00000E+00
    0.20194E-11         0.00000E+00         0.00000E+00
    0.20194E-11         0.55879E-20         0.00000E+00
    0.20194E-11        -0.13039E-19         0.00000E+00
    0.20194E-11        -0.16764E-19         0.00000E+00
    0.20194E-11        -0.18626E-20         0.00000E+00
    0.20194E-11         0.55879E-20         0.00000E+00
    0.20194E-11        -0.55879E-20         0.00000E+00
    0.20194E-11        -0.55879E-20         0.00000E+00
    0.20194E-11        -0.37253E-20         0.00000E+00
    0.20194E-11        -0.55879E-20         0.00000E+00
    0.20194E-11         0.55879E-20         0.00000E+00
    0.20194E-11         0.13039E-19         0.00000E+00
    0.20194E-11         0.93132E-20         0.00000E+00
    0.20194E-11         0.16764E-19         0.00000E+00
    0.20194E-11         0.11676E-19         0.00000E+00
    0.20194E-11        -0.37253E-20         0.00000E+00
    0.20194E-11         0.32254E-20         0.00000E+00
    0.20194E-11         0.55879E-20         0.00000E+00
    0.20194E-11         0.37253E-20         0.00000E+00
    0.20194E-11        -0.37253E-20         0.00000E+00
    0.20194E-11         0.49986E-21         0.00000E+00
    0.20194E-11         0.27940E-20         0.00000E+00
    0.20194E-11        -0.51565E-20         0.00000E+00
    0.20194E-11         0.37253E-20         0.00000E+00
    0.20194E-11         0.14901E-19         0.00000E+00
    0.20194E-11         0.74506E-20         0.00000E+00
    0.20194E-11         0.37253E-20         0.00000E+00
    0.20194E-11         0.18626E-20         0.00000E+00
    0.20194E-11        -0.69507E-20         0.00000E+00
    0.20194E-11        -0.55879E-20         0.00000E+00
    0.20194E-11        -0.65193E-20         0.00000E+00
    0.20194E-11        -0.93132E-21         0.00000E+00
    0.20194E-11         0.74506E-20         0.00000E+00
    0.20194E-11         0.18626E-20         0.00000E+00
    0.20194E-11        -0.23625E-20         0.00000E+00
    0.20194E-11         0.00000E+00         0.00000E+00
    0.20194E-11        -0.37253E-20         0.00000E+00
    0.20194E-11        -0.74506E-20         0.00000E+00
    0.20194E-11         0.32254E-20         0.00000E+00
    0.20194E-11         0.10176E-19         0.00000E+00
    0.23784E-11         0.74506E-20         0.00000E+00
    0.23784E-11         0.93132E-20         0.00000E+00
    0.23784E-11         0.32254E-20         0.00000E+00
    0.23784E-11         0.55879E-20         0.00000E+00
    0.23784E-11         0.79504E-20         0.00000E+00
    0.23784E-11         0.18626E-20         0.00000E+00
    0.23784E-11        -0.55879E-20         0.00000E+00
    0.23784E-11        -0.18626E-20         0.00000E+00
    0.23784E-11         0.74506E-20         0.00000E+00
    0.23784E-11         0.37253E-20         0.00000E+00
    0.23784E-11        -0.51565E-20         0.00000E+00
    0.23784E-11        -0.10245E-19         0.00000E+00
    0.23784E-11        -0.50881E-20         0.00000E+00
    0.23784E-11         0.74506E-20         0.00000E+00
    0.23784E-11         0.74506E-20         0.00000E+00
    0.23784E-11        -0.55879E-20         0.00000E+00
    0.23784E-11        -0.14901E-19         0.00000E+00
    0.23784E-11        -0.11176E-19         0.00000E+00
    0.23784E-11        -0.74506E-20         0.00000E+00
    0.23784E-11         0.11176E-19         0.00000E+00
    0.23784E-11         0.26077E-19         0.00000E+00
    0.23784E-11         0.22352E-19         0.00000E+00
    0.23784E-11         0.11176E-19         0.00000E+00
    0.23784E-11         0.55879E-20         0.00000E+00
    0.23784E-11         0.18626E-20         0.00000E+00
    0.23784E-11         0.93132E-20         0.00000E+00
    0.23784E-11         0.74506E-20         0.00000E+00
    0.23784E-11        -0.55879E-20         0.00000E+00
    0.23784E-11        -0.93132E-20         0.00000E+00
    0.23784E-11        -0.18626E-19         0.00000E+00
    0.23784E-11        -0.74506E-20         0.00000E+00
    0.23784E-11         0.00000E+00         0.00000E+00
    0.23784E-11         0.00000E+00         0.00000E+00
    0.23784E-11         0.11176E-19         0.00000E+00
    0.23784E-11         0.14901E-19         0.00000E+00
    0.23784E-11         0.14901E-19         0.00000E+00
    0.23784E-11         0.11607E-19         0.00000E+00
    0.23784E-11         0.43147E-21         0.00000E+00
    0.23784E-11        -0.41568E-20         0.00000E+00
    0.23784E-11        -0.43147E-21         0.00000E+00
    0.23784E-11        -0.74506E-20         0.00000E+00
    0.23784E-11         0.37253E-20         0.00000E+00
    0.23784E-11         0.93132E-20         0.00000E+00
    0.23784E-11        -0.37253E-20         0.00000E+00
    0.23784E-11         0.41568E-20         0.00000E+00
    0.23784E-11         0.78820E-20         0.00000E+00
    0.23784E-11         0.13538E-19         0.00000E+00
    0.23784E-11         0.13538E-19         0.00000E+00
    0.23784E-11         0.93132E-20         0.00000E+00
    0.23784E-11         0.13628E-20         0.00000E+00
    0.23784E-11        -0.12176E-19         0.00000E+00
    0.28096E-11        -0.74506E-20         0.00000E+00
    0.28096E-11        -0.74506E-20         0.00000E+00
    0.28096E-11         0.55879E-20         0.00000E+00
    0.28096E-11         0.93132E-20         0.00000E+00
    0.28096E-11         0.49985E-21         0.00000E+00
    0.28096E-11        -0.14312E-20         0.00000E+00
    0.28096E-11         0.17943E-20         0.00000E+00
    0.28096E-11        -0.50881E-20         0.00000E+00
    0.28096E-11        -0.13628E-20         0.00000E+00
    0.28096E-11        -0.49985E-21         0.00000E+00
    0.28096E-11        -0.13039E-19         0.00000E+00
    0.28096E-11        -0.50881E-20         0.00000E+00
    0.28096E-11        -0.74506E-20         0.00000E+00
    0.28096E-11        -0.11176E-19         0.00000E+00
    0.28096E-11         0.18626E-20         0.00000E+00
    0.28096E-11         0.50881E-20         0.00000E+00
    0.28096E-11        -0.22941E-20         0.00000E+00
    0.28096E-11        -0.13628E-20         0.00000E+00
    0.28096E-11        -0.68375E-22         0.00000E+00
    0.28096E-11        -0.13628E-20         0.00000E+00
    0.28096E-11         0.49985E-21         0.00000E+00
    0.28096E-11        -0.42251E-20         0.00000E+00
    0.28096E-11         0.11676E-19         0.00000E+00
    0.28096E-11         0.20989E-19         0.00000E+00
    0.28096E-11         0.12039E-19         0.00000E+00
    0.28096E-11        -0.93132E-21         0.00000E+00
    0.28096E-11        -0.13628E-20         0.00000E+00
    0.28096E-11         0.41568E-20         0.00000E+00
    0.28096E-11         0.37253E-20         0.00000E+00
    0.28096E-11         0.32254E-20         0.00000E+00
    0.28096E-11        -0.13628E-20         0.00000E+00
    0.28096E-11         0.84503E-20         0.00000E+00
    0.28096E-11         0.19989E-19         0.00000E+00
    0.28096E-11         0.14401E-19         0.00000E+00
    0.28096E-11         0.16332E-19         0.00000E+00
    0.28096E-11         0.74506E-20         0.00000E+00
    0.28096E-11         0.55879E-20         0.00000E+00
    0.28096E-11         0.16764E-19         0.00000E+00
    0.28096E-11         0.23283E-19         0.00000E+00
    0.28096E-11         0.60878E-20         0.00000E+00
    0.28096E-11        -0.88818E-20         0.00000E+00
    0.28096E-11        -0.14470E-19         0.00000E+00
    0.28096E-11        -0.50881E-20         0.00000E+00
    0.28096E-11         0.55879E-20         0.00000E+00
    0.28096E-11        -0.42251E-20         0.00000E+00
    0.28096E-11        -0.55879E-20         0.00000E+00
    0.28096E-11        -0.37253E-20         0.00000E+00
    0.28096E-11        -0.55879E-20         0.00000E+00
    0.28096E-11         0.14312E-20         0.00000E+00
    0.28096E-11        -0.49985E-21         0.00000E+00
    0.28096E-11        -0.13675E-21         0.00000E+00
    0.33254E-11         0.37253E-20         0.00000E+00
    0.33254E-11         0.14312E-20         0.00000E+00
    0.33254E-11        -0.83819E-20         0.00000E+00
    0.33254E-11        -0.11676E-19         0.00000E+00
    0.33254E-11        -0.93132E-20         0.00000E+00
    0.33254E-11        -0.88134E-20         0.00000E+00
    0.33254E-11         0.37253E-20         0.00000E+00
    0.33254E-11         0.18626E-20         0.00000E+00
    0.33254E-11        -0.55879E-20         0.00000E+00
    0.33254E-11        -0.74506E-20         0.00000E+00
    0.33254E-11         0.49984E-21         0.00000E+00
    0.33254E-11         0.88134E-20         0.00000E+00
    0.33254E-11         0.10744E-19         0.00000E+00
    0.33254E-11         0.88817E-20         0.00000E+00
    0.33254E-11        -0.56563E-20         0.00000E+00
    0.33254E-11        -0.12607E-19         0.00000E+00
    0.33254E-11        -0.93132E-20         0.00000E+00
    0.33254E-11         0.32254E-20         0.00000E+00
    0.33254E-11         0.13970E-19         0.00000E+00
    0.33254E-11         0.18195E-19         0.00000E+00
    0.33254E-11         0.11676E-19         0.00000E+00
    0.33254E-11        -0.13628E-20         0.00000E+00
    0.33254E-11        -0.98131E-20         0.00000E+00
    0.33254E-11        -0.83819E-20         0.00000E+00
    0.33254E-11         0.18626E-20         0.00000E+00
    0.33254E-11         0.65193E-20         0.00000E+00
    0.33254E-11         0.18626E-20         0.00000E+00
    0.33254E-11         0.18626E-20         0.00000E+00
    0.33254E-11         0.11676E-19         0.00000E+00
    0.33254E-11         0.19989E-19         0.00000E+00
    0.33254E-11         0.16264E-19         0.00000E+00
    0.33254E-11         0.32938E-20         0.00000E+00
    0.33254E-11         0.93132E-21         0.00000E+00
    0.33254E-11         0.10676E-19         0.00000E+00
    0.33254E-11         0.93132E-20         0.00000E+00
    0.33254E-11         0.74506E-20         0.00000E+00
    0.33254E-11         0.12607E-19         0.00000E+00
    0.33254E-11         0.16764E-19         0.00000E+00
    0.33254E-11         0.12107E-19         0.00000E+00
    0.33254E-11         0.49984E-21         0.00000E+00
    0.33254E-11         0.60194E-20         0.00000E+00
    0.33254E-11         0.19058E-19         0.00000E+00
    0.33254E-11         0.24214E-19         0.00000E+00
    0.33254E-11         0.11176E-19         0.00000E+00
    0.33254E-11        -0.74506E-20         0.00000E+00
    0.33254E-11        -0.16264E-19         0.00000E+00
    0.33254E-11        -0.55879E-20         0.00000E+00
    0.33254E-11        -0.74506E-20         0.00000E+00
    0.33254E-11        -0.13970E-19         0.00000E+00
    0.33254E-11        -0.14470E-19         0.00000E+00
    0.33254E-11        -0.37253E-20         0.00000E+00
    0.39408E-11         0.37253E-20         0.00000E+00
    0.39408E-11         0.37253E-20         0.00000E+00
    0.39408E-11         0.55879E-20         0.00000E+00
    0.39408E-11         0.18626E-20         0.00000E+00
    0.39408E-11        -0.11176E-19         0.00000E+00
    0.39408E-11        -0.14901E-19         0.00000E+00
    0.39408E-11        -0.37253E-20         0.00000E+00
    0.39408E-11         0.00000E+00         0.00000E+00
    0.39408E-11         0.37253E-20         0.00000E+00
    0.39408E-11         0.00000E+00         0.00000E+00
    0.39408E-11        -0.74506E-20         0.00000E+00
    0.39408E-11         0.18626E-20         0.00000E+00
    0.39408E-11         0.37253E-20         0.00000E+00
    0.39408E-11        -0.37253E-20         0.00000E+00
    0.39408E-11         0.37253E-20         0.00000E+00
    0.39408E-11         0.11176E-19         0.00000E+00
    0.39408E-11         0.37253E-20         0.00000E+00
    0.39408E-11         0.18626E-20         0.00000E+00
    0.39408E-11         0.86298E-21         0.00000E+00
    0.39408E-11         0.18626E-20         0.00000E+00
    0.39408E-11         0.99967E-21         0.00000E+00
    0.39408E-11        -0.74506E-20         0.00000E+00
    0.39408E-11        -0.37253E-20         0.00000E+00
    0.39408E-11        -0.18626E-20         0.00000E+00
    0.39408E-11         0.00000E+00         0.00000E+00
    0.39408E-11         0.74506E-20         0.00000E+00
    0.39408E-11         0.16764E-19         0.00000E+00
    0.39408E-11         0.20489E-19         0.00000E+00
    0.39408E-11         0.22352E-19         0.00000E+00
    0.39408E-11         0.14901E-19         0.00000E+00
    0.39408E-11         0.74506E-20         0.00000E+00
    0.39408E-11        -0.18626E-20         0.00000E+00
    0.39408E-11        -0.55879E-20         0.00000E+00
    0.39408E-11        -0.18626E-20         0.00000E+00
    0.39408E-11         0.55879E-20         0.00000E+00
    0.39408E-11         0.37253E-20         0.00000E+00
    0.39408E-11         0.18626E-20         0.00000E+00
    0.39408E-11         0.18626E-19         0.00000E+00
    0.39408E-11         0.24214E-19         0.00000E+00
    0.39408E-11         0.20489E-19         0.00000E+00
    0.39408E-11         0.13039E-19         0.00000E+00
    0.39408E-11        -0.37253E-20         0.00000E+00
    0.39408E-11        -0.13039E-19         0.00000E+00
    0.39408E-11         0.37253E-20         0.00000E+00
    0.39408E-11         0.11176E-19         0.00000E+00
    0.39408E-11         0.74506E-20         0.00000E+00
    0.39408E-11         0.37253E-20         0.00000E+00
    0.39408E-11         0.00000E+00         0.00000E+00
    0.39408E-11         0.93132E-20         0.00000E+00
    0.39408E-11         0.93132E-20         0.00000E+00
    0.39408E-11         0.37253E-20         0.00000E+00
    0.46736E-11        -0.75872E-20         0.00000E+00
    0.46736E-11        -0.18626E-20         0.00000E+00
    0.46736E-11        -0.17943E-20         0.00000E+00
    0.46736E-11        -0.11176E-19         0.00000E+00
    0.46736E-11        -0.93816E-20         0.00000E+00
    0.46736E-11        -0.68329E-22         0.00000E+00
    0.46736E-11        -0.73823E-20         0.00000E+00
    0.46736E-11        -0.12970E-19         0.00000E+00
    0.46736E-11        -0.14901E-19         0.00000E+00
    0.46736E-11        -0.74506E-20         0.00000E+00
    0.46736E-11         0.37253E-20         0.00000E+00
    0.46736E-11         0.55879E-20         0.00000E+00
    0.46736E-11         0.14901E-19         0.00000E+00
    0.46736E-11         0.13039E-19         0.00000E+00
    0.46736E-11        -0.18626E-20         0.00000E+00
    0.46736E-11        -0.18626E-20         0.00000E+00
    0.46736E-11         0.11176E-19         0.00000E+00
    0.46736E-11         0.37253E-20         0.00000E+00
    0.46736E-11        -0.55879E-20         0.00000E+00
    0.46736E-11        -0.55879E-20         0.00000E+00
    0.46736E-11        -0.55879E-20         0.00000E+00
    0.46736E-11        -0.55879E-20         0.00000E+00
    0.46736E-11        -0.11176E-19         0.00000E+00
    0.46736E-11        -0.11176E-19         0.00000E+00
    0.46736E-11        -0.37253E-20         0.00000E+00
    0.46736E-11         0.93132E-20         0.00000E+00
    0.46736E-11         0.22352E-19         0.00000E+00
    0.46736E-11         0.20489E-19         0.00000E+00
    0.46736E-11         0.16764E-19         0.00000E+00
    0.46736E-11         0.14901E-19         0.00000E+00
    0.46736E-11         0.37253E-20         0.00000E+00
    0.46736E-11         0.00000E+00         0.00000E+00
    0.46736E-11         0.00000E+00         0.00000E+00
    0.46736E-11         0.00000E+00         0.00000E+00
    0.46736E-11         0.00000E+00         0.00000E+00
    0.46736E-11         0.00000E+00         0.00000E+00
    0.46736E-11         0.18626E-20         0.00000E+00
    0.46736E-11        -0.18626E-20         0.00000E+00
    0.46736E-11         0.74506E-20         0.00000E+00
    0.46736E-11         0.20421E-19         0.00000E+00
    0.46736E-11         0.20489E-19         0.00000E+00
    0.46736E-11         0.11244E-19         0.00000E+00
    0.46736E-11         0.18626E-19         0.00000E+00
    0.46736E-11         0.16764E-19         0.00000E+00
    0.46736E-11        -0.74506E-20         0.00000E+00
    0.46736E-11        -0.93132E-20         0.00000E+00
    0.46736E-11        -0.37936E-20         0.00000E+00
    0.46736E-11        -0.46566E-20         0.00000E+00
    0.46736E-11        -0.64509E-20         0.00000E+00
    0.46736E-11        -0.37253E-20         0.00000E+00
    0.46736E-11        -0.37253E-20         0.00000E+00
    0.55446E-11         0.00000E+00         0.00000E+00
    0.55446E-11        -0.36570E-20         0.00000E+00
    0.55446E-11        -0.83819E-20         0.00000E+00
    0.55446E-11        -0.47249E-20         0.00000E+00
    0.55446E-11        -0.11176E-19         0.00000E+00
    0.55446E-11        -0.19489E-19         0.00000E+00
    0.55446E-11        -0.13902E-19         0.00000E+00
    0.55446E-11        -0.13039E-19         0.00000E+00
    0.55446E-11        -0.37936E-20         0.00000E+00
    0.55446E-11         0.17943E-20         0.00000E+00
    0.55446E-11        -0.17943E-20         0.00000E+00
    0.55446E-11         0.37253E-20         0.00000E+00
    0.55446E-11        -0.19310E-20         0.00000E+00
    0.55446E-11        -0.55196E-20         0.00000E+00
    0.55446E-11         0.55879E-20         0.00000E+00
    0.55446E-11         0.93132E-21         0.00000E+00
    0.55446E-11        -0.10176E-19         0.00000E+00
    0.55446E-11        -0.28623E-20         0.00000E+00
    0.55446E-11         0.27257E-20         0.00000E+00
    0.55446E-11         0.13039E-19         0.00000E+00
    0.55446E-11         0.17763E-19         0.00000E+00
    0.55446E-11         0.14038E-19         0.00000E+00
    0.55446E-11         0.00000E+00         0.00000E+00
    0.55446E-11        -0.37253E-20         0.00000E+00
    0.55446E-11        -0.56562E-20         0.00000E+00
    0.55446E-11        -0.46566E-20         0.00000E+00
    0.55446E-11         0.65876E-20         0.00000E+00
    0.55446E-11         0.74506E-20         0.00000E+00
    0.55446E-11         0.55879E-20         0.00000E+00
    0.55446E-11        -0.68307E-22         0.00000E+00
    0.55446E-11        -0.18626E-20         0.00000E+00
    0.55446E-11         0.13107E-19         0.00000E+00
    0.55446E-11         0.15764E-19         0.00000E+00
    0.55446E-11         0.86302E-21         0.00000E+00
    0.55446E-11        -0.37253E-20         0.00000E+00
    0.55446E-11        -0.11176E-19         0.00000E+00
    0.55446E-11        -0.11176E-19         0.00000E+00
    0.55446E-11         0.19310E-20         0.00000E+00
    0.55446E-11         0.37936E-20         0.00000E+00
    0.55446E-11        -0.93815E-20         0.00000E+00
    0.55446E-11         0.17943E-20         0.00000E+00
    0.55446E-11         0.18626E-19         0.00000E+00
    0.55446E-11         0.13107E-19         0.00000E+00
    0.55446E-11         0.13107E-19         0.00000E+00
    0.55446E-11         0.33528E-19         0.00000E+00
    0.55446E-11         0.40978E-19         0.00000E+00
    0.55446E-11         0.22283E-19         0.00000E+00
    0.55446E-11        -0.19310E-20         0.00000E+00
    0.55446E-11        -0.55879E-20         0.00000E+00
    0.55446E-11        -0.74506E-20         0.00000E+00
    0.55446E-11        -0.11176E-19         0.00000E+00
    0.65785E-11        -0.37253E-20         0.00000E+00
    0.65785E-11         0.18626E-20         0.00000E+00
    0.65785E-11         0.00000E+00         0.00000E+00
    0.65785E-11        -0.12039E-19         0.00000E+00
    0.65785E-11        -0.13039E-19         0.00000E+00
    0.65785E-11        -0.14106E-19         0.00000E+00
    0.65785E-11        -0.93132E-20         0.00000E+00
    0.65785E-11        -0.17944E-20         0.00000E+00
    0.65785E-11        -0.13039E-19         0.00000E+00
    0.65785E-11        -0.93132E-20         0.00000E+00
    0.65785E-11         0.00000E+00         0.00000E+00
    0.65785E-11         0.99960E-21         0.00000E+00
    0.65785E-11         0.18626E-20         0.00000E+00
    0.65785E-11        -0.93132E-21         0.00000E+00
    0.65785E-11        -0.13970E-19         0.00000E+00
    0.65785E-11         0.86304E-21         0.00000E+00
    0.65785E-11         0.11176E-19         0.00000E+00
    0.65785E-11         0.11176E-19         0.00000E+00
    0.65785E-11         0.11176E-19         0.00000E+00
    0.65785E-11         0.00000E+00         0.00000E+00
    0.65785E-11        -0.37253E-20         0.00000E+00
    0.65785E-11        -0.14901E-19         0.00000E+00
    0.65785E-11        -0.37253E-20         0.00000E+00
    0.65785E-11         0.19626E-19         0.00000E+00
    0.65785E-11         0.11108E-19         0.00000E+00
    0.65785E-11         0.37253E-20         0.00000E+00
    0.65785E-11         0.12175E-19         0.00000E+00
    0.65785E-11         0.92449E-20         0.00000E+00
    0.65785E-11         0.18626E-20         0.00000E+00
    0.65785E-11        -0.14901E-19         0.00000E+00
    0.65785E-11        -0.16764E-19         0.00000E+00
    0.65785E-11        -0.74506E-20         0.00000E+00
    0.65785E-11         0.18626E-20         0.00000E+00
    0.65785E-11         0.74506E-20         0.00000E+00
    0.65785E-11         0.74506E-20         0.00000E+00
    0.65785E-11         0.11176E-19         0.00000E+00
    0.65785E-11         0.11176E-19         0.00000E+00
    0.65785E-11         0.00000E+00         0.00000E+00
    0.65785E-11        -0.11176E-19         0.00000E+00
    0.65785E-11        -0.74506E-20         0.00000E+00
    0.65785E-11        -0.68282E-22         0.00000E+00
    0.65785E-11        -0.16539E-34         0.00000E+00
    0.65785E-11         0.93815E-20         0.00000E+00
    0.65785E-11         0.11108E-19         0.00000E+00
    0.65785E-11         0.47249E-20         0.00000E+00
    0.65785E-11         0.29305E-20         0.00000E+00
    0.65785E-11        -0.75189E-20         0.00000E+00
    0.65785E-11        -0.19309E-20         0.00000E+00
    0.65785E-11         0.93132E-20         0.00000E+00
    0.65785E-11         0.11108E-19         0.00000E+00
    0.65785E-11         0.11039E-19         0.00000E+00
    0.78046E-11         0.00000E+00         0.00000E+00
    0.78046E-11         0.27257E-20         0.00000E+00
    0.78046E-11        -0.10245E-19         0.00000E+00
    0.78046E-11        -0.18558E-19         0.00000E+00
    0.78046E-11        -0.22352E-19         0.00000E+00
    0.78046E-11        -0.18626E-19         0.00000E+00
    0.78046E-11        -0.14901E-19         0.00000E+00
    0.78046E-11        -0.20489E-19         0.00000E+00
    0.78046E-11        -0.37935E-20         0.00000E+00
    0.78046E-11         0.55879E-20         0.00000E+00
    0.78046E-11         0.19309E-20         0.00000E+00
    0.78046E-11         0.11176E-19         0.00000E+00
    0.78046E-11         0.10176E-19         0.00000E+00
    0.78046E-11         0.55879E-20         0.00000E+00
    0.78046E-11         0.12175E-19         0.00000E+00
    0.78046E-11        -0.19309E-20         0.00000E+00
    0.78046E-11        -0.83819E-20         0.00000E+00
    0.78046E-11        -0.18626E-20         0.00000E+00
    0.78046E-11        -0.15901E-19         0.00000E+00
    0.78046E-11        -0.19490E-19         0.00000E+00
    0.78046E-11        -0.10245E-19         0.00000E+00
    0.78046E-11         0.18626E-20         0.00000E+00
    0.78046E-11        -0.37253E-20         0.00000E+00
    0.78046E-11        -0.18695E-19         0.00000E+00
    0.78046E-11        -0.74506E-20         0.00000E+00
    0.78046E-11         0.55879E-20         0.00000E+00
    0.78046E-11         0.19626E-19         0.00000E+00
    0.78046E-11         0.13970E-19         0.00000E+00
    0.78046E-11         0.36570E-20         0.00000E+00
    0.78046E-11         0.47249E-20         0.00000E+00
    0.78046E-11         0.12573E-33         0.00000E+00
    0.78046E-11        -0.93132E-21         0.00000E+00
    0.78046E-11        -0.36570E-20         0.00000E+00
    0.78046E-11         0.36570E-20         0.00000E+00
    0.78046E-11        -0.37253E-20         0.00000E+00
    0.78046E-11        -0.13039E-19         0.00000E+00
    0.78046E-11        -0.13107E-19         0.00000E+00
    0.78046E-11        -0.14901E-19         0.00000E+00
    0.78046E-11        -0.11108E-19         0.00000E+00
    0.78046E-11        -0.16696E-19         0.00000E+00
    0.78046E-11        -0.20557E-19         0.00000E+00
    0.78046E-11        -0.11176E-19         0.00000E+00
    0.78046E-11        -0.55197E-20         0.00000E+00
    0.78046E-11        -0.74506E-20         0.00000E+00
    0.78046E-11         0.55879E-20         0.00000E+00
    0.78046E-11         0.26077E-19         0.00000E+00
    0.78046E-11         0.39116E-19         0.00000E+00
    0.78046E-11         0.29734E-19         0.00000E+00
    0.78046E-11         0.46566E-20         0.00000E+00
    0.78046E-11        -0.83819E-20         0.00000E+00
    0.78046E-11        -0.75871E-20         0.00000E+00
    0.92571E-11        -0.11039E-19         0.00000E+00
    0.92571E-11        -0.55879E-20         0.00000E+00
    0.92571E-11         0.37253E-20         0.00000E+00
    0.92571E-11         0.14901E-19         0.00000E+00
    0.92571E-11         0.18626E-19         0.00000E+00
    0.92571E-11         0.37253E-20         0.00000E+00
    0.92571E-11        -0.83819E-20         0.00000E+00
    0.92571E-11        -0.64510E-20         0.00000E+00
    0.92571E-11        -0.13039E-19         0.00000E+00
    0.92571E-11        -0.21489E-19         0.00000E+00
    0.92571E-11        -0.10313E-19         0.00000E+00
    0.92571E-11        -0.93132E-20         0.00000E+00
    0.92571E-11        -0.37253E-20         0.00000E+00
    0.92571E-11        -0.55879E-20         0.00000E+00
    0.92571E-11        -0.74506E-20         0.00000E+00
    0.92571E-11         0.93132E-20         0.00000E+00
    0.92571E-11         0.74506E-20         0.00000E+00
    0.92571E-11         0.55879E-20         0.00000E+00
    0.92571E-11         0.11176E-19         0.00000E+00
    0.92571E-11        -0.37253E-20         0.00000E+00
    0.92571E-11        -0.11176E-19         0.00000E+00
    0.92571E-11        -0.37253E-20         0.00000E+00
    0.92571E-11         0.37253E-20         0.00000E+00
    0.92571E-11        -0.18626E-20         0.00000E+00
    0.92571E-11        -0.55879E-20         0.00000E+00
    0.92571E-11         0.19309E-20         0.00000E+00
    0.92571E-11        -0.18626E-20         0.00000E+00
    0.92571E-11        -0.75188E-20         0.00000E+00
    0.92571E-11        -0.55879E-20         0.00000E+00
    0.92571E-11        -0.55879E-20         0.00000E+00
    0.92571E-11        -0.55879E-20         0.00000E+00
    0.92571E-11         0.11244E-19         0.00000E+00
    0.92571E-11         0.25146E-19         0.00000E+00
    0.92571E-11         0.45884E-20         0.00000E+00
    0.92571E-11         0.18626E-20         0.00000E+00
    0.92571E-11         0.00000E+00         0.00000E+00
    0.92571E-11        -0.22352E-19         0.00000E+00
    0.92571E-11        -0.27940E-19         0.00000E+00
    0.92571E-11        -0.29802E-19         0.00000E+00
    0.92571E-11        -0.24146E-19         0.00000E+00
    0.92571E-11        -0.18626E-19         0.00000E+00
    0.92571E-11        -0.14901E-19         0.00000E+00
    0.92571E-11        -0.74506E-20         0.00000E+00
    0.92571E-11        -0.18626E-20         0.00000E+00
    0.92571E-11        -0.55879E-20         0.00000E+00
    0.92571E-11        -0.75188E-20         0.00000E+00
    0.92571E-11        -0.18626E-20         0.00000E+00
    0.92571E-11         0.55879E-20         0.00000E+00
    0.92571E-11         0.14901E-19         0.00000E+00
    0.92571E-11         0.92450E-20         0.00000E+00
    0.92571E-11         0.35889E-20         0.00000E+00
    0.10976E-10        -0.37253E-20         0.00000E+00
    0.10976E-10        -0.18626E-20         0.00000E+00
    0.10976E-10         0.37253E-20         0.00000E+00
    0.10976E-10         0.37253E-20         0.00000E+00
    0.10976E-10        -0.45884E-20         0.00000E+00
    0.10976E-10        -0.46566E-20         0.00000E+00
    0.10976E-10        -0.37935E-20         0.00000E+00
    0.10976E-10        -0.74506E-20         0.00000E+00
    0.10976E-10        -0.13039E-19         0.00000E+00
    0.10976E-10        -0.55879E-20         0.00000E+00
    0.10976E-10        -0.17945E-20         0.00000E+00
    0.10976E-10        -0.10245E-19         0.00000E+00
    0.10976E-10        -0.23351E-19         0.00000E+00
    0.10976E-10        -0.14833E-19         0.00000E+00
    0.10976E-10         0.93132E-21         0.00000E+00
    0.10976E-10        -0.19990E-20         0.00000E+00
    0.10976E-10         0.10245E-19         0.00000E+00
    0.10976E-10         0.56561E-20         0.00000E+00
    0.10976E-10         0.18626E-20         0.00000E+00
    0.10976E-10         0.16764E-19         0.00000E+00
    0.10976E-10         0.20489E-19         0.00000E+00
    0.10976E-10         0.11176E-19         0.00000E+00
    0.10976E-10        -0.18626E-20         0.00000E+00
    0.10976E-10        -0.13039E-19         0.00000E+00
    0.10976E-10        -0.16764E-19         0.00000E+00
    0.10976E-10        -0.14901E-19         0.00000E+00
    0.10976E-10        -0.37253E-20         0.00000E+00
    0.10976E-10         0.93132E-20         0.00000E+00
    0.10976E-10         0.37253E-20         0.00000E+00
    0.10976E-10        -0.37253E-20         0.00000E+00
    0.10976E-10        -0.74506E-20         0.00000E+00
    0.10976E-10        -0.37253E-20         0.00000E+00
    0.10976E-10        -0.93132E-20         0.00000E+00
    0.10976E-10        -0.93132E-20         0.00000E+00
    0.10976E-10        -0.37253E-20         0.00000E+00
    0.10976E-10        -0.16832E-19         0.00000E+00
    0.10976E-10        -0.15832E-19         0.00000E+00
    0.10976E-10        -0.15764E-19         0.00000E+00
    0.10976E-10        -0.20489E-19         0.00000E+00
    0.10976E-10        -0.22352E-19         0.00000E+00
    0.10976E-10        -0.11108E-19         0.00000E+00
    0.10976E-10        -0.55879E-20         0.00000E+00
    0.10976E-10         0.36571E-20         0.00000E+00
    0.10976E-10         0.13039E-19         0.00000E+00
    0.10976E-10         0.11176E-19         0.00000E+00
    0.10976E-10         0.37253E-20         0.00000E+00
    0.10976E-10        -0.55198E-20         0.00000E+00
    0.10976E-10        -0.65193E-20         0.00000E+00
    0.10976E-10        -0.12175E-19         0.00000E+00
    0.10976E-10        -0.75188E-20         0.00000E+00
    0.10976E-10        -0.38616E-20         0.00000E+00
    0.13010E-10         0.74506E-20         0.00000E+00
    0.13010E-10         0.93132E-20         0.00000E+00
    0.13010E-10         0.55198E-20         0.00000E+00
    0.13010E-10         0.74506E-20         0.00000E+00
    0.13010E-10         0.13107E-19         0.00000E+00
    0.13010E-10         0.16764E-19         0.00000E+00
    0.13010E-10         0.14901E-19         0.00000E+00
    0.13010E-10         0.00000E+00         0.00000E+00
    0.13010E-10        -0.93132E-20         0.00000E+00
    0.13010E-10        -0.13039E-19         0.00000E+00
    0.13010E-10        -0.65874E-20         0.00000E+00
    0.13010E-10         0.27940E-20         0.00000E+00
    0.13010E-10         0.56561E-20         0.00000E+00
    0.13010E-10         0.93132E-20         0.00000E+00
    0.13010E-10         0.18626E-20         0.00000E+00
    0.13010E-10        -0.11176E-19         0.00000E+00
    0.13010E-10        -0.93132E-20         0.00000E+00
    0.13010E-10         0.18626E-20         0.00000E+00
    0.13010E-10         0.18626E-20         0.00000E+00
    0.13010E-10         0.00000E+00         0.00000E+00
    0.13010E-10        -0.37253E-20         0.00000E+00
    0.13010E-10        -0.18626E-20         0.00000E+00
    0.13010E-10         0.00000E+00         0.00000E+00
    0.13010E-10        -0.37253E-20         0.00000E+00
    0.13010E-10         0.18626E-20         0.00000E+00
    0.13010E-10         0.00000E+00         0.00000E+00
    0.13010E-10        -0.16764E-19         0.00000E+00
    0.13010E-10        -0.20489E-19         0.00000E+00
    0.13010E-10        -0.37253E-20         0.00000E+00
    0.13010E-10         0.74506E-20         0.00000E+00
    0.13010E-10         0.74506E-20         0.00000E+00
    0.13010E-10         0.00000E+00         0.00000E+00
    0.13010E-10        -0.74506E-20         0.00000E+00
    0.13010E-10        -0.13039E-19         0.00000E+00
    0.13010E-10        -0.93132E-20         0.00000E+00
    0.13010E-10        -0.55879E-20         0.00000E+00
    0.13010E-10        -0.13107E-19         0.00000E+00
    0.13010E-10        -0.20557E-19         0.00000E+00
    0.13010E-10        -0.22284E-19         0.00000E+00
    0.13010E-10        -0.55198E-20         0.00000E+00
    0.13010E-10         0.55879E-20         0.00000E+00
    0.13010E-10         0.11176E-19         0.00000E+00
    0.13010E-10         0.55879E-20         0.00000E+00
    0.13010E-10        -0.37253E-20         0.00000E+00
    0.13010E-10        -0.37934E-20         0.00000E+00
    0.13010E-10        -0.75187E-20         0.00000E+00
    0.13010E-10        -0.73825E-20         0.00000E+00
    0.13010E-10        -0.17945E-20         0.00000E+00
    0.13010E-10        -0.74506E-20         0.00000E+00
    0.13010E-10        -0.75187E-20         0.00000E+00
    0.13010E-10         0.35890E-20         0.00000E+00
    0.15413E-10         0.37253E-20         0.00000E+00
    0.15413E-10         0.28620E-20         0.00000E+00
    0.15413E-10         0.84500E-20         0.00000E+00
    0.15413E-10         0.73825E-20         0.00000E+00
    0.15413E-10         0.37253E-20         0.00000E+00
    0.15413E-10         0.93813E-20         0.00000E+00
    0.15413E-10         0.93132E-20         0.00000E+00
    0.15413E-10         0.10176E-19         0.00000E+00
    0.15413E-10         0.83138E-20         0.00000E+00
    0.15413E-10         0.12175E-19         0.00000E+00
    0.15413E-10         0.18626E-19         0.00000E+00
    0.15413E-10         0.86326E-21         0.00000E+00
    0.15413E-10        -0.93132E-20         0.00000E+00
    0.15413E-10        -0.12970E-19         0.00000E+00
    0.15413E-10         0.00000E+00         0.00000E+00
    0.15413E-10         0.17695E-19         0.00000E+00
    0.15413E-10         0.15901E-19         0.00000E+00
    0.15413E-10         0.55879E-20         0.00000E+00
    0.15413E-10        -0.10381E-19         0.00000E+00
    0.15413E-10        -0.55879E-20         0.00000E+00
    0.15413E-10         0.47927E-20         0.00000E+00
    0.15413E-10         0.37253E-20         0.00000E+00
    0.15413E-10         0.73825E-20         0.00000E+00
    0.15413E-10        -0.93132E-21         0.00000E+00
    0.15413E-10        -0.17627E-19         0.00000E+00
    0.15413E-10        -0.18626E-19         0.00000E+00
    0.15413E-10        -0.11176E-19         0.00000E+00
    0.15413E-10        -0.93132E-20         0.00000E+00
    0.15413E-10        -0.13039E-19         0.00000E+00
    0.15413E-10        -0.23351E-19         0.00000E+00
    0.15413E-10        -0.21420E-19         0.00000E+00
    0.15413E-10        -0.92452E-20         0.00000E+00
    0.15413E-10         0.18626E-20         0.00000E+00
    0.15413E-10         0.37253E-20         0.00000E+00
    0.15413E-10         0.00000E+00         0.00000E+00
    0.15413E-10         0.18626E-20         0.00000E+00
    0.15413E-10         0.93132E-20         0.00000E+00
    0.15413E-10         0.37253E-20         0.00000E+00
    0.15413E-10        -0.56560E-20         0.00000E+00
    0.15413E-10        -0.93132E-20         0.00000E+00
    0.15413E-10        -0.12970E-19         0.00000E+00
    0.15413E-10        -0.18695E-19         0.00000E+00
    0.15413E-10        -0.14901E-19         0.00000E+00
    0.15413E-10        -0.11108E-19         0.00000E+00
    0.15413E-10        -0.13107E-19         0.00000E+00
    0.15413E-10        -0.75186E-20         0.00000E+00
    0.15413E-10        -0.93132E-20         0.00000E+00
    0.15413E-10        -0.13039E-19         0.00000E+00
    0.15413E-10         0.55879E-20         0.00000E+00
    0.15413E-10         0.13039E-19         0.00000E+00
    0.15413E-10         0.37253E-20         0.00000E+00
    0.18251E-10         0.37253E-20         0.00000E+00
    0.18251E-10         0.18626E-20         0.00000E+00
    0.18251E-10        -0.37253E-20         0.00000E+00
    0.18251E-10         0.37253E-20         0.00000E+00
    0.18251E-10         0.65873E-20         0.00000E+00
    0.18251E-10         0.73826E-20         0.00000E+00
    0.18251E-10         0.15696E-19         0.00000E+00
    0.18251E-10         0.16832E-19         0.00000E+00
    0.18251E-10         0.26145E-19         0.00000E+00
    0.18251E-10         0.17627E-19         0.00000E+00
    0.18251E-10        -0.37253E-20         0.00000E+00
    0.18251E-10        -0.45886E-20         0.00000E+00
    0.18251E-10         0.13039E-19         0.00000E+00
    0.18251E-10         0.93132E-20         0.00000E+00
    0.18251E-10        -0.74506E-20         0.00000E+00
    0.18251E-10        -0.14969E-19         0.00000E+00
    0.18251E-10         0.67994E-22         0.00000E+00
    0.18251E-10         0.25214E-19         0.00000E+00
    0.18251E-10         0.23147E-19         0.00000E+00
    0.18251E-10         0.12175E-19         0.00000E+00
    0.18251E-10        -0.17947E-20         0.00000E+00
    0.18251E-10        -0.14038E-19         0.00000E+00
    0.18251E-10        -0.64513E-20         0.00000E+00
    0.18251E-10        -0.86333E-21         0.00000E+00
    0.18251E-10        -0.29300E-20         0.00000E+00
    0.18251E-10        -0.11176E-19         0.00000E+00
    0.18251E-10        -0.21352E-19         0.00000E+00
    0.18251E-10        -0.22420E-19         0.00000E+00
    0.18251E-10        -0.16764E-19         0.00000E+00
    0.18251E-10        -0.19626E-19         0.00000E+00
    0.18251E-10        -0.16696E-19         0.00000E+00
    0.18251E-10        -0.45206E-20         0.00000E+00
    0.18251E-10        -0.65873E-20         0.00000E+00
    0.18251E-10        -0.17763E-19         0.00000E+00
    0.18251E-10        -0.26009E-19         0.00000E+00
    0.18251E-10        -0.16764E-19         0.00000E+00
    0.18251E-10        -0.74506E-20         0.00000E+00
    0.18251E-10        -0.55879E-20         0.00000E+00
    0.18251E-10        -0.11176E-19         0.00000E+00
    0.18251E-10        -0.16696E-19         0.00000E+00
    0.18251E-10        -0.37933E-20         0.00000E+00
    0.18251E-10         0.11108E-19         0.00000E+00
    0.18251E-10         0.14969E-19         0.00000E+00
    0.18251E-10        -0.18626E-20         0.00000E+00
    0.18251E-10        -0.16832E-19         0.00000E+00
    0.18251E-10        -0.13039E-19         0.00000E+00
    0.18251E-10         0.18626E-20         0.00000E+00
    0.18251E-10         0.13039E-19         0.00000E+00
    0.18251E-10         0.13107E-19         0.00000E+00
    0.18251E-10         0.27260E-20         0.00000E+00
    0.18251E-10        -0.58599E-20         0.00000E+00
    0.21601E-10        -0.35895E-20         0.00000E+00
    0.21601E-10        -0.37253E-20         0.00000E+00
    0.21601E-10         0.37253E-20         0.00000E+00
    0.21601E-10         0.16764E-19         0.00000E+00
    0.21601E-10         0.19558E-19         0.00000E+00
    0.21601E-10         0.18559E-19         0.00000E+00
    0.21601E-10        -0.67911E-22         0.00000E+00
    0.21601E-10        -0.37253E-20         0.00000E+00
    0.21601E-10        -0.65872E-20         0.00000E+00
    0.21601E-10        -0.74506E-20         0.00000E+00
    0.21601E-10         0.13106E-19         0.00000E+00
    0.21601E-10         0.13106E-19         0.00000E+00
    0.21601E-10         0.00000E+00         0.00000E+00
    0.21601E-10         0.67911E-22         0.00000E+00
    0.21601E-10         0.45887E-20         0.00000E+00
    0.21601E-10         0.64513E-20         0.00000E+00
    0.21601E-10         0.00000E+00         0.00000E+00
    0.21601E-10        -0.93811E-20         0.00000E+00
    0.21601E-10        -0.83140E-20         0.00000E+00
    0.21601E-10        -0.27261E-20         0.00000E+00
    0.21601E-10        -0.86341E-21         0.00000E+00
    0.21601E-10        -0.45887E-20         0.00000E+00
    0.21601E-10        -0.10312E-19         0.00000E+00
    0.21601E-10        -0.11176E-19         0.00000E+00
    0.21601E-10        -0.18694E-19         0.00000E+00
    0.21601E-10        -0.74506E-20         0.00000E+00
    0.21601E-10        -0.10177E-19         0.00000E+00
    0.21601E-10        -0.30869E-19         0.00000E+00
    0.21601E-10        -0.31665E-19         0.00000E+00
    0.21601E-10        -0.27940E-19         0.00000E+00
    0.21601E-10        -0.21420E-19         0.00000E+00
    0.21601E-10        -0.11040E-19         0.00000E+00
    0.21601E-10         0.19306E-20         0.00000E+00
    0.21601E-10         0.55200E-20         0.00000E+00
    0.21601E-10         0.37253E-20         0.00000E+00
    0.21601E-10        -0.10312E-19         0.00000E+00
    0.21601E-10        -0.12243E-19         0.00000E+00
    0.21601E-10        -0.55200E-20         0.00000E+00
    0.21601E-10         0.74506E-20         0.00000E+00
    0.21601E-10         0.12107E-19         0.00000E+00
    0.21601E-10         0.65193E-20         0.00000E+00
    0.21601E-10         0.37253E-20         0.00000E+00
    0.21601E-10        -0.55879E-20         0.00000E+00
    0.21601E-10        -0.45887E-20         0.00000E+00
    0.21601E-10         0.84498E-20         0.00000E+00
    0.21601E-10         0.14833E-19         0.00000E+00
    0.21601E-10         0.74506E-20         0.00000E+00
    0.21601E-10        -0.13039E-19         0.00000E+00
    0.21601E-10        -0.13039E-19         0.00000E+00
    0.21601E-10        -0.37932E-20         0.00000E+00
    0.21601E-10        -0.13582E-21         0.00000E+00
    0.25551E-10         0.74506E-20         0.00000E+00
    0.25551E-10         0.11244E-19         0.00000E+00
    0.25551E-10         0.74506E-20         0.00000E+00
    0.25551E-10         0.92454E-20         0.00000E+00
    0.25551E-10         0.74506E-20         0.00000E+00
    0.25551E-10        -0.64514E-20         0.00000E+00
    0.25551E-10         0.93132E-21         0.00000E+00
    0.25551E-10         0.11176E-19         0.00000E+00
    0.25551E-10         0.17695E-19         0.00000E+00
    0.25551E-10         0.55879E-20         0.00000E+00
    0.25551E-10        -0.27262E-20         0.00000E+00
    0.25551E-10         0.27262E-20         0.00000E+00
    0.25551E-10        -0.27262E-20         0.00000E+00
    0.25551E-10        -0.12971E-19         0.00000E+00
    0.25551E-10        -0.75862E-20         0.00000E+00
    0.25551E-10        -0.19305E-20         0.00000E+00
    0.25551E-10        -0.18626E-20         0.00000E+00
    0.25551E-10         0.86351E-21         0.00000E+00
    0.25551E-10        -0.55879E-20         0.00000E+00
    0.25551E-10        -0.12039E-19         0.00000E+00
    0.25551E-10        -0.20421E-19         0.00000E+00
    0.25551E-10        -0.14833E-19         0.00000E+00
    0.25551E-10        -0.24282E-19         0.00000E+00
    0.25551E-10        -0.30734E-19         0.00000E+00
    0.25551E-10        -0.22352E-19         0.00000E+00
    0.25551E-10        -0.24214E-19         0.00000E+00
    0.25551E-10        -0.13039E-19         0.00000E+00
    0.25551E-10        -0.93132E-21         0.00000E+00
    0.25551E-10         0.37931E-20         0.00000E+00
    0.25551E-10        -0.28618E-20         0.00000E+00
    0.25551E-10        -0.15900E-19         0.00000E+00
    0.25551E-10        -0.21353E-19         0.00000E+00
    0.25551E-10        -0.17695E-19         0.00000E+00
    0.25551E-10        -0.19305E-20         0.00000E+00
    0.25551E-10        -0.18626E-20         0.00000E+00
    0.25551E-10        -0.74506E-20         0.00000E+00
    0.25551E-10         0.67812E-22         0.00000E+00
    0.25551E-10         0.37253E-20         0.00000E+00
    0.25551E-10         0.74506E-20         0.00000E+00
    0.25551E-10         0.13106E-19         0.00000E+00
    0.25551E-10         0.36575E-20         0.00000E+00
    0.25551E-10        -0.13106E-19         0.00000E+00
    0.25551E-10        -0.74506E-20         0.00000E+00
    0.25551E-10        -0.18626E-20         0.00000E+00
    0.25551E-10        -0.11176E-19         0.00000E+00
    0.25551E-10        -0.10177E-19         0.00000E+00
    0.25551E-10        -0.18626E-20         0.00000E+00
    0.25551E-10         0.83819E-20         0.00000E+00
    0.25551E-10         0.83819E-20         0.00000E+00
    0.25551E-10         0.73828E-20         0.00000E+00
    0.25551E-10         0.37253E-20         0.00000E+00
    0.30206E-10        -0.37253E-20         0.00000E+00
    0.30206E-10        -0.56556E-20         0.00000E+00
    0.30206E-10         0.37253E-20         0.00000E+00
    0.30206E-10         0.47920E-20         0.00000E+00
    0.30206E-10         0.46566E-20         0.00000E+00
    0.30206E-10         0.12971E-19         0.00000E+00
    0.30206E-10         0.93132E-20         0.00000E+00
    0.30206E-10        -0.55879E-20         0.00000E+00
    0.30206E-10        -0.16764E-19         0.00000E+00
    0.30206E-10        -0.92455E-20         0.00000E+00
    0.30206E-10         0.00000E+00         0.00000E+00
    0.30206E-10        -0.37930E-20         0.00000E+00
    0.30206E-10        -0.93132E-20         0.00000E+00
    0.30206E-10        -0.37253E-20         0.00000E+00
    0.30206E-10        -0.93132E-20         0.00000E+00
    0.30206E-10        -0.25078E-19         0.00000E+00
    0.30206E-10        -0.32529E-19         0.00000E+00
    0.30206E-10        -0.39183E-19         0.00000E+00
    0.30206E-10        -0.26145E-19         0.00000E+00
    0.30206E-10        -0.11176E-19         0.00000E+00
    0.30206E-10        -0.74506E-20         0.00000E+00
    0.30206E-10        -0.14833E-19         0.00000E+00
    0.30206E-10        -0.22284E-19         0.00000E+00
    0.30206E-10        -0.27940E-19         0.00000E+00
    0.30206E-10        -0.28939E-19         0.00000E+00
    0.30206E-10        -0.15900E-19         0.00000E+00
    0.30206E-10        -0.36576E-20         0.00000E+00
    0.30206E-10        -0.92455E-20         0.00000E+00
    0.30206E-10        -0.11244E-19         0.00000E+00
    0.30206E-10        -0.56556E-20         0.00000E+00
    0.30206E-10        -0.13039E-19         0.00000E+00
    0.30206E-10        -0.16764E-19         0.00000E+00
    0.30206E-10        -0.11108E-19         0.00000E+00
    0.30206E-10        -0.22284E-19         0.00000E+00
    0.30206E-10        -0.16832E-19         0.00000E+00
    0.30206E-10        -0.67696E-22         0.00000E+00
    0.30206E-10         0.11176E-19         0.00000E+00
    0.30206E-10         0.16764E-19         0.00000E+00
    0.30206E-10         0.37253E-20         0.00000E+00
    0.30206E-10        -0.17949E-20         0.00000E+00
    0.30206E-10        -0.74506E-20         0.00000E+00
    0.30206E-10        -0.93809E-20         0.00000E+00
    0.30206E-10        -0.11176E-19         0.00000E+00
    0.30206E-10        -0.14901E-19         0.00000E+00
    0.30206E-10        -0.14901E-19         0.00000E+00
    0.30206E-10        -0.55202E-20         0.00000E+00
    0.30206E-10         0.46566E-20         0.00000E+00
    0.30206E-10         0.36576E-20         0.00000E+00
    0.30206E-10         0.13039E-19         0.00000E+00
    0.30206E-10         0.73829E-20         0.00000E+00
    0.30206E-10        -0.13539E-21         0.00000E+00
    0.35689E-10        -0.11176E-19         0.00000E+00
    0.35689E-10        -0.18626E-20         0.00000E+00
    0.35689E-10         0.74506E-20         0.00000E+00
    0.35689E-10         0.37253E-20         0.00000E+00
    0.35689E-10        -0.13039E-19         0.00000E+00
    0.35689E-10        -0.20489E-19         0.00000E+00
    0.35689E-10        -0.16764E-19         0.00000E+00
    0.35689E-10        -0.13039E-19         0.00000E+00
    0.35689E-10        -0.37253E-20         0.00000E+00
    0.35689E-10        -0.37253E-20         0.00000E+00
    0.35689E-10        -0.74506E-20         0.00000E+00
    0.35689E-10        -0.74506E-20         0.00000E+00
    0.35689E-10        -0.11176E-19         0.00000E+00
    0.35689E-10        -0.20489E-19         0.00000E+00
    0.35689E-10        -0.26077E-19         0.00000E+00
    0.35689E-10        -0.27940E-19         0.00000E+00
    0.35689E-10        -0.20489E-19         0.00000E+00
    0.35689E-10        -0.18626E-19         0.00000E+00
    0.35689E-10        -0.21556E-19         0.00000E+00
    0.35689E-10        -0.18626E-19         0.00000E+00
    0.35689E-10        -0.25011E-19         0.00000E+00
    0.35689E-10        -0.22352E-19         0.00000E+00
    0.35689E-10        -0.14901E-19         0.00000E+00
    0.35689E-10        -0.74506E-20         0.00000E+00
    0.35689E-10        -0.55879E-20         0.00000E+00
    0.35689E-10        -0.16764E-19         0.00000E+00
    0.35689E-10        -0.20489E-19         0.00000E+00
    0.35689E-10        -0.27940E-19         0.00000E+00
    0.35689E-10        -0.40978E-19         0.00000E+00
    0.35689E-10        -0.33528E-19         0.00000E+00
    0.35689E-10        -0.18626E-19         0.00000E+00
    0.35689E-10        -0.11176E-19         0.00000E+00
    0.35689E-10        -0.11176E-19         0.00000E+00
    0.35689E-10        -0.93132E-20         0.00000E+00
    0.35689E-10        -0.20489E-19         0.00000E+00
    0.35689E-10        -0.24214E-19         0.00000E+00
    0.35689E-10        -0.16764E-19         0.00000E+00
    0.35689E-10        -0.93132E-20         0.00000E+00
    0.35689E-10         0.74506E-20         0.00000E+00
    0.35689E-10         0.55879E-20         0.00000E+00
    0.35689E-10         0.74506E-20         0.00000E+00
    0.35689E-10         0.16764E-19         0.00000E+00
    0.35689E-10         0.11176E-19         0.00000E+00
    0.35689E-10        -0.11176E-19         0.00000E+00
    0.35689E-10        -0.33528E-19         0.00000E+00
    0.35689E-10        -0.31665E-19         0.00000E+00
    0.35689E-10        -0.20489E-19         0.00000E+00
    0.35689E-10        -0.22352E-19         0.00000E+00
    0.35689E-10        -0.20489E-19         0.00000E+00
    0.35689E-10        -0.18626E-20         0.00000E+00
    0.35689E-10         0.11176E-19         0.00000E+00
    0.42140E-10         0.10906E-19         0.00000E+00
    0.42140E-10         0.10245E-19         0.00000E+00
    0.42140E-10        -0.26592E-20         0.00000E+00
    0.42140E-10        -0.13039E-19         0.00000E+00
    0.42140E-10        -0.14901E-19         0.00000E+00
    0.42140E-10        -0.18626E-19         0.00000E+00
    0.42140E-10        -0.11176E-19         0.00000E+00
    0.42140E-10        -0.13173E-19         0.00000E+00
    0.42140E-10        -0.19558E-19         0.00000E+00
    0.42140E-10        -0.19423E-19         0.00000E+00
    0.42140E-10        -0.20489E-19         0.00000E+00
    0.42140E-10        -0.18626E-19         0.00000E+00
    0.42140E-10        -0.55879E-20         0.00000E+00
    0.42140E-10        -0.18626E-20         0.00000E+00
    0.42140E-10        -0.18626E-19         0.00000E+00
    0.42140E-10        -0.19693E-19         0.00000E+00
    0.42140E-10        -0.24214E-19         0.00000E+00
    0.42140E-10        -0.25011E-19         0.00000E+00
    0.42140E-10        -0.22352E-19         0.00000E+00
    0.42140E-10        -0.16764E-19         0.00000E+00
    0.42140E-10        -0.14901E-19         0.00000E+00
    0.42140E-10        -0.27940E-19         0.00000E+00
    0.42140E-10        -0.31665E-19         0.00000E+00
    0.42140E-10        -0.29802E-19         0.00000E+00
    0.42140E-10        -0.31665E-19         0.00000E+00
    0.42140E-10        -0.24214E-19         0.00000E+00
    0.42140E-10        -0.18626E-19         0.00000E+00
    0.42140E-10        -0.16764E-19         0.00000E+00
    0.42140E-10        -0.22352E-19         0.00000E+00
    0.42140E-10        -0.18626E-19         0.00000E+00
    0.42140E-10        -0.37253E-20         0.00000E+00
    0.42140E-10        -0.16764E-19         0.00000E+00
    0.42140E-10        -0.22352E-19         0.00000E+00
    0.42140E-10        -0.16764E-19         0.00000E+00
    0.42140E-10        -0.22352E-19         0.00000E+00
    0.42140E-10        -0.22352E-19         0.00000E+00
    0.42140E-10        -0.18626E-19         0.00000E+00
    0.42140E-10        -0.11176E-19         0.00000E+00
    0.42140E-10        -0.74506E-20         0.00000E+00
    0.42140E-10        -0.85167E-20         0.00000E+00
    0.42140E-10        -0.16764E-19         0.00000E+00
    0.42140E-10        -0.19423E-19         0.00000E+00
    0.42140E-10        -0.93132E-20         0.00000E+00
    0.42140E-10        -0.18626E-20         0.00000E+00
    0.42140E-10         0.00000E+00         0.00000E+00
    0.42140E-10        -0.37253E-20         0.00000E+00
    0.42140E-10        -0.37253E-20         0.00000E+00
    0.42140E-10         0.73158E-20         0.00000E+00
    0.42140E-10         0.27940E-20         0.00000E+00
    0.42140E-10        -0.82471E-20         0.00000E+00
    0.42140E-10        -0.11176E-19         0.00000E+00
    0.49727E-10        -0.13307E-19         0.00000E+00
    0.49727E-10        -0.74506E-20         0.00000E+00
    0.49727E-10         0.10657E-20         0.00000E+00
    0.49727E-10         0.00000E+00         0.00000E+00
    0.49727E-10        -0.10379E-19         0.00000E+00
    0.49727E-10        -0.17830E-19         0.00000E+00
    0.49727E-10        -0.25011E-19         0.00000E+00
    0.49727E-10        -0.28737E-19         0.00000E+00
    0.49727E-10        -0.26077E-19         0.00000E+00
    0.49727E-10        -0.20489E-19         0.00000E+00
    0.49727E-10        -0.14901E-19         0.00000E+00
    0.49727E-10        -0.14901E-19         0.00000E+00
    0.49727E-10        -0.26077E-19         0.00000E+00
    0.49727E-10        -0.18626E-19         0.00000E+00
    0.49727E-10        -0.93132E-20         0.00000E+00
    0.49727E-10        -0.74506E-20         0.00000E+00
    0.49727E-10         0.00000E+00         0.00000E+00
    0.49727E-10         0.00000E+00         0.00000E+00
    0.49727E-10        -0.55879E-20         0.00000E+00
    0.49727E-10        -0.18626E-19         0.00000E+00
    0.49727E-10        -0.35390E-19         0.00000E+00
    0.49727E-10        -0.35390E-19         0.00000E+00
    0.49727E-10        -0.35390E-19         0.00000E+00
    0.49727E-10        -0.27940E-19         0.00000E+00
    0.49727E-10        -0.14901E-19         0.00000E+00
    0.49727E-10        -0.14901E-19         0.00000E+00
    0.49727E-10        -0.18626E-19         0.00000E+00
    0.49727E-10        -0.26077E-19         0.00000E+00
    0.49727E-10        -0.26077E-19         0.00000E+00
    0.49727E-10        -0.26077E-19         0.00000E+00
    0.49727E-10        -0.29802E-19         0.00000E+00
    0.49727E-10        -0.20489E-19         0.00000E+00
    0.49727E-10        -0.93132E-20         0.00000E+00
    0.49727E-10        -0.93132E-20         0.00000E+00
    0.49727E-10        -0.11176E-19         0.00000E+00
    0.49727E-10        -0.13039E-19         0.00000E+00
    0.49727E-10        -0.22352E-19         0.00000E+00
    0.49727E-10        -0.33528E-19         0.00000E+00
    0.49727E-10        -0.26077E-19         0.00000E+00
    0.49727E-10        -0.19692E-19         0.00000E+00
    0.49727E-10        -0.20489E-19         0.00000E+00
    0.49727E-10        -0.21286E-19         0.00000E+00
    0.49727E-10        -0.31665E-19         0.00000E+00
    0.49727E-10        -0.35390E-19         0.00000E+00
    0.49727E-10        -0.16764E-19         0.00000E+00
    0.49727E-10         0.00000E+00         0.00000E+00
    0.49727E-10        -0.11310E-19         0.00000E+00
    0.49727E-10        -0.16764E-19         0.00000E+00
    0.49727E-10        -0.73162E-20         0.00000E+00
    0.49727E-10         0.37253E-20         0.00000E+00
    0.49727E-10         0.11176E-19         0.00000E+00
    0.58642E-10         0.95811E-20         0.00000E+00
    0.58642E-10         0.37253E-20         0.00000E+00
    0.58642E-10        -0.10379E-19         0.00000E+00
    0.58642E-10        -0.12905E-19         0.00000E+00
    0.58642E-10        -0.27940E-20         0.00000E+00
    0.58642E-10        -0.29279E-20         0.00000E+00
    0.58642E-10        -0.11973E-19         0.00000E+00
    0.58642E-10        -0.19424E-19         0.00000E+00
    0.58642E-10        -0.12241E-19         0.00000E+00
    0.58642E-10        -0.65193E-20         0.00000E+00
    0.58642E-10        -0.19558E-19         0.00000E+00
    0.58642E-10        -0.93132E-20         0.00000E+00
    0.58642E-10         0.55879E-20         0.00000E+00
    0.58642E-10        -0.18626E-20         0.00000E+00
    0.58642E-10        -0.82479E-20         0.00000E+00
    0.58642E-10        -0.85159E-20         0.00000E+00
    0.58642E-10        -0.47906E-20         0.00000E+00
    0.58642E-10        -0.11176E-19         0.00000E+00
    0.58642E-10        -0.31665E-19         0.00000E+00
    0.58642E-10        -0.45501E-19         0.00000E+00
    0.58642E-10        -0.30600E-19         0.00000E+00
    0.58642E-10        -0.11176E-19         0.00000E+00
    0.58642E-10        -0.93132E-20         0.00000E+00
    0.58642E-10        -0.22352E-19         0.00000E+00
    0.58642E-10        -0.26077E-19         0.00000E+00
    0.58642E-10        -0.29802E-19         0.00000E+00
    0.58642E-10        -0.26077E-19         0.00000E+00
    0.58642E-10        -0.37253E-20         0.00000E+00
    0.58642E-10         0.26600E-20         0.00000E+00
    0.58642E-10         0.18626E-20         0.00000E+00
    0.58642E-10        -0.10111E-19         0.00000E+00
    0.58642E-10        -0.27940E-19         0.00000E+00
    0.58642E-10        -0.37253E-19         0.00000E+00
    0.58642E-10        -0.33528E-19         0.00000E+00
    0.58642E-10        -0.27940E-19         0.00000E+00
    0.58642E-10        -0.30868E-19         0.00000E+00
    0.58642E-10        -0.11176E-19         0.00000E+00
    0.58642E-10         0.10653E-20         0.00000E+00
    0.58642E-10        -0.17829E-19         0.00000E+00
    0.58642E-10        -0.25280E-19         0.00000E+00
    0.58642E-10        -0.18626E-19         0.00000E+00
    0.58642E-10        -0.26874E-19         0.00000E+00
    0.58642E-10        -0.26077E-19         0.00000E+00
    0.58642E-10        -0.17829E-19         0.00000E+00
    0.58642E-10        -0.28737E-19         0.00000E+00
    0.58642E-10        -0.34325E-19         0.00000E+00
    0.58642E-10        -0.17829E-19         0.00000E+00
    0.58642E-10        -0.93132E-21         0.00000E+00
    0.58642E-10        -0.91793E-20         0.00000E+00
    0.58642E-10        -0.11176E-19         0.00000E+00
    0.58642E-10        -0.11176E-19         0.00000E+00
    0.69108E-10        -0.74506E-20         0.00000E+00
    0.69108E-10        -0.63858E-20         0.00000E+00
    0.69108E-10        -0.37253E-20         0.00000E+00
    0.69108E-10         0.45232E-20         0.00000E+00
    0.69108E-10         0.37253E-20         0.00000E+00
    0.69108E-10         0.66527E-20         0.00000E+00
    0.69108E-10         0.17829E-19         0.00000E+00
    0.69108E-10         0.14901E-19         0.00000E+00
    0.69108E-10         0.26605E-20         0.00000E+00
    0.69108E-10        -0.47900E-20         0.00000E+00
    0.69108E-10        -0.82485E-20         0.00000E+00
    0.69108E-10        -0.18626E-19         0.00000E+00
    0.69108E-10        -0.23416E-19         0.00000E+00
    0.69108E-10        -0.25012E-19         0.00000E+00
    0.69108E-10        -0.11176E-19         0.00000E+00
    0.69108E-10        -0.11176E-19         0.00000E+00
    0.69108E-10        -0.19424E-19         0.00000E+00
    0.69108E-10        -0.25279E-19         0.00000E+00
    0.69108E-10        -0.14103E-19         0.00000E+00
    0.69108E-10         0.00000E+00         0.00000E+00
    0.69108E-10        -0.17562E-19         0.00000E+00
    0.69108E-10        -0.30600E-19         0.00000E+00
    0.69108E-10        -0.29802E-19         0.00000E+00
    0.69108E-10        -0.22352E-19         0.00000E+00
    0.69108E-10        -0.66527E-20         0.00000E+00
    0.69108E-10        -0.25165E-33         0.00000E+00
    0.69108E-10        -0.82485E-20         0.00000E+00
    0.69108E-10        -0.93132E-20         0.00000E+00
    0.69108E-10        -0.14901E-19         0.00000E+00
    0.69108E-10        -0.30867E-19         0.00000E+00
    0.69108E-10        -0.24214E-19         0.00000E+00
    0.69108E-10        -0.26605E-20         0.00000E+00
    0.69108E-10        -0.66527E-20         0.00000E+00
    0.69108E-10        -0.29004E-19         0.00000E+00
    0.69108E-10        -0.26077E-19         0.00000E+00
    0.69108E-10        -0.37253E-20         0.00000E+00
    0.69108E-10        -0.18626E-20         0.00000E+00
    0.69108E-10        -0.63858E-20         0.00000E+00
    0.69108E-10         0.47900E-20         0.00000E+00
    0.69108E-10         0.82485E-20         0.00000E+00
    0.69108E-10        -0.10648E-20         0.00000E+00
    0.69108E-10        -0.11176E-19         0.00000E+00
    0.69108E-10        -0.25012E-19         0.00000E+00
    0.69108E-10        -0.25012E-19         0.00000E+00
    0.69108E-10        -0.20489E-19         0.00000E+00
    0.69108E-10        -0.13039E-19         0.00000E+00
    0.69108E-10        -0.14103E-19         0.00000E+00
    0.69108E-10        -0.85153E-20         0.00000E+00
    0.69108E-10         0.18626E-20         0.00000E+00
    0.69108E-10         0.93132E-20         0.00000E+00
    0.69108E-10         0.18626E-19         0.00000E+00
    0.81388E-10        -0.37253E-20         0.00000E+00
    0.81388E-10        -0.55879E-20         0.00000E+00
    0.81388E-10        -0.55879E-20         0.00000E+00
    0.81388E-10        -0.93132E-20         0.00000E+00
    0.81388E-10        -0.11176E-19         0.00000E+00
    0.81388E-10        -0.26612E-20         0.00000E+00
    0.81388E-10         0.10112E-19         0.00000E+00
    0.81388E-10        -0.10641E-20         0.00000E+00
    0.81388E-10        -0.11176E-19         0.00000E+00
    0.81388E-10        -0.46566E-20         0.00000E+00
    0.81388E-10         0.13280E-21         0.00000E+00
    0.81388E-10         0.37253E-20         0.00000E+00
    0.81388E-10        -0.18626E-20         0.00000E+00
    0.81388E-10        -0.11176E-19         0.00000E+00
    0.81388E-10        -0.13039E-19         0.00000E+00
    0.81388E-10        -0.91804E-20         0.00000E+00
    0.81388E-10        -0.17298E-20         0.00000E+00
    0.81388E-10        -0.14103E-19         0.00000E+00
    0.81388E-10        -0.26343E-19         0.00000E+00
    0.81388E-10        -0.22352E-19         0.00000E+00
    0.81388E-10        -0.19425E-19         0.00000E+00
    0.81388E-10        -0.17562E-19         0.00000E+00
    0.81388E-10        -0.11974E-19         0.00000E+00
    0.81388E-10        -0.21553E-19         0.00000E+00
    0.81388E-10        -0.32729E-19         0.00000E+00
    0.81388E-10        -0.21288E-19         0.00000E+00
    0.81388E-10        -0.26612E-20         0.00000E+00
    0.81388E-10        -0.29268E-20         0.00000E+00
    0.81388E-10         0.82491E-20         0.00000E+00
    0.81388E-10         0.14901E-19         0.00000E+00
    0.81388E-10         0.55879E-20         0.00000E+00
    0.81388E-10        -0.15700E-19         0.00000E+00
    0.81388E-10        -0.11176E-19         0.00000E+00
    0.81388E-10         0.82491E-20         0.00000E+00
    0.81388E-10         0.18626E-20         0.00000E+00
    0.81388E-10        -0.93132E-20         0.00000E+00
    0.81388E-10        -0.93132E-20         0.00000E+00
    0.81388E-10        -0.55879E-20         0.00000E+00
    0.81388E-10        -0.55879E-20         0.00000E+00
    0.81388E-10        -0.74506E-20         0.00000E+00
    0.81388E-10        -0.18626E-20         0.00000E+00
    0.81388E-10        -0.37253E-20         0.00000E+00
    0.81388E-10        -0.55879E-20         0.00000E+00
    0.81388E-10        -0.63865E-20         0.00000E+00
    0.81388E-10        -0.10112E-19         0.00000E+00
    0.81388E-10        -0.75834E-20         0.00000E+00
    0.81388E-10        -0.93132E-21         0.00000E+00
    0.81388E-10        -0.83819E-20         0.00000E+00
    0.81388E-10        -0.22485E-19         0.00000E+00
    0.81388E-10        -0.24214E-19         0.00000E+00
    0.81388E-10        -0.26077E-19         0.00000E+00
    0.95784E-10        -0.22352E-19         0.00000E+00
    0.95784E-10        -0.14901E-19         0.00000E+00
    0.95784E-10         0.00000E+00         0.00000E+00
    0.95784E-10         0.14102E-19         0.00000E+00
    0.95784E-10         0.17695E-19         0.00000E+00
    0.95784E-10         0.17431E-19         0.00000E+00
    0.95784E-10         0.27940E-20         0.00000E+00
    0.95784E-10         0.38574E-20         0.00000E+00
    0.95784E-10         0.00000E+00         0.00000E+00
    0.95784E-10        -0.18626E-19         0.00000E+00
    0.95784E-10        -0.24214E-19         0.00000E+00
    0.95784E-10        -0.26876E-19         0.00000E+00
    0.95784E-10        -0.11176E-19         0.00000E+00
    0.95784E-10         0.00000E+00         0.00000E+00
    0.95784E-10        -0.11176E-19         0.00000E+00
    0.95784E-10        -0.10377E-19         0.00000E+00
    0.95784E-10        -0.18626E-20         0.00000E+00
    0.95784E-10        -0.74506E-20         0.00000E+00
    0.95784E-10        -0.55879E-20         0.00000E+00
    0.95784E-10        -0.16764E-19         0.00000E+00
    0.95784E-10        -0.24214E-19         0.00000E+00
    0.95784E-10        -0.18626E-19         0.00000E+00
    0.95784E-10        -0.18626E-19         0.00000E+00
    0.95784E-10        -0.13838E-19         0.00000E+00
    0.95784E-10        -0.29260E-20         0.00000E+00
    0.95784E-10        -0.18626E-20         0.00000E+00
    0.95784E-10        -0.82498E-20         0.00000E+00
    0.95784E-10        -0.10377E-19         0.00000E+00
    0.95784E-10        -0.16764E-19         0.00000E+00
    0.95784E-10        -0.16764E-19         0.00000E+00
    0.95784E-10        -0.11176E-19         0.00000E+00
    0.95784E-10        -0.37253E-20         0.00000E+00
    0.95784E-10        -0.93132E-20         0.00000E+00
    0.95784E-10        -0.20489E-19         0.00000E+00
    0.95784E-10        -0.93132E-20         0.00000E+00
    0.95784E-10         0.74506E-20         0.00000E+00
    0.95784E-10         0.22352E-19         0.00000E+00
    0.95784E-10         0.31665E-19         0.00000E+00
    0.95784E-10         0.20489E-19         0.00000E+00
    0.95784E-10         0.55879E-20         0.00000E+00
    0.95784E-10        -0.29260E-20         0.00000E+00
    0.95784E-10         0.18626E-20         0.00000E+00
    0.95784E-10         0.12239E-19         0.00000E+00
    0.95784E-10         0.79925E-21         0.00000E+00
    0.95784E-10        -0.13838E-19         0.00000E+00
    0.95784E-10        -0.18362E-19         0.00000E+00
    0.95784E-10        -0.16896E-19         0.00000E+00
    0.95784E-10        -0.38574E-20         0.00000E+00
    0.95784E-10         0.74506E-20         0.00000E+00
    0.95784E-10         0.15700E-19         0.00000E+00
    0.95784E-10         0.31401E-19         0.00000E+00
    0.11265E-09         0.53255E-20         0.00000E+00
    0.11265E-09         0.46566E-20         0.00000E+00
    0.11265E-09        -0.35941E-20         0.00000E+00
    0.11265E-09        -0.74506E-20         0.00000E+00
    0.11265E-09        -0.37253E-20         0.00000E+00
    0.11265E-09        -0.18626E-20         0.00000E+00
    0.11265E-09         0.26628E-20         0.00000E+00
    0.11265E-09         0.63881E-20         0.00000E+00
    0.11265E-09        -0.82507E-20         0.00000E+00
    0.11265E-09        -0.21289E-19         0.00000E+00
    0.11265E-09        -0.12238E-19         0.00000E+00
    0.11265E-09         0.65193E-20         0.00000E+00
    0.11265E-09        -0.17314E-20         0.00000E+00
    0.11265E-09        -0.10113E-19         0.00000E+00
    0.11265E-09        -0.74506E-20         0.00000E+00
    0.11265E-09        -0.19689E-19         0.00000E+00
    0.11265E-09        -0.22352E-19         0.00000E+00
    0.11265E-09        -0.15964E-19         0.00000E+00
    0.11265E-09        -0.10376E-19         0.00000E+00
    0.11265E-09        -0.45254E-20         0.00000E+00
    0.11265E-09        -0.10113E-19         0.00000E+00
    0.11265E-09        -0.26077E-19         0.00000E+00
    0.11265E-09        -0.27940E-19         0.00000E+00
    0.11265E-09        -0.18495E-19         0.00000E+00
    0.11265E-09        -0.94444E-20         0.00000E+00
    0.11265E-09        -0.93132E-20         0.00000E+00
    0.11265E-09        -0.26628E-20         0.00000E+00
    0.11265E-09         0.10113E-19         0.00000E+00
    0.11265E-09         0.11176E-19         0.00000E+00
    0.11265E-09         0.37253E-20         0.00000E+00
    0.11265E-09        -0.18626E-20         0.00000E+00
    0.11265E-09         0.66505E-20         0.00000E+00
    0.11265E-09         0.26077E-19         0.00000E+00
    0.11265E-09         0.23152E-19         0.00000E+00
    0.11265E-09         0.18626E-20         0.00000E+00
    0.11265E-09        -0.10625E-20         0.00000E+00
    0.11265E-09         0.18626E-20         0.00000E+00
    0.11265E-09        -0.82507E-20         0.00000E+00
    0.11265E-09        -0.15964E-19         0.00000E+00
    0.11265E-09        -0.93132E-20         0.00000E+00
    0.11265E-09         0.66505E-20         0.00000E+00
    0.11265E-09        -0.10625E-20         0.00000E+00
    0.11265E-09        -0.19689E-19         0.00000E+00
    0.11265E-09        -0.15701E-19         0.00000E+00
    0.11265E-09         0.10625E-20         0.00000E+00
    0.11265E-09         0.37253E-20         0.00000E+00
    0.11265E-09        -0.38565E-20         0.00000E+00
    0.11265E-09        -0.55879E-20         0.00000E+00
    0.11265E-09        -0.93132E-21         0.00000E+00
    0.11265E-09        -0.47878E-20         0.00000E+00
    0.11265E-09        -0.14901E-19         0.00000E+00
    0.13238E-09        -0.37253E-20         0.00000E+00
    0.13238E-09        -0.85121E-20         0.00000E+00
    0.13238E-09         0.37253E-20         0.00000E+00
    0.13238E-09         0.15963E-19         0.00000E+00
    0.13238E-09         0.93132E-20         0.00000E+00
    0.13238E-09         0.37253E-20         0.00000E+00
    0.13238E-09         0.00000E+00         0.00000E+00
    0.13238E-09        -0.37253E-20         0.00000E+00
    0.13238E-09        -0.29242E-20         0.00000E+00
    0.13238E-09         0.37253E-20         0.00000E+00
    0.13238E-09        -0.82517E-20         0.00000E+00
    0.13238E-09        -0.33528E-19         0.00000E+00
    0.13238E-09        -0.30864E-19         0.00000E+00
    0.13238E-09        -0.14901E-19         0.00000E+00
    0.13238E-09        -0.15702E-19         0.00000E+00
    0.13238E-09        -0.47868E-20         0.00000E+00
    0.13238E-09         0.27940E-20         0.00000E+00
    0.13238E-09        -0.27940E-20         0.00000E+00
    0.13238E-09        -0.47868E-20         0.00000E+00
    0.13238E-09        -0.17565E-19         0.00000E+00
    0.13238E-09        -0.26077E-19         0.00000E+00
    0.13238E-09        -0.18626E-19         0.00000E+00
    0.13238E-09        -0.55879E-20         0.00000E+00
    0.13238E-09         0.80114E-21         0.00000E+00
    0.13238E-09         0.00000E+00         0.00000E+00
    0.13238E-09         0.00000E+00         0.00000E+00
    0.13238E-09        -0.80114E-21         0.00000E+00
    0.13238E-09         0.18626E-20         0.00000E+00
    0.13238E-09         0.82517E-20         0.00000E+00
    0.13238E-09         0.66494E-20         0.00000E+00
    0.13238E-09        -0.55879E-20         0.00000E+00
    0.13238E-09        -0.18626E-20         0.00000E+00
    0.13238E-09         0.12237E-19         0.00000E+00
    0.13238E-09         0.10114E-19         0.00000E+00
    0.13238E-09         0.16764E-19         0.00000E+00
    0.13238E-09         0.93132E-20         0.00000E+00
    0.13238E-09        -0.66494E-20         0.00000E+00
    0.13238E-09        -0.11176E-19         0.00000E+00
    0.13238E-09        -0.10114E-19         0.00000E+00
    0.13238E-09        -0.80114E-21         0.00000E+00
    0.13238E-09        -0.29242E-20         0.00000E+00
    0.13238E-09         0.18626E-20         0.00000E+00
    0.13238E-09         0.29242E-20         0.00000E+00
    0.13238E-09        -0.11176E-19         0.00000E+00
    0.13238E-09        -0.27940E-19         0.00000E+00
    0.13238E-09        -0.20489E-19         0.00000E+00
    0.13238E-09        -0.18626E-20         0.00000E+00
    0.13238E-09        -0.57181E-20         0.00000E+00
    0.13238E-09        -0.17695E-19         0.00000E+00
    0.13238E-09        -0.11176E-19         0.00000E+00
    0.13238E-09         0.53276E-20         0.00000E+00
    0.15545E-09        -0.11176E-19         0.00000E+00
    0.15545E-09         0.18626E-20         0.00000E+00
    0.15545E-09         0.63903E-20         0.00000E+00
    0.15545E-09        -0.10603E-20         0.00000E+00
    0.15545E-09         0.13168E-19         0.00000E+00
    0.15545E-09         0.29931E-19         0.00000E+00
    0.15545E-09         0.82529E-20         0.00000E+00
    0.15545E-09        -0.19687E-19         0.00000E+00
    0.15545E-09        -0.26077E-19         0.00000E+00
    0.15545E-09        -0.15703E-19         0.00000E+00
    0.15545E-09        -0.74506E-20         0.00000E+00
    0.15545E-09         0.80233E-21         0.00000E+00
    0.15545E-09        -0.55879E-20         0.00000E+00
    0.15545E-09        -0.17566E-19         0.00000E+00
    0.15545E-09        -0.74506E-20         0.00000E+00
    0.15545E-09        -0.11176E-19         0.00000E+00
    0.15545E-09        -0.46566E-20         0.00000E+00
    0.15545E-09        -0.75796E-20         0.00000E+00
    0.15545E-09        -0.13039E-19         0.00000E+00
    0.15545E-09        -0.16764E-19         0.00000E+00
    0.15545E-09        -0.22352E-19         0.00000E+00
    0.15545E-09        -0.26077E-19         0.00000E+00
    0.15545E-09        -0.26077E-19         0.00000E+00
    0.15545E-09        -0.91842E-20         0.00000E+00
    0.15545E-09         0.46566E-20         0.00000E+00
    0.15545E-09         0.11978E-19         0.00000E+00
    0.15545E-09         0.13039E-19         0.00000E+00
    0.15545E-09         0.14901E-19         0.00000E+00
    0.15545E-09         0.13039E-19         0.00000E+00
    0.15545E-09        -0.35963E-20         0.00000E+00
    0.15545E-09         0.65193E-20         0.00000E+00
    0.15545E-09         0.15703E-19         0.00000E+00
    0.15545E-09         0.00000E+00         0.00000E+00
    0.15545E-09        -0.11978E-19         0.00000E+00
    0.15545E-09        -0.74506E-20         0.00000E+00
    0.15545E-09         0.26650E-20         0.00000E+00
    0.15545E-09         0.18626E-20         0.00000E+00
    0.15545E-09         0.00000E+00         0.00000E+00
    0.15545E-09        -0.55879E-20         0.00000E+00
    0.15545E-09        -0.23154E-19         0.00000E+00
    0.15545E-09        -0.32467E-19         0.00000E+00
    0.15545E-09        -0.23412E-19         0.00000E+00
    0.15545E-09        -0.20489E-19         0.00000E+00
    0.15545E-09        -0.17566E-19         0.00000E+00
    0.15545E-09        -0.12236E-19         0.00000E+00
    0.15545E-09        -0.17824E-19         0.00000E+00
    0.15545E-09        -0.16764E-19         0.00000E+00
    0.15545E-09        -0.45276E-20         0.00000E+00
    0.15545E-09         0.66483E-20         0.00000E+00
    0.15545E-09        -0.29230E-20         0.00000E+00
    0.15545E-09        -0.13297E-19         0.00000E+00
    0.18241E-09         0.95684E-20         0.00000E+00
    0.18241E-09         0.74506E-20         0.00000E+00
    0.18241E-09         0.74506E-20         0.00000E+00
    0.18241E-09         0.93132E-20         0.00000E+00
    0.18241E-09         0.93132E-21         0.00000E+00
    0.18241E-09         0.93132E-21         0.00000E+00
    0.18241E-09         0.83819E-20         0.00000E+00
    0.18241E-09         0.19902E-20         0.00000E+00
    0.18241E-09        -0.93132E-20         0.00000E+00
    0.18241E-09        -0.12235E-19         0.00000E+00
    0.18241E-09        -0.12235E-19         0.00000E+00
    0.18241E-09        -0.14901E-19         0.00000E+00
    0.18241E-09        -0.13039E-19         0.00000E+00
    0.18241E-09        -0.18626E-20         0.00000E+00
    0.18241E-09        -0.93132E-20         0.00000E+00
    0.18241E-09        -0.24214E-19         0.00000E+00
    0.18241E-09        -0.27940E-19         0.00000E+00
    0.18241E-09        -0.18626E-19         0.00000E+00
    0.18241E-09        -0.93132E-20         0.00000E+00
    0.18241E-09         0.00000E+00         0.00000E+00
    0.18241E-09         0.37253E-20         0.00000E+00
    0.18241E-09        -0.18626E-20         0.00000E+00
    0.18241E-09         0.00000E+00         0.00000E+00
    0.18241E-09         0.37253E-20         0.00000E+00
    0.18241E-09        -0.74506E-20         0.00000E+00
    0.18241E-09        -0.11980E-19         0.00000E+00
    0.18241E-09         0.11176E-19         0.00000E+00
    0.18241E-09         0.10117E-19         0.00000E+00
    0.18241E-09        -0.37253E-20         0.00000E+00
    0.18241E-09         0.18626E-20         0.00000E+00
    0.18241E-09        -0.37253E-20         0.00000E+00
    0.18241E-09        -0.26664E-20         0.00000E+00
    0.18241E-09         0.74506E-20         0.00000E+00
    0.18241E-09         0.15705E-19         0.00000E+00
    0.18241E-09         0.13039E-19         0.00000E+00
    0.18241E-09         0.00000E+00         0.00000E+00
    0.18241E-09        -0.16764E-19         0.00000E+00
    0.18241E-09        -0.33528E-19         0.00000E+00
    0.18241E-09        -0.29802E-19         0.00000E+00
    0.18241E-09        -0.19430E-19         0.00000E+00
    0.18241E-09        -0.11176E-19         0.00000E+00
    0.18241E-09        -0.74506E-20         0.00000E+00
    0.18241E-09        -0.55879E-20         0.00000E+00
    0.18241E-09        -0.22352E-19         0.00000E+00
    0.18241E-09        -0.27940E-19         0.00000E+00
    0.18241E-09        -0.17823E-19         0.00000E+00
    0.18241E-09        -0.14901E-19         0.00000E+00
    0.18241E-09        -0.74506E-20         0.00000E+00
    0.18241E-09        -0.55879E-20         0.00000E+00
    0.18241E-09         0.45290E-20         0.00000E+00
    0.18241E-09         0.16509E-19         0.00000E+00
    0.21387E-09        -0.74506E-20         0.00000E+00
    0.21387E-09        -0.63933E-20         0.00000E+00
    0.21387E-09        -0.18626E-20         0.00000E+00
    0.21387E-09         0.80537E-21         0.00000E+00
    0.21387E-09         0.19886E-20         0.00000E+00
    0.21387E-09        -0.93132E-21         0.00000E+00
    0.21387E-09        -0.17821E-19         0.00000E+00
    0.21387E-09        -0.14901E-19         0.00000E+00
    0.21387E-09        -0.74506E-20         0.00000E+00
    0.21387E-09        -0.11176E-19         0.00000E+00
    0.21387E-09        -0.18626E-20         0.00000E+00
    0.21387E-09         0.11176E-19         0.00000E+00
    0.21387E-09         0.11176E-19         0.00000E+00
    0.21387E-09         0.37253E-20         0.00000E+00
    0.21387E-09        -0.37253E-20         0.00000E+00
    0.21387E-09         0.00000E+00         0.00000E+00
    0.21387E-09         0.74506E-20         0.00000E+00
    0.21387E-09        -0.13039E-19         0.00000E+00
    0.21387E-09        -0.37253E-19         0.00000E+00
    0.21387E-09        -0.31665E-19         0.00000E+00
    0.21387E-09        -0.11176E-19         0.00000E+00
    0.21387E-09         0.00000E+00         0.00000E+00
    0.21387E-09         0.00000E+00         0.00000E+00
    0.21387E-09        -0.80537E-21         0.00000E+00
    0.21387E-09         0.93132E-20         0.00000E+00
    0.21387E-09         0.11176E-19         0.00000E+00
    0.21387E-09        -0.18626E-20         0.00000E+00
    0.21387E-09         0.26680E-20         0.00000E+00
    0.21387E-09         0.93132E-20         0.00000E+00
    0.21387E-09         0.18626E-20         0.00000E+00
    0.21387E-09        -0.18626E-20         0.00000E+00
    0.21387E-09        -0.74506E-20         0.00000E+00
    0.21387E-09        -0.11176E-19         0.00000E+00
    0.21387E-09         0.74506E-20         0.00000E+00
    0.21387E-09         0.11176E-19         0.00000E+00
    0.21387E-09        -0.93132E-20         0.00000E+00
    0.21387E-09        -0.15707E-19         0.00000E+00
    0.21387E-09        -0.80537E-21         0.00000E+00
    0.21387E-09         0.26680E-20         0.00000E+00
    0.21387E-09         0.26680E-20         0.00000E+00
    0.21387E-09         0.37253E-20         0.00000E+00
    0.21387E-09        -0.55879E-20         0.00000E+00
    0.21387E-09        -0.13039E-19         0.00000E+00
    0.21387E-09        -0.74506E-20         0.00000E+00
    0.21387E-09        -0.55879E-20         0.00000E+00
    0.21387E-09        -0.74506E-20         0.00000E+00
    0.21387E-09        -0.11176E-19         0.00000E+00
    0.21387E-09        -0.21294E-19         0.00000E+00
    0.21387E-09        -0.21294E-19         0.00000E+00
    0.21387E-09        -0.13290E-19         0.00000E+00
    0.21387E-09        -0.79544E-20         0.00000E+00
    0.25056E-09         0.18626E-19         0.00000E+00
    0.25056E-09         0.20489E-19         0.00000E+00
    0.25056E-09         0.13039E-19         0.00000E+00
    0.25056E-09         0.37253E-20         0.00000E+00
    0.25056E-09        -0.36013E-20         0.00000E+00
    0.25056E-09        -0.27940E-20         0.00000E+00
    0.25056E-09         0.10121E-19         0.00000E+00
    0.25056E-09         0.74506E-20         0.00000E+00
    0.25056E-09         0.18626E-20         0.00000E+00
    0.25056E-09         0.14901E-19         0.00000E+00
    0.25056E-09         0.14094E-19         0.00000E+00
    0.25056E-09        -0.37253E-20         0.00000E+00
    0.25056E-09        -0.12231E-19         0.00000E+00
    0.25056E-09        -0.45326E-20         0.00000E+00
    0.25056E-09        -0.25146E-33         0.00000E+00
    0.25056E-09        -0.19806E-19         0.00000E+00
    0.25056E-09        -0.27008E-19         0.00000E+00
    0.25056E-09        -0.82579E-20         0.00000E+00
    0.25056E-09         0.37253E-20         0.00000E+00
    0.25056E-09        -0.37253E-20         0.00000E+00
    0.25056E-09        -0.22352E-19         0.00000E+00
    0.25056E-09        -0.24214E-19         0.00000E+00
    0.25056E-09        -0.13039E-19         0.00000E+00
    0.25056E-09        -0.37253E-20         0.00000E+00
    0.25056E-09        -0.18626E-20         0.00000E+00
    0.25056E-09        -0.37253E-20         0.00000E+00
    0.25056E-09         0.37253E-20         0.00000E+00
    0.25056E-09         0.00000E+00         0.00000E+00
    0.25056E-09         0.18626E-20         0.00000E+00
    0.25056E-09         0.22352E-19         0.00000E+00
    0.25056E-09         0.20489E-19         0.00000E+00
    0.25056E-09         0.37253E-20         0.00000E+00
    0.25056E-09        -0.74506E-20         0.00000E+00
    0.25056E-09        -0.11176E-19         0.00000E+00
    0.25056E-09         0.18626E-20         0.00000E+00
    0.25056E-09         0.11983E-19         0.00000E+00
    0.25056E-09         0.13039E-19         0.00000E+00
    0.25056E-09         0.10369E-19         0.00000E+00
    0.25056E-09        -0.37253E-20         0.00000E+00
    0.25056E-09        -0.74506E-20         0.00000E+00
    0.25056E-09        -0.10121E-19         0.00000E+00
    0.25056E-09        -0.74506E-20         0.00000E+00
    0.25056E-09         0.26699E-20         0.00000E+00
    0.25056E-09         0.18626E-20         0.00000E+00
    0.25056E-09        -0.74506E-20         0.00000E+00
    0.25056E-09        -0.13039E-19         0.00000E+00
    0.25056E-09        -0.82579E-20         0.00000E+00
    0.25056E-09         0.46566E-20         0.00000E+00
    0.25056E-09         0.11052E-19         0.00000E+00
    0.25056E-09        -0.10554E-20         0.00000E+00
    0.25056E-09        -0.58360E-20         0.00000E+00
    0.29330E-09        -0.11176E-19         0.00000E+00
    0.29330E-09        -0.55879E-20         0.00000E+00
    0.29330E-09         0.55879E-20         0.00000E+00
    0.29330E-09         0.13039E-19         0.00000E+00
    0.29330E-09         0.14901E-19         0.00000E+00
    0.29330E-09         0.27940E-19         0.00000E+00
    0.29330E-09         0.29802E-19         0.00000E+00
    0.29330E-09         0.11176E-19         0.00000E+00
    0.29330E-09         0.29158E-20         0.00000E+00
    0.29330E-09        -0.37253E-20         0.00000E+00
    0.29330E-09        -0.47784E-20         0.00000E+00
    0.29330E-09         0.18626E-20         0.00000E+00
    0.29330E-09        -0.47784E-20         0.00000E+00
    0.29330E-09        -0.11176E-19         0.00000E+00
    0.29330E-09        -0.63975E-20         0.00000E+00
    0.29330E-09        -0.55879E-20         0.00000E+00
    0.29330E-09        -0.74506E-20         0.00000E+00
    0.29330E-09        -0.14092E-19         0.00000E+00
    0.29330E-09        -0.26077E-19         0.00000E+00
    0.29330E-09        -0.23161E-19         0.00000E+00
    0.29330E-09        -0.74506E-20         0.00000E+00
    0.29330E-09        -0.37253E-20         0.00000E+00
    0.29330E-09        -0.13039E-19         0.00000E+00
    0.29330E-09        -0.18626E-19         0.00000E+00
    0.29330E-09        -0.18626E-19         0.00000E+00
    0.29330E-09        -0.11176E-19         0.00000E+00
    0.29330E-09        -0.93132E-20         0.00000E+00
    0.29330E-09         0.00000E+00         0.00000E+00
    0.29330E-09         0.74506E-20         0.00000E+00
    0.29330E-09        -0.55879E-20         0.00000E+00
    0.29330E-09        -0.55879E-20         0.00000E+00
    0.29330E-09         0.37253E-20         0.00000E+00
    0.29330E-09         0.16764E-19         0.00000E+00
    0.29330E-09         0.26887E-19         0.00000E+00
    0.29330E-09         0.24214E-19         0.00000E+00
    0.29330E-09         0.55879E-20         0.00000E+00
    0.29330E-09        -0.18626E-20         0.00000E+00
    0.29330E-09         0.29158E-20         0.00000E+00
    0.29330E-09         0.14901E-19         0.00000E+00
    0.29330E-09         0.14901E-19         0.00000E+00
    0.29330E-09         0.37253E-20         0.00000E+00
    0.29330E-09         0.18626E-20         0.00000E+00
    0.29330E-09        -0.55879E-20         0.00000E+00
    0.29330E-09        -0.55879E-20         0.00000E+00
    0.29330E-09         0.55879E-20         0.00000E+00
    0.29330E-09         0.13039E-19         0.00000E+00
    0.29330E-09         0.18626E-19         0.00000E+00
    0.29330E-09         0.14901E-19         0.00000E+00
    0.29330E-09        -0.47784E-20         0.00000E+00
    0.29330E-09        -0.12229E-19         0.00000E+00
    0.29330E-09        -0.14901E-19         0.00000E+00
    0.34304E-09         0.37253E-20         0.00000E+00
    0.34304E-09         0.55879E-20         0.00000E+00
    0.34304E-09         0.45375E-20         0.00000E+00
    0.34304E-09         0.26748E-20         0.00000E+00
    0.34304E-09         0.11916E-21         0.00000E+00
    0.34304E-09         0.13158E-19         0.00000E+00
    0.34304E-09         0.22352E-19         0.00000E+00
    0.34304E-09         0.22352E-19         0.00000E+00
    0.34304E-09         0.16764E-19         0.00000E+00
    0.34304E-09         0.14901E-19         0.00000E+00
    0.34304E-09         0.64001E-20         0.00000E+00
    0.34304E-09        -0.29131E-20         0.00000E+00
    0.34304E-09         0.18626E-19         0.00000E+00
    0.34304E-09         0.17814E-19         0.00000E+00
    0.34304E-09        -0.12800E-19         0.00000E+00
    0.34304E-09        -0.14901E-19         0.00000E+00
    0.34304E-09        -0.47758E-20         0.00000E+00
    0.34304E-09        -0.14089E-19         0.00000E+00
    0.34304E-09        -0.15952E-19         0.00000E+00
    0.34304E-09        -0.55879E-20         0.00000E+00
    0.34304E-09        -0.15713E-19         0.00000E+00
    0.34304E-09        -0.34340E-19         0.00000E+00
    0.34304E-09        -0.34578E-19         0.00000E+00
    0.34304E-09        -0.16764E-19         0.00000E+00
    0.34304E-09        -0.13039E-19         0.00000E+00
    0.34304E-09        -0.21301E-19         0.00000E+00
    0.34304E-09        -0.14901E-19         0.00000E+00
    0.34304E-09        -0.15139E-19         0.00000E+00
    0.34304E-09        -0.11988E-19         0.00000E+00
    0.34304E-09         0.17814E-19         0.00000E+00
    0.34304E-09         0.26889E-19         0.00000E+00
    0.34304E-09         0.27940E-19         0.00000E+00
    0.34304E-09         0.31903E-19         0.00000E+00
    0.34304E-09         0.19677E-19         0.00000E+00
    0.34304E-09        -0.39636E-20         0.00000E+00
    0.34304E-09        -0.39636E-20         0.00000E+00
    0.34304E-09         0.18626E-20         0.00000E+00
    0.34304E-09        -0.55879E-20         0.00000E+00
    0.34304E-09        -0.11988E-19         0.00000E+00
    0.34304E-09        -0.82627E-20         0.00000E+00
    0.34304E-09         0.37253E-20         0.00000E+00
    0.34304E-09         0.64001E-20         0.00000E+00
    0.34304E-09         0.93132E-20         0.00000E+00
    0.34304E-09         0.66384E-20         0.00000E+00
    0.34304E-09         0.26748E-20         0.00000E+00
    0.34304E-09         0.64001E-20         0.00000E+00
    0.34304E-09        -0.45375E-20         0.00000E+00
    0.34304E-09         0.47758E-20         0.00000E+00
    0.34304E-09         0.22352E-19         0.00000E+00
    0.34304E-09         0.10125E-19         0.00000E+00
    0.34304E-09        -0.58263E-20         0.00000E+00
    0.40088E-09         0.00000E+00         0.00000E+00
    0.40088E-09        -0.29101E-20         0.00000E+00
    0.40088E-09        -0.55879E-20         0.00000E+00
    0.40088E-09         0.12107E-19         0.00000E+00
    0.40088E-09         0.20489E-19         0.00000E+00
    0.40088E-09         0.27940E-20         0.00000E+00
    0.40088E-09        -0.27940E-20         0.00000E+00
    0.40088E-09         0.55879E-20         0.00000E+00
    0.40088E-09         0.15832E-19         0.00000E+00
    0.40088E-09         0.21537E-19         0.00000E+00
    0.40088E-09         0.20489E-19         0.00000E+00
    0.40088E-09         0.18626E-19         0.00000E+00
    0.40088E-09         0.55879E-20         0.00000E+00
    0.40088E-09        -0.18626E-20         0.00000E+00
    0.40088E-09        -0.84980E-20         0.00000E+00
    0.40088E-09        -0.17811E-19         0.00000E+00
    0.40088E-09        -0.14901E-19         0.00000E+00
    0.40088E-09        -0.37253E-20         0.00000E+00
    0.40088E-09         0.00000E+00         0.00000E+00
    0.40088E-09        -0.93132E-20         0.00000E+00
    0.40088E-09        -0.18626E-19         0.00000E+00
    0.40088E-09         0.00000E+00         0.00000E+00
    0.40088E-09         0.00000E+00         0.00000E+00
    0.40088E-09        -0.14785E-19         0.00000E+00
    0.40088E-09        -0.19558E-19         0.00000E+00
    0.40088E-09        -0.14086E-19         0.00000E+00
    0.40088E-09        -0.18626E-20         0.00000E+00
    0.40088E-09        -0.18626E-20         0.00000E+00
    0.40088E-09        -0.37253E-20         0.00000E+00
    0.40088E-09        -0.11176E-19         0.00000E+00
    0.40088E-09        -0.82658E-20         0.00000E+00
    0.40088E-09        -0.45405E-20         0.00000E+00
    0.40088E-09        -0.84980E-20         0.00000E+00
    0.40088E-09         0.64032E-20         0.00000E+00
    0.40088E-09         0.24214E-19         0.00000E+00
    0.40088E-09         0.23399E-19         0.00000E+00
    0.40088E-09         0.47727E-20         0.00000E+00
    0.40088E-09        -0.18626E-20         0.00000E+00
    0.40088E-09         0.10128E-19         0.00000E+00
    0.40088E-09         0.13039E-19         0.00000E+00
    0.40088E-09         0.37253E-20         0.00000E+00
    0.40088E-09         0.18626E-20         0.00000E+00
    0.40088E-09         0.55879E-20         0.00000E+00
    0.40088E-09         0.14901E-19         0.00000E+00
    0.40088E-09         0.74506E-20         0.00000E+00
    0.40088E-09        -0.18626E-20         0.00000E+00
    0.40088E-09         0.11176E-19         0.00000E+00
    0.40088E-09         0.13854E-19         0.00000E+00
    0.40088E-09         0.38414E-20         0.00000E+00
    0.40088E-09        -0.27940E-20         0.00000E+00
    0.40088E-09        -0.20948E-20         0.00000E+00
    0.46804E-09        -0.37253E-20         0.00000E+00
    0.46804E-09        -0.64068E-20         0.00000E+00
    0.46804E-09        -0.45441E-20         0.00000E+00
    0.46804E-09        -0.10357E-19         0.00000E+00
    0.46804E-09        -0.18626E-20         0.00000E+00
    0.46804E-09         0.93132E-20         0.00000E+00
    0.46804E-09        -0.29065E-20         0.00000E+00
    0.46804E-09        -0.74506E-20         0.00000E+00
    0.46804E-09         0.37253E-20         0.00000E+00
    0.46804E-09         0.74506E-20         0.00000E+00
    0.46804E-09        -0.18626E-20         0.00000E+00
    0.46804E-09        -0.55879E-20         0.00000E+00
    0.46804E-09         0.00000E+00         0.00000E+00
    0.46804E-09         0.29065E-20         0.00000E+00
    0.46804E-09         0.25146E-33         0.00000E+00
    0.46804E-09         0.15720E-19         0.00000E+00
    0.46804E-09         0.19670E-19         0.00000E+00
    0.46804E-09         0.15945E-19         0.00000E+00
    0.46804E-09         0.13857E-19         0.00000E+00
    0.46804E-09         0.14901E-19         0.00000E+00
    0.46804E-09         0.20489E-19         0.00000E+00
    0.46804E-09         0.26815E-20         0.00000E+00
    0.46804E-09        -0.13039E-19         0.00000E+00
    0.46804E-09        -0.26815E-20         0.00000E+00
    0.46804E-09        -0.18626E-20         0.00000E+00
    0.46804E-09        -0.66318E-20         0.00000E+00
    0.46804E-09        -0.11176E-19         0.00000E+00
    0.46804E-09        -0.93132E-20         0.00000E+00
    0.46804E-09         0.00000E+00         0.00000E+00
    0.46804E-09        -0.55879E-20         0.00000E+00
    0.46804E-09        -0.20489E-19         0.00000E+00
    0.46804E-09        -0.10951E-19         0.00000E+00
    0.46804E-09         0.11176E-19         0.00000E+00
    0.46804E-09         0.14676E-19         0.00000E+00
    0.46804E-09         0.14901E-19         0.00000E+00
    0.46804E-09         0.16764E-19         0.00000E+00
    0.46804E-09         0.13039E-19         0.00000E+00
    0.46804E-09         0.93132E-20         0.00000E+00
    0.46804E-09         0.18626E-20         0.00000E+00
    0.46804E-09        -0.64068E-20         0.00000E+00
    0.46804E-09        -0.81882E-21         0.00000E+00
    0.46804E-09         0.64068E-20         0.00000E+00
    0.46804E-09         0.37253E-20         0.00000E+00
    0.46804E-09         0.10438E-20         0.00000E+00
    0.46804E-09         0.10132E-19         0.00000E+00
    0.46804E-09         0.15720E-19         0.00000E+00
    0.46804E-09         0.37253E-20         0.00000E+00
    0.46804E-09        -0.74506E-20         0.00000E+00
    0.46804E-09         0.18626E-20         0.00000E+00
    0.46804E-09         0.13857E-19         0.00000E+00
    0.46804E-09         0.16539E-19         0.00000E+00
    0.54597E-09        -0.37253E-20         0.00000E+00
    0.54597E-09        -0.18626E-20         0.00000E+00
    0.54597E-09        -0.82736E-20         0.00000E+00
    0.54597E-09        -0.18626E-19         0.00000E+00
    0.54597E-09        -0.32705E-19         0.00000E+00
    0.54597E-09        -0.27940E-19         0.00000E+00
    0.54597E-09        -0.74506E-20         0.00000E+00
    0.54597E-09         0.00000E+00         0.00000E+00
    0.54597E-09        -0.64109E-20         0.00000E+00
    0.54597E-09        -0.64109E-20         0.00000E+00
    0.54597E-09         0.26856E-20         0.00000E+00
    0.54597E-09         0.18626E-20         0.00000E+00
    0.54597E-09         0.18626E-20         0.00000E+00
    0.54597E-09         0.37253E-20         0.00000E+00
    0.54597E-09         0.84902E-20         0.00000E+00
    0.54597E-09         0.93132E-20         0.00000E+00
    0.54597E-09         0.17587E-19         0.00000E+00
    0.54597E-09         0.31665E-19         0.00000E+00
    0.54597E-09         0.17587E-19         0.00000E+00
    0.54597E-09         0.74506E-20         0.00000E+00
    0.54597E-09        -0.90966E-20         0.00000E+00
    0.54597E-09        -0.74506E-20         0.00000E+00
    0.54597E-09         0.26856E-20         0.00000E+00
    0.54597E-09        -0.11176E-19         0.00000E+00
    0.54597E-09        -0.11176E-19         0.00000E+00
    0.54597E-09        -0.37253E-20         0.00000E+00
    0.54597E-09        -0.18626E-20         0.00000E+00
    0.54597E-09        -0.10397E-20         0.00000E+00
    0.54597E-09        -0.93132E-20         0.00000E+00
    0.54597E-09        -0.82299E-21         0.00000E+00
    0.54597E-09         0.17587E-19         0.00000E+00
    0.54597E-09         0.13039E-19         0.00000E+00
    0.54597E-09         0.13255E-19         0.00000E+00
    0.54597E-09         0.21312E-19         0.00000E+00
    0.54597E-09         0.13862E-19         0.00000E+00
    0.54597E-09         0.14901E-19         0.00000E+00
    0.54597E-09         0.27940E-19         0.00000E+00
    0.54597E-09         0.15941E-19         0.00000E+00
    0.54597E-09         0.55879E-20         0.00000E+00
    0.54597E-09         0.17587E-19         0.00000E+00
    0.54597E-09         0.27940E-19         0.00000E+00
    0.54597E-09         0.21529E-19         0.00000E+00
    0.54597E-09         0.12216E-19         0.00000E+00
    0.54597E-09        -0.21666E-21         0.00000E+00
    0.54597E-09        -0.12216E-19         0.00000E+00
    0.54597E-09        -0.10136E-19         0.00000E+00
    0.54597E-09        -0.74506E-20         0.00000E+00
    0.54597E-09        -0.37253E-20         0.00000E+00
    0.54597E-09        -0.10136E-19         0.00000E+00
    0.54597E-09        -0.14901E-19         0.00000E+00
    0.54597E-09        -0.95299E-20         0.00000E+00
    0.63627E-09         0.37253E-20         0.00000E+00
    0.63627E-09        -0.37253E-20         0.00000E+00
    0.63627E-09        -0.55879E-20         0.00000E+00
    0.63627E-09        -0.55879E-20         0.00000E+00
    0.63627E-09        -0.10141E-19         0.00000E+00
    0.63627E-09        -0.14901E-19         0.00000E+00
    0.63627E-09        -0.23387E-19         0.00000E+00
    0.63627E-09        -0.28768E-19         0.00000E+00
    0.63627E-09        -0.13039E-19         0.00000E+00
    0.63627E-09        -0.10348E-20         0.00000E+00
    0.63627E-09        -0.26905E-20         0.00000E+00
    0.63627E-09         0.12004E-19         0.00000E+00
    0.63627E-09         0.64158E-20         0.00000E+00
    0.63627E-09         0.39322E-20         0.00000E+00
    0.63627E-09         0.84854E-20         0.00000E+00
    0.63627E-09         0.91063E-20         0.00000E+00
    0.63627E-09         0.55879E-20         0.00000E+00
    0.63627E-09         0.37253E-20         0.00000E+00
    0.63627E-09         0.27733E-19         0.00000E+00
    0.63627E-09         0.23387E-19         0.00000E+00
    0.63627E-09        -0.82784E-20         0.00000E+00
    0.63627E-09        -0.16764E-19         0.00000E+00
    0.63627E-09         0.28974E-20         0.00000E+00
    0.63627E-09         0.14073E-19         0.00000E+00
    0.63627E-09         0.16557E-20         0.00000E+00
    0.63627E-09         0.18626E-20         0.00000E+00
    0.63627E-09         0.66227E-20         0.00000E+00
    0.63627E-09         0.10141E-19         0.00000E+00
    0.63627E-09         0.13866E-19         0.00000E+00
    0.63627E-09         0.14073E-19         0.00000E+00
    0.63627E-09         0.20696E-20         0.00000E+00
    0.63627E-09         0.37253E-20         0.00000E+00
    0.63627E-09         0.18420E-19         0.00000E+00
    0.63627E-09         0.27940E-19         0.00000E+00
    0.63627E-09         0.30837E-19         0.00000E+00
    0.63627E-09         0.22145E-19         0.00000E+00
    0.63627E-09         0.74506E-20         0.00000E+00
    0.63627E-09         0.14073E-19         0.00000E+00
    0.63627E-09         0.13039E-19         0.00000E+00
    0.63627E-09         0.26905E-20         0.00000E+00
    0.63627E-09         0.37253E-20         0.00000E+00
    0.63627E-09         0.47601E-20         0.00000E+00
    0.63627E-09        -0.84854E-20         0.00000E+00
    0.63627E-09        -0.93132E-20         0.00000E+00
    0.63627E-09        -0.10141E-19         0.00000E+00
    0.63627E-09        -0.15005E-19         0.00000E+00
    0.63627E-09        -0.38288E-20         0.00000E+00
    0.63627E-09         0.20693E-21         0.00000E+00
    0.63627E-09         0.10347E-21         0.00000E+00
    0.63627E-09         0.25870E-20         0.00000E+00
    0.63627E-09         0.91063E-20         0.00000E+00
    0.74080E-09        -0.37253E-20         0.00000E+00
    0.74080E-09         0.18626E-20         0.00000E+00
    0.74080E-09         0.45588E-20         0.00000E+00
    0.74080E-09         0.83352E-21         0.00000E+00
    0.74080E-09         0.20583E-20         0.00000E+00
    0.74080E-09         0.15097E-19         0.00000E+00
    0.74080E-09         0.13872E-19         0.00000E+00
    0.74080E-09         0.26962E-20         0.00000E+00
    0.74080E-09        -0.13039E-19         0.00000E+00
    0.74080E-09        -0.21518E-19         0.00000E+00
    0.74080E-09        -0.66171E-20         0.00000E+00
    0.74080E-09        -0.45588E-20         0.00000E+00
    0.74080E-09        -0.45588E-20         0.00000E+00
    0.74080E-09        -0.74506E-20         0.00000E+00
    0.74080E-09        -0.45588E-20         0.00000E+00
    0.74080E-09         0.37253E-20         0.00000E+00
    0.74080E-09         0.44610E-20         0.00000E+00
    0.74080E-09        -0.19604E-20         0.00000E+00
    0.74080E-09        -0.82841E-20         0.00000E+00
    0.74080E-09         0.00000E+00         0.00000E+00
    0.74080E-09         0.23185E-19         0.00000E+00
    0.74080E-09         0.18626E-19         0.00000E+00
    0.74080E-09        -0.45588E-20         0.00000E+00
    0.74080E-09        -0.14706E-19         0.00000E+00
    0.74080E-09        -0.12205E-19         0.00000E+00
    0.74080E-09        -0.74506E-20         0.00000E+00
    0.74080E-09         0.18626E-20         0.00000E+00
    0.74080E-09         0.45588E-20         0.00000E+00
    0.74080E-09         0.57835E-20         0.00000E+00
    0.74080E-09         0.25244E-19         0.00000E+00
    0.74080E-09         0.36224E-19         0.00000E+00
    0.74080E-09         0.31665E-19         0.00000E+00
    0.74080E-09         0.30636E-19         0.00000E+00
    0.74080E-09         0.25881E-19         0.00000E+00
    0.74080E-09         0.15930E-19         0.00000E+00
    0.74080E-09         0.20489E-19         0.00000E+00
    0.74080E-09         0.27106E-19         0.00000E+00
    0.74080E-09         0.18822E-19         0.00000E+00
    0.74080E-09         0.17597E-19         0.00000E+00
    0.74080E-09         0.18431E-19         0.00000E+00
    0.74080E-09         0.15735E-19         0.00000E+00
    0.74080E-09         0.93132E-20         0.00000E+00
    0.74080E-09         0.84797E-20         0.00000E+00
    0.74080E-09         0.66171E-20         0.00000E+00
    0.74080E-09        -0.37253E-20         0.00000E+00
    0.74080E-09        -0.92154E-20         0.00000E+00
    0.74080E-09        -0.18626E-19         0.00000E+00
    0.74080E-09        -0.13136E-19         0.00000E+00
    0.74080E-09        -0.28918E-20         0.00000E+00
    0.74080E-09         0.26962E-20         0.00000E+00
    0.74080E-09         0.00000E+00         0.00000E+00
    0.86165E-09         0.13221E-19         0.00000E+00
    0.86165E-09         0.22352E-19         0.00000E+00
    0.86165E-09         0.16764E-19         0.00000E+00
    0.86165E-09         0.93132E-20         0.00000E+00
    0.86165E-09         0.64280E-20         0.00000E+00
    0.86165E-09        -0.75418E-20         0.00000E+00
    0.86165E-09        -0.93132E-21         0.00000E+00
    0.86165E-09         0.14901E-19         0.00000E+00
    0.86165E-09         0.18626E-19         0.00000E+00
    0.86165E-09         0.16764E-19         0.00000E+00
    0.86165E-09         0.93132E-21         0.00000E+00
    0.86165E-09        -0.73594E-20         0.00000E+00
    0.86165E-09        -0.93132E-20         0.00000E+00
    0.86165E-09        -0.10153E-19         0.00000E+00
    0.86165E-09         0.10225E-20         0.00000E+00
    0.86165E-09        -0.10336E-19         0.00000E+00
    0.86165E-09        -0.14901E-19         0.00000E+00
    0.86165E-09        -0.28852E-20         0.00000E+00
    0.86165E-09         0.91308E-20         0.00000E+00
    0.86165E-09         0.37253E-20         0.00000E+00
    0.86165E-09        -0.17604E-19         0.00000E+00
    0.86165E-09        -0.15741E-19         0.00000E+00
    0.86165E-09         0.18626E-20         0.00000E+00
    0.86165E-09         0.38165E-20         0.00000E+00
    0.86165E-09        -0.19539E-20         0.00000E+00
    0.86165E-09         0.18626E-20         0.00000E+00
    0.86165E-09         0.55879E-20         0.00000E+00
    0.86165E-09         0.14901E-19         0.00000E+00
    0.86165E-09         0.23374E-19         0.00000E+00
    0.86165E-09         0.22352E-19         0.00000E+00
    0.86165E-09         0.26077E-19         0.00000E+00
    0.86165E-09         0.30642E-19         0.00000E+00
    0.86165E-09         0.18626E-19         0.00000E+00
    0.86165E-09         0.17604E-19         0.00000E+00
    0.86165E-09         0.26077E-19         0.00000E+00
    0.86165E-09         0.14901E-19         0.00000E+00
    0.86165E-09         0.11176E-19         0.00000E+00
    0.86165E-09         0.29802E-19         0.00000E+00
    0.86165E-09         0.31665E-19         0.00000E+00
    0.86165E-09         0.18626E-19         0.00000E+00
    0.86165E-09         0.11176E-19         0.00000E+00
    0.86165E-09         0.55879E-20         0.00000E+00
    0.86165E-09         0.84010E-21         0.00000E+00
    0.86165E-09        -0.37253E-20         0.00000E+00
    0.86165E-09         0.94957E-20         0.00000E+00
    0.86165E-09         0.15924E-19         0.00000E+00
    0.86165E-09         0.64280E-20         0.00000E+00
    0.86165E-09        -0.74506E-20         0.00000E+00
    0.86165E-09        -0.11176E-19         0.00000E+00
    0.86165E-09        -0.10336E-19         0.00000E+00
    0.86165E-09        -0.94957E-20         0.00000E+00
    0.10012E-08        -0.94804E-20         0.00000E+00
    0.10012E-08        -0.74506E-20         0.00000E+00
    0.10012E-08         0.47402E-20         0.00000E+00
    0.10012E-08         0.11176E-19         0.00000E+00
    0.10012E-08         0.13039E-19         0.00000E+00
    0.10012E-08         0.19474E-19         0.00000E+00
    0.10012E-08         0.12024E-19         0.00000E+00
    0.10012E-08         0.47402E-20         0.00000E+00
    0.10012E-08         0.37253E-20         0.00000E+00
    0.10012E-08         0.64357E-20         0.00000E+00
    0.10012E-08         0.28775E-20         0.00000E+00
    0.10012E-08        -0.15749E-19         0.00000E+00
    0.10012E-08        -0.23367E-19         0.00000E+00
    0.10012E-08        -0.13039E-19         0.00000E+00
    0.10012E-08         0.38924E-20         0.00000E+00
    0.10012E-08         0.47402E-20         0.00000E+00
    0.10012E-08        -0.84655E-20         0.00000E+00
    0.10012E-08        -0.11343E-19         0.00000E+00
    0.10012E-08        -0.12191E-19         0.00000E+00
    0.10012E-08        -0.74506E-20         0.00000E+00
    0.10012E-08         0.18626E-20         0.00000E+00
    0.10012E-08        -0.74506E-20         0.00000E+00
    0.10012E-08        -0.19474E-19         0.00000E+00
    0.10012E-08        -0.13886E-19         0.00000E+00
    0.10012E-08        -0.10328E-19         0.00000E+00
    0.10012E-08        -0.74506E-20         0.00000E+00
    0.10012E-08         0.28775E-20         0.00000E+00
    0.10012E-08         0.13886E-19         0.00000E+00
    0.10012E-08         0.19474E-19         0.00000E+00
    0.10012E-08         0.22519E-19         0.00000E+00
    0.10012E-08         0.28023E-19         0.00000E+00
    0.10012E-08         0.38184E-19         0.00000E+00
    0.10012E-08         0.40978E-19         0.00000E+00
    0.10012E-08         0.34375E-19         0.00000E+00
    0.10012E-08         0.22352E-19         0.00000E+00
    0.10012E-08         0.10161E-19         0.00000E+00
    0.10012E-08         0.45730E-20         0.00000E+00
    0.10012E-08        -0.27104E-20         0.00000E+00
    0.10012E-08         0.37253E-20         0.00000E+00
    0.10012E-08         0.19474E-19         0.00000E+00
    0.10012E-08         0.16764E-19         0.00000E+00
    0.10012E-08         0.37253E-20         0.00000E+00
    0.10012E-08        -0.45730E-20         0.00000E+00
    0.10012E-08         0.28775E-20         0.00000E+00
    0.10012E-08        -0.10149E-20         0.00000E+00
    0.10012E-08        -0.39873E-34         0.00000E+00
    0.10012E-08         0.14053E-19         0.00000E+00
    0.10012E-08         0.17612E-19         0.00000E+00
    0.10012E-08         0.25062E-19         0.00000E+00
    0.10012E-08         0.22352E-19         0.00000E+00
    0.10012E-08         0.18626E-19         0.00000E+00
    0.11622E-08         0.00000E+00         0.00000E+00
    0.11622E-08         0.65940E-20         0.00000E+00
    0.11622E-08         0.18626E-20         0.00000E+00
    0.11622E-08        -0.65940E-20         0.00000E+00
    0.11622E-08         0.10060E-20         0.00000E+00
    0.11622E-08         0.10319E-19         0.00000E+00
    0.11622E-08         0.55132E-20         0.00000E+00
    0.11622E-08        -0.65193E-20         0.00000E+00
    0.11622E-08        -0.83819E-20         0.00000E+00
    0.11622E-08        -0.75253E-20         0.00000E+00
    0.11622E-08         0.00000E+00         0.00000E+00
    0.11622E-08         0.84566E-20         0.00000E+00
    0.11622E-08        -0.27193E-20         0.00000E+00
    0.11622E-08        -0.15907E-19         0.00000E+00
    0.11622E-08        -0.55132E-20         0.00000E+00
    0.11622E-08        -0.27940E-20         0.00000E+00
    0.11622E-08        -0.38747E-20         0.00000E+00
    0.11622E-08        -0.14901E-19         0.00000E+00
    0.11622E-08        -0.24214E-19         0.00000E+00
    0.11622E-08        -0.18626E-19         0.00000E+00
    0.11622E-08        -0.13895E-19         0.00000E+00
    0.11622E-08        -0.13895E-19         0.00000E+00
    0.11622E-08        -0.12182E-19         0.00000E+00
    0.11622E-08        -0.12107E-19         0.00000E+00
    0.11622E-08        -0.10245E-19         0.00000E+00
    0.11622E-08         0.85662E-21         0.00000E+00
    0.11622E-08         0.18626E-20         0.00000E+00
    0.11622E-08         0.84566E-20         0.00000E+00
    0.11622E-08         0.22352E-19         0.00000E+00
    0.11622E-08         0.26934E-19         0.00000E+00
    0.11622E-08         0.20489E-19         0.00000E+00
    0.11622E-08         0.13039E-19         0.00000E+00
    0.11622E-08         0.93132E-20         0.00000E+00
    0.11622E-08         0.74506E-20         0.00000E+00
    0.11622E-08         0.00000E+00         0.00000E+00
    0.11622E-08        -0.37253E-20         0.00000E+00
    0.11622E-08         0.55879E-20         0.00000E+00
    0.11622E-08         0.24214E-19         0.00000E+00
    0.11622E-08         0.28089E-19         0.00000E+00
    0.11622E-08         0.20489E-19         0.00000E+00
    0.11622E-08         0.22202E-19         0.00000E+00
    0.11622E-08         0.17770E-19         0.00000E+00
    0.11622E-08         0.13039E-19         0.00000E+00
    0.11622E-08         0.11176E-19         0.00000E+00
    0.11622E-08         0.37253E-20         0.00000E+00
    0.11622E-08        -0.28687E-20         0.00000E+00
    0.11622E-08        -0.74506E-20         0.00000E+00
    0.11622E-08        -0.17879E-20         0.00000E+00
    0.11622E-08         0.93132E-21         0.00000E+00
    0.11622E-08        -0.47313E-20         0.00000E+00
    0.11622E-08        -0.11176E-19         0.00000E+00
    0.13475E-08        -0.54591E-20         0.00000E+00
    0.13475E-08        -0.93132E-20         0.00000E+00
    0.13475E-08        -0.28584E-20         0.00000E+00
    0.13475E-08        -0.86690E-21         0.00000E+00
    0.13475E-08        -0.45922E-20         0.00000E+00
    0.13475E-08        -0.10309E-19         0.00000E+00
    0.13475E-08        -0.47210E-20         0.00000E+00
    0.13475E-08        -0.55879E-20         0.00000E+00
    0.13475E-08        -0.12172E-19         0.00000E+00
    0.13475E-08        -0.65193E-20         0.00000E+00
    0.13475E-08        -0.16699E-19         0.00000E+00
    0.13475E-08        -0.27940E-19         0.00000E+00
    0.13475E-08        -0.18626E-19         0.00000E+00
    0.13475E-08         0.18626E-20         0.00000E+00
    0.13475E-08         0.18626E-19         0.00000E+00
    0.13475E-08         0.29802E-19         0.00000E+00
    0.13475E-08         0.22352E-19         0.00000E+00
    0.13475E-08        -0.37253E-20         0.00000E+00
    0.13475E-08        -0.11176E-19         0.00000E+00
    0.13475E-08        -0.11176E-19         0.00000E+00
    0.13475E-08        -0.16764E-19         0.00000E+00
    0.13475E-08        -0.11176E-19         0.00000E+00
    0.13475E-08        -0.93132E-20         0.00000E+00
    0.13475E-08        -0.13039E-19         0.00000E+00
    0.13475E-08        -0.16764E-19         0.00000E+00
    0.13475E-08        -0.16764E-19         0.00000E+00
    0.13475E-08        -0.37253E-20         0.00000E+00
    0.13475E-08         0.74506E-20         0.00000E+00
    0.13475E-08         0.93132E-20         0.00000E+00
    0.13475E-08         0.55879E-20         0.00000E+00
    0.13475E-08        -0.18626E-20         0.00000E+00
    0.13475E-08         0.64426E-22         0.00000E+00
    0.13475E-08         0.10245E-19         0.00000E+00
    0.13475E-08         0.22352E-19         0.00000E+00
    0.13475E-08         0.20489E-19         0.00000E+00
    0.13475E-08         0.10180E-19         0.00000E+00
    0.13475E-08        -0.18626E-20         0.00000E+00
    0.13475E-08        -0.86690E-21         0.00000E+00
    0.13475E-08         0.74506E-20         0.00000E+00
    0.13475E-08         0.12043E-19         0.00000E+00
    0.13475E-08         0.10309E-19         0.00000E+00
    0.13475E-08         0.13039E-19         0.00000E+00
    0.13475E-08         0.17631E-19         0.00000E+00
    0.13475E-08         0.55879E-20         0.00000E+00
    0.13475E-08        -0.93132E-20         0.00000E+00
    0.13475E-08        -0.86690E-21         0.00000E+00
    0.13475E-08         0.18626E-19         0.00000E+00
    0.13475E-08         0.21356E-19         0.00000E+00
    0.13475E-08         0.15897E-19         0.00000E+00
    0.13475E-08         0.12043E-19         0.00000E+00
    0.13475E-08         0.71929E-20         0.00000E+00
    0.15608E-08         0.74506E-20         0.00000E+00
    0.15608E-08         0.27414E-20         0.00000E+00
    0.15608E-08        -0.13039E-19         0.00000E+00
    0.15608E-08        -0.64667E-20         0.00000E+00
    0.15608E-08         0.13091E-19         0.00000E+00
    0.15608E-08         0.12107E-19         0.00000E+00
    0.15608E-08        -0.47091E-20         0.00000E+00
    0.15608E-08        -0.18626E-19         0.00000E+00
    0.15608E-08        -0.37253E-20         0.00000E+00
    0.15608E-08        -0.37253E-20         0.00000E+00
    0.15608E-08        -0.37253E-20         0.00000E+00
    0.15608E-08         0.55879E-20         0.00000E+00
    0.15608E-08         0.37253E-20         0.00000E+00
    0.15608E-08         0.12160E-19         0.00000E+00
    0.15608E-08         0.16764E-19         0.00000E+00
    0.15608E-08        -0.84344E-20         0.00000E+00
    0.15608E-08        -0.24214E-19         0.00000E+00
    0.15608E-08        -0.93132E-20         0.00000E+00
    0.15608E-08        -0.98385E-21         0.00000E+00
    0.15608E-08        -0.37253E-20         0.00000E+00
    0.15608E-08         0.98385E-21         0.00000E+00
    0.15608E-08         0.65718E-20         0.00000E+00
    0.15608E-08         0.37253E-20         0.00000E+00
    0.15608E-08        -0.93132E-20         0.00000E+00
    0.15608E-08        -0.46566E-20         0.00000E+00
    0.15608E-08         0.73981E-20         0.00000E+00
    0.15608E-08         0.00000E+00         0.00000E+00
    0.15608E-08        -0.13917E-19         0.00000E+00
    0.15608E-08        -0.18626E-20         0.00000E+00
    0.15608E-08         0.10192E-19         0.00000E+00
    0.15608E-08         0.18626E-19         0.00000E+00
    0.15608E-08         0.27940E-19         0.00000E+00
    0.15608E-08         0.16764E-19         0.00000E+00
    0.15608E-08         0.11176E-19         0.00000E+00
    0.15608E-08         0.13039E-19         0.00000E+00
    0.15608E-08         0.37253E-20         0.00000E+00
    0.15608E-08        -0.37253E-20         0.00000E+00
    0.15608E-08        -0.14901E-19         0.00000E+00
    0.15608E-08        -0.13039E-19         0.00000E+00
    0.15608E-08        -0.55879E-20         0.00000E+00
    0.15608E-08        -0.74506E-20         0.00000E+00
    0.15608E-08        -0.74506E-20         0.00000E+00
    0.15608E-08        -0.74506E-20         0.00000E+00
    0.15608E-08         0.18626E-20         0.00000E+00
    0.15608E-08         0.93132E-20         0.00000E+00
    0.15608E-08         0.55879E-20         0.00000E+00
    0.15608E-08         0.18626E-20         0.00000E+00
    0.15608E-08         0.11176E-19         0.00000E+00
    0.15608E-08         0.18626E-19         0.00000E+00
    0.15608E-08         0.64667E-20         0.00000E+00
    0.15608E-08         0.17576E-20         0.00000E+00
    0.18057E-08        -0.11176E-19         0.00000E+00
    0.18057E-08        -0.37253E-20         0.00000E+00
    0.18057E-08         0.12146E-19         0.00000E+00
    0.18057E-08         0.22352E-19         0.00000E+00
    0.18057E-08         0.11176E-19         0.00000E+00
    0.18057E-08         0.18626E-20         0.00000E+00
    0.18057E-08         0.13931E-19         0.00000E+00
    0.18057E-08         0.13039E-19         0.00000E+00
    0.18057E-08         0.28327E-20         0.00000E+00
    0.18057E-08         0.74506E-20         0.00000E+00
    0.18057E-08         0.17656E-19         0.00000E+00
    0.18057E-08         0.17656E-19         0.00000E+00
    0.18057E-08         0.14901E-19         0.00000E+00
    0.18057E-08         0.84207E-20         0.00000E+00
    0.18057E-08         0.00000E+00         0.00000E+00
    0.18057E-08         0.64805E-20         0.00000E+00
    0.18057E-08         0.18626E-19         0.00000E+00
    0.18057E-08         0.16764E-19         0.00000E+00
    0.18057E-08         0.93132E-20         0.00000E+00
    0.18057E-08         0.10283E-19         0.00000E+00
    0.18057E-08        -0.37253E-20         0.00000E+00
    0.18057E-08        -0.20489E-19         0.00000E+00
    0.18057E-08        -0.13039E-19         0.00000E+00
    0.18057E-08         0.65580E-20         0.00000E+00
    0.18057E-08         0.10245E-19         0.00000E+00
    0.18057E-08         0.36865E-20         0.00000E+00
    0.18057E-08         0.00000E+00         0.00000E+00
    0.18057E-08         0.18626E-20         0.00000E+00
    0.18057E-08        -0.18626E-20         0.00000E+00
    0.18057E-08        -0.18626E-20         0.00000E+00
    0.18057E-08         0.74506E-20         0.00000E+00
    0.18057E-08         0.18626E-20         0.00000E+00
    0.18057E-08        -0.18626E-20         0.00000E+00
    0.18057E-08         0.64805E-20         0.00000E+00
    0.18057E-08         0.13039E-19         0.00000E+00
    0.18057E-08         0.10206E-19         0.00000E+00
    0.18057E-08         0.18626E-20         0.00000E+00
    0.18057E-08         0.56655E-20         0.00000E+00
    0.18057E-08         0.28327E-20         0.00000E+00
    0.18057E-08        -0.66204E-34         0.00000E+00
    0.18057E-08        -0.97009E-21         0.00000E+00
    0.18057E-08        -0.93132E-20         0.00000E+00
    0.18057E-08        -0.83431E-20         0.00000E+00
    0.18057E-08        -0.13039E-19         0.00000E+00
    0.18057E-08        -0.13039E-19         0.00000E+00
    0.18057E-08         0.27940E-20         0.00000E+00
    0.18057E-08        -0.27940E-20         0.00000E+00
    0.18057E-08        -0.13039E-19         0.00000E+00
    0.18057E-08        -0.84207E-20         0.00000E+00
    0.18057E-08         0.89256E-21         0.00000E+00
    0.18057E-08         0.92357E-20         0.00000E+00
    0.20867E-08         0.37253E-20         0.00000E+00
    0.20867E-08         0.55879E-20         0.00000E+00
    0.20867E-08         0.55879E-20         0.00000E+00
    0.20867E-08         0.18626E-20         0.00000E+00
    0.20867E-08        -0.37253E-20         0.00000E+00
    0.20867E-08         0.00000E+00         0.00000E+00
    0.20867E-08         0.18626E-20         0.00000E+00
    0.20867E-08         0.37253E-20         0.00000E+00
    0.20867E-08         0.24214E-19         0.00000E+00
    0.20867E-08         0.31665E-19         0.00000E+00
    0.20867E-08         0.18626E-19         0.00000E+00
    0.20867E-08         0.74506E-20         0.00000E+00
    0.20867E-08         0.93132E-20         0.00000E+00
    0.20867E-08         0.16764E-19         0.00000E+00
    0.20867E-08         0.13039E-19         0.00000E+00
    0.20867E-08         0.37253E-20         0.00000E+00
    0.20867E-08        -0.74506E-20         0.00000E+00
    0.20867E-08        -0.37253E-20         0.00000E+00
    0.20867E-08         0.00000E+00         0.00000E+00
    0.20867E-08        -0.93132E-20         0.00000E+00
    0.20867E-08        -0.74506E-20         0.00000E+00
    0.20867E-08        -0.18626E-20         0.00000E+00
    0.20867E-08        -0.14901E-19         0.00000E+00
    0.20867E-08        -0.24214E-19         0.00000E+00
    0.20867E-08        -0.74506E-20         0.00000E+00
    0.20867E-08         0.00000E+00         0.00000E+00
    0.20867E-08         0.18626E-20         0.00000E+00
    0.20867E-08         0.74506E-20         0.00000E+00
    0.20867E-08         0.13039E-19         0.00000E+00
    0.20867E-08         0.14855E-19         0.00000E+00
    0.20867E-08         0.55422E-20         0.00000E+00
    0.20867E-08         0.75421E-20         0.00000E+00
    0.20867E-08         0.74963E-20         0.00000E+00
    0.20867E-08         0.55422E-20         0.00000E+00
    0.20867E-08        -0.74506E-20         0.00000E+00
    0.20867E-08        -0.93132E-20         0.00000E+00
    0.20867E-08         0.37253E-20         0.00000E+00
    0.20867E-08         0.74506E-20         0.00000E+00
    0.20867E-08         0.11176E-19         0.00000E+00
    0.20867E-08         0.37253E-20         0.00000E+00
    0.20867E-08        -0.18626E-20         0.00000E+00
    0.20867E-08         0.18626E-20         0.00000E+00
    0.20867E-08        -0.11176E-19         0.00000E+00
    0.20867E-08        -0.16810E-19         0.00000E+00
    0.20867E-08        -0.93132E-20         0.00000E+00
    0.20867E-08        -0.92675E-20         0.00000E+00
    0.20867E-08        -0.74506E-20         0.00000E+00
    0.20867E-08        -0.18626E-20         0.00000E+00
    0.20867E-08        -0.37253E-20         0.00000E+00
    0.20867E-08        -0.74506E-20         0.00000E+00
    0.20867E-08        -0.74506E-20         0.00000E+00
    0.24085E-08         0.00000E+00         0.00000E+00
    0.24085E-08        -0.37253E-20         0.00000E+00
    0.24085E-08        -0.55879E-20         0.00000E+00
    0.24085E-08         0.37253E-20         0.00000E+00
    0.24085E-08         0.11176E-19         0.00000E+00
    0.24085E-08         0.74506E-20         0.00000E+00
    0.24085E-08         0.37253E-20         0.00000E+00
    0.24085E-08         0.93132E-20         0.00000E+00
    0.24085E-08         0.55879E-20         0.00000E+00
    0.24085E-08        -0.83910E-20         0.00000E+00
    0.24085E-08        -0.46566E-20         0.00000E+00
    0.24085E-08        -0.55789E-20         0.00000E+00
    0.24085E-08        -0.15842E-19         0.00000E+00
    0.24085E-08        -0.21411E-19         0.00000E+00
    0.24085E-08        -0.18617E-19         0.00000E+00
    0.24085E-08        -0.90755E-23         0.00000E+00
    0.24085E-08         0.20489E-19         0.00000E+00
    0.24085E-08         0.13039E-19         0.00000E+00
    0.24085E-08        -0.18717E-20         0.00000E+00
    0.24085E-08         0.18536E-20         0.00000E+00
    0.24085E-08         0.55970E-20         0.00000E+00
    0.24085E-08         0.90755E-23         0.00000E+00
    0.24085E-08         0.37253E-20         0.00000E+00
    0.24085E-08         0.00000E+00         0.00000E+00
    0.24085E-08        -0.11176E-19         0.00000E+00
    0.24085E-08        -0.37253E-20         0.00000E+00
    0.24085E-08         0.18626E-20         0.00000E+00
    0.24085E-08         0.74506E-20         0.00000E+00
    0.24085E-08         0.14901E-19         0.00000E+00
    0.24085E-08         0.93042E-20         0.00000E+00
    0.24085E-08        -0.18717E-20         0.00000E+00
    0.24085E-08        -0.10226E-19         0.00000E+00
    0.24085E-08        -0.83819E-20         0.00000E+00
    0.24085E-08         0.93042E-20         0.00000E+00
    0.24085E-08         0.93223E-20         0.00000E+00
    0.24085E-08        -0.18717E-20         0.00000E+00
    0.24085E-08        -0.93132E-20         0.00000E+00
    0.24085E-08         0.37344E-20         0.00000E+00
    0.24085E-08         0.16764E-19         0.00000E+00
    0.24085E-08         0.16764E-19         0.00000E+00
    0.24085E-08         0.55879E-20         0.00000E+00
    0.24085E-08        -0.11185E-19         0.00000E+00
    0.24085E-08        -0.37253E-20         0.00000E+00
    0.24085E-08         0.55970E-20         0.00000E+00
    0.24085E-08         0.00000E+00         0.00000E+00
    0.24085E-08        -0.37253E-20         0.00000E+00
    0.24085E-08        -0.37253E-20         0.00000E+00
    0.24085E-08        -0.55879E-20         0.00000E+00
    0.24085E-08         0.37253E-20         0.00000E+00
    0.24085E-08         0.74506E-20         0.00000E+00
    0.24085E-08         0.00000E+00         0.00000E+00
    0.27765E-08        -0.11110E-19         0.00000E+00
    0.27765E-08        -0.12107E-19         0.00000E+00
    0.27765E-08         0.27608E-20         0.00000E+00
    0.27765E-08         0.22352E-19         0.00000E+00
    0.27765E-08         0.33561E-19         0.00000E+00
    0.27765E-08         0.17695E-19         0.00000E+00
    0.27765E-08         0.89815E-21         0.00000E+00
    0.27765E-08        -0.74506E-20         0.00000E+00
    0.27765E-08        -0.37253E-20         0.00000E+00
    0.27765E-08         0.74506E-20         0.00000E+00
    0.27765E-08         0.74506E-20         0.00000E+00
    0.27765E-08         0.00000E+00         0.00000E+00
    0.27765E-08        -0.11176E-19         0.00000E+00
    0.27765E-08        -0.14901E-19         0.00000E+00
    0.27765E-08        -0.11176E-19         0.00000E+00
    0.27765E-08        -0.18626E-20         0.00000E+00
    0.27765E-08        -0.18626E-20         0.00000E+00
    0.27765E-08        -0.12074E-19         0.00000E+00
    0.27765E-08        -0.46234E-20         0.00000E+00
    0.27765E-08         0.83487E-20         0.00000E+00
    0.27765E-08         0.83487E-20         0.00000E+00
    0.27765E-08         0.55879E-20         0.00000E+00
    0.27765E-08         0.74506E-20         0.00000E+00
    0.27765E-08         0.37253E-20         0.00000E+00
    0.27765E-08        -0.18626E-20         0.00000E+00
    0.27765E-08        -0.74506E-20         0.00000E+00
    0.27765E-08        -0.11176E-19         0.00000E+00
    0.27765E-08        -0.93132E-20         0.00000E+00
    0.27765E-08        -0.11176E-19         0.00000E+00
    0.27765E-08        -0.37253E-20         0.00000E+00
    0.27765E-08         0.93132E-20         0.00000E+00
    0.27765E-08         0.11176E-19         0.00000E+00
    0.27765E-08         0.93132E-20         0.00000E+00
    0.27765E-08        -0.37253E-20         0.00000E+00
    0.27765E-08        -0.93132E-20         0.00000E+00
    0.27765E-08        -0.55879E-20         0.00000E+00
    0.27765E-08        -0.74506E-20         0.00000E+00
    0.27765E-08        -0.14901E-19         0.00000E+00
    0.27765E-08        -0.74506E-20         0.00000E+00
    0.27765E-08         0.37253E-20         0.00000E+00
    0.27765E-08         0.74506E-20         0.00000E+00
    0.27765E-08         0.13072E-19         0.00000E+00
    0.27765E-08         0.14901E-19         0.00000E+00
    0.27765E-08         0.74174E-20         0.00000E+00
    0.27765E-08         0.18958E-20         0.00000E+00
    0.27765E-08         0.37253E-20         0.00000E+00
    0.27765E-08        -0.18958E-20         0.00000E+00
    0.27765E-08        -0.11176E-19         0.00000E+00
    0.27765E-08        -0.15799E-19         0.00000E+00
    0.27765E-08        -0.13970E-19         0.00000E+00
    0.27765E-08        -0.75169E-20         0.00000E+00
    0.31967E-08         0.37253E-20         0.00000E+00
    0.31967E-08         0.18626E-20         0.00000E+00
    0.31967E-08         0.00000E+00         0.00000E+00
    0.31967E-08        -0.55879E-20         0.00000E+00
    0.31967E-08        -0.12025E-19         0.00000E+00
    0.31967E-08         0.27940E-20         0.00000E+00
    0.31967E-08         0.55062E-20         0.00000E+00
    0.31967E-08         0.93132E-20         0.00000E+00
    0.31967E-08         0.13039E-19         0.00000E+00
    0.31967E-08         0.37253E-20         0.00000E+00
    0.31967E-08        -0.11176E-19         0.00000E+00
    0.31967E-08        -0.18626E-19         0.00000E+00
    0.31967E-08        -0.14901E-19         0.00000E+00
    0.31967E-08        -0.18626E-19         0.00000E+00
    0.31967E-08        -0.14901E-19         0.00000E+00
    0.31967E-08        -0.74506E-20         0.00000E+00
    0.31967E-08         0.93132E-20         0.00000E+00
    0.31967E-08         0.13039E-19         0.00000E+00
    0.31967E-08         0.74506E-20         0.00000E+00
    0.31967E-08         0.11176E-19         0.00000E+00
    0.31967E-08         0.74506E-20         0.00000E+00
    0.31967E-08         0.11176E-19         0.00000E+00
    0.31967E-08         0.11176E-19         0.00000E+00
    0.31967E-08         0.00000E+00         0.00000E+00
    0.31967E-08        -0.74506E-20         0.00000E+00
    0.31967E-08        -0.18626E-20         0.00000E+00
    0.31967E-08        -0.18626E-20         0.00000E+00
    0.31967E-08        -0.11176E-19         0.00000E+00
    0.31967E-08        -0.93132E-20         0.00000E+00
    0.31967E-08        -0.37253E-20         0.00000E+00
    0.31967E-08         0.37253E-20         0.00000E+00
    0.31967E-08         0.74506E-20         0.00000E+00
    0.31967E-08         0.37253E-20         0.00000E+00
    0.31967E-08        -0.37253E-20         0.00000E+00
    0.31967E-08        -0.11176E-19         0.00000E+00
    0.31967E-08        -0.18626E-19         0.00000E+00
    0.31967E-08        -0.14901E-19         0.00000E+00
    0.31967E-08        -0.55879E-20         0.00000E+00
    0.31967E-08        -0.93132E-20         0.00000E+00
    0.31967E-08        -0.13039E-19         0.00000E+00
    0.31967E-08        -0.55879E-20         0.00000E+00
    0.31967E-08         0.00000E+00         0.00000E+00
    0.31967E-08         0.00000E+00         0.00000E+00
    0.31967E-08         0.56697E-20         0.00000E+00
    0.31967E-08         0.74506E-20         0.00000E+00
    0.31967E-08         0.55062E-20         0.00000E+00
    0.31967E-08         0.38071E-20         0.00000E+00
    0.31967E-08        -0.55062E-20         0.00000E+00
    0.31967E-08        -0.18626E-20         0.00000E+00
    0.31967E-08         0.36435E-20         0.00000E+00
    0.31967E-08        -0.16356E-21         0.00000E+00
    0.36756E-08        -0.34500E-20         0.00000E+00
    0.36756E-08        -0.55879E-20         0.00000E+00
    0.36756E-08        -0.15039E-19         0.00000E+00
    0.36756E-08        -0.16764E-19         0.00000E+00
    0.36756E-08         0.10690E-20         0.00000E+00
    0.36756E-08        -0.18626E-20         0.00000E+00
    0.36756E-08        -0.93132E-20         0.00000E+00
    0.36756E-08         0.37253E-20         0.00000E+00
    0.36756E-08        -0.10058E-32         0.00000E+00
    0.36756E-08         0.37253E-20         0.00000E+00
    0.36756E-08        -0.46566E-20         0.00000E+00
    0.36756E-08        -0.11176E-19         0.00000E+00
    0.36756E-08        -0.94509E-20         0.00000E+00
    0.36756E-08        -0.14901E-19         0.00000E+00
    0.36756E-08        -0.14901E-19         0.00000E+00
    0.36756E-08        -0.55879E-20         0.00000E+00
    0.36756E-08        -0.37253E-20         0.00000E+00
    0.36756E-08        -0.11176E-19         0.00000E+00
    0.36756E-08        -0.11038E-19         0.00000E+00
    0.36756E-08        -0.37253E-20         0.00000E+00
    0.36756E-08        -0.38629E-20         0.00000E+00
    0.36756E-08        -0.93132E-20         0.00000E+00
    0.36756E-08        -0.74506E-20         0.00000E+00
    0.36756E-08         0.55879E-20         0.00000E+00
    0.36756E-08         0.18626E-19         0.00000E+00
    0.36756E-08         0.11176E-19         0.00000E+00
    0.36756E-08        -0.18626E-20         0.00000E+00
    0.36756E-08        -0.18626E-20         0.00000E+00
    0.36756E-08        -0.55879E-20         0.00000E+00
    0.36756E-08         0.00000E+00         0.00000E+00
    0.36756E-08         0.74506E-20         0.00000E+00
    0.36756E-08         0.93132E-20         0.00000E+00
    0.36756E-08         0.55879E-20         0.00000E+00
    0.36756E-08         0.55879E-20         0.00000E+00
    0.36756E-08         0.16764E-19         0.00000E+00
    0.36756E-08         0.74506E-20         0.00000E+00
    0.36756E-08        -0.18626E-20         0.00000E+00
    0.36756E-08         0.00000E+00         0.00000E+00
    0.36756E-08        -0.11176E-19         0.00000E+00
    0.36756E-08        -0.14901E-19         0.00000E+00
    0.36756E-08        -0.55879E-20         0.00000E+00
    0.36756E-08        -0.18626E-20         0.00000E+00
    0.36756E-08        -0.73129E-20         0.00000E+00
    0.36756E-08        -0.93132E-20         0.00000E+00
    0.36756E-08        -0.13764E-21         0.00000E+00
    0.36756E-08         0.55879E-20         0.00000E+00
    0.36756E-08         0.94509E-20         0.00000E+00
    0.36756E-08         0.18626E-19         0.00000E+00
    0.36756E-08         0.91756E-20         0.00000E+00
    0.36756E-08        -0.18626E-20         0.00000E+00
    0.36756E-08         0.00000E+00         0.00000E+00
    0.42207E-08         0.41288E-20         0.00000E+00
    0.42207E-08         0.20644E-20         0.00000E+00
    0.42207E-08        -0.74506E-20         0.00000E+00
    0.42207E-08        -0.95150E-20         0.00000E+00
    0.42207E-08         0.55879E-20         0.00000E+00
    0.42207E-08         0.15832E-19         0.00000E+00
    0.42207E-08         0.65193E-20         0.00000E+00
    0.42207E-08         0.39270E-20         0.00000E+00
    0.42207E-08         0.35236E-20         0.00000E+00
    0.42207E-08         0.72488E-20         0.00000E+00
    0.42207E-08         0.74506E-20         0.00000E+00
    0.42207E-08         0.20174E-21         0.00000E+00
    0.42207E-08         0.37253E-20         0.00000E+00
    0.42207E-08         0.35236E-20         0.00000E+00
    0.42207E-08        -0.55879E-20         0.00000E+00
    0.42207E-08        -0.10974E-19         0.00000E+00
    0.42207E-08        -0.74506E-20         0.00000E+00
    0.42207E-08        -0.74506E-20         0.00000E+00
    0.42207E-08        -0.14699E-19         0.00000E+00
    0.42207E-08        -0.18828E-19         0.00000E+00
    0.42207E-08        -0.13240E-19         0.00000E+00
    0.42207E-08        -0.37253E-20         0.00000E+00
    0.42207E-08        -0.18626E-20         0.00000E+00
    0.42207E-08        -0.93132E-20         0.00000E+00
    0.42207E-08        -0.14901E-19         0.00000E+00
    0.42207E-08        -0.93132E-20         0.00000E+00
    0.42207E-08        -0.37253E-20         0.00000E+00
    0.42207E-08         0.37253E-20         0.00000E+00
    0.42207E-08         0.16034E-19         0.00000E+00
    0.42207E-08         0.17695E-19         0.00000E+00
    0.42207E-08         0.18626E-20         0.00000E+00
    0.42207E-08        -0.65193E-20         0.00000E+00
    0.42207E-08        -0.83819E-20         0.00000E+00
    0.42207E-08         0.18626E-20         0.00000E+00
    0.42207E-08         0.12837E-19         0.00000E+00
    0.42207E-08         0.12309E-19         0.00000E+00
    0.42207E-08         0.85836E-20         0.00000E+00
    0.42207E-08         0.11176E-19         0.00000E+00
    0.42207E-08         0.53862E-20         0.00000E+00
    0.42207E-08        -0.15103E-19         0.00000E+00
    0.42207E-08        -0.20489E-19         0.00000E+00
    0.42207E-08        -0.11176E-19         0.00000E+00
    0.42207E-08         0.18626E-20         0.00000E+00
    0.42207E-08         0.16764E-19         0.00000E+00
    0.42207E-08         0.14901E-19         0.00000E+00
    0.42207E-08         0.95150E-20         0.00000E+00
    0.42207E-08         0.74506E-20         0.00000E+00
    0.42207E-08         0.13039E-19         0.00000E+00
    0.42207E-08         0.12309E-19         0.00000E+00
    0.42207E-08         0.63175E-20         0.00000E+00
    0.42207E-08         0.12635E-19         0.00000E+00
    0.48398E-08        -0.55039E-21         0.00000E+00
    0.48398E-08         0.00000E+00         0.00000E+00
    0.48398E-08        -0.15875E-20         0.00000E+00
    0.48398E-08        -0.40005E-20         0.00000E+00
    0.48398E-08         0.37253E-20         0.00000E+00
    0.48398E-08         0.13314E-19         0.00000E+00
    0.48398E-08         0.18626E-19         0.00000E+00
    0.48398E-08         0.16764E-19         0.00000E+00
    0.48398E-08         0.10901E-19         0.00000E+00
    0.48398E-08         0.12763E-19         0.00000E+00
    0.48398E-08         0.49318E-20         0.00000E+00
    0.48398E-08         0.37253E-20         0.00000E+00
    0.48398E-08        -0.93132E-21         0.00000E+00
    0.48398E-08        -0.14901E-19         0.00000E+00
    0.48398E-08        -0.77258E-20         0.00000E+00
    0.48398E-08        -0.37253E-20         0.00000E+00
    0.48398E-08        -0.74506E-20         0.00000E+00
    0.48398E-08         0.27519E-21         0.00000E+00
    0.48398E-08         0.27519E-21         0.00000E+00
    0.48398E-08        -0.18626E-20         0.00000E+00
    0.48398E-08        -0.27519E-21         0.00000E+00
    0.48398E-08         0.53127E-20         0.00000E+00
    0.48398E-08         0.00000E+00         0.00000E+00
    0.48398E-08        -0.74506E-20         0.00000E+00
    0.48398E-08        -0.99694E-20         0.00000E+00
    0.48398E-08        -0.46566E-20         0.00000E+00
    0.48398E-08        -0.21378E-20         0.00000E+00
    0.48398E-08        -0.37253E-20         0.00000E+00
    0.48398E-08         0.00000E+00         0.00000E+00
    0.48398E-08         0.74506E-20         0.00000E+00
    0.48398E-08         0.13039E-19         0.00000E+00
    0.48398E-08         0.55879E-20         0.00000E+00
    0.48398E-08         0.00000E+00         0.00000E+00
    0.48398E-08        -0.15875E-20         0.00000E+00
    0.48398E-08        -0.27940E-20         0.00000E+00
    0.48398E-08         0.43814E-20         0.00000E+00
    0.48398E-08         0.10520E-19         0.00000E+00
    0.48398E-08         0.55879E-20         0.00000E+00
    0.48398E-08         0.46566E-20         0.00000E+00
    0.48398E-08        -0.74506E-20         0.00000E+00
    0.48398E-08        -0.10245E-19         0.00000E+00
    0.48398E-08        -0.93132E-21         0.00000E+00
    0.48398E-08        -0.58631E-20         0.00000E+00
    0.48398E-08        -0.62441E-20         0.00000E+00
    0.48398E-08         0.74506E-20         0.00000E+00
    0.48398E-08         0.81067E-20         0.00000E+00
    0.48398E-08         0.30692E-20         0.00000E+00
    0.48398E-08         0.16764E-19         0.00000E+00
    0.48398E-08         0.15557E-19         0.00000E+00
    0.48398E-08         0.30692E-20         0.00000E+00
    0.48398E-08        -0.13123E-20         0.00000E+00
    0.55418E-08         0.00000E+00         0.00000E+00
    0.55418E-08         0.61600E-20         0.00000E+00
    0.55418E-08         0.13039E-19         0.00000E+00
    0.55418E-08         0.21780E-19         0.00000E+00
    0.55418E-08         0.18626E-19         0.00000E+00
    0.55418E-08         0.18626E-19         0.00000E+00
    0.55418E-08         0.22352E-19         0.00000E+00
    0.55418E-08         0.29443E-19         0.00000E+00
    0.55418E-08         0.33528E-19         0.00000E+00
    0.55418E-08         0.24214E-19         0.00000E+00
    0.55418E-08         0.10817E-19         0.00000E+00
    0.55418E-08         0.18626E-20         0.00000E+00
    0.55418E-08        -0.18626E-20         0.00000E+00
    0.55418E-08         0.74506E-20         0.00000E+00
    0.55418E-08         0.50159E-20         0.00000E+00
    0.55418E-08        -0.15832E-19         0.00000E+00
    0.55418E-08        -0.17695E-19         0.00000E+00
    0.55418E-08        -0.13611E-19         0.00000E+00
    0.55418E-08        -0.14901E-19         0.00000E+00
    0.55418E-08        -0.13039E-19         0.00000E+00
    0.55418E-08        -0.35925E-21         0.00000E+00
    0.55418E-08         0.70913E-20         0.00000E+00
    0.55418E-08         0.00000E+00         0.00000E+00
    0.55418E-08        -0.37253E-20         0.00000E+00
    0.55418E-08         0.12906E-20         0.00000E+00
    0.55418E-08         0.46566E-20         0.00000E+00
    0.55418E-08         0.10817E-19         0.00000E+00
    0.55418E-08         0.11535E-19         0.00000E+00
    0.55418E-08         0.55879E-20         0.00000E+00
    0.55418E-08         0.13970E-19         0.00000E+00
    0.55418E-08         0.17695E-19         0.00000E+00
    0.55418E-08         0.70913E-20         0.00000E+00
    0.55418E-08        -0.52287E-20         0.00000E+00
    0.55418E-08        -0.18626E-19         0.00000E+00
    0.55418E-08        -0.59472E-20         0.00000E+00
    0.55418E-08         0.50159E-20         0.00000E+00
    0.55418E-08         0.65193E-20         0.00000E+00
    0.55418E-08         0.10245E-19         0.00000E+00
    0.55418E-08         0.50159E-20         0.00000E+00
    0.55418E-08        -0.35925E-21         0.00000E+00
    0.55418E-08        -0.46566E-20         0.00000E+00
    0.55418E-08        -0.24347E-20         0.00000E+00
    0.55418E-08         0.11176E-19         0.00000E+00
    0.55418E-08         0.19199E-19         0.00000E+00
    0.55418E-08         0.15473E-19         0.00000E+00
    0.55418E-08         0.93132E-20         0.00000E+00
    0.55418E-08         0.96725E-20         0.00000E+00
    0.55418E-08         0.13039E-19         0.00000E+00
    0.55418E-08         0.65193E-20         0.00000E+00
    0.55418E-08        -0.24347E-20         0.00000E+00
    0.55418E-08         0.00000E+00         0.00000E+00
    0.63363E-08         0.00000E+00         0.00000E+00
    0.63363E-08         0.00000E+00         0.00000E+00
    0.63363E-08         0.32700E-20         0.00000E+00
    0.63363E-08         0.74506E-20         0.00000E+00
    0.63363E-08         0.11631E-19         0.00000E+00
    0.63363E-08         0.16764E-19         0.00000E+00
    0.63363E-08         0.26077E-19         0.00000E+00
    0.63363E-08         0.26077E-19         0.00000E+00
    0.63363E-08         0.16764E-19         0.00000E+00
    0.63363E-08         0.13039E-19         0.00000E+00
    0.63363E-08         0.97893E-20         0.00000E+00
    0.63363E-08         0.93132E-20         0.00000E+00
    0.63363E-08         0.12562E-19         0.00000E+00
    0.63363E-08        -0.23179E-20         0.00000E+00
    0.63363E-08        -0.17695E-19         0.00000E+00
    0.63363E-08        -0.15832E-19         0.00000E+00
    0.63363E-08        -0.20944E-19         0.00000E+00
    0.63363E-08        -0.22828E-19         0.00000E+00
    0.63363E-08        -0.60640E-20         0.00000E+00
    0.63363E-08         0.18626E-20         0.00000E+00
    0.63363E-08         0.55879E-20         0.00000E+00
    0.63363E-08         0.14446E-19         0.00000E+00
    0.63363E-08         0.12583E-19         0.00000E+00
    0.63363E-08         0.37253E-20         0.00000E+00
    0.63363E-08         0.23179E-20         0.00000E+00
    0.63363E-08         0.37253E-20         0.00000E+00
    0.63363E-08        -0.45528E-21         0.00000E+00
    0.63363E-08         0.74506E-20         0.00000E+00
    0.63363E-08         0.55879E-20         0.00000E+00
    0.63363E-08         0.45528E-21         0.00000E+00
    0.63363E-08         0.97685E-20         0.00000E+00
    0.63363E-08         0.97893E-20         0.00000E+00
    0.63363E-08        -0.46566E-20         0.00000E+00
    0.63363E-08        -0.12107E-19         0.00000E+00
    0.63363E-08        -0.27940E-20         0.00000E+00
    0.63363E-08         0.45528E-21         0.00000E+00
    0.63363E-08         0.00000E+00         0.00000E+00
    0.63363E-08         0.42013E-20         0.00000E+00
    0.63363E-08         0.79266E-20         0.00000E+00
    0.63363E-08         0.23179E-20         0.00000E+00
    0.63363E-08         0.45528E-21         0.00000E+00
    0.63363E-08        -0.45528E-21         0.00000E+00
    0.63363E-08         0.69953E-20         0.00000E+00
    0.63363E-08         0.27940E-19         0.00000E+00
    0.63363E-08         0.33983E-19         0.00000E+00
    0.63363E-08         0.20944E-19         0.00000E+00
    0.63363E-08         0.13039E-19         0.00000E+00
    0.63363E-08         0.13039E-19         0.00000E+00
    0.63363E-08         0.18626E-20         0.00000E+00
    0.63363E-08         0.00000E+00         0.00000E+00
    0.63363E-08         0.74506E-20         0.00000E+00
    0.72336E-08         0.37253E-20         0.00000E+00
    0.72336E-08         0.10611E-19         0.00000E+00
    0.72336E-08         0.14336E-19         0.00000E+00
    0.72336E-08         0.42901E-20         0.00000E+00
    0.72336E-08         0.11741E-19         0.00000E+00
    0.72336E-08         0.26444E-19         0.00000E+00
    0.72336E-08         0.17130E-19         0.00000E+00
    0.72336E-08         0.80154E-20         0.00000E+00
    0.72336E-08         0.24275E-20         0.00000E+00
    0.72336E-08        -0.93132E-20         0.00000E+00
    0.72336E-08        -0.13039E-19         0.00000E+00
    0.72336E-08        -0.11176E-19         0.00000E+00
    0.72336E-08        -0.13039E-19         0.00000E+00
    0.72336E-08        -0.11176E-19         0.00000E+00
    0.72336E-08        -0.93132E-20         0.00000E+00
    0.72336E-08        -0.18626E-19         0.00000E+00
    0.72336E-08        -0.29802E-19         0.00000E+00
    0.72336E-08        -0.20489E-19         0.00000E+00
    0.72336E-08        -0.31605E-20         0.00000E+00
    0.72336E-08         0.37253E-20         0.00000E+00
    0.72336E-08         0.14336E-19         0.00000E+00
    0.72336E-08         0.22352E-19         0.00000E+00
    0.72336E-08         0.22352E-19         0.00000E+00
    0.72336E-08         0.24581E-19         0.00000E+00
    0.72336E-08         0.13039E-19         0.00000E+00
    0.72336E-08        -0.78171E-20         0.00000E+00
    0.72336E-08        -0.37253E-20         0.00000E+00
    0.72336E-08         0.18626E-20         0.00000E+00
    0.72336E-08        -0.55879E-20         0.00000E+00
    0.72336E-08        -0.74506E-20         0.00000E+00
    0.72336E-08        -0.93132E-20         0.00000E+00
    0.72336E-08        -0.93132E-20         0.00000E+00
    0.72336E-08        -0.55879E-20         0.00000E+00
    0.72336E-08        -0.55879E-20         0.00000E+00
    0.72336E-08        -0.37253E-20         0.00000E+00
    0.72336E-08         0.56484E-21         0.00000E+00
    0.72336E-08         0.93132E-20         0.00000E+00
    0.72336E-08         0.16199E-19         0.00000E+00
    0.72336E-08         0.18626E-19         0.00000E+00
    0.72336E-08         0.14901E-19         0.00000E+00
    0.72336E-08         0.15466E-19         0.00000E+00
    0.72336E-08         0.13039E-19         0.00000E+00
    0.72336E-08         0.13771E-19         0.00000E+00
    0.72336E-08         0.22352E-19         0.00000E+00
    0.72336E-08         0.21054E-19         0.00000E+00
    0.72336E-08         0.14901E-19         0.00000E+00
    0.72336E-08         0.50231E-20         0.00000E+00
    0.72336E-08         0.46566E-20         0.00000E+00
    0.72336E-08         0.89467E-20         0.00000E+00
    0.72336E-08         0.74506E-20         0.00000E+00
    0.72336E-08         0.37253E-20         0.00000E+00
    0.82449E-08         0.37253E-20         0.00000E+00
    0.82449E-08         0.55879E-20         0.00000E+00
    0.82449E-08         0.74506E-20         0.00000E+00
    0.82449E-08         0.16074E-19         0.00000E+00
    0.82449E-08         0.22352E-19         0.00000E+00
    0.82449E-08         0.17453E-19         0.00000E+00
    0.82449E-08         0.15591E-19         0.00000E+00
    0.82449E-08         0.16764E-19         0.00000E+00
    0.82449E-08         0.14212E-19         0.00000E+00
    0.82449E-08         0.55879E-20         0.00000E+00
    0.82449E-08        -0.74506E-20         0.00000E+00
    0.82449E-08        -0.13039E-19         0.00000E+00
    0.82449E-08        -0.74506E-20         0.00000E+00
    0.82449E-08        -0.62776E-20         0.00000E+00
    0.82449E-08        -0.18626E-19         0.00000E+00
    0.82449E-08        -0.36563E-19         0.00000E+00
    0.82449E-08        -0.33528E-19         0.00000E+00
    0.82449E-08        -0.14901E-19         0.00000E+00
    0.82449E-08         0.00000E+00         0.00000E+00
    0.82449E-08         0.55879E-20         0.00000E+00
    0.82449E-08         0.55879E-20         0.00000E+00
    0.82449E-08         0.19799E-19         0.00000E+00
    0.82449E-08         0.31665E-19         0.00000E+00
    0.82449E-08         0.30734E-19         0.00000E+00
    0.82449E-08         0.31665E-19         0.00000E+00
    0.82449E-08         0.19558E-19         0.00000E+00
    0.82449E-08         0.48983E-20         0.00000E+00
    0.82449E-08        -0.86236E-20         0.00000E+00
    0.82449E-08        -0.17937E-19         0.00000E+00
    0.82449E-08        -0.74506E-20         0.00000E+00
    0.82449E-08         0.18626E-20         0.00000E+00
    0.82449E-08         0.21044E-20         0.00000E+00
    0.82449E-08        -0.72089E-20         0.00000E+00
    0.82449E-08        -0.21662E-19         0.00000E+00
    0.82449E-08        -0.17937E-19         0.00000E+00
    0.82449E-08        -0.11176E-19         0.00000E+00
    0.82449E-08        -0.11176E-19         0.00000E+00
    0.82449E-08        -0.37253E-20         0.00000E+00
    0.82449E-08         0.74506E-20         0.00000E+00
    0.82449E-08         0.74506E-20         0.00000E+00
    0.82449E-08         0.55879E-20         0.00000E+00
    0.82449E-08         0.13039E-19         0.00000E+00
    0.82449E-08         0.21179E-19         0.00000E+00
    0.82449E-08         0.27250E-19         0.00000E+00
    0.82449E-08         0.23525E-19         0.00000E+00
    0.82449E-08         0.15591E-19         0.00000E+00
    0.82449E-08         0.58296E-20         0.00000E+00
    0.82449E-08         0.83819E-20         0.00000E+00
    0.82449E-08         0.10003E-19         0.00000E+00
    0.82449E-08         0.74506E-20         0.00000E+00
    0.82449E-08         0.74506E-20         0.00000E+00
    0.93824E-08         0.00000E+00         0.00000E+00
    0.93824E-08        -0.18626E-20         0.00000E+00
    0.93824E-08         0.37253E-20         0.00000E+00
    0.93824E-08         0.37253E-20         0.00000E+00
    0.93824E-08         0.93132E-20         0.00000E+00
    0.93824E-08         0.29802E-19         0.00000E+00
    0.93824E-08         0.37253E-19         0.00000E+00
    0.93824E-08         0.22252E-19         0.00000E+00
    0.93824E-08         0.13039E-19         0.00000E+00
    0.93824E-08         0.76502E-20         0.00000E+00
    0.93824E-08         0.38251E-20         0.00000E+00
    0.93824E-08         0.36255E-20         0.00000E+00
    0.93824E-08         0.54881E-20         0.00000E+00
    0.93824E-08         0.74506E-20         0.00000E+00
    0.93824E-08        -0.37253E-20         0.00000E+00
    0.93824E-08        -0.74506E-20         0.00000E+00
    0.93824E-08        -0.22352E-19         0.00000E+00
    0.93824E-08        -0.26077E-19         0.00000E+00
    0.93824E-08        -0.55879E-20         0.00000E+00
    0.93824E-08         0.37253E-20         0.00000E+00
    0.93824E-08         0.55879E-20         0.00000E+00
    0.93824E-08         0.11176E-19         0.00000E+00
    0.93824E-08         0.13039E-19         0.00000E+00
    0.93824E-08         0.13039E-19         0.00000E+00
    0.93824E-08         0.11076E-19         0.00000E+00
    0.93824E-08         0.93132E-20         0.00000E+00
    0.93824E-08         0.56878E-20         0.00000E+00
    0.93824E-08         0.74506E-20         0.00000E+00
    0.93824E-08         0.74506E-20         0.00000E+00
    0.93824E-08         0.18626E-20         0.00000E+00
    0.93824E-08         0.00000E+00         0.00000E+00
    0.93824E-08        -0.73508E-20         0.00000E+00
    0.93824E-08        -0.26077E-19         0.00000E+00
    0.93824E-08        -0.37353E-19         0.00000E+00
    0.93824E-08        -0.35390E-19         0.00000E+00
    0.93824E-08        -0.24214E-19         0.00000E+00
    0.93824E-08        -0.74506E-20         0.00000E+00
    0.93824E-08        -0.18626E-20         0.00000E+00
    0.93824E-08        -0.55879E-20         0.00000E+00
    0.93824E-08        -0.74506E-20         0.00000E+00
    0.93824E-08         0.18626E-20         0.00000E+00
    0.93824E-08         0.92134E-20         0.00000E+00
    0.93824E-08         0.14901E-19         0.00000E+00
    0.93824E-08         0.16864E-19         0.00000E+00
    0.93824E-08         0.11176E-19         0.00000E+00
    0.93824E-08         0.55879E-20         0.00000E+00
    0.93824E-08         0.55879E-20         0.00000E+00
    0.93824E-08         0.74506E-20         0.00000E+00
    0.93824E-08         0.37253E-20         0.00000E+00
    0.93824E-08        -0.99821E-22         0.00000E+00
    0.93824E-08        -0.19964E-21         0.00000E+00
    0.10659E-07         0.11176E-19         0.00000E+00
    0.10659E-07         0.93132E-20         0.00000E+00
    0.10659E-07         0.37253E-20         0.00000E+00
    0.10659E-07        -0.37253E-20         0.00000E+00
    0.10659E-07         0.93745E-20         0.00000E+00
    0.10659E-07         0.27940E-19         0.00000E+00
    0.10659E-07         0.31604E-19         0.00000E+00
    0.10659E-07         0.27878E-19         0.00000E+00
    0.10659E-07         0.22352E-19         0.00000E+00
    0.10659E-07         0.16764E-19         0.00000E+00
    0.10659E-07         0.11176E-19         0.00000E+00
    0.10659E-07         0.11237E-19         0.00000E+00
    0.10659E-07         0.14901E-19         0.00000E+00
    0.10659E-07         0.13039E-19         0.00000E+00
    0.10659E-07         0.00000E+00         0.00000E+00
    0.10659E-07        -0.12977E-19         0.00000E+00
    0.10659E-07        -0.11176E-19         0.00000E+00
    0.10659E-07        -0.93132E-20         0.00000E+00
    0.10659E-07        -0.27940E-20         0.00000E+00
    0.10659E-07         0.87008E-21         0.00000E+00
    0.10659E-07         0.18626E-20         0.00000E+00
    0.10659E-07         0.93132E-20         0.00000E+00
    0.10659E-07         0.14901E-19         0.00000E+00
    0.10659E-07         0.18626E-19         0.00000E+00
    0.10659E-07         0.15894E-19         0.00000E+00
    0.10659E-07         0.92520E-20         0.00000E+00
    0.10659E-07        -0.65805E-20         0.00000E+00
    0.10659E-07        -0.92520E-20         0.00000E+00
    0.10659E-07        -0.11176E-19         0.00000E+00
    0.10659E-07        -0.11176E-19         0.00000E+00
    0.10659E-07        -0.37253E-20         0.00000E+00
    0.10659E-07        -0.37253E-20         0.00000E+00
    0.10659E-07        -0.13039E-19         0.00000E+00
    0.10659E-07        -0.20428E-19         0.00000E+00
    0.10659E-07        -0.22352E-19         0.00000E+00
    0.10659E-07        -0.28001E-19         0.00000E+00
    0.10659E-07        -0.29802E-19         0.00000E+00
    0.10659E-07        -0.26077E-19         0.00000E+00
    0.10659E-07        -0.20489E-19         0.00000E+00
    0.10659E-07        -0.18626E-19         0.00000E+00
    0.10659E-07        -0.11176E-19         0.00000E+00
    0.10659E-07         0.18626E-20         0.00000E+00
    0.10659E-07         0.11176E-19         0.00000E+00
    0.10659E-07         0.14962E-19         0.00000E+00
    0.10659E-07         0.13039E-19         0.00000E+00
    0.10659E-07         0.73281E-20         0.00000E+00
    0.10659E-07         0.27940E-20         0.00000E+00
    0.10659E-07        -0.36641E-20         0.00000E+00
    0.10659E-07        -0.37253E-20         0.00000E+00
    0.10659E-07         0.37865E-20         0.00000E+00
    0.10659E-07         0.11298E-19         0.00000E+00
    0.12088E-07         0.00000E+00         0.00000E+00
    0.12088E-07         0.37253E-20         0.00000E+00
    0.12088E-07         0.76943E-20         0.00000E+00
    0.12088E-07         0.11420E-19         0.00000E+00
    0.12088E-07         0.20489E-19         0.00000E+00
    0.12088E-07         0.33528E-19         0.00000E+00
    0.12088E-07         0.31421E-19         0.00000E+00
    0.12088E-07         0.20933E-19         0.00000E+00
    0.12088E-07         0.26765E-19         0.00000E+00
    0.12088E-07         0.24458E-19         0.00000E+00
    0.12088E-07         0.20733E-19         0.00000E+00
    0.12088E-07         0.22352E-19         0.00000E+00
    0.12088E-07         0.20489E-19         0.00000E+00
    0.12088E-07         0.17451E-19         0.00000E+00
    0.12088E-07         0.27940E-20         0.00000E+00
    0.12088E-07        -0.72068E-20         0.00000E+00
    0.12088E-07        -0.11176E-19         0.00000E+00
    0.12088E-07        -0.62755E-20         0.00000E+00
    0.12088E-07         0.74506E-20         0.00000E+00
    0.12088E-07         0.68758E-21         0.00000E+00
    0.12088E-07        -0.55879E-20         0.00000E+00
    0.12088E-07        -0.18626E-20         0.00000E+00
    0.12088E-07         0.86256E-20         0.00000E+00
    0.12088E-07         0.65193E-20         0.00000E+00
    0.12088E-07         0.74506E-20         0.00000E+00
    0.12088E-07         0.62755E-20         0.00000E+00
    0.12088E-07         0.44129E-20         0.00000E+00
    0.12088E-07         0.42128E-20         0.00000E+00
    0.12088E-07        -0.12107E-19         0.00000E+00
    0.12088E-07        -0.12351E-19         0.00000E+00
    0.12088E-07        -0.18626E-20         0.00000E+00
    0.12088E-07        -0.74506E-20         0.00000E+00
    0.12088E-07        -0.20489E-19         0.00000E+00
    0.12088E-07        -0.35390E-19         0.00000E+00
    0.12088E-07        -0.42841E-19         0.00000E+00
    0.12088E-07        -0.35390E-19         0.00000E+00
    0.12088E-07        -0.24214E-19         0.00000E+00
    0.12088E-07        -0.22352E-19         0.00000E+00
    0.12088E-07        -0.24214E-19         0.00000E+00
    0.12088E-07        -0.22352E-19         0.00000E+00
    0.12088E-07        -0.93132E-20         0.00000E+00
    0.12088E-07         0.25502E-20         0.00000E+00
    0.12088E-07         0.11176E-19         0.00000E+00
    0.12088E-07         0.17939E-19         0.00000E+00
    0.12088E-07         0.14214E-19         0.00000E+00
    0.12088E-07         0.10488E-19         0.00000E+00
    0.12088E-07         0.55879E-20         0.00000E+00
    0.12088E-07         0.25502E-20         0.00000E+00
    0.12088E-07         0.44129E-20         0.00000E+00
    0.12088E-07        -0.68758E-21         0.00000E+00
    0.12088E-07        -0.13752E-20         0.00000E+00
    0.13684E-07         0.64883E-20         0.00000E+00
    0.13684E-07         0.65193E-20         0.00000E+00
    0.13684E-07         0.51378E-20         0.00000E+00
    0.13684E-07         0.55879E-20         0.00000E+00
    0.13684E-07         0.11626E-19         0.00000E+00
    0.13684E-07         0.30734E-19         0.00000E+00
    0.13684E-07         0.48910E-19         0.00000E+00
    0.13684E-07         0.42841E-19         0.00000E+00
    0.13684E-07         0.33978E-19         0.00000E+00
    0.13684E-07         0.27008E-19         0.00000E+00
    0.13684E-07         0.18626E-19         0.00000E+00
    0.13684E-07         0.15832E-19         0.00000E+00
    0.13684E-07         0.18176E-19         0.00000E+00
    0.13684E-07         0.14901E-19         0.00000E+00
    0.13684E-07        -0.18626E-20         0.00000E+00
    0.13684E-07        -0.74506E-20         0.00000E+00
    0.13684E-07        -0.37253E-20         0.00000E+00
    0.13684E-07        -0.74506E-20         0.00000E+00
    0.13684E-07        -0.51378E-20         0.00000E+00
    0.13684E-07        -0.37253E-20         0.00000E+00
    0.13684E-07        -0.41755E-20         0.00000E+00
    0.13684E-07         0.18626E-20         0.00000E+00
    0.13684E-07         0.55879E-20         0.00000E+00
    0.13684E-07         0.70004E-20         0.00000E+00
    0.13684E-07         0.10695E-19         0.00000E+00
    0.13684E-07         0.11176E-19         0.00000E+00
    0.13684E-07         0.14125E-20         0.00000E+00
    0.13684E-07        -0.48116E-21         0.00000E+00
    0.13684E-07        -0.93132E-20         0.00000E+00
    0.13684E-07        -0.13039E-19         0.00000E+00
    0.13684E-07        -0.74506E-20         0.00000E+00
    0.13684E-07        -0.13039E-19         0.00000E+00
    0.13684E-07        -0.26077E-19         0.00000E+00
    0.13684E-07        -0.29802E-19         0.00000E+00
    0.13684E-07        -0.26077E-19         0.00000E+00
    0.13684E-07        -0.24696E-19         0.00000E+00
    0.13684E-07        -0.24214E-19         0.00000E+00
    0.13684E-07        -0.21871E-19         0.00000E+00
    0.13684E-07        -0.22833E-19         0.00000E+00
    0.13684E-07        -0.23283E-19         0.00000E+00
    0.13684E-07        -0.13039E-19         0.00000E+00
    0.13684E-07         0.65193E-20         0.00000E+00
    0.13684E-07         0.19108E-19         0.00000E+00
    0.13684E-07         0.16764E-19         0.00000E+00
    0.13684E-07         0.12557E-19         0.00000E+00
    0.13684E-07         0.55879E-20         0.00000E+00
    0.13684E-07        -0.13815E-20         0.00000E+00
    0.13684E-07         0.00000E+00         0.00000E+00
    0.13684E-07         0.13815E-20         0.00000E+00
    0.13684E-07         0.32441E-20         0.00000E+00
    0.13684E-07         0.11176E-19         0.00000E+00
    0.15462E-07         0.37253E-20         0.00000E+00
    0.15462E-07         0.37253E-20         0.00000E+00
    0.15462E-07         0.99964E-20         0.00000E+00
    0.15462E-07         0.11859E-19         0.00000E+00
    0.15462E-07         0.18626E-19         0.00000E+00
    0.15462E-07         0.33776E-19         0.00000E+00
    0.15462E-07         0.48429E-19         0.00000E+00
    0.15462E-07         0.40978E-19         0.00000E+00
    0.15462E-07         0.28188E-19         0.00000E+00
    0.15462E-07         0.13039E-19         0.00000E+00
    0.15462E-07         0.93132E-20         0.00000E+00
    0.15462E-07         0.20489E-19         0.00000E+00
    0.15462E-07         0.26077E-19         0.00000E+00
    0.15462E-07         0.16764E-19         0.00000E+00
    0.15462E-07         0.00000E+00         0.00000E+00
    0.15462E-07        -0.37253E-20         0.00000E+00
    0.15462E-07        -0.18626E-20         0.00000E+00
    0.15462E-07        -0.86300E-20         0.00000E+00
    0.15462E-07        -0.67674E-20         0.00000E+00
    0.15462E-07        -0.90651E-20         0.00000E+00
    0.15462E-07        -0.74506E-20         0.00000E+00
    0.15462E-07        -0.24813E-21         0.00000E+00
    0.15462E-07         0.55879E-20         0.00000E+00
    0.15462E-07         0.42215E-20         0.00000E+00
    0.15462E-07         0.74506E-20         0.00000E+00
    0.15462E-07         0.44085E-20         0.00000E+00
    0.15462E-07         0.00000E+00         0.00000E+00
    0.15462E-07         0.44085E-20         0.00000E+00
    0.15462E-07        -0.44085E-20         0.00000E+00
    0.15462E-07        -0.44085E-20         0.00000E+00
    0.15462E-07        -0.37253E-20         0.00000E+00
    0.15462E-07        -0.93132E-20         0.00000E+00
    0.15462E-07        -0.24214E-19         0.00000E+00
    0.15462E-07        -0.40978E-19         0.00000E+00
    0.15462E-07        -0.37253E-19         0.00000E+00
    0.15462E-07        -0.26325E-19         0.00000E+00
    0.15462E-07        -0.11176E-19         0.00000E+00
    0.15462E-07        -0.10928E-19         0.00000E+00
    0.15462E-07        -0.14901E-19         0.00000E+00
    0.15462E-07        -0.20489E-19         0.00000E+00
    0.15462E-07        -0.93132E-20         0.00000E+00
    0.15462E-07         0.37253E-20         0.00000E+00
    0.15462E-07         0.81338E-20         0.00000E+00
    0.15462E-07         0.13970E-19         0.00000E+00
    0.15462E-07         0.10245E-19         0.00000E+00
    0.15462E-07        -0.49047E-20         0.00000E+00
    0.15462E-07        -0.55879E-20         0.00000E+00
    0.15462E-07        -0.68320E-21         0.00000E+00
    0.15462E-07        -0.62711E-20         0.00000E+00
    0.15462E-07        -0.86300E-20         0.00000E+00
    0.15462E-07        -0.60842E-20         0.00000E+00
    0.17437E-07         0.74506E-20         0.00000E+00
    0.17437E-07         0.10259E-19         0.00000E+00
    0.17437E-07         0.93132E-20         0.00000E+00
    0.17437E-07         0.13955E-19         0.00000E+00
    0.17437E-07         0.23297E-19         0.00000E+00
    0.17437E-07         0.30748E-19         0.00000E+00
    0.17437E-07         0.36307E-19         0.00000E+00
    0.17437E-07         0.37253E-19         0.00000E+00
    0.17437E-07         0.36336E-19         0.00000E+00
    0.17437E-07         0.28857E-19         0.00000E+00
    0.17437E-07         0.16764E-19         0.00000E+00
    0.17437E-07         0.10259E-19         0.00000E+00
    0.17437E-07         0.13955E-19         0.00000E+00
    0.17437E-07         0.17681E-19         0.00000E+00
    0.17437E-07         0.13039E-19         0.00000E+00
    0.17437E-07         0.46710E-20         0.00000E+00
    0.17437E-07         0.28084E-20         0.00000E+00
    0.17437E-07         0.18626E-20         0.00000E+00
    0.17437E-07         0.37253E-20         0.00000E+00
    0.17437E-07         0.27795E-20         0.00000E+00
    0.17437E-07         0.00000E+00         0.00000E+00
    0.17437E-07        -0.18626E-20         0.00000E+00
    0.17437E-07        -0.18626E-20         0.00000E+00
    0.17437E-07         0.46710E-20         0.00000E+00
    0.17437E-07         0.00000E+00         0.00000E+00
    0.17437E-07         0.18626E-20         0.00000E+00
    0.17437E-07         0.55879E-20         0.00000E+00
    0.17437E-07        -0.55879E-20         0.00000E+00
    0.17437E-07        -0.14901E-19         0.00000E+00
    0.17437E-07        -0.13984E-19         0.00000E+00
    0.17437E-07        -0.93132E-20         0.00000E+00
    0.17437E-07        -0.16764E-19         0.00000E+00
    0.17437E-07        -0.18626E-19         0.00000E+00
    0.17437E-07        -0.21406E-19         0.00000E+00
    0.17437E-07        -0.28885E-19         0.00000E+00
    0.17437E-07        -0.29802E-19         0.00000E+00
    0.17437E-07        -0.20489E-19         0.00000E+00
    0.17437E-07        -0.93132E-20         0.00000E+00
    0.17437E-07        -0.83675E-20         0.00000E+00
    0.17437E-07        -0.12122E-19         0.00000E+00
    0.17437E-07        -0.13039E-19         0.00000E+00
    0.17437E-07        -0.91689E-21         0.00000E+00
    0.17437E-07         0.65048E-20         0.00000E+00
    0.17437E-07         0.83675E-20         0.00000E+00
    0.17437E-07         0.46710E-20         0.00000E+00
    0.17437E-07         0.93132E-21         0.00000E+00
    0.17437E-07        -0.14435E-22         0.00000E+00
    0.17437E-07        -0.46422E-20         0.00000E+00
    0.17437E-07        -0.55879E-20         0.00000E+00
    0.17437E-07        -0.13166E-34         0.00000E+00
    0.17437E-07         0.93421E-20         0.00000E+00
    0.19626E-07         0.99326E-20         0.00000E+00
    0.19626E-07         0.10245E-19         0.00000E+00
    0.19626E-07         0.12729E-19         0.00000E+00
    0.19626E-07         0.77602E-20         0.00000E+00
    0.19626E-07         0.13348E-19         0.00000E+00
    0.19626E-07         0.31665E-19         0.00000E+00
    0.19626E-07         0.36943E-19         0.00000E+00
    0.19626E-07         0.28871E-19         0.00000E+00
    0.19626E-07         0.21420E-19         0.00000E+00
    0.19626E-07         0.14591E-19         0.00000E+00
    0.19626E-07         0.13039E-19         0.00000E+00
    0.19626E-07         0.18936E-19         0.00000E+00
    0.19626E-07         0.26387E-19         0.00000E+00
    0.19626E-07         0.29493E-19         0.00000E+00
    0.19626E-07         0.16454E-19         0.00000E+00
    0.19626E-07         0.40350E-20         0.00000E+00
    0.19626E-07         0.40350E-20         0.00000E+00
    0.19626E-07         0.93132E-20         0.00000E+00
    0.19626E-07         0.13039E-19         0.00000E+00
    0.19626E-07         0.13039E-19         0.00000E+00
    0.19626E-07         0.55879E-20         0.00000E+00
    0.19626E-07         0.93132E-20         0.00000E+00
    0.19626E-07         0.14901E-19         0.00000E+00
    0.19626E-07         0.52783E-20         0.00000E+00
    0.19626E-07         0.00000E+00         0.00000E+00
    0.19626E-07        -0.55879E-20         0.00000E+00
    0.19626E-07        -0.14901E-19         0.00000E+00
    0.19626E-07        -0.14591E-19         0.00000E+00
    0.19626E-07        -0.16764E-19         0.00000E+00
    0.19626E-07        -0.20799E-19         0.00000E+00
    0.19626E-07        -0.26077E-19         0.00000E+00
    0.19626E-07        -0.26077E-19         0.00000E+00
    0.19626E-07        -0.27940E-19         0.00000E+00
    0.19626E-07        -0.36943E-19         0.00000E+00
    0.19626E-07        -0.29802E-19         0.00000E+00
    0.19626E-07        -0.18626E-19         0.00000E+00
    0.19626E-07        -0.11176E-19         0.00000E+00
    0.19626E-07        -0.74506E-20         0.00000E+00
    0.19626E-07        -0.86916E-20         0.00000E+00
    0.19626E-07        -0.12417E-19         0.00000E+00
    0.19626E-07         0.00000E+00         0.00000E+00
    0.19626E-07         0.14280E-19         0.00000E+00
    0.19626E-07         0.19558E-19         0.00000E+00
    0.19626E-07         0.14591E-19         0.00000E+00
    0.19626E-07         0.10554E-19         0.00000E+00
    0.19626E-07         0.86916E-20         0.00000E+00
    0.19626E-07         0.62096E-20         0.00000E+00
    0.19626E-07         0.13660E-19         0.00000E+00
    0.19626E-07         0.68289E-20         0.00000E+00
    0.19626E-07        -0.24843E-20         0.00000E+00
    0.19626E-07         0.00000E+00         0.00000E+00
    0.22043E-07         0.98940E-20         0.00000E+00
    0.22043E-07         0.17986E-19         0.00000E+00
    0.22043E-07         0.22993E-19         0.00000E+00
    0.22043E-07         0.17405E-19         0.00000E+00
    0.22043E-07         0.22352E-19         0.00000E+00
    0.22043E-07         0.37253E-19         0.00000E+00
    0.22043E-07         0.40337E-19         0.00000E+00
    0.22043E-07         0.31665E-19         0.00000E+00
    0.22043E-07         0.32306E-19         0.00000E+00
    0.22043E-07         0.29161E-19         0.00000E+00
    0.22043E-07         0.17986E-19         0.00000E+00
    0.22043E-07         0.18626E-19         0.00000E+00
    0.22043E-07         0.22993E-19         0.00000E+00
    0.22043E-07         0.20489E-19         0.00000E+00
    0.22043E-07         0.14901E-19         0.00000E+00
    0.22043E-07         0.15542E-19         0.00000E+00
    0.22043E-07         0.14260E-19         0.00000E+00
    0.22043E-07         0.74506E-20         0.00000E+00
    0.22043E-07         0.80915E-20         0.00000E+00
    0.22043E-07         0.55879E-20         0.00000E+00
    0.22043E-07         0.37253E-20         0.00000E+00
    0.22043E-07         0.55879E-20         0.00000E+00
    0.22043E-07         0.11176E-19         0.00000E+00
    0.22043E-07         0.16123E-19         0.00000E+00
    0.22043E-07         0.74506E-20         0.00000E+00
    0.22043E-07         0.43662E-20         0.00000E+00
    0.22043E-07         0.37253E-20         0.00000E+00
    0.22043E-07        -0.37253E-20         0.00000E+00
    0.22043E-07        -0.13039E-19         0.00000E+00
    0.22043E-07        -0.14901E-19         0.00000E+00
    0.22043E-07        -0.14901E-19         0.00000E+00
    0.22043E-07        -0.21130E-19         0.00000E+00
    0.22043E-07        -0.24214E-19         0.00000E+00
    0.22043E-07        -0.24214E-19         0.00000E+00
    0.22043E-07        -0.31665E-19         0.00000E+00
    0.22043E-07        -0.38475E-19         0.00000E+00
    0.22043E-07        -0.29512E-19         0.00000E+00
    0.22043E-07        -0.14611E-19         0.00000E+00
    0.22043E-07        -0.55879E-20         0.00000E+00
    0.22043E-07        -0.11176E-19         0.00000E+00
    0.22043E-07        -0.77410E-20         0.00000E+00
    0.22043E-07         0.71602E-20         0.00000E+00
    0.22043E-07         0.16764E-19         0.00000E+00
    0.22043E-07         0.16764E-19         0.00000E+00
    0.22043E-07         0.55879E-20         0.00000E+00
    0.22043E-07         0.37253E-20         0.00000E+00
    0.22043E-07         0.00000E+00         0.00000E+00
    0.22043E-07        -0.52975E-20         0.00000E+00
    0.22043E-07        -0.52975E-20         0.00000E+00
    0.22043E-07        -0.29039E-21         0.00000E+00
    0.22043E-07         0.68698E-20         0.00000E+00
    0.24705E-07         0.37253E-20         0.00000E+00
    0.24705E-07         0.93132E-20         0.00000E+00
    0.24705E-07         0.13889E-19         0.00000E+00
    0.24705E-07         0.13039E-19         0.00000E+00
    0.24705E-07         0.15913E-19         0.00000E+00
    0.24705E-07         0.27940E-19         0.00000E+00
    0.24705E-07         0.37253E-19         0.00000E+00
    0.24705E-07         0.29802E-19         0.00000E+00
    0.24705E-07         0.22352E-19         0.00000E+00
    0.24705E-07         0.26077E-19         0.00000E+00
    0.24705E-07         0.33528E-19         0.00000E+00
    0.24705E-07         0.30653E-19         0.00000E+00
    0.24705E-07         0.26928E-19         0.00000E+00
    0.24705E-07         0.22352E-19         0.00000E+00
    0.24705E-07         0.65998E-20         0.00000E+00
    0.24705E-07        -0.45761E-20         0.00000E+00
    0.24705E-07        -0.74506E-20         0.00000E+00
    0.24705E-07         0.00000E+00         0.00000E+00
    0.24705E-07         0.16764E-19         0.00000E+00
    0.24705E-07         0.18626E-19         0.00000E+00
    0.24705E-07         0.55879E-20         0.00000E+00
    0.24705E-07         0.00000E+00         0.00000E+00
    0.24705E-07         0.55879E-20         0.00000E+00
    0.24705E-07         0.13039E-19         0.00000E+00
    0.24705E-07         0.13039E-19         0.00000E+00
    0.24705E-07         0.55879E-20         0.00000E+00
    0.24705E-07         0.18626E-20         0.00000E+00
    0.24705E-07        -0.74506E-20         0.00000E+00
    0.24705E-07        -0.27940E-19         0.00000E+00
    0.24705E-07        -0.24214E-19         0.00000E+00
    0.24705E-07        -0.13039E-19         0.00000E+00
    0.24705E-07        -0.14050E-19         0.00000E+00
    0.24705E-07        -0.16764E-19         0.00000E+00
    0.24705E-07        -0.28790E-19         0.00000E+00
    0.24705E-07        -0.33528E-19         0.00000E+00
    0.24705E-07        -0.20489E-19         0.00000E+00
    0.24705E-07        -0.55879E-20         0.00000E+00
    0.24705E-07        -0.55879E-20         0.00000E+00
    0.24705E-07        -0.93132E-20         0.00000E+00
    0.24705E-07        -0.47371E-20         0.00000E+00
    0.24705E-07         0.18626E-20         0.00000E+00
    0.24705E-07         0.93132E-20         0.00000E+00
    0.24705E-07         0.12027E-19         0.00000E+00
    0.24705E-07         0.93132E-20         0.00000E+00
    0.24705E-07         0.10325E-19         0.00000E+00
    0.24705E-07         0.28745E-20         0.00000E+00
    0.24705E-07        -0.47371E-20         0.00000E+00
    0.24705E-07         0.37253E-20         0.00000E+00
    0.24705E-07         0.28745E-20         0.00000E+00
    0.24705E-07        -0.85081E-21         0.00000E+00
    0.24705E-07         0.20237E-20         0.00000E+00
    0.27627E-07         0.74506E-20         0.00000E+00
    0.27627E-07         0.11176E-19         0.00000E+00
    0.27627E-07         0.11176E-19         0.00000E+00
    0.27627E-07         0.11176E-19         0.00000E+00
    0.27627E-07         0.20489E-19         0.00000E+00
    0.27627E-07         0.33033E-19         0.00000E+00
    0.27627E-07         0.42841E-19         0.00000E+00
    0.27627E-07         0.39116E-19         0.00000E+00
    0.27627E-07         0.26077E-19         0.00000E+00
    0.27627E-07         0.79454E-20         0.00000E+00
    0.27627E-07         0.00000E+00         0.00000E+00
    0.27627E-07         0.16764E-19         0.00000E+00
    0.27627E-07         0.29802E-19         0.00000E+00
    0.27627E-07         0.17200E-19         0.00000E+00
    0.27627E-07         0.11176E-19         0.00000E+00
    0.27627E-07         0.14465E-19         0.00000E+00
    0.27627E-07         0.14406E-19         0.00000E+00
    0.27627E-07         0.27940E-20         0.00000E+00
    0.27627E-07        -0.78871E-20         0.00000E+00
    0.27627E-07        -0.37253E-20         0.00000E+00
    0.27627E-07        -0.18626E-20         0.00000E+00
    0.27627E-07         0.00000E+00         0.00000E+00
    0.27627E-07         0.74506E-20         0.00000E+00
    0.27627E-07         0.93132E-20         0.00000E+00
    0.27627E-07         0.74506E-20         0.00000E+00
    0.27627E-07         0.10681E-19         0.00000E+00
    0.27627E-07         0.83819E-20         0.00000E+00
    0.27627E-07        -0.43649E-21         0.00000E+00
    0.27627E-07        -0.11176E-19         0.00000E+00
    0.27627E-07        -0.20489E-19         0.00000E+00
    0.27627E-07        -0.18626E-19         0.00000E+00
    0.27627E-07        -0.16764E-19         0.00000E+00
    0.27627E-07        -0.22352E-19         0.00000E+00
    0.27627E-07        -0.26077E-19         0.00000E+00
    0.27627E-07        -0.18626E-19         0.00000E+00
    0.27627E-07        -0.22352E-19         0.00000E+00
    0.27627E-07        -0.26077E-19         0.00000E+00
    0.27627E-07        -0.16764E-19         0.00000E+00
    0.27627E-07        -0.74506E-20         0.00000E+00
    0.27627E-07        -0.93132E-20         0.00000E+00
    0.27627E-07        -0.32888E-20         0.00000E+00
    0.27627E-07         0.97497E-20         0.00000E+00
    0.27627E-07         0.14465E-19         0.00000E+00
    0.27627E-07         0.16764E-19         0.00000E+00
    0.27627E-07         0.55879E-20         0.00000E+00
    0.27627E-07        -0.37253E-20         0.00000E+00
    0.27627E-07         0.18626E-20         0.00000E+00
    0.27627E-07         0.42201E-20         0.00000E+00
    0.27627E-07         0.18626E-20         0.00000E+00
    0.27627E-07         0.14262E-20         0.00000E+00
    0.27627E-07         0.65776E-20         0.00000E+00
    0.30824E-07         0.55374E-20         0.00000E+00
    0.30824E-07         0.74506E-20         0.00000E+00
    0.30824E-07         0.13995E-19         0.00000E+00
    0.30824E-07         0.14901E-19         0.00000E+00
    0.30824E-07         0.13039E-19         0.00000E+00
    0.30824E-07         0.22352E-19         0.00000E+00
    0.30824E-07         0.29802E-19         0.00000E+00
    0.30824E-07         0.26077E-19         0.00000E+00
    0.30824E-07         0.26077E-19         0.00000E+00
    0.30824E-07         0.24214E-19         0.00000E+00
    0.30824E-07         0.18626E-19         0.00000E+00
    0.30824E-07         0.16764E-19         0.00000E+00
    0.30824E-07         0.14901E-19         0.00000E+00
    0.30824E-07         0.14901E-19         0.00000E+00
    0.30824E-07         0.93132E-20         0.00000E+00
    0.30824E-07         0.00000E+00         0.00000E+00
    0.30824E-07        -0.37253E-20         0.00000E+00
    0.30824E-07        -0.55879E-20         0.00000E+00
    0.30824E-07         0.18626E-20         0.00000E+00
    0.30824E-07         0.55879E-20         0.00000E+00
    0.30824E-07         0.55879E-20         0.00000E+00
    0.30824E-07         0.11176E-19         0.00000E+00
    0.30824E-07         0.13039E-19         0.00000E+00
    0.30824E-07         0.13945E-19         0.00000E+00
    0.30824E-07         0.93132E-20         0.00000E+00
    0.30824E-07        -0.18626E-20         0.00000E+00
    0.30824E-07        -0.93132E-21         0.00000E+00
    0.30824E-07         0.56132E-20         0.00000E+00
    0.30824E-07        -0.37253E-20         0.00000E+00
    0.30824E-07        -0.93132E-20         0.00000E+00
    0.30824E-07        -0.37253E-20         0.00000E+00
    0.30824E-07        -0.93385E-20         0.00000E+00
    0.30824E-07        -0.23283E-19         0.00000E+00
    0.30824E-07        -0.30708E-19         0.00000E+00
    0.30824E-07        -0.37253E-19         0.00000E+00
    0.30824E-07        -0.33528E-19         0.00000E+00
    0.30824E-07        -0.18626E-19         0.00000E+00
    0.30824E-07        -0.13039E-19         0.00000E+00
    0.30824E-07        -0.22352E-19         0.00000E+00
    0.30824E-07        -0.22352E-19         0.00000E+00
    0.30824E-07        -0.74506E-20         0.00000E+00
    0.30824E-07         0.74506E-20         0.00000E+00
    0.30824E-07         0.14901E-19         0.00000E+00
    0.30824E-07         0.11176E-19         0.00000E+00
    0.30824E-07         0.74506E-20         0.00000E+00
    0.30824E-07         0.37000E-20         0.00000E+00
    0.30824E-07        -0.55879E-20         0.00000E+00
    0.30824E-07         0.25260E-22         0.00000E+00
    0.30824E-07         0.37253E-20         0.00000E+00
    0.30824E-07         0.37506E-20         0.00000E+00
    0.30824E-07         0.75011E-20         0.00000E+00
    0.34308E-07         0.37253E-20         0.00000E+00
    0.34308E-07         0.87746E-20         0.00000E+00
    0.34308E-07         0.11176E-19         0.00000E+00
    0.34308E-07         0.93132E-20         0.00000E+00
    0.34308E-07         0.11176E-19         0.00000E+00
    0.34308E-07         0.24753E-19         0.00000E+00
    0.34308E-07         0.35390E-19         0.00000E+00
    0.34308E-07         0.31665E-19         0.00000E+00
    0.34308E-07         0.26077E-19         0.00000E+00
    0.34308E-07         0.20489E-19         0.00000E+00
    0.34308E-07         0.22352E-19         0.00000E+00
    0.34308E-07         0.27401E-19         0.00000E+00
    0.34308E-07         0.34066E-19         0.00000E+00
    0.34308E-07         0.26616E-19         0.00000E+00
    0.34308E-07         0.31867E-20         0.00000E+00
    0.34308E-07        -0.93132E-20         0.00000E+00
    0.34308E-07        -0.37253E-20         0.00000E+00
    0.34308E-07         0.55879E-20         0.00000E+00
    0.34308E-07         0.11176E-19         0.00000E+00
    0.34308E-07         0.11176E-19         0.00000E+00
    0.34308E-07         0.74506E-20         0.00000E+00
    0.34308E-07         0.18626E-20         0.00000E+00
    0.34308E-07         0.00000E+00         0.00000E+00
    0.34308E-07        -0.53862E-21         0.00000E+00
    0.34308E-07         0.37253E-20         0.00000E+00
    0.34308E-07         0.93132E-20         0.00000E+00
    0.34308E-07         0.74506E-20         0.00000E+00
    0.34308E-07         0.24013E-20         0.00000E+00
    0.34308E-07        -0.11176E-19         0.00000E+00
    0.34308E-07        -0.14901E-19         0.00000E+00
    0.34308E-07        -0.13039E-19         0.00000E+00
    0.34308E-07        -0.11176E-19         0.00000E+00
    0.34308E-07        -0.16764E-19         0.00000E+00
    0.34308E-07        -0.29802E-19         0.00000E+00
    0.34308E-07        -0.27940E-19         0.00000E+00
    0.34308E-07        -0.26470E-19         0.00000E+00
    0.34308E-07        -0.16764E-19         0.00000E+00
    0.34308E-07        -0.12646E-19         0.00000E+00
    0.34308E-07        -0.18626E-19         0.00000E+00
    0.34308E-07        -0.16764E-19         0.00000E+00
    0.34308E-07        -0.33326E-20         0.00000E+00
    0.34308E-07         0.65193E-20         0.00000E+00
    0.34308E-07         0.98518E-20         0.00000E+00
    0.34308E-07         0.69120E-20         0.00000E+00
    0.34308E-07        -0.46566E-20         0.00000E+00
    0.34308E-07        -0.13431E-19         0.00000E+00
    0.34308E-07        -0.69120E-20         0.00000E+00
    0.34308E-07        -0.14699E-20         0.00000E+00
    0.34308E-07        -0.48025E-20         0.00000E+00
    0.34308E-07        -0.35794E-20         0.00000E+00
    0.34308E-07        -0.34335E-20         0.00000E+00
    0.38092E-07         0.74506E-20         0.00000E+00
    0.38092E-07         0.93132E-20         0.00000E+00
    0.38092E-07         0.14146E-19         0.00000E+00
    0.38092E-07         0.20489E-19         0.00000E+00
    0.38092E-07         0.24969E-19         0.00000E+00
    0.38092E-07         0.33528E-19         0.00000E+00
    0.38092E-07         0.39870E-19         0.00000E+00
    0.38092E-07         0.38184E-19         0.00000E+00
    0.38092E-07         0.41155E-19         0.00000E+00
    0.38092E-07         0.35390E-19         0.00000E+00
    0.38092E-07         0.27940E-19         0.00000E+00
    0.38092E-07         0.29802E-19         0.00000E+00
    0.38092E-07         0.27940E-19         0.00000E+00
    0.38092E-07         0.22175E-19         0.00000E+00
    0.38092E-07         0.18626E-19         0.00000E+00
    0.38092E-07         0.65193E-20         0.00000E+00
    0.38092E-07         0.74506E-20         0.00000E+00
    0.38092E-07        -0.75474E-21         0.00000E+00
    0.38092E-07        -0.18626E-20         0.00000E+00
    0.38092E-07         0.37253E-20         0.00000E+00
    0.38092E-07         0.00000E+00         0.00000E+00
    0.38092E-07         0.37253E-20         0.00000E+00
    0.38092E-07         0.11176E-19         0.00000E+00
    0.38092E-07         0.14901E-19         0.00000E+00
    0.38092E-07         0.93132E-20         0.00000E+00
    0.38092E-07         0.55879E-20         0.00000E+00
    0.38092E-07         0.37253E-20         0.00000E+00
    0.38092E-07        -0.74506E-20         0.00000E+00
    0.38092E-07        -0.18626E-19         0.00000E+00
    0.38092E-07        -0.18626E-19         0.00000E+00
    0.38092E-07        -0.14901E-19         0.00000E+00
    0.38092E-07        -0.14901E-19         0.00000E+00
    0.38092E-07        -0.22352E-19         0.00000E+00
    0.38092E-07        -0.26077E-19         0.00000E+00
    0.38092E-07        -0.26077E-19         0.00000E+00
    0.38092E-07        -0.18626E-19         0.00000E+00
    0.38092E-07        -0.14146E-19         0.00000E+00
    0.38092E-07        -0.14146E-19         0.00000E+00
    0.38092E-07        -0.11931E-19         0.00000E+00
    0.38092E-07        -0.19381E-19         0.00000E+00
    0.38092E-07        -0.14901E-19         0.00000E+00
    0.38092E-07         0.37253E-20         0.00000E+00
    0.38092E-07         0.16764E-19         0.00000E+00
    0.38092E-07         0.93132E-20         0.00000E+00
    0.38092E-07        -0.37253E-20         0.00000E+00
    0.38092E-07        -0.93132E-20         0.00000E+00
    0.38092E-07        -0.13039E-19         0.00000E+00
    0.38092E-07        -0.37253E-20         0.00000E+00
    0.38092E-07         0.18626E-20         0.00000E+00
    0.38092E-07         0.17658E-21         0.00000E+00
    0.38092E-07         0.78037E-20         0.00000E+00
    0.42184E-07         0.37253E-20         0.00000E+00
    0.42184E-07         0.55879E-20         0.00000E+00
    0.42184E-07         0.29191E-20         0.00000E+00
    0.42184E-07         0.18626E-20         0.00000E+00
    0.42184E-07         0.13845E-19         0.00000E+00
    0.42184E-07         0.29802E-19         0.00000E+00
    0.42184E-07         0.37253E-19         0.00000E+00
    0.42184E-07         0.31665E-19         0.00000E+00
    0.42184E-07         0.28065E-19         0.00000E+00
    0.42184E-07         0.28871E-19         0.00000E+00
    0.42184E-07         0.34334E-19         0.00000E+00
    0.42184E-07         0.34334E-19         0.00000E+00
    0.42184E-07         0.30734E-19         0.00000E+00
    0.42184E-07         0.26202E-19         0.00000E+00
    0.42184E-07         0.22352E-19         0.00000E+00
    0.42184E-07         0.11176E-19         0.00000E+00
    0.42184E-07         0.37253E-20         0.00000E+00
    0.42184E-07         0.37253E-20         0.00000E+00
    0.42184E-07         0.93132E-20         0.00000E+00
    0.42184E-07         0.11176E-19         0.00000E+00
    0.42184E-07         0.37253E-20         0.00000E+00
    0.42184E-07         0.18626E-20         0.00000E+00
    0.42184E-07         0.74506E-20         0.00000E+00
    0.42184E-07         0.11176E-19         0.00000E+00
    0.42184E-07         0.14901E-19         0.00000E+00
    0.42184E-07         0.14901E-19         0.00000E+00
    0.42184E-07         0.00000E+00         0.00000E+00
    0.42184E-07        -0.11176E-19         0.00000E+00
    0.42184E-07        -0.14901E-19         0.00000E+00
    0.42184E-07        -0.16764E-19         0.00000E+00
    0.42184E-07        -0.16764E-19         0.00000E+00
    0.42184E-07        -0.13039E-19         0.00000E+00
    0.42184E-07        -0.16764E-19         0.00000E+00
    0.42184E-07        -0.30859E-19         0.00000E+00
    0.42184E-07        -0.31665E-19         0.00000E+00
    0.42184E-07        -0.28746E-19         0.00000E+00
    0.42184E-07        -0.24214E-19         0.00000E+00
    0.42184E-07        -0.18626E-19         0.00000E+00
    0.42184E-07        -0.16764E-19         0.00000E+00
    0.42184E-07        -0.11176E-19         0.00000E+00
    0.42184E-07        -0.18626E-20         0.00000E+00
    0.42184E-07         0.55879E-20         0.00000E+00
    0.42184E-07         0.57130E-20         0.00000E+00
    0.42184E-07         0.11176E-19         0.00000E+00
    0.42184E-07         0.91881E-20         0.00000E+00
    0.42184E-07         0.18626E-20         0.00000E+00
    0.42184E-07        -0.17376E-20         0.00000E+00
    0.42184E-07        -0.93132E-20         0.00000E+00
    0.42184E-07        -0.94383E-20         0.00000E+00
    0.42184E-07        -0.19877E-20         0.00000E+00
    0.42184E-07         0.72004E-20         0.00000E+00
    0.46590E-07         0.37253E-20         0.00000E+00
    0.46590E-07         0.74506E-20         0.00000E+00
    0.46590E-07         0.74506E-20         0.00000E+00
    0.46590E-07         0.74506E-20         0.00000E+00
    0.46590E-07         0.20489E-19         0.00000E+00
    0.46590E-07         0.40978E-19         0.00000E+00
    0.46590E-07         0.51792E-19         0.00000E+00
    0.46590E-07         0.44703E-19         0.00000E+00
    0.46590E-07         0.35752E-19         0.00000E+00
    0.46590E-07         0.26077E-19         0.00000E+00
    0.46590E-07         0.24214E-19         0.00000E+00
    0.46590E-07         0.26077E-19         0.00000E+00
    0.46590E-07         0.22352E-19         0.00000E+00
    0.46590E-07         0.22714E-19         0.00000E+00
    0.46590E-07         0.14901E-19         0.00000E+00
    0.46590E-07         0.89513E-20         0.00000E+00
    0.46590E-07         0.93132E-20         0.00000E+00
    0.46590E-07         0.55879E-20         0.00000E+00
    0.46590E-07         0.55879E-20         0.00000E+00
    0.46590E-07         0.74506E-20         0.00000E+00
    0.46590E-07         0.93132E-20         0.00000E+00
    0.46590E-07         0.74506E-20         0.00000E+00
    0.46590E-07         0.11176E-19         0.00000E+00
    0.46590E-07         0.16764E-19         0.00000E+00
    0.46590E-07         0.93132E-20         0.00000E+00
    0.46590E-07         0.55879E-20         0.00000E+00
    0.46590E-07         0.55879E-20         0.00000E+00
    0.46590E-07        -0.37253E-20         0.00000E+00
    0.46590E-07        -0.18626E-19         0.00000E+00
    0.46590E-07        -0.22352E-19         0.00000E+00
    0.46590E-07        -0.18626E-19         0.00000E+00
    0.46590E-07        -0.22352E-19         0.00000E+00
    0.46590E-07        -0.31665E-19         0.00000E+00
    0.46590E-07        -0.39116E-19         0.00000E+00
    0.46590E-07        -0.37253E-19         0.00000E+00
    0.46590E-07        -0.31665E-19         0.00000E+00
    0.46590E-07        -0.18626E-19         0.00000E+00
    0.46590E-07        -0.74506E-20         0.00000E+00
    0.46590E-07        -0.74506E-20         0.00000E+00
    0.46590E-07        -0.13039E-19         0.00000E+00
    0.46590E-07        -0.11176E-19         0.00000E+00
    0.46590E-07         0.55879E-20         0.00000E+00
    0.46590E-07         0.12677E-19         0.00000E+00
    0.46590E-07         0.83819E-20         0.00000E+00
    0.46590E-07         0.87438E-20         0.00000E+00
    0.46590E-07         0.12469E-19         0.00000E+00
    0.46590E-07         0.10245E-19         0.00000E+00
    0.46590E-07         0.14539E-19         0.00000E+00
    0.46590E-07         0.74506E-20         0.00000E+00
    0.46590E-07         0.24321E-20         0.00000E+00
    0.46590E-07         0.11389E-20         0.00000E+00
    0.51314E-07         0.11176E-19         0.00000E+00
    0.51314E-07         0.13039E-19         0.00000E+00
    0.51314E-07         0.18626E-19         0.00000E+00
    0.51314E-07         0.22352E-19         0.00000E+00
    0.51314E-07         0.29273E-19         0.00000E+00
    0.51314E-07         0.37253E-19         0.00000E+00
    0.51314E-07         0.41507E-19         0.00000E+00
    0.51314E-07         0.38586E-19         0.00000E+00
    0.51314E-07         0.29802E-19         0.00000E+00
    0.51314E-07         0.26606E-19         0.00000E+00
    0.51314E-07         0.24214E-19         0.00000E+00
    0.51314E-07         0.26077E-19         0.00000E+00
    0.51314E-07         0.27940E-19         0.00000E+00
    0.51314E-07         0.24214E-19         0.00000E+00
    0.51314E-07         0.16764E-19         0.00000E+00
    0.51314E-07         0.11176E-19         0.00000E+00
    0.51314E-07         0.93132E-20         0.00000E+00
    0.51314E-07         0.55879E-20         0.00000E+00
    0.51314E-07         0.13039E-19         0.00000E+00
    0.51314E-07         0.16764E-19         0.00000E+00
    0.51314E-07         0.11176E-19         0.00000E+00
    0.51314E-07         0.11176E-19         0.00000E+00
    0.51314E-07         0.55879E-20         0.00000E+00
    0.51314E-07         0.37253E-20         0.00000E+00
    0.51314E-07         0.55879E-20         0.00000E+00
    0.51314E-07         0.37253E-20         0.00000E+00
    0.51314E-07        -0.37253E-20         0.00000E+00
    0.51314E-07        -0.11176E-19         0.00000E+00
    0.51314E-07        -0.16764E-19         0.00000E+00
    0.51314E-07        -0.18626E-19         0.00000E+00
    0.51314E-07        -0.20489E-19         0.00000E+00
    0.51314E-07        -0.26077E-19         0.00000E+00
    0.51314E-07        -0.27940E-19         0.00000E+00
    0.51314E-07        -0.26077E-19         0.00000E+00
    0.51314E-07        -0.26077E-19         0.00000E+00
    0.51314E-07        -0.24744E-19         0.00000E+00
    0.51314E-07        -0.11176E-19         0.00000E+00
    0.51314E-07        -0.13333E-20         0.00000E+00
    0.51314E-07        -0.23919E-20         0.00000E+00
    0.51314E-07        -0.55879E-20         0.00000E+00
    0.51314E-07        -0.31960E-20         0.00000E+00
    0.51314E-07         0.13333E-20         0.00000E+00
    0.51314E-07         0.31960E-20         0.00000E+00
    0.51314E-07         0.79799E-20         0.00000E+00
    0.51314E-07         0.98425E-20         0.00000E+00
    0.51314E-07         0.41273E-20         0.00000E+00
    0.51314E-07        -0.46566E-20         0.00000E+00
    0.51314E-07        -0.59900E-20         0.00000E+00
    0.51314E-07        -0.23919E-20         0.00000E+00
    0.51314E-07        -0.42546E-20         0.00000E+00
    0.51314E-07         0.00000E+00         0.00000E+00
    0.56354E-07        -0.12457E-20         0.00000E+00
    0.56354E-07         0.74506E-20         0.00000E+00
    0.56354E-07         0.11799E-19         0.00000E+00
    0.56354E-07         0.11799E-19         0.00000E+00
    0.56354E-07         0.26385E-19         0.00000E+00
    0.56354E-07         0.40664E-19         0.00000E+00
    0.56354E-07         0.43464E-19         0.00000E+00
    0.56354E-07         0.41601E-19         0.00000E+00
    0.56354E-07         0.40978E-19         0.00000E+00
    0.56354E-07         0.33528E-19         0.00000E+00
    0.56354E-07         0.26077E-19         0.00000E+00
    0.56354E-07         0.26077E-19         0.00000E+00
    0.56354E-07         0.27940E-19         0.00000E+00
    0.56354E-07         0.27940E-19         0.00000E+00
    0.56354E-07         0.21112E-19         0.00000E+00
    0.56354E-07         0.13347E-19         0.00000E+00
    0.56354E-07         0.89988E-20         0.00000E+00
    0.56354E-07         0.37253E-20         0.00000E+00
    0.56354E-07         0.24855E-20         0.00000E+00
    0.56354E-07         0.62108E-20         0.00000E+00
    0.56354E-07         0.37253E-20         0.00000E+00
    0.56354E-07        -0.37253E-20         0.00000E+00
    0.56354E-07        -0.18626E-20         0.00000E+00
    0.56354E-07         0.74506E-20         0.00000E+00
    0.56354E-07         0.93132E-20         0.00000E+00
    0.56354E-07         0.55879E-20         0.00000E+00
    0.56354E-07        -0.18626E-20         0.00000E+00
    0.56354E-07        -0.74506E-20         0.00000E+00
    0.56354E-07        -0.20489E-19         0.00000E+00
    0.56354E-07        -0.27940E-19         0.00000E+00
    0.56354E-07        -0.16764E-19         0.00000E+00
    0.56354E-07        -0.13039E-19         0.00000E+00
    0.56354E-07        -0.22352E-19         0.00000E+00
    0.56354E-07        -0.27940E-19         0.00000E+00
    0.56354E-07        -0.20489E-19         0.00000E+00
    0.56354E-07        -0.18318E-19         0.00000E+00
    0.56354E-07        -0.18318E-19         0.00000E+00
    0.56354E-07        -0.13039E-19         0.00000E+00
    0.56354E-07        -0.12416E-19         0.00000E+00
    0.56354E-07        -0.15832E-19         0.00000E+00
    0.56354E-07        -0.11176E-19         0.00000E+00
    0.56354E-07        -0.30847E-21         0.00000E+00
    0.56354E-07         0.37253E-20         0.00000E+00
    0.56354E-07         0.55879E-20         0.00000E+00
    0.56354E-07        -0.52795E-20         0.00000E+00
    0.56354E-07        -0.55879E-20         0.00000E+00
    0.56354E-07        -0.93132E-21         0.00000E+00
    0.56354E-07        -0.62286E-21         0.00000E+00
    0.56354E-07        -0.61693E-21         0.00000E+00
    0.56354E-07        -0.27940E-20         0.00000E+00
    0.56354E-07        -0.43541E-20         0.00000E+00
    0.61703E-07         0.11176E-19         0.00000E+00
    0.61703E-07         0.13039E-19         0.00000E+00
    0.61703E-07         0.13332E-19         0.00000E+00
    0.61703E-07         0.15194E-19         0.00000E+00
    0.61703E-07         0.26077E-19         0.00000E+00
    0.61703E-07         0.33235E-19         0.00000E+00
    0.61703E-07         0.35097E-19         0.00000E+00
    0.61703E-07         0.35390E-19         0.00000E+00
    0.61703E-07         0.35390E-19         0.00000E+00
    0.61703E-07         0.31665E-19         0.00000E+00
    0.61703E-07         0.26077E-19         0.00000E+00
    0.61703E-07         0.31665E-19         0.00000E+00
    0.61703E-07         0.33821E-19         0.00000E+00
    0.61703E-07         0.34459E-19         0.00000E+00
    0.61703E-07         0.24560E-19         0.00000E+00
    0.61703E-07         0.46566E-20         0.00000E+00
    0.61703E-07         0.12244E-20         0.00000E+00
    0.61703E-07         0.74506E-20         0.00000E+00
    0.61703E-07         0.40184E-20         0.00000E+00
    0.61703E-07        -0.93132E-20         0.00000E+00
    0.61703E-07        -0.96063E-20         0.00000E+00
    0.61703E-07         0.00000E+00         0.00000E+00
    0.61703E-07         0.00000E+00         0.00000E+00
    0.61703E-07         0.37253E-20         0.00000E+00
    0.61703E-07         0.13039E-19         0.00000E+00
    0.61703E-07         0.11176E-19         0.00000E+00
    0.61703E-07         0.18626E-20         0.00000E+00
    0.61703E-07        -0.93132E-20         0.00000E+00
    0.61703E-07        -0.18626E-19         0.00000E+00
    0.61703E-07        -0.22352E-19         0.00000E+00
    0.61703E-07        -0.20489E-19         0.00000E+00
    0.61703E-07        -0.18626E-19         0.00000E+00
    0.61703E-07        -0.24214E-19         0.00000E+00
    0.61703E-07        -0.27940E-19         0.00000E+00
    0.61703E-07        -0.26077E-19         0.00000E+00
    0.61703E-07        -0.22352E-19         0.00000E+00
    0.61703E-07        -0.20489E-19         0.00000E+00
    0.61703E-07        -0.18626E-19         0.00000E+00
    0.61703E-07        -0.18626E-19         0.00000E+00
    0.61703E-07        -0.22059E-19         0.00000E+00
    0.61703E-07        -0.14608E-19         0.00000E+00
    0.61703E-07        -0.12244E-20         0.00000E+00
    0.61703E-07         0.62262E-20         0.00000E+00
    0.61703E-07         0.12244E-20         0.00000E+00
    0.61703E-07         0.12244E-20         0.00000E+00
    0.61703E-07        -0.37253E-20         0.00000E+00
    0.61703E-07        -0.12400E-19         0.00000E+00
    0.61703E-07        -0.86750E-20         0.00000E+00
    0.61703E-07        -0.37253E-20         0.00000E+00
    0.61703E-07         0.12244E-20         0.00000E+00
    0.61703E-07         0.24488E-20         0.00000E+00
    0.67349E-07         0.25826E-20         0.00000E+00
    0.67349E-07         0.37253E-20         0.00000E+00
    0.67349E-07         0.80219E-20         0.00000E+00
    0.67349E-07         0.11176E-19         0.00000E+00
    0.67349E-07         0.15261E-19         0.00000E+00
    0.67349E-07         0.25146E-19         0.00000E+00
    0.67349E-07         0.39116E-19         0.00000E+00
    0.67349E-07         0.32596E-19         0.00000E+00
    0.67349E-07         0.23854E-19         0.00000E+00
    0.67349E-07         0.22352E-19         0.00000E+00
    0.67349E-07         0.24574E-19         0.00000E+00
    0.67349E-07         0.22712E-19         0.00000E+00
    0.67349E-07         0.22923E-19         0.00000E+00
    0.67349E-07         0.19198E-19         0.00000E+00
    0.67349E-07         0.55879E-20         0.00000E+00
    0.67349E-07         0.74506E-20         0.00000E+00
    0.67349E-07         0.55879E-20         0.00000E+00
    0.67349E-07         0.37253E-20         0.00000E+00
    0.67349E-07         0.10605E-19         0.00000E+00
    0.67349E-07         0.46566E-20         0.00000E+00
    0.67349E-07         0.15026E-20         0.00000E+00
    0.67349E-07         0.18626E-20         0.00000E+00
    0.67349E-07         0.55879E-20         0.00000E+00
    0.67349E-07         0.11176E-19         0.00000E+00
    0.67349E-07         0.11176E-19         0.00000E+00
    0.67349E-07         0.11176E-19         0.00000E+00
    0.67349E-07         0.55879E-20         0.00000E+00
    0.67349E-07        -0.37253E-20         0.00000E+00
    0.67349E-07        -0.18626E-19         0.00000E+00
    0.67349E-07        -0.20489E-19         0.00000E+00
    0.67349E-07        -0.14541E-19         0.00000E+00
    0.67349E-07        -0.19558E-19         0.00000E+00
    0.67349E-07        -0.31094E-19         0.00000E+00
    0.67349E-07        -0.35030E-19         0.00000E+00
    0.67349E-07        -0.29802E-19         0.00000E+00
    0.67349E-07        -0.34459E-19         0.00000E+00
    0.67349E-07        -0.28871E-19         0.00000E+00
    0.67349E-07        -0.22712E-19         0.00000E+00
    0.67349E-07        -0.22352E-19         0.00000E+00
    0.67349E-07        -0.17335E-19         0.00000E+00
    0.67349E-07        -0.11747E-19         0.00000E+00
    0.67349E-07        -0.12913E-20         0.00000E+00
    0.67349E-07         0.24340E-20         0.00000E+00
    0.67349E-07         0.74506E-20         0.00000E+00
    0.67349E-07         0.36000E-21         0.00000E+00
    0.67349E-07        -0.37253E-20         0.00000E+00
    0.67349E-07         0.37253E-20         0.00000E+00
    0.67349E-07         0.46566E-20         0.00000E+00
    0.67349E-07         0.24340E-20         0.00000E+00
    0.67349E-07        -0.57132E-21         0.00000E+00
    0.67349E-07         0.25826E-20         0.00000E+00
    0.73274E-07         0.12202E-19         0.00000E+00
    0.73274E-07         0.13552E-19         0.00000E+00
    0.73274E-07         0.11176E-19         0.00000E+00
    0.73274E-07         0.55879E-20         0.00000E+00
    0.73274E-07         0.11176E-19         0.00000E+00
    0.73274E-07         0.21839E-19         0.00000E+00
    0.73274E-07         0.27940E-19         0.00000E+00
    0.73274E-07         0.20489E-19         0.00000E+00
    0.73274E-07         0.20489E-19         0.00000E+00
    0.73274E-07         0.18626E-19         0.00000E+00
    0.73274E-07         0.11176E-19         0.00000E+00
    0.73274E-07         0.20489E-19         0.00000E+00
    0.73274E-07         0.25564E-19         0.00000E+00
    0.73274E-07         0.26077E-19         0.00000E+00
    0.73274E-07         0.18626E-19         0.00000E+00
    0.73274E-07         0.98262E-20         0.00000E+00
    0.73274E-07         0.55879E-20         0.00000E+00
    0.73274E-07         0.65193E-20         0.00000E+00
    0.73274E-07        -0.84711E-33         0.00000E+00
    0.73274E-07        -0.14443E-20         0.00000E+00
    0.73274E-07         0.18626E-20         0.00000E+00
    0.73274E-07         0.55879E-20         0.00000E+00
    0.73274E-07         0.55879E-20         0.00000E+00
    0.73274E-07         0.74506E-20         0.00000E+00
    0.73274E-07         0.93132E-20         0.00000E+00
    0.73274E-07         0.74506E-20         0.00000E+00
    0.73274E-07        -0.37253E-20         0.00000E+00
    0.73274E-07        -0.16764E-19         0.00000E+00
    0.73274E-07        -0.22352E-19         0.00000E+00
    0.73274E-07        -0.20489E-19         0.00000E+00
    0.73274E-07        -0.18626E-19         0.00000E+00
    0.73274E-07        -0.18626E-19         0.00000E+00
    0.73274E-07        -0.19976E-19         0.00000E+00
    0.73274E-07        -0.33528E-19         0.00000E+00
    0.73274E-07        -0.41491E-19         0.00000E+00
    0.73274E-07        -0.29802E-19         0.00000E+00
    0.73274E-07        -0.18626E-19         0.00000E+00
    0.73274E-07        -0.78689E-20         0.00000E+00
    0.73274E-07        -0.11176E-19         0.00000E+00
    0.73274E-07        -0.19558E-19         0.00000E+00
    0.73274E-07        -0.65193E-20         0.00000E+00
    0.73274E-07         0.83819E-20         0.00000E+00
    0.73274E-07         0.17695E-19         0.00000E+00
    0.73274E-07         0.15832E-19         0.00000E+00
    0.73274E-07         0.11689E-19         0.00000E+00
    0.73274E-07        -0.23757E-20         0.00000E+00
    0.73274E-07        -0.37253E-20         0.00000E+00
    0.73274E-07        -0.26425E-34         0.00000E+00
    0.73274E-07        -0.23757E-20         0.00000E+00
    0.73274E-07         0.14443E-20         0.00000E+00
    0.73274E-07         0.28887E-20         0.00000E+00
    0.79451E-07        -0.52363E-20         0.00000E+00
    0.79451E-07         0.18626E-20         0.00000E+00
    0.79451E-07         0.63434E-20         0.00000E+00
    0.79451E-07         0.29698E-20         0.00000E+00
    0.79451E-07         0.93132E-20         0.00000E+00
    0.79451E-07         0.24970E-19         0.00000E+00
    0.79451E-07         0.25322E-19         0.00000E+00
    0.79451E-07         0.25322E-19         0.00000E+00
    0.79451E-07         0.32420E-19         0.00000E+00
    0.79451E-07         0.20489E-19         0.00000E+00
    0.79451E-07         0.12283E-19         0.00000E+00
    0.79451E-07         0.15657E-19         0.00000E+00
    0.79451E-07         0.14901E-19         0.00000E+00
    0.79451E-07         0.16008E-19         0.00000E+00
    0.79451E-07         0.93132E-20         0.00000E+00
    0.79451E-07         0.44808E-20         0.00000E+00
    0.79451E-07         0.55879E-20         0.00000E+00
    0.79451E-07         0.55879E-20         0.00000E+00
    0.79451E-07         0.11176E-19         0.00000E+00
    0.79451E-07         0.66951E-20         0.00000E+00
    0.79451E-07         0.18626E-20         0.00000E+00
    0.79451E-07        -0.55879E-20         0.00000E+00
    0.79451E-07        -0.74506E-20         0.00000E+00
    0.79451E-07        -0.18626E-20         0.00000E+00
    0.79451E-07        -0.29698E-20         0.00000E+00
    0.79451E-07        -0.11176E-19         0.00000E+00
    0.79451E-07        -0.17519E-19         0.00000E+00
    0.79451E-07        -0.13039E-19         0.00000E+00
    0.79451E-07        -0.20489E-19         0.00000E+00
    0.79451E-07        -0.20489E-19         0.00000E+00
    0.79451E-07        -0.13039E-19         0.00000E+00
    0.79451E-07        -0.14901E-19         0.00000E+00
    0.79451E-07        -0.17871E-19         0.00000E+00
    0.79451E-07        -0.29802E-19         0.00000E+00
    0.79451E-07        -0.29802E-19         0.00000E+00
    0.79451E-07        -0.26429E-19         0.00000E+00
    0.79451E-07        -0.29626E-19         0.00000E+00
    0.79451E-07        -0.18451E-19         0.00000E+00
    0.79451E-07        -0.85577E-20         0.00000E+00
    0.79451E-07        -0.74506E-20         0.00000E+00
    0.79451E-07        -0.18626E-20         0.00000E+00
    0.79451E-07         0.13039E-19         0.00000E+00
    0.79451E-07         0.24214E-19         0.00000E+00
    0.79451E-07         0.20489E-19         0.00000E+00
    0.79451E-07         0.11176E-19         0.00000E+00
    0.79451E-07         0.55879E-20         0.00000E+00
    0.79451E-07         0.37253E-20         0.00000E+00
    0.79451E-07         0.37253E-20         0.00000E+00
    0.79451E-07         0.00000E+00         0.00000E+00
    0.79451E-07         0.00000E+00         0.00000E+00
    0.79451E-07         0.37253E-20         0.00000E+00
    0.85848E-07         0.11176E-19         0.00000E+00
    0.85848E-07         0.91542E-20         0.00000E+00
    0.85848E-07         0.35663E-20         0.00000E+00
    0.85848E-07         0.18626E-20         0.00000E+00
    0.85848E-07         0.10404E-19         0.00000E+00
    0.85848E-07         0.21579E-19         0.00000E+00
    0.85848E-07         0.25918E-19         0.00000E+00
    0.85848E-07         0.30734E-19         0.00000E+00
    0.85848E-07         0.17695E-19         0.00000E+00
    0.85848E-07         0.12880E-19         0.00000E+00
    0.85848E-07         0.15060E-19         0.00000E+00
    0.85848E-07         0.19558E-19         0.00000E+00
    0.85848E-07         0.19399E-19         0.00000E+00
    0.85848E-07         0.11017E-19         0.00000E+00
    0.85848E-07         0.46566E-20         0.00000E+00
    0.85848E-07         0.31120E-20         0.00000E+00
    0.85848E-07        -0.35663E-20         0.00000E+00
    0.85848E-07        -0.18626E-20         0.00000E+00
    0.85848E-07        -0.17037E-20         0.00000E+00
    0.85848E-07        -0.66783E-20         0.00000E+00
    0.85848E-07        -0.85409E-20         0.00000E+00
    0.85848E-07        -0.37253E-20         0.00000E+00
    0.85848E-07        -0.74506E-20         0.00000E+00
    0.85848E-07        -0.93132E-20         0.00000E+00
    0.85848E-07        -0.74506E-20         0.00000E+00
    0.85848E-07        -0.55879E-20         0.00000E+00
    0.85848E-07        -0.38843E-20         0.00000E+00
    0.85848E-07        -0.11176E-19         0.00000E+00
    0.85848E-07        -0.20489E-19         0.00000E+00
    0.85848E-07        -0.22352E-19         0.00000E+00
    0.85848E-07        -0.24055E-19         0.00000E+00
    0.85848E-07        -0.24214E-19         0.00000E+00
    0.85848E-07        -0.26236E-19         0.00000E+00
    0.85848E-07        -0.26077E-19         0.00000E+00
    0.85848E-07        -0.25918E-19         0.00000E+00
    0.85848E-07        -0.22193E-19         0.00000E+00
    0.85848E-07        -0.94722E-20         0.00000E+00
    0.85848E-07        -0.74506E-20         0.00000E+00
    0.85848E-07        -0.12880E-19         0.00000E+00
    0.85848E-07        -0.93132E-20         0.00000E+00
    0.85848E-07         0.54289E-20         0.00000E+00
    0.85848E-07         0.11176E-19         0.00000E+00
    0.85848E-07         0.13039E-19         0.00000E+00
    0.85848E-07         0.18467E-19         0.00000E+00
    0.85848E-07         0.11335E-19         0.00000E+00
    0.85848E-07         0.20216E-20         0.00000E+00
    0.85848E-07        -0.10903E-20         0.00000E+00
    0.85848E-07         0.93132E-21         0.00000E+00
    0.85848E-07         0.15899E-21         0.00000E+00
    0.85848E-07        -0.17037E-20         0.00000E+00
    0.85848E-07        -0.34073E-20         0.00000E+00
    0.92423E-07         0.37253E-20         0.00000E+00
    0.92423E-07         0.87249E-20         0.00000E+00
    0.92423E-07         0.11176E-19         0.00000E+00
    0.92423E-07         0.80389E-20         0.00000E+00
    0.92423E-07         0.14901E-19         0.00000E+00
    0.92423E-07         0.25489E-19         0.00000E+00
    0.92423E-07         0.32939E-19         0.00000E+00
    0.92423E-07         0.28528E-19         0.00000E+00
    0.92423E-07         0.21077E-19         0.00000E+00
    0.92423E-07         0.14313E-19         0.00000E+00
    0.92423E-07         0.49996E-20         0.00000E+00
    0.92423E-07         0.24510E-20         0.00000E+00
    0.92423E-07         0.99016E-20         0.00000E+00
    0.92423E-07         0.16764E-19         0.00000E+00
    0.92423E-07         0.10588E-19         0.00000E+00
    0.92423E-07         0.12743E-20         0.00000E+00
    0.92423E-07        -0.74506E-20         0.00000E+00
    0.92423E-07        -0.17107E-19         0.00000E+00
    0.92423E-07        -0.77936E-20         0.00000E+00
    0.92423E-07         0.12743E-20         0.00000E+00
    0.92423E-07        -0.65193E-20         0.00000E+00
    0.92423E-07        -0.15244E-19         0.00000E+00
    0.92423E-07        -0.80389E-20         0.00000E+00
    0.92423E-07         0.12743E-20         0.00000E+00
    0.92423E-07         0.71076E-20         0.00000E+00
    0.92423E-07        -0.18626E-20         0.00000E+00
    0.92423E-07        -0.52450E-20         0.00000E+00
    0.92423E-07        -0.55879E-20         0.00000E+00
    0.92423E-07        -0.12450E-19         0.00000E+00
    0.92423E-07        -0.15832E-19         0.00000E+00
    0.92423E-07        -0.18283E-19         0.00000E+00
    0.92423E-07        -0.16764E-19         0.00000E+00
    0.92423E-07        -0.18626E-19         0.00000E+00
    0.92423E-07        -0.27351E-19         0.00000E+00
    0.92423E-07        -0.27351E-19         0.00000E+00
    0.92423E-07        -0.24214E-19         0.00000E+00
    0.92423E-07        -0.20146E-19         0.00000E+00
    0.92423E-07        -0.89702E-20         0.00000E+00
    0.92423E-07        -0.37253E-20         0.00000E+00
    0.92423E-07        -0.77936E-20         0.00000E+00
    0.92423E-07        -0.93132E-20         0.00000E+00
    0.92423E-07         0.93132E-21         0.00000E+00
    0.92423E-07         0.24510E-20         0.00000E+00
    0.92423E-07         0.37253E-20         0.00000E+00
    0.92423E-07         0.55879E-20         0.00000E+00
    0.92423E-07         0.96562E-20         0.00000E+00
    0.92423E-07         0.18038E-19         0.00000E+00
    0.92423E-07         0.14901E-19         0.00000E+00
    0.92423E-07         0.61763E-20         0.00000E+00
    0.92423E-07         0.21080E-20         0.00000E+00
    0.92423E-07         0.67646E-20         0.00000E+00
    0.99125E-07         0.74506E-20         0.00000E+00
    0.99125E-07         0.11176E-19         0.00000E+00
    0.99125E-07         0.15650E-19         0.00000E+00
    0.99125E-07         0.11176E-19         0.00000E+00
    0.99125E-07         0.16015E-19         0.00000E+00
    0.99125E-07         0.33528E-19         0.00000E+00
    0.99125E-07         0.39116E-19         0.00000E+00
    0.99125E-07         0.29802E-19         0.00000E+00
    0.99125E-07         0.23101E-19         0.00000E+00
    0.99125E-07         0.19375E-19         0.00000E+00
    0.99125E-07         0.14152E-19         0.00000E+00
    0.99125E-07         0.14901E-19         0.00000E+00
    0.99125E-07         0.74506E-20         0.00000E+00
    0.99125E-07        -0.37253E-20         0.00000E+00
    0.99125E-07        -0.85642E-20         0.00000E+00
    0.99125E-07        -0.11176E-19         0.00000E+00
    0.99125E-07        -0.10062E-19         0.00000E+00
    0.99125E-07        -0.37253E-20         0.00000E+00
    0.99125E-07        -0.16803E-20         0.00000E+00
    0.99125E-07        -0.37253E-20         0.00000E+00
    0.99125E-07        -0.12960E-20         0.00000E+00
    0.99125E-07         0.00000E+00         0.00000E+00
    0.99125E-07        -0.44743E-20         0.00000E+00
    0.99125E-07        -0.74506E-20         0.00000E+00
    0.99125E-07        -0.37253E-20         0.00000E+00
    0.99125E-07         0.38378E-33         0.00000E+00
    0.99125E-07         0.37253E-20         0.00000E+00
    0.99125E-07         0.29763E-20         0.00000E+00
    0.99125E-07        -0.37253E-20         0.00000E+00
    0.99125E-07        -0.29763E-20         0.00000E+00
    0.99125E-07        -0.35429E-20         0.00000E+00
    0.99125E-07        -0.14901E-19         0.00000E+00
    0.99125E-07        -0.21785E-19         0.00000E+00
    0.99125E-07        -0.24032E-19         0.00000E+00
    0.99125E-07        -0.24032E-19         0.00000E+00
    0.99125E-07        -0.16764E-19         0.00000E+00
    0.99125E-07        -0.55879E-20         0.00000E+00
    0.99125E-07        -0.57703E-20         0.00000E+00
    0.99125E-07        -0.19558E-19         0.00000E+00
    0.99125E-07        -0.19375E-19         0.00000E+00
    0.99125E-07        -0.74506E-20         0.00000E+00
    0.99125E-07         0.74898E-21         0.00000E+00
    0.99125E-07         0.81996E-20         0.00000E+00
    0.99125E-07         0.78153E-20         0.00000E+00
    0.99125E-07         0.57703E-20         0.00000E+00
    0.99125E-07         0.35429E-20         0.00000E+00
    0.99125E-07         0.00000E+00         0.00000E+00
    0.99125E-07        -0.18626E-20         0.00000E+00
    0.99125E-07        -0.11137E-20         0.00000E+00
    0.99125E-07         0.00000E+00         0.00000E+00
    0.99125E-07         0.22273E-20         0.00000E+00
    0.10590E-06         0.37253E-20         0.00000E+00
    0.10590E-06         0.74506E-20         0.00000E+00
    0.10590E-06         0.74506E-20         0.00000E+00
    0.10590E-06         0.93132E-20         0.00000E+00
    0.10590E-06         0.18626E-19         0.00000E+00
    0.10590E-06         0.29802E-19         0.00000E+00
    0.10590E-06         0.39116E-19         0.00000E+00
    0.10590E-06         0.41105E-19         0.00000E+00
    0.10590E-06         0.26077E-19         0.00000E+00
    0.10590E-06         0.12911E-19         0.00000E+00
    0.10590E-06         0.26668E-20         0.00000E+00
    0.10590E-06         0.46566E-20         0.00000E+00
    0.10590E-06         0.16764E-19         0.00000E+00
    0.10590E-06         0.85091E-20         0.00000E+00
    0.10590E-06        -0.67702E-21         0.00000E+00
    0.10590E-06        -0.47838E-20         0.00000E+00
    0.10590E-06        -0.55879E-20         0.00000E+00
    0.10590E-06        -0.10372E-19         0.00000E+00
    0.10590E-06        -0.16891E-19         0.00000E+00
    0.10590E-06        -0.10922E-19         0.00000E+00
    0.10590E-06        -0.54608E-20         0.00000E+00
    0.10590E-06        -0.38524E-20         0.00000E+00
    0.10590E-06        -0.12715E-21         0.00000E+00
    0.10590E-06         0.00000E+00         0.00000E+00
    0.10590E-06        -0.18626E-20         0.00000E+00
    0.10590E-06        -0.54608E-20         0.00000E+00
    0.10590E-06        -0.13039E-19         0.00000E+00
    0.10590E-06        -0.46566E-20         0.00000E+00
    0.10590E-06        -0.45295E-20         0.00000E+00
    0.10590E-06        -0.74506E-20         0.00000E+00
    0.10590E-06        -0.12715E-21         0.00000E+00
    0.10590E-06        -0.37253E-20         0.00000E+00
    0.10590E-06        -0.83819E-20         0.00000E+00
    0.10590E-06        -0.18626E-19         0.00000E+00
    0.10590E-06        -0.26077E-19         0.00000E+00
    0.10590E-06        -0.25273E-19         0.00000E+00
    0.10590E-06        -0.20489E-19         0.00000E+00
    0.10590E-06        -0.16891E-19         0.00000E+00
    0.10590E-06        -0.11176E-19         0.00000E+00
    0.10590E-06        -0.91861E-20         0.00000E+00
    0.10590E-06        -0.26668E-20         0.00000E+00
    0.10590E-06         0.83819E-20         0.00000E+00
    0.10590E-06         0.11176E-19         0.00000E+00
    0.10590E-06         0.10245E-19         0.00000E+00
    0.10590E-06         0.45295E-20         0.00000E+00
    0.10590E-06        -0.18626E-20         0.00000E+00
    0.10590E-06         0.00000E+00         0.00000E+00
    0.10590E-06         0.37253E-20         0.00000E+00
    0.10590E-06         0.55879E-20         0.00000E+00
    0.10590E-06         0.55879E-20         0.00000E+00
    0.10590E-06         0.37253E-20         0.00000E+00
    0.11267E-06         0.00000E+00         0.00000E+00
    0.11267E-06         0.37253E-20         0.00000E+00
    0.11267E-06         0.11176E-19         0.00000E+00
    0.11267E-06         0.13039E-19         0.00000E+00
    0.11267E-06         0.17104E-19         0.00000E+00
    0.11267E-06         0.29802E-19         0.00000E+00
    0.11267E-06         0.31324E-19         0.00000E+00
    0.11267E-06         0.24555E-19         0.00000E+00
    0.11267E-06         0.18626E-19         0.00000E+00
    0.11267E-06         0.71100E-20         0.00000E+00
    0.11267E-06         0.34060E-21         0.00000E+00
    0.11267E-06         0.15220E-20         0.00000E+00
    0.11267E-06         0.89726E-20         0.00000E+00
    0.11267E-06         0.13720E-19         0.00000E+00
    0.11267E-06         0.59285E-20         0.00000E+00
    0.11267E-06        -0.81318E-20         0.00000E+00
    0.11267E-06        -0.14901E-19         0.00000E+00
    0.11267E-06        -0.12107E-19         0.00000E+00
    0.11267E-06        -0.12788E-19         0.00000E+00
    0.11267E-06        -0.89726E-20         0.00000E+00
    0.11267E-06        -0.71100E-20         0.00000E+00
    0.11267E-06        -0.74506E-20         0.00000E+00
    0.11267E-06        -0.52473E-20         0.00000E+00
    0.11267E-06         0.22032E-20         0.00000E+00
    0.11267E-06         0.49067E-20         0.00000E+00
    0.11267E-06        -0.18626E-20         0.00000E+00
    0.11267E-06        -0.71100E-20         0.00000E+00
    0.11267E-06        -0.11516E-19         0.00000E+00
    0.11267E-06        -0.18967E-19         0.00000E+00
    0.11267E-06        -0.12698E-19         0.00000E+00
    0.11267E-06        -0.86320E-20         0.00000E+00
    0.11267E-06        -0.55879E-20         0.00000E+00
    0.11267E-06        -0.44065E-20         0.00000E+00
    0.11267E-06        -0.14901E-19         0.00000E+00
    0.11267E-06        -0.16423E-19         0.00000E+00
    0.11267E-06        -0.13720E-19         0.00000E+00
    0.11267E-06        -0.11176E-19         0.00000E+00
    0.11267E-06        -0.89726E-20         0.00000E+00
    0.11267E-06        -0.37253E-20         0.00000E+00
    0.11267E-06        -0.22032E-20         0.00000E+00
    0.11267E-06         0.00000E+00         0.00000E+00
    0.11267E-06         0.59285E-20         0.00000E+00
    0.11267E-06         0.99039E-20         0.00000E+00
    0.11267E-06         0.93132E-20         0.00000E+00
    0.11267E-06         0.12719E-20         0.00000E+00
    0.11267E-06        -0.34060E-21         0.00000E+00
    0.11267E-06         0.15220E-20         0.00000E+00
    0.11267E-06         0.34752E-20         0.00000E+00
    0.11267E-06         0.22032E-20         0.00000E+00
    0.11267E-06        -0.25438E-20         0.00000E+00
    0.11267E-06        -0.62691E-20         0.00000E+00
    0.11938E-06         0.74506E-20         0.00000E+00
    0.11938E-06         0.93132E-20         0.00000E+00
    0.11938E-06         0.74506E-20         0.00000E+00
    0.11938E-06         0.93132E-20         0.00000E+00
    0.11938E-06         0.15361E-19         0.00000E+00
    0.11938E-06         0.19098E-19         0.00000E+00
    0.11938E-06         0.18639E-19         0.00000E+00
    0.11938E-06         0.15361E-19         0.00000E+00
    0.11938E-06         0.11635E-19         0.00000E+00
    0.11938E-06         0.11176E-19         0.00000E+00
    0.11938E-06         0.93132E-20         0.00000E+00
    0.11938E-06         0.79102E-20         0.00000E+00
    0.11938E-06         0.41849E-20         0.00000E+00
    0.11938E-06        -0.37253E-20         0.00000E+00
    0.11938E-06        -0.11176E-19         0.00000E+00
    0.11938E-06        -0.37253E-20         0.00000E+00
    0.11938E-06        -0.45958E-21         0.00000E+00
    0.11938E-06        -0.14889E-19         0.00000E+00
    0.11938E-06        -0.18155E-19         0.00000E+00
    0.11938E-06        -0.11176E-19         0.00000E+00
    0.11938E-06        -0.37375E-20         0.00000E+00
    0.11938E-06        -0.23344E-20         0.00000E+00
    0.11938E-06        -0.45958E-21         0.00000E+00
    0.11938E-06         0.60475E-20         0.00000E+00
    0.11938E-06         0.10716E-19         0.00000E+00
    0.11938E-06         0.88537E-20         0.00000E+00
    0.11938E-06        -0.32657E-20         0.00000E+00
    0.11938E-06        -0.93132E-20         0.00000E+00
    0.11938E-06        -0.12579E-19         0.00000E+00
    0.11938E-06        -0.14442E-19         0.00000E+00
    0.11938E-06        -0.74506E-20         0.00000E+00
    0.11938E-06        -0.74506E-20         0.00000E+00
    0.11938E-06        -0.16764E-19         0.00000E+00
    0.11938E-06        -0.26537E-19         0.00000E+00
    0.11938E-06        -0.26537E-19         0.00000E+00
    0.11938E-06        -0.19086E-19         0.00000E+00
    0.11938E-06        -0.11176E-19         0.00000E+00
    0.11938E-06        -0.51284E-20         0.00000E+00
    0.11938E-06        -0.11635E-19         0.00000E+00
    0.11938E-06        -0.17223E-19         0.00000E+00
    0.11938E-06        -0.88537E-20         0.00000E+00
    0.11938E-06         0.65071E-20         0.00000E+00
    0.11938E-06         0.14901E-19         0.00000E+00
    0.11938E-06         0.14442E-19         0.00000E+00
    0.11938E-06         0.13039E-19         0.00000E+00
    0.11938E-06         0.93132E-20         0.00000E+00
    0.11938E-06         0.37253E-20         0.00000E+00
    0.11938E-06         0.00000E+00         0.00000E+00
    0.11938E-06        -0.18626E-20         0.00000E+00
    0.11938E-06        -0.41849E-20         0.00000E+00
    0.11938E-06        -0.46444E-20         0.00000E+00
    0.12593E-06         0.37253E-20         0.00000E+00
    0.12593E-06         0.74506E-20         0.00000E+00
    0.12593E-06         0.12552E-19         0.00000E+00
    0.12593E-06         0.88264E-20         0.00000E+00
    0.12593E-06         0.37677E-20         0.00000E+00
    0.12593E-06         0.13081E-19         0.00000E+00
    0.12593E-06         0.21865E-19         0.00000E+00
    0.12593E-06         0.16277E-19         0.00000E+00
    0.12593E-06         0.93132E-20         0.00000E+00
    0.12593E-06         0.32384E-20         0.00000E+00
    0.12593E-06        -0.42121E-20         0.00000E+00
    0.12593E-06        -0.13758E-20         0.00000E+00
    0.12593E-06         0.11663E-19         0.00000E+00
    0.12593E-06         0.13039E-19         0.00000E+00
    0.12593E-06         0.42121E-20         0.00000E+00
    0.12593E-06        -0.37253E-20         0.00000E+00
    0.12593E-06        -0.46990E-20         0.00000E+00
    0.12593E-06        -0.48684E-21         0.00000E+00
    0.12593E-06         0.42121E-20         0.00000E+00
    0.12593E-06         0.11176E-19         0.00000E+00
    0.12593E-06         0.88264E-20         0.00000E+00
    0.12593E-06         0.37253E-20         0.00000E+00
    0.12593E-06        -0.51011E-20         0.00000E+00
    0.12593E-06        -0.64769E-20         0.00000E+00
    0.12593E-06        -0.32808E-20         0.00000E+00
    0.12593E-06        -0.13039E-19         0.00000E+00
    0.12593E-06        -0.55879E-20         0.00000E+00
    0.12593E-06        -0.48684E-21         0.00000E+00
    0.12593E-06        -0.12065E-19         0.00000E+00
    0.12593E-06        -0.15346E-19         0.00000E+00
    0.12593E-06        -0.18182E-19         0.00000E+00
    0.12593E-06        -0.16764E-19         0.00000E+00
    0.12593E-06        -0.17251E-19         0.00000E+00
    0.12593E-06        -0.18669E-19         0.00000E+00
    0.12593E-06        -0.24659E-19         0.00000E+00
    0.12593E-06        -0.20489E-19         0.00000E+00
    0.12593E-06        -0.16277E-19         0.00000E+00
    0.12593E-06        -0.12996E-19         0.00000E+00
    0.12593E-06        -0.60748E-20         0.00000E+00
    0.12593E-06        -0.84243E-20         0.00000E+00
    0.12593E-06        -0.79374E-20         0.00000E+00
    0.12593E-06         0.37253E-20         0.00000E+00
    0.12593E-06         0.10731E-19         0.00000E+00
    0.12593E-06         0.70061E-20         0.00000E+00
    0.12593E-06         0.37253E-20         0.00000E+00
    0.12593E-06         0.42121E-20         0.00000E+00
    0.12593E-06         0.27940E-20         0.00000E+00
    0.12593E-06         0.78951E-20         0.00000E+00
    0.12593E-06         0.11620E-19         0.00000E+00
    0.12593E-06         0.41698E-20         0.00000E+00
    0.12593E-06         0.37253E-20         0.00000E+00
    0.13224E-06         0.84603E-20         0.00000E+00
    0.13224E-06         0.74506E-20         0.00000E+00
    0.13224E-06         0.18626E-20         0.00000E+00
    0.13224E-06         0.93132E-21         0.00000E+00
    0.13224E-06         0.55095E-20         0.00000E+00
    0.13224E-06         0.18626E-19         0.00000E+00
    0.13224E-06         0.22857E-19         0.00000E+00
    0.13224E-06         0.16337E-19         0.00000E+00
    0.13224E-06         0.97397E-20         0.00000E+00
    0.13224E-06         0.13970E-19         0.00000E+00
    0.13224E-06         0.17269E-19         0.00000E+00
    0.13224E-06         0.78770E-20         0.00000E+00
    0.13224E-06         0.74506E-20         0.00000E+00
    0.13224E-06         0.13543E-19         0.00000E+00
    0.13224E-06         0.97397E-20         0.00000E+00
    0.13224E-06        -0.38037E-20         0.00000E+00
    0.13224E-06        -0.17842E-20         0.00000E+00
    0.13224E-06        -0.10671E-19         0.00000E+00
    0.13224E-06        -0.11176E-19         0.00000E+00
    0.13224E-06        -0.41517E-20         0.00000E+00
    0.13224E-06        -0.12612E-19         0.00000E+00
    0.13224E-06        -0.10749E-19         0.00000E+00
    0.13224E-06        -0.18626E-20         0.00000E+00
    0.13224E-06         0.22891E-20         0.00000E+00
    0.13224E-06         0.79555E-20         0.00000E+00
    0.13224E-06        -0.18626E-20         0.00000E+00
    0.13224E-06        -0.15406E-19         0.00000E+00
    0.13224E-06        -0.13465E-19         0.00000E+00
    0.13224E-06        -0.11602E-19         0.00000E+00
    0.13224E-06        -0.13543E-19         0.00000E+00
    0.13224E-06        -0.93132E-20         0.00000E+00
    0.13224E-06        -0.93132E-20         0.00000E+00
    0.13224E-06        -0.17269E-19         0.00000E+00
    0.13224E-06        -0.20489E-19         0.00000E+00
    0.13224E-06        -0.22352E-19         0.00000E+00
    0.13224E-06        -0.15754E-19         0.00000E+00
    0.13224E-06        -0.14901E-19         0.00000E+00
    0.13224E-06        -0.14901E-19         0.00000E+00
    0.13224E-06        -0.14901E-19         0.00000E+00
    0.13224E-06        -0.93132E-20         0.00000E+00
    0.13224E-06         0.37253E-20         0.00000E+00
    0.13224E-06         0.97397E-20         0.00000E+00
    0.13224E-06         0.13039E-19         0.00000E+00
    0.13224E-06         0.93132E-20         0.00000E+00
    0.13224E-06         0.60144E-20         0.00000E+00
    0.13224E-06         0.51615E-20         0.00000E+00
    0.13224E-06         0.50488E-21         0.00000E+00
    0.13224E-06        -0.23675E-20         0.00000E+00
    0.13224E-06        -0.37253E-20         0.00000E+00
    0.13224E-06        -0.22891E-20         0.00000E+00
    0.13224E-06         0.28724E-20         0.00000E+00
    0.13822E-06        -0.40892E-20         0.00000E+00
    0.13822E-06         0.65193E-20         0.00000E+00
    0.13822E-06         0.74506E-20         0.00000E+00
    0.13822E-06         0.65193E-20         0.00000E+00
    0.13822E-06         0.94952E-20         0.00000E+00
    0.13822E-06         0.10426E-19         0.00000E+00
    0.13822E-06         0.14901E-19         0.00000E+00
    0.13822E-06         0.17229E-19         0.00000E+00
    0.13822E-06         0.22352E-19         0.00000E+00
    0.13822E-06         0.14901E-19         0.00000E+00
    0.13822E-06         0.55879E-20         0.00000E+00
    0.13822E-06         0.11460E-19         0.00000E+00
    0.13822E-06         0.11176E-19         0.00000E+00
    0.13822E-06         0.58717E-20         0.00000E+00
    0.13822E-06         0.30777E-20         0.00000E+00
    0.13822E-06         0.94952E-20         0.00000E+00
    0.13822E-06         0.18626E-20         0.00000E+00
    0.13822E-06        -0.12150E-20         0.00000E+00
    0.13822E-06        -0.28957E-20         0.00000E+00
    0.13822E-06        -0.12107E-19         0.00000E+00
    0.13822E-06        -0.99608E-20         0.00000E+00
    0.13822E-06        -0.80982E-20         0.00000E+00
    0.13822E-06        -0.12107E-19         0.00000E+00
    0.13822E-06        -0.20205E-19         0.00000E+00
    0.13822E-06        -0.17513E-19         0.00000E+00
    0.13822E-06        -0.10245E-19         0.00000E+00
    0.13822E-06        -0.37253E-20         0.00000E+00
    0.13822E-06        -0.55879E-20         0.00000E+00
    0.13822E-06        -0.11823E-19         0.00000E+00
    0.13822E-06        -0.97789E-20         0.00000E+00
    0.13822E-06        -0.51223E-20         0.00000E+00
    0.13822E-06        -0.54060E-20         0.00000E+00
    0.13822E-06        -0.14901E-19         0.00000E+00
    0.13822E-06        -0.25895E-19         0.00000E+00
    0.13822E-06        -0.26543E-19         0.00000E+00
    0.13822E-06        -0.26077E-19         0.00000E+00
    0.13822E-06        -0.21886E-19         0.00000E+00
    0.13822E-06        -0.93132E-20         0.00000E+00
    0.13822E-06        -0.51223E-20         0.00000E+00
    0.13822E-06        -0.88476E-20         0.00000E+00
    0.13822E-06        -0.65193E-20         0.00000E+00
    0.13822E-06         0.32596E-20         0.00000E+00
    0.13822E-06         0.71669E-20         0.00000E+00
    0.13822E-06         0.14901E-19         0.00000E+00
    0.13822E-06         0.10346E-19         0.00000E+00
    0.13822E-06         0.58717E-20         0.00000E+00
    0.13822E-06         0.10426E-19         0.00000E+00
    0.13822E-06         0.55879E-20         0.00000E+00
    0.13822E-06         0.18626E-20         0.00000E+00
    0.13822E-06        -0.30777E-20         0.00000E+00
    0.13822E-06        -0.56744E-21         0.00000E+00
    0.14378E-06         0.37253E-20         0.00000E+00
    0.14378E-06         0.69196E-20         0.00000E+00
    0.14378E-06         0.55879E-20         0.00000E+00
    0.14378E-06         0.23936E-20         0.00000E+00
    0.14378E-06         0.74506E-20         0.00000E+00
    0.14378E-06         0.15832E-19         0.00000E+00
    0.14378E-06         0.22752E-19         0.00000E+00
    0.14378E-06         0.18095E-19         0.00000E+00
    0.14378E-06         0.11176E-19         0.00000E+00
    0.14378E-06         0.11176E-19         0.00000E+00
    0.14378E-06         0.93132E-20         0.00000E+00
    0.14378E-06         0.89782E-20         0.00000E+00
    0.14378E-06         0.14435E-19         0.00000E+00
    0.14378E-06         0.14771E-19         0.00000E+00
    0.14378E-06         0.24590E-20         0.00000E+00
    0.14378E-06        -0.37253E-20         0.00000E+00
    0.14378E-06        -0.65329E-22         0.00000E+00
    0.14378E-06        -0.60536E-20         0.00000E+00
    0.14378E-06        -0.84472E-20         0.00000E+00
    0.14378E-06        -0.37253E-20         0.00000E+00
    0.14378E-06        -0.64539E-20         0.00000E+00
    0.14378E-06        -0.36600E-20         0.00000E+00
    0.14378E-06        -0.56533E-20         0.00000E+00
    0.14378E-06        -0.79162E-20         0.00000E+00
    0.14378E-06        -0.10245E-19         0.00000E+00
    0.14378E-06        -0.12107E-19         0.00000E+00
    0.14378E-06        -0.97136E-20         0.00000E+00
    0.14378E-06        -0.11707E-19         0.00000E+00
    0.14378E-06        -0.19157E-19         0.00000E+00
    0.14378E-06        -0.25481E-19         0.00000E+00
    0.14378E-06        -0.17695E-19         0.00000E+00
    0.14378E-06        -0.89129E-20         0.00000E+00
    0.14378E-06        -0.13504E-19         0.00000E+00
    0.14378E-06        -0.14901E-19         0.00000E+00
    0.14378E-06        -0.17164E-19         0.00000E+00
    0.14378E-06        -0.15432E-19         0.00000E+00
    0.14378E-06        -0.12638E-19         0.00000E+00
    0.14378E-06        -0.11576E-19         0.00000E+00
    0.14378E-06        -0.11576E-19         0.00000E+00
    0.14378E-06        -0.14501E-19         0.00000E+00
    0.14378E-06        -0.46566E-20         0.00000E+00
    0.14378E-06         0.32596E-20         0.00000E+00
    0.14378E-06         0.45913E-20         0.00000E+00
    0.14378E-06         0.37253E-20         0.00000E+00
    0.14378E-06         0.27940E-20         0.00000E+00
    0.14378E-06         0.18626E-20         0.00000E+00
    0.14378E-06         0.65329E-22         0.00000E+00
    0.14378E-06         0.65329E-22         0.00000E+00
    0.14378E-06        -0.93132E-21         0.00000E+00
    0.14378E-06        -0.99665E-21         0.00000E+00
    0.14378E-06        -0.13066E-21         0.00000E+00
    0.14882E-06         0.13729E-20         0.00000E+00
    0.14882E-06         0.46566E-20         0.00000E+00
    0.14882E-06         0.39702E-20         0.00000E+00
    0.14882E-06         0.18626E-20         0.00000E+00
    0.14882E-06         0.65193E-20         0.00000E+00
    0.14882E-06         0.13259E-19         0.00000E+00
    0.14882E-06         0.16053E-19         0.00000E+00
    0.14882E-06         0.16543E-19         0.00000E+00
    0.14882E-06         0.11176E-19         0.00000E+00
    0.14882E-06         0.67400E-20         0.00000E+00
    0.14882E-06         0.95581E-20         0.00000E+00
    0.14882E-06         0.10489E-19         0.00000E+00
    0.14882E-06         0.39461E-20         0.00000E+00
    0.14882E-06        -0.27940E-20         0.00000E+00
    0.14882E-06         0.95541E-21         0.00000E+00
    0.14882E-06        -0.25491E-20         0.00000E+00
    0.14882E-06        -0.10489E-19         0.00000E+00
    0.14882E-06        -0.98030E-20         0.00000E+00
    0.14882E-06        -0.39702E-20         0.00000E+00
    0.14882E-06        -0.55879E-20         0.00000E+00
    0.14882E-06        -0.11176E-19         0.00000E+00
    0.14882E-06        -0.11176E-19         0.00000E+00
    0.14882E-06        -0.53431E-20         0.00000E+00
    0.14882E-06        -0.44117E-20         0.00000E+00
    0.14882E-06        -0.67641E-20         0.00000E+00
    0.14882E-06        -0.93132E-20         0.00000E+00
    0.14882E-06        -0.11862E-19         0.00000E+00
    0.14882E-06        -0.11421E-19         0.00000E+00
    0.14882E-06        -0.14215E-19         0.00000E+00
    0.14882E-06        -0.64952E-20         0.00000E+00
    0.14882E-06        -0.58087E-20         0.00000E+00
    0.14882E-06        -0.13039E-19         0.00000E+00
    0.14882E-06        -0.14901E-19         0.00000E+00
    0.14882E-06        -0.22597E-19         0.00000E+00
    0.14882E-06        -0.21420E-19         0.00000E+00
    0.14882E-06        -0.18871E-19         0.00000E+00
    0.14882E-06        -0.17009E-19         0.00000E+00
    0.14882E-06        -0.10931E-19         0.00000E+00
    0.14882E-06        -0.10245E-19         0.00000E+00
    0.14882E-06        -0.13283E-19         0.00000E+00
    0.14882E-06        -0.13039E-19         0.00000E+00
    0.14882E-06        -0.37253E-20         0.00000E+00
    0.14882E-06         0.58328E-20         0.00000E+00
    0.14882E-06         0.76955E-20         0.00000E+00
    0.14882E-06         0.68645E-21         0.00000E+00
    0.14882E-06        -0.37253E-20         0.00000E+00
    0.14882E-06         0.11762E-20         0.00000E+00
    0.14882E-06         0.68645E-21         0.00000E+00
    0.14882E-06        -0.21075E-20         0.00000E+00
    0.14882E-06         0.93132E-21         0.00000E+00
    0.14882E-06         0.37253E-20         0.00000E+00
    0.15327E-06         0.55879E-20         0.00000E+00
    0.15327E-06         0.47564E-20         0.00000E+00
    0.15327E-06         0.10311E-20         0.00000E+00
    0.15327E-06         0.00000E+00         0.00000E+00
    0.15327E-06         0.31598E-20         0.00000E+00
    0.15327E-06         0.13970E-19         0.00000E+00
    0.15327E-06         0.18161E-19         0.00000E+00
    0.15327E-06         0.12007E-19         0.00000E+00
    0.15327E-06         0.11176E-19         0.00000E+00
    0.15327E-06         0.80161E-20         0.00000E+00
    0.15327E-06         0.14968E-20         0.00000E+00
    0.15327E-06         0.37253E-20         0.00000E+00
    0.15327E-06         0.55879E-20         0.00000E+00
    0.15327E-06         0.16630E-20         0.00000E+00
    0.15327E-06        -0.67189E-20         0.00000E+00
    0.15327E-06        -0.95793E-20         0.00000E+00
    0.15327E-06        -0.10511E-19         0.00000E+00
    0.15327E-06        -0.11176E-19         0.00000E+00
    0.15327E-06        -0.13039E-19         0.00000E+00
    0.15327E-06        -0.11176E-19         0.00000E+00
    0.15327E-06        -0.93132E-20         0.00000E+00
    0.15327E-06        -0.19625E-20         0.00000E+00
    0.15327E-06         0.83151E-21         0.00000E+00
    0.15327E-06         0.93132E-21         0.00000E+00
    0.15327E-06         0.42908E-20         0.00000E+00
    0.15327E-06         0.27940E-20         0.00000E+00
    0.15327E-06        -0.37253E-20         0.00000E+00
    0.15327E-06        -0.37253E-20         0.00000E+00
    0.15327E-06        -0.67189E-20         0.00000E+00
    0.15327E-06        -0.14801E-19         0.00000E+00
    0.15327E-06        -0.14236E-19         0.00000E+00
    0.15327E-06        -0.12673E-19         0.00000E+00
    0.15327E-06        -0.22352E-19         0.00000E+00
    0.15327E-06        -0.32031E-19         0.00000E+00
    0.15327E-06        -0.34459E-19         0.00000E+00
    0.15327E-06        -0.27574E-19         0.00000E+00
    0.15327E-06        -0.19558E-19         0.00000E+00
    0.15327E-06        -0.12473E-19         0.00000E+00
    0.15327E-06        -0.11176E-19         0.00000E+00
    0.15327E-06        -0.12107E-19         0.00000E+00
    0.15327E-06        -0.37253E-20         0.00000E+00
    0.15327E-06         0.50225E-20         0.00000E+00
    0.15327E-06         0.68851E-20         0.00000E+00
    0.15327E-06         0.47564E-20         0.00000E+00
    0.15327E-06         0.28938E-20         0.00000E+00
    0.15327E-06        -0.99813E-22         0.00000E+00
    0.15327E-06        -0.27940E-20         0.00000E+00
    0.15327E-06        -0.45568E-20         0.00000E+00
    0.15327E-06        -0.28938E-20         0.00000E+00
    0.15327E-06         0.00000E+00         0.00000E+00
    0.15327E-06         0.20623E-20         0.00000E+00
    0.15703E-06         0.00000E+00         0.00000E+00
    0.15703E-06         0.50951E-20         0.00000E+00
    0.15703E-06         0.60536E-20         0.00000E+00
    0.15703E-06         0.56151E-20         0.00000E+00
    0.15703E-06         0.92861E-20         0.00000E+00
    0.15703E-06         0.15805E-19         0.00000E+00
    0.15703E-06         0.19585E-19         0.00000E+00
    0.15703E-06         0.20023E-19         0.00000E+00
    0.15703E-06         0.12573E-19         0.00000E+00
    0.15703E-06         0.46838E-20         0.00000E+00
    0.15703E-06         0.27940E-20         0.00000E+00
    0.15703E-06         0.60264E-20         0.00000E+00
    0.15703E-06         0.69578E-20         0.00000E+00
    0.15703E-06         0.51494E-20         0.00000E+00
    0.15703E-06         0.23012E-20         0.00000E+00
    0.15703E-06        -0.12107E-19         0.00000E+00
    0.15703E-06        -0.19503E-19         0.00000E+00
    0.15703E-06        -0.15832E-19         0.00000E+00
    0.15703E-06        -0.74506E-20         0.00000E+00
    0.15703E-06         0.00000E+00         0.00000E+00
    0.15703E-06        -0.49282E-21         0.00000E+00
    0.15703E-06        -0.14241E-20         0.00000E+00
    0.15703E-06        -0.27668E-20         0.00000E+00
    0.15703E-06        -0.18626E-20         0.00000E+00
    0.15703E-06        -0.18626E-20         0.00000E+00
    0.15703E-06        -0.36981E-20         0.00000E+00
    0.15703E-06        -0.27940E-20         0.00000E+00
    0.15703E-06        -0.51494E-20         0.00000E+00
    0.15703E-06        -0.15832E-19         0.00000E+00
    0.15703E-06        -0.17202E-19         0.00000E+00
    0.15703E-06        -0.16764E-19         0.00000E+00
    0.15703E-06        -0.17695E-19         0.00000E+00
    0.15703E-06        -0.17695E-19         0.00000E+00
    0.15703E-06        -0.23283E-19         0.00000E+00
    0.15703E-06        -0.24214E-19         0.00000E+00
    0.15703E-06        -0.19558E-19         0.00000E+00
    0.15703E-06        -0.14901E-19         0.00000E+00
    0.15703E-06        -0.13970E-19         0.00000E+00
    0.15703E-06        -0.89019E-20         0.00000E+00
    0.15703E-06        -0.11176E-19         0.00000E+00
    0.15703E-06        -0.11587E-19         0.00000E+00
    0.15703E-06        -0.95848E-21         0.00000E+00
    0.15703E-06         0.23283E-20         0.00000E+00
    0.15703E-06         0.27940E-20         0.00000E+00
    0.15703E-06         0.41910E-20         0.00000E+00
    0.15703E-06         0.28211E-20         0.00000E+00
    0.15703E-06         0.18626E-20         0.00000E+00
    0.15703E-06         0.13698E-20         0.00000E+00
    0.15703E-06        -0.93132E-21         0.00000E+00
    0.15703E-06        -0.13698E-20         0.00000E+00
    0.15703E-06         0.18626E-20         0.00000E+00
    0.16003E-06         0.56047E-20         0.00000E+00
    0.16003E-06         0.46566E-20         0.00000E+00
    0.16003E-06         0.27940E-20         0.00000E+00
    0.16003E-06        -0.93132E-21         0.00000E+00
    0.16003E-06         0.41910E-20         0.00000E+00
    0.16003E-06         0.14435E-19         0.00000E+00
    0.16003E-06         0.14435E-19         0.00000E+00
    0.16003E-06         0.79162E-20         0.00000E+00
    0.16003E-06         0.88476E-20         0.00000E+00
    0.16003E-06         0.69849E-20         0.00000E+00
    0.16003E-06         0.18626E-20         0.00000E+00
    0.16003E-06         0.55879E-20         0.00000E+00
    0.16003E-06         0.12573E-19         0.00000E+00
    0.16003E-06         0.11650E-19         0.00000E+00
    0.16003E-06         0.65193E-20         0.00000E+00
    0.16003E-06         0.13886E-20         0.00000E+00
    0.16003E-06         0.93132E-21         0.00000E+00
    0.16003E-06        -0.37253E-20         0.00000E+00
    0.16003E-06        -0.69933E-20         0.00000E+00
    0.16003E-06        -0.74506E-20         0.00000E+00
    0.16003E-06        -0.11176E-19         0.00000E+00
    0.16003E-06        -0.10245E-19         0.00000E+00
    0.16003E-06        -0.74506E-20         0.00000E+00
    0.16003E-06        -0.46566E-20         0.00000E+00
    0.16003E-06         0.18626E-20         0.00000E+00
    0.16003E-06         0.47404E-21         0.00000E+00
    0.16003E-06        -0.74506E-20         0.00000E+00
    0.16003E-06        -0.69933E-20         0.00000E+00
    0.16003E-06        -0.93132E-20         0.00000E+00
    0.16003E-06        -0.14901E-19         0.00000E+00
    0.16003E-06        -0.11633E-19         0.00000E+00
    0.16003E-06        -0.10702E-19         0.00000E+00
    0.16003E-06        -0.14901E-19         0.00000E+00
    0.16003E-06        -0.20032E-19         0.00000E+00
    0.16003E-06        -0.20963E-19         0.00000E+00
    0.16003E-06        -0.20489E-19         0.00000E+00
    0.16003E-06        -0.15832E-19         0.00000E+00
    0.16003E-06        -0.93132E-20         0.00000E+00
    0.16003E-06        -0.55796E-20         0.00000E+00
    0.16003E-06        -0.74506E-20         0.00000E+00
    0.16003E-06        -0.55879E-20         0.00000E+00
    0.16003E-06        -0.18626E-20         0.00000E+00
    0.16003E-06        -0.93970E-21         0.00000E+00
    0.16003E-06         0.00000E+00         0.00000E+00
    0.16003E-06        -0.18626E-20         0.00000E+00
    0.16003E-06        -0.55879E-20         0.00000E+00
    0.16003E-06        -0.37253E-20         0.00000E+00
    0.16003E-06         0.00000E+00         0.00000E+00
    0.16003E-06        -0.18626E-20         0.00000E+00
    0.16003E-06         0.46482E-20         0.00000E+00
    0.16003E-06         0.13022E-19         0.00000E+00
    0.16223E-06         0.96880E-21         0.00000E+00
    0.16223E-06         0.93132E-21         0.00000E+00
    0.16223E-06        -0.48440E-21         0.00000E+00
    0.16223E-06         0.95006E-21         0.00000E+00
    0.16223E-06         0.84006E-20         0.00000E+00
    0.16223E-06         0.10691E-19         0.00000E+00
    0.16223E-06         0.14417E-19         0.00000E+00
    0.16223E-06         0.14901E-19         0.00000E+00
    0.16223E-06         0.15348E-19         0.00000E+00
    0.16223E-06         0.74506E-20         0.00000E+00
    0.16223E-06         0.48440E-21         0.00000E+00
    0.16223E-06         0.46566E-20         0.00000E+00
    0.16223E-06         0.18626E-20         0.00000E+00
    0.16223E-06         0.93132E-21         0.00000E+00
    0.16223E-06        -0.93132E-21         0.00000E+00
    0.16223E-06        -0.37253E-20         0.00000E+00
    0.16223E-06        -0.37253E-20         0.00000E+00
    0.16223E-06        -0.27940E-20         0.00000E+00
    0.16223E-06         0.00000E+00         0.00000E+00
    0.16223E-06         0.18626E-20         0.00000E+00
    0.16223E-06         0.00000E+00         0.00000E+00
    0.16223E-06        -0.18626E-20         0.00000E+00
    0.16223E-06        -0.18626E-20         0.00000E+00
    0.16223E-06         0.00000E+00         0.00000E+00
    0.16223E-06         0.93132E-21         0.00000E+00
    0.16223E-06        -0.37253E-20         0.00000E+00
    0.16223E-06        -0.55879E-20         0.00000E+00
    0.16223E-06        -0.65193E-20         0.00000E+00
    0.16223E-06        -0.93132E-20         0.00000E+00
    0.16223E-06        -0.55879E-20         0.00000E+00
    0.16223E-06        -0.65193E-20         0.00000E+00
    0.16223E-06        -0.13020E-19         0.00000E+00
    0.16223E-06        -0.18626E-19         0.00000E+00
    0.16223E-06        -0.20489E-19         0.00000E+00
    0.16223E-06        -0.18626E-19         0.00000E+00
    0.16223E-06        -0.15851E-19         0.00000E+00
    0.16223E-06        -0.10245E-19         0.00000E+00
    0.16223E-06        -0.83632E-20         0.00000E+00
    0.16223E-06        -0.12107E-19         0.00000E+00
    0.16223E-06        -0.12126E-19         0.00000E+00
    0.16223E-06        -0.55692E-20         0.00000E+00
    0.16223E-06        -0.23283E-20         0.00000E+00
    0.16223E-06         0.13782E-20         0.00000E+00
    0.16223E-06         0.27940E-20         0.00000E+00
    0.16223E-06         0.00000E+00         0.00000E+00
    0.16223E-06         0.28127E-20         0.00000E+00
    0.16223E-06         0.60536E-20         0.00000E+00
    0.16223E-06         0.69662E-20         0.00000E+00
    0.16223E-06         0.32784E-20         0.00000E+00
    0.16223E-06         0.41722E-20         0.00000E+00
    0.16223E-06         0.73756E-20         0.00000E+00
    0.16356E-06         0.00000E+00         0.00000E+00
    0.16356E-06        -0.37089E-20         0.00000E+00
    0.16356E-06        -0.93132E-21         0.00000E+00
    0.16356E-06        -0.16371E-22         0.00000E+00
    0.16356E-06        -0.74342E-20         0.00000E+00
    0.16356E-06         0.28103E-20         0.00000E+00
    0.16356E-06         0.17197E-19         0.00000E+00
    0.16356E-06         0.13488E-19         0.00000E+00
    0.16356E-06         0.46730E-20         0.00000E+00
    0.16356E-06         0.93132E-21         0.00000E+00
    0.16356E-06         0.00000E+00         0.00000E+00
    0.16356E-06         0.93132E-21         0.00000E+00
    0.16356E-06         0.46566E-20         0.00000E+00
    0.16356E-06         0.94769E-21         0.00000E+00
    0.16356E-06         0.93132E-21         0.00000E+00
    0.16356E-06         0.37089E-20         0.00000E+00
    0.16356E-06         0.00000E+00         0.00000E+00
    0.16356E-06        -0.37253E-20         0.00000E+00
    0.16356E-06        -0.93132E-21         0.00000E+00
    0.16356E-06         0.93132E-21         0.00000E+00
    0.16356E-06        -0.18626E-20         0.00000E+00
    0.16356E-06        -0.18626E-20         0.00000E+00
    0.16356E-06         0.93132E-21         0.00000E+00
    0.16356E-06         0.55879E-20         0.00000E+00
    0.16356E-06         0.65193E-20         0.00000E+00
    0.16356E-06         0.46566E-20         0.00000E+00
    0.16356E-06         0.93132E-21         0.00000E+00
    0.16356E-06        -0.27940E-20         0.00000E+00
    0.16356E-06        -0.65193E-20         0.00000E+00
    0.16356E-06        -0.74506E-20         0.00000E+00
    0.16356E-06        -0.46566E-20         0.00000E+00
    0.16356E-06        -0.46239E-20         0.00000E+00
    0.16356E-06        -0.65193E-20         0.00000E+00
    0.16356E-06        -0.10277E-19         0.00000E+00
    0.16356E-06        -0.16764E-19         0.00000E+00
    0.16356E-06        -0.14901E-19         0.00000E+00
    0.16356E-06        -0.10245E-19         0.00000E+00
    0.16356E-06        -0.93132E-20         0.00000E+00
    0.16356E-06        -0.93132E-20         0.00000E+00
    0.16356E-06        -0.83819E-20         0.00000E+00
    0.16356E-06        -0.55879E-20         0.00000E+00
    0.16356E-06         0.27940E-20         0.00000E+00
    0.16356E-06         0.83819E-20         0.00000E+00
    0.16356E-06         0.42073E-20         0.00000E+00
    0.16356E-06         0.32596E-20         0.00000E+00
    0.16356E-06         0.46402E-20         0.00000E+00
    0.16356E-06        -0.46402E-20         0.00000E+00
    0.16356E-06        -0.46402E-20         0.00000E+00
    0.16356E-06         0.69685E-20         0.00000E+00
    0.16356E-06         0.50895E-20         0.00000E+00
    0.16356E-06        -0.18954E-20         0.00000E+00
    0.16401E-06         0.00000E+00         0.00000E+00
    0.16401E-06         0.00000E+00         0.00000E+00
    0.16401E-06         0.00000E+00         0.00000E+00
    0.16401E-06         0.00000E+00         0.00000E+00
    0.16401E-06         0.00000E+00         0.00000E+00
    0.16401E-06         0.00000E+00         0.00000E+00
    0.16401E-06         0.00000E+00         0.00000E+00
    0.16401E-06         0.00000E+00         0.00000E+00
    0.16401E-06         0.00000E+00         0.00000E+00
    0.16401E-06        -0.46566E-20         0.00000E+00
    0.16401E-06         0.00000E+00         0.00000E+00
    0.16401E-06         0.46566E-20         0.00000E+00
    0.16401E-06         0.00000E+00         0.00000E+00
    0.16401E-06         0.00000E+00         0.00000E+00
    0.16401E-06         0.00000E+00         0.00000E+00
    0.16401E-06         0.00000E+00         0.00000E+00
    0.16401E-06         0.00000E+00         0.00000E+00
    0.16401E-06         0.46566E-20         0.00000E+00
    0.16401E-06         0.00000E+00         0.00000E+00
    0.16401E-06        -0.46566E-20         0.00000E+00
    0.16401E-06         0.00000E+00         0.00000E+00
    0.16401E-06         0.00000E+00         0.00000E+00
    0.16401E-06         0.00000E+00         0.00000E+00
    0.16401E-06         0.00000E+00         0.00000E+00
    0.16401E-06         0.00000E+00         0.00000E+00
    0.16401E-06         0.00000E+00         0.00000E+00
    0.16401E-06         0.00000E+00         0.00000E+00
    0.16401E-06         0.00000E+00         0.00000E+00
    0.16401E-06         0.00000E+00         0.00000E+00
    0.16401E-06         0.00000E+00         0.00000E+00
    0.16401E-06         0.00000E+00         0.00000E+00
    0.16401E-06         0.00000E+00         0.00000E+00
    0.16401E-06         0.00000E+00         0.00000E+00
    0.16401E-06         0.00000E+00         0.00000E+00
    0.16401E-06         0.00000E+00         0.00000E+00
    0.16401E-06         0.00000E+00         0.00000E+00
    0.16401E-06         0.00000E+00         0.00000E+00
    0.16401E-06         0.00000E+00         0.00000E+00
    0.16401E-06         0.00000E+00         0.00000E+00
    0.16401E-06        -0.55879E-20         0.00000E+00
    0.16401E-06        -0.46566E-20         0.00000E+00
    0.16401E-06         0.46566E-20         0.00000E+00
    0.16401E-06         0.46566E-20         0.00000E+00
    0.16401E-06         0.00000E+00         0.00000E+00
    0.16401E-06         0.00000E+00         0.00000E+00
    0.16401E-06         0.00000E+00         0.00000E+00
    0.16401E-06         0.00000E+00         0.00000E+00
    0.16401E-06         0.46566E-20         0.00000E+00
    0.16401E-06         0.93132E-21         0.00000E+00
    0.16401E-06         0.00000E+00         0.00000E+00
    0.16401E-06         0.93132E-20         0.00000E+00
CELL_DATA       5000
TENSORS stressef double 
    0.53736E+04         0.25795E+01         0.00000E+00
    0.25795E+01        -0.33401E+01         0.00000E+00
    0.00000E+00         0.00000E+00         0.00000E+00
 
    0.53923E+04         0.98296E+01         0.00000E+00
    0.98296E+01        -0.67733E+00         0.00000E+00
    0.00000E+00         0.00000E+00         0.00000E+00
 
    0.54058E+04         0.17235E+02         0.00000E+00
    0.17235E+02         0.48907E+01         0.00000E+00
    0.00000E+00         0.00000E+00         0.00000E+00
 
    0.54136E+04         0.24727E+02         0.00000E+00
    0.24727E+02         0.13414E+02         0.00000E+00
    0.00000E+00         0.00000E+00         0.00000E+00
 
    0.54159E+04         0.32263E+02         0.00000E+00
    0.32263E+02         0.24923E+02         0.00000E+00
    0.00000E+00         0.00000E+00         0.00000E+00
 
    0.54124E+04         0.39817E+02         0.00000E+00
    0.39817E+02         0.39434E+02         0.00000E+00
    0.00000E+00         0.00000E+00         0.00000E+00
 
    0.54031E+04         0.47371E+02         0.00000E+00
    0.47371E+02         0.56956E+02         0.00000E+00
    0.00000E+00         0.00000E+00         0.00000E+00
 
    0.53880E+04         0.54912E+02         0.00000E+00
    0.54912E+02         0.77489E+02         0.00000E+00
    0.00000E+00         0.00000E+00         0.00000E+00
 
    0.53671E+04         0.62428E+02         0.00000E+00
    0.62428E+02         0.10103E+03         0.00000E+00
    0.00000E+00         0.00000E+00         0.00000E+00
 
    0.53403E+04         0.69908E+02         0.00000E+00
    0.69908E+02         0.12756E+03         0.00000E+00
    0.00000E+00         0.00000E+00         0.00000E+00
 
    0.53077E+04         0.77344E+02         0.00000E+00
    0.77344E+02         0.15708E+03         0.00000E+00
    0.00000E+00         0.00000E+00         0.00000E+00
 
    0.52693E+04         0.84727E+02         0.00000E+00
    0.84727E+02         0.18955E+03         0.00000E+00
    0.00000E+00         0.00000E+00         0.00000E+00
 
    0.52250E+04         0.92048E+02         0.00000E+00
    0.92048E+02         0.22497E+03         0.00000E+00
    0.00000E+00         0.00000E+00         0.00000E+00
 
    0.51750E+04         0.99300E+02         0.00000E+00
    0.99300E+02         0.26331E+03         0.00000E+00
    0.00000E+00         0.00000E+00         0.00000E+00
 
    0.51192E+04         0.10647E+03         0.00000E+00
    0.10647E+03         0.30452E+03         0.00000E+00
    0.00000E+00         0.00000E+00         0.00000E+00
 
    0.50576E+04         0.11356E+03         0.00000E+00
    0.11356E+03         0.34860E+03         0.00000E+00
    0.00000E+00         0.00000E+00         0.00000E+00
 
    0.49904E+04         0.12056E+03         0.00000E+00
    0.12056E+03         0.39549E+03         0.00000E+00
    0.00000E+00         0.00000E+00         0.00000E+00
 
    0.49175E+04         0.12745E+03         0.00000E+00
    0.12745E+03         0.44516E+03         0.00000E+00
    0.00000E+00         0.00000E+00         0.00000E+00
 
    0.48390E+04         0.13424E+03         0.00000E+00
    0.13424E+03         0.49757E+03         0.00000E+00
    0.00000E+00         0.00000E+00         0.00000E+00
 
    0.47549E+04         0.14091E+03         0.00000E+00
    0.14091E+03         0.55267E+03         0.00000E+00
    0.00000E+00         0.00000E+00         0.00000E+00
 
    0.46654E+04         0.14747E+03         0.00000E+00
    0.14747E+03         0.61042E+03         0.00000E+00
    0.00000E+00         0.00000E+00         0.00000E+00
 
    0.45705E+04         0.15389E+03         0.00000E+00
    0.15389E+03         0.67077E+03         0.00000E+00
    0.00000E+00         0.00000E+00         0.00000E+00
 
    0.44702E+04         0.16017E+03         0.00000E+00
    0.16017E+03         0.73366E+03         0.00000E+00
    0.00000E+00         0.00000E+00         0.00000E+00
 
    0.43647E+04         0.16632E+03         0.00000E+00
    0.16632E+03         0.79904E+03         0.00000E+00
    0.00000E+00         0.00000E+00         0.00000E+00
 
    0.42540E+04         0.17231E+03         0.00000E+00
    0.17231E+03         0.86685E+03         0.00000E+00
    0.00000E+00         0.00000E+00         0.00000E+00
 
    0.41381E+04         0.17815E+03         0.00000E+00
    0.17815E+03         0.93703E+03         0.00000E+00
    0.00000E+00         0.00000E+00         0.00000E+00
 
    0.40173E+04         0.18382E+03         0.00000E+00
    0.18382E+03         0.10095E+04         0.00000E+00
    0.00000E+00         0.00000E+00         0.00000E+00
 
    0.38915E+04         0.18933E+03         0.00000E+00
    0.18933E+03         0.10842E+04         0.00000E+00
    0.00000E+00         0.00000E+00         0.00000E+00
 
    0.37609E+04         0.19466E+03         0.00000E+00
    0.19466E+03         0.11611E+04         0.00000E+00
    0.00000E+00         0.00000E+00         0.00000E+00
 
    0.36255E+04         0.19982E+03         0.00000E+00
    0.19982E+03         0.12401E+04         0.00000E+00
    0.00000E+00         0.00000E+00         0.00000E+00
 
    0.34855E+04         0.20478E+03         0.00000E+00
    0.20478E+03         0.13211E+04         0.00000E+00
    0.00000E+00         0.00000E+00         0.00000E+00
 
    0.33410E+04         0.20956E+03         0.00000E+00
    0.20956E+03         0.14041E+04         0.00000E+00
    0.00000E+00         0.00000E+00         0.00000E+00
 
    0.31921E+04         0.21413E+03         0.00000E+00
    0.21413E+03         0.14889E+04         0.00000E+00
    0.00000E+00         0.00000E+00         0.00000E+00
 
    0.30389E+04         0.21851E+03         0.00000E+00
    0.21851E+03         0.15756E+04         0.00000E+00
    0.00000E+00         0.00000E+00         0.00000E+00
 
    0.28815E+04         0.22268E+03         0.00000E+00
    0.22268E+03         0.16639E+04         0.00000E+00
    0.00000E+00         0.00000E+00         0.00000E+00
 
    0.27200E+04         0.22663E+03         0.00000E+00
    0.22663E+03         0.17539E+04         0.00000E+00
    0.00000E+00         0.00000E+00         0.00000E+00
 
    0.25545E+04         0.23037E+03         0.00000E+00
    0.23037E+03         0.18454E+04         0.00000E+00
    0.00000E+00         0.00000E+00         0.00000E+00
 
    0.23853E+04         0.23389E+03         0.00000E+00
    0.23389E+03         0.19383E+04         0.00000E+00
    0.00000E+00         0.00000E+00         0.00000E+00
 
    0.22123E+04         0.23719E+03         0.00000E+00
    0.23719E+03         0.20327E+04         0.00000E+00
    0.00000E+00         0.00000E+00         0.00000E+00
 
    0.20358E+04         0.24026E+03         0.00000E+00
    0.24026E+03         0.21283E+04         0.00000E+00
    0.00000E+00         0.00000E+00         0.00000E+00
 
    0.18559E+04         0.24310E+03         0.00000E+00
    0.24310E+03         0.22250E+04         0.00000E+00
    0.00000E+00         0.00000E+00         0.00000E+00
 
    0.16726E+04         0.24571E+03         0.00000E+00
    0.24571E+03         0.23229E+04         0.00000E+00
    0.00000E+00         0.00000E+00         0.00000E+00
 
    0.14862E+04         0.24809E+03         0.00000E+00
    0.24809E+03         0.24218E+04         0.00000E+00
    0.00000E+00         0.00000E+00         0.00000E+00
 
    0.12967E+04         0.25024E+03         0.00000E+00
    0.25024E+03         0.25216E+04         0.00000E+00
    0.00000E+00         0.00000E+00         0.00000E+00
 
    0.11044E+04         0.25216E+03         0.00000E+00
    0.25216E+03         0.26221E+04         0.00000E+00
    0.00000E+00         0.00000E+00         0.00000E+00
 
    0.90924E+03         0.25386E+03         0.00000E+00
    0.25386E+03         0.27235E+04         0.00000E+00
    0.00000E+00         0.00000E+00         0.00000E+00
 
    0.71144E+03         0.25536E+03         0.00000E+00
    0.25536E+03         0.28254E+04         0.00000E+00
    0.00000E+00         0.00000E+00         0.00000E+00
 
    0.51111E+03         0.25666E+03         0.00000E+00
    0.25666E+03         0.29279E+04         0.00000E+00
    0.00000E+00         0.00000E+00         0.00000E+00
 
    0.30833E+03         0.25781E+03         0.00000E+00
    0.25781E+03         0.30308E+04         0.00000E+00
    0.00000E+00         0.00000E+00         0.00000E+00
 
    0.10317E+03         0.25887E+03         0.00000E+00
    0.25887E+03         0.31342E+04         0.00000E+00
    0.00000E+00         0.00000E+00         0.00000E+00
 
    0.54359E+04         0.10385E+02         0.00000E+00
    0.10385E+02        -0.11102E+02         0.00000E+00
    0.00000E+00         0.00000E+00         0.00000E+00
 
    0.54567E+04         0.32065E+02         0.00000E+00
    0.32065E+02        -0.79525E+01         0.00000E+00
    0.00000E+00         0.00000E+00         0.00000E+00
 
    0.54714E+04         0.54098E+02         0.00000E+00
    0.54098E+02        -0.18190E+01         0.00000E+00
    0.00000E+00         0.00000E+00         0.00000E+00
 
    0.54800E+04         0.76376E+02         0.00000E+00
    0.76376E+02         0.73016E+01         0.00000E+00
    0.00000E+00         0.00000E+00         0.00000E+00
 
    0.54828E+04         0.98815E+02         0.00000E+00
    0.98815E+02         0.19418E+02         0.00000E+00
    0.00000E+00         0.00000E+00         0.00000E+00
 
    0.54795E+04         0.12135E+03         0.00000E+00
    0.12135E+03         0.34539E+02         0.00000E+00
    0.00000E+00         0.00000E+00         0.00000E+00
 
    0.54703E+04         0.14392E+03         0.00000E+00
    0.14392E+03         0.52671E+02         0.00000E+00
    0.00000E+00         0.00000E+00         0.00000E+00
 
    0.54551E+04         0.16648E+03         0.00000E+00
    0.16648E+03         0.73817E+02         0.00000E+00
    0.00000E+00         0.00000E+00         0.00000E+00
 
    0.54339E+04         0.18899E+03         0.00000E+00
    0.18899E+03         0.97973E+02         0.00000E+00
    0.00000E+00         0.00000E+00         0.00000E+00
 
    0.54068E+04         0.21142E+03         0.00000E+00
    0.21142E+03         0.12513E+03         0.00000E+00
    0.00000E+00         0.00000E+00         0.00000E+00
 
    0.53738E+04         0.23373E+03         0.00000E+00
    0.23373E+03         0.15529E+03         0.00000E+00
    0.00000E+00         0.00000E+00         0.00000E+00
 
    0.53348E+04         0.25590E+03         0.00000E+00
    0.25590E+03         0.18842E+03         0.00000E+00
    0.00000E+00         0.00000E+00         0.00000E+00
 
    0.52899E+04         0.27790E+03         0.00000E+00
    0.27790E+03         0.22450E+03         0.00000E+00
    0.00000E+00         0.00000E+00         0.00000E+00
 
    0.52392E+04         0.29969E+03         0.00000E+00
    0.29969E+03         0.26353E+03         0.00000E+00
    0.00000E+00         0.00000E+00         0.00000E+00
 
    0.51825E+04         0.32126E+03         0.00000E+00
    0.32126E+03         0.30546E+03         0.00000E+00
    0.00000E+00         0.00000E+00         0.00000E+00
 
    0.51201E+04         0.34258E+03         0.00000E+00
    0.34258E+03         0.35026E+03         0.00000E+00
    0.00000E+00         0.00000E+00         0.00000E+00
 
    0.50519E+04         0.36363E+03         0.00000E+00
    0.36363E+03         0.39791E+03         0.00000E+00
    0.00000E+00         0.00000E+00         0.00000E+00
 
    0.49780E+04         0.38437E+03         0.00000E+00
    0.38437E+03         0.44837E+03         0.00000E+00
    0.00000E+00         0.00000E+00         0.00000E+00
 
    0.48984E+04         0.40480E+03         0.00000E+00
    0.40480E+03         0.50159E+03         0.00000E+00
    0.00000E+00         0.00000E+00         0.00000E+00
 
    0.48132E+04         0.42488E+03         0.00000E+00
    0.42488E+03         0.55753E+03         0.00000E+00
    0.00000E+00         0.00000E+00         0.00000E+00
 
    0.47224E+04         0.44460E+03         0.00000E+00
    0.44460E+03         0.61614E+03         0.00000E+00
    0.00000E+00         0.00000E+00         0.00000E+00
 
    0.46262E+04         0.46393E+03         0.00000E+00
    0.46393E+03         0.67738E+03         0.00000E+00
    0.00000E+00         0.00000E+00         0.00000E+00
 
    0.45245E+04         0.48286E+03         0.00000E+00
    0.48286E+03         0.74119E+03         0.00000E+00
    0.00000E+00         0.00000E+00         0.00000E+00
 
    0.44175E+04         0.50135E+03         0.00000E+00
    0.50135E+03         0.80751E+03         0.00000E+00
    0.00000E+00         0.00000E+00         0.00000E+00
 
    0.43052E+04         0.51940E+03         0.00000E+00
    0.51940E+03         0.87629E+03         0.00000E+00
    0.00000E+00         0.00000E+00         0.00000E+00
 
    0.41878E+04         0.53698E+03         0.00000E+00
    0.53698E+03         0.94747E+03         0.00000E+00
    0.00000E+00         0.00000E+00         0.00000E+00
 
    0.40653E+04         0.55407E+03         0.00000E+00
    0.55407E+03         0.10210E+04         0.00000E+00
    0.00000E+00         0.00000E+00         0.00000E+00
 
    0.39378E+04         0.57065E+03         0.00000E+00
    0.57065E+03         0.10967E+04         0.00000E+00
    0.00000E+00         0.00000E+00         0.00000E+00
 
    0.38054E+04         0.58671E+03         0.00000E+00
    0.58671E+03         0.11747E+04         0.00000E+00
    0.00000E+00         0.00000E+00         0.00000E+00
 
    0.36682E+04         0.60223E+03         0.00000E+00
    0.60223E+03         0.12548E+04         0.00000E+00
    0.00000E+00         0.00000E+00         0.00000E+00
 
    0.35263E+04         0.61718E+03         0.00000E+00
    0.61718E+03         0.13369E+04         0.00000E+00
    0.00000E+00         0.00000E+00         0.00000E+00
 
    0.33799E+04         0.63156E+03         0.00000E+00
    0.63156E+03         0.14210E+04         0.00000E+00
    0.00000E+00         0.00000E+00         0.00000E+00
 
    0.32290E+04         0.64534E+03         0.00000E+00
    0.64534E+03         0.15070E+04         0.00000E+00
    0.00000E+00         0.00000E+00         0.00000E+00
 
    0.30737E+04         0.65852E+03         0.00000E+00
    0.65852E+03         0.15949E+04         0.00000E+00
    0.00000E+00         0.00000E+00         0.00000E+00
 
    0.29142E+04         0.67107E+03         0.00000E+00
    0.67107E+03         0.16844E+04         0.00000E+00
    0.00000E+00         0.00000E+00         0.00000E+00
 
    0.27505E+04         0.68298E+03         0.00000E+00
    0.68298E+03         0.17756E+04         0.00000E+00
    0.00000E+00         0.00000E+00         0.00000E+00
 
    0.25829E+04         0.69424E+03         0.00000E+00
    0.69424E+03         0.18683E+04         0.00000E+00
    0.00000E+00         0.00000E+00         0.00000E+00
 
    0.24114E+04         0.70484E+03         0.00000E+00
    0.70484E+03         0.19626E+04         0.00000E+00
    0.00000E+00         0.00000E+00         0.00000E+00
 
    0.22362E+04         0.71476E+03         0.00000E+00
    0.71476E+03         0.20582E+04         0.00000E+00
    0.00000E+00         0.00000E+00         0.00000E+00
 
    0.20574E+04         0.72399E+03         0.00000E+00
    0.72399E+03         0.21550E+04         0.00000E+00
    0.00000E+00         0.00000E+00         0.00000E+00
 
    0.18751E+04         0.73254E+03         0.00000E+00
    0.73254E+03         0.22531E+04         0.00000E+00
    0.00000E+00         0.00000E+00         0.00000E+00
 
    0.16896E+04         0.74037E+03         0.00000E+00
    0.74037E+03         0.23523E+04         0.00000E+00
    0.00000E+00         0.00000E+00         0.00000E+00
 
    0.15008E+04         0.74751E+03         0.00000E+00
    0.74751E+03         0.24524E+04         0.00000E+00
    0.00000E+00         0.00000E+00         0.00000E+00
 
    0.13090E+04         0.75393E+03         0.00000E+00
    0.75393E+03         0.25535E+04         0.00000E+00
    0.00000E+00         0.00000E+00         0.00000E+00
 
    0.11144E+04         0.75965E+03         0.00000E+00
    0.75965E+03         0.26554E+04         0.00000E+00
    0.00000E+00         0.00000E+00         0.00000E+00
 
    0.91698E+03         0.76466E+03         0.00000E+00
    0.76466E+03         0.27579E+04         0.00000E+00
    0.00000E+00         0.00000E+00         0.00000E+00
 
    0.71703E+03         0.76898E+03         0.00000E+00
    0.76898E+03         0.28611E+04         0.00000E+00
    0.00000E+00         0.00000E+00         0.00000E+00
 
    0.51470E+03         0.77263E+03         0.00000E+00
    0.77263E+03         0.29647E+04         0.00000E+00
    0.00000E+00         0.00000E+00         0.00000E+00
 
    0.31017E+03         0.77562E+03         0.00000E+00
    0.77562E+03         0.30687E+04         0.00000E+00
    0.00000E+00         0.00000E+00         0.00000E+00
 
    0.10369E+03         0.77800E+03         0.00000E+00
    0.77800E+03         0.31730E+04         0.00000E+00
    0.00000E+00         0.00000E+00         0.00000E+00
 
    0.55740E+04         0.18279E+02         0.00000E+00
    0.18279E+02        -0.19530E+02         0.00000E+00
    0.00000E+00         0.00000E+00         0.00000E+00
 
    0.55961E+04         0.55532E+02         0.00000E+00
    0.55532E+02        -0.16373E+02         0.00000E+00
    0.00000E+00         0.00000E+00         0.00000E+00
 
    0.56120E+04         0.92984E+02         0.00000E+00
    0.92984E+02        -0.10044E+02         0.00000E+00
    0.00000E+00         0.00000E+00         0.00000E+00
 
    0.56215E+04         0.13061E+03         0.00000E+00
    0.13061E+03        -0.56320E+00         0.00000E+00
    0.00000E+00         0.00000E+00         0.00000E+00
 
    0.56248E+04         0.16836E+03         0.00000E+00
    0.16836E+03         0.12054E+02         0.00000E+00
    0.00000E+00         0.00000E+00         0.00000E+00
 
    0.56218E+04         0.20618E+03         0.00000E+00
    0.20618E+03         0.27796E+02         0.00000E+00
    0.00000E+00         0.00000E+00         0.00000E+00
 
    0.56127E+04         0.24403E+03         0.00000E+00
    0.24403E+03         0.46652E+02         0.00000E+00
    0.00000E+00         0.00000E+00         0.00000E+00
 
    0.55973E+04         0.28183E+03         0.00000E+00
    0.28183E+03         0.68613E+02         0.00000E+00
    0.00000E+00         0.00000E+00         0.00000E+00
 
    0.55757E+04         0.31955E+03         0.00000E+00
    0.31955E+03         0.93668E+02         0.00000E+00
    0.00000E+00         0.00000E+00         0.00000E+00
 
    0.55479E+04         0.35714E+03         0.00000E+00
    0.35714E+03         0.12180E+03         0.00000E+00
    0.00000E+00         0.00000E+00         0.00000E+00
 
    0.55140E+04         0.39453E+03         0.00000E+00
    0.39453E+03         0.15300E+03         0.00000E+00
    0.00000E+00         0.00000E+00         0.00000E+00
 
    0.54740E+04         0.43168E+03         0.00000E+00
    0.43168E+03         0.18725E+03         0.00000E+00
    0.00000E+00         0.00000E+00         0.00000E+00
 
    0.54279E+04         0.46856E+03         0.00000E+00
    0.46856E+03         0.22453E+03         0.00000E+00
    0.00000E+00         0.00000E+00         0.00000E+00
 
    0.53757E+04         0.50510E+03         0.00000E+00
    0.50510E+03         0.26480E+03         0.00000E+00
    0.00000E+00         0.00000E+00         0.00000E+00
 
    0.53175E+04         0.54128E+03         0.00000E+00
    0.54128E+03         0.30805E+03         0.00000E+00
    0.00000E+00         0.00000E+00         0.00000E+00
 
    0.52534E+04         0.57704E+03         0.00000E+00
    0.57704E+03         0.35424E+03         0.00000E+00
    0.00000E+00         0.00000E+00         0.00000E+00
 
    0.51833E+04         0.61235E+03         0.00000E+00
    0.61235E+03         0.40333E+03         0.00000E+00
    0.00000E+00         0.00000E+00         0.00000E+00
 
    0.51073E+04         0.64716E+03         0.00000E+00
    0.64716E+03         0.45529E+03         0.00000E+00
    0.00000E+00         0.00000E+00         0.00000E+00
 
    0.50255E+04         0.68144E+03         0.00000E+00
    0.68144E+03         0.51009E+03         0.00000E+00
    0.00000E+00         0.00000E+00         0.00000E+00
 
    0.49379E+04         0.71515E+03         0.00000E+00
    0.71515E+03         0.56766E+03         0.00000E+00
    0.00000E+00         0.00000E+00         0.00000E+00
 
    0.48447E+04         0.74825E+03         0.00000E+00
    0.74825E+03         0.62797E+03         0.00000E+00
    0.00000E+00         0.00000E+00         0.00000E+00
 
    0.47458E+04         0.78071E+03         0.00000E+00
    0.78071E+03         0.69096E+03         0.00000E+00
    0.00000E+00         0.00000E+00         0.00000E+00
 
    0.46413E+04         0.81248E+03         0.00000E+00
    0.81248E+03         0.75658E+03         0.00000E+00
    0.00000E+00         0.00000E+00         0.00000E+00
 
    0.45314E+04         0.84354E+03         0.00000E+00
    0.84354E+03         0.82477E+03         0.00000E+00
    0.00000E+00         0.00000E+00         0.00000E+00
 
    0.44161E+04         0.87385E+03         0.00000E+00
    0.87385E+03         0.89548E+03         0.00000E+00
    0.00000E+00         0.00000E+00         0.00000E+00
 
    0.42954E+04         0.90337E+03         0.00000E+00
    0.90337E+03         0.96864E+03         0.00000E+00
    0.00000E+00         0.00000E+00         0.00000E+00
 
    0.41696E+04         0.93207E+03         0.00000E+00
    0.93207E+03         0.10442E+04         0.00000E+00
    0.00000E+00         0.00000E+00         0.00000E+00
 
    0.40387E+04         0.95992E+03         0.00000E+00
    0.95992E+03         0.11220E+04         0.00000E+00
    0.00000E+00         0.00000E+00         0.00000E+00
 
    0.39027E+04         0.98690E+03         0.00000E+00
    0.98690E+03         0.12022E+04         0.00000E+00
    0.00000E+00         0.00000E+00         0.00000E+00
 
    0.37618E+04         0.10130E+04         0.00000E+00
    0.10130E+04         0.12844E+04         0.00000E+00
    0.00000E+00         0.00000E+00         0.00000E+00
 
    0.36161E+04         0.10381E+04         0.00000E+00
    0.10381E+04         0.13688E+04         0.00000E+00
    0.00000E+00         0.00000E+00         0.00000E+00
 
    0.34657E+04         0.10622E+04         0.00000E+00
    0.10622E+04         0.14552E+04         0.00000E+00
    0.00000E+00         0.00000E+00         0.00000E+00
 
    0.33108E+04         0.10854E+04         0.00000E+00
    0.10854E+04         0.15435E+04         0.00000E+00
    0.00000E+00         0.00000E+00         0.00000E+00
 
    0.31514E+04         0.11075E+04         0.00000E+00
    0.11075E+04         0.16337E+04         0.00000E+00
    0.00000E+00         0.00000E+00         0.00000E+00
 
    0.29876E+04         0.11286E+04         0.00000E+00
    0.11286E+04         0.17257E+04         0.00000E+00
    0.00000E+00         0.00000E+00         0.00000E+00
 
    0.28197E+04         0.11486E+04         0.00000E+00
    0.11486E+04         0.18193E+04         0.00000E+00
    0.00000E+00         0.00000E+00         0.00000E+00
 
    0.26476E+04         0.11675E+04         0.00000E+00
    0.11675E+04         0.19145E+04         0.00000E+00
    0.00000E+00         0.00000E+00         0.00000E+00
 
    0.24716E+04         0.11852E+04         0.00000E+00
    0.11852E+04         0.20113E+04         0.00000E+00
    0.00000E+00         0.00000E+00         0.00000E+00
 
    0.22919E+04         0.12019E+04         0.00000E+00
    0.12019E+04         0.21094E+04         0.00000E+00
    0.00000E+00         0.00000E+00         0.00000E+00
 
    0.21084E+04         0.12174E+04         0.00000E+00
    0.12174E+04         0.22088E+04         0.00000E+00
    0.00000E+00         0.00000E+00         0.00000E+00
 
    0.19214E+04         0.12317E+04         0.00000E+00
    0.12317E+04         0.23095E+04         0.00000E+00
    0.00000E+00         0.00000E+00         0.00000E+00
 
    0.17311E+04         0.12448E+04         0.00000E+00
    0.12448E+04         0.24113E+04         0.00000E+00
    0.00000E+00         0.00000E+00         0.00000E+00
 
    0.15375E+04         0.12566E+04         0.00000E+00
    0.12566E+04         0.25140E+04         0.00000E+00
    0.00000E+00         0.00000E+00         0.00000E+00
 
    0.13409E+04         0.12673E+04         0.00000E+00
    0.12673E+04         0.26177E+04         0.00000E+00
    0.00000E+00         0.00000E+00         0.00000E+00
 
    0.11414E+04         0.12767E+04         0.00000E+00
    0.12767E+04         0.27221E+04         0.00000E+00
    0.00000E+00         0.00000E+00         0.00000E+00
 
    0.93914E+03         0.12849E+04         0.00000E+00
    0.12849E+04         0.28273E+04         0.00000E+00
    0.00000E+00         0.00000E+00         0.00000E+00
 
    0.73432E+03         0.12918E+04         0.00000E+00
    0.12918E+04         0.29330E+04         0.00000E+00
    0.00000E+00         0.00000E+00         0.00000E+00
 
    0.52711E+03         0.12975E+04         0.00000E+00
    0.12975E+04         0.30391E+04         0.00000E+00
    0.00000E+00         0.00000E+00         0.00000E+00
 
    0.31768E+03         0.13018E+04         0.00000E+00
    0.13018E+04         0.31456E+04         0.00000E+00
    0.00000E+00         0.00000E+00         0.00000E+00
 
    0.10622E+03         0.13049E+04         0.00000E+00
    0.13049E+04         0.32523E+04         0.00000E+00
    0.00000E+00         0.00000E+00         0.00000E+00
 
    0.57907E+04         0.26306E+02         0.00000E+00
    0.26306E+02        -0.28512E+02         0.00000E+00
    0.00000E+00         0.00000E+00         0.00000E+00
 
    0.58139E+04         0.79661E+02         0.00000E+00
    0.79661E+02        -0.25232E+02         0.00000E+00
    0.00000E+00         0.00000E+00         0.00000E+00
 
    0.58306E+04         0.13321E+03         0.00000E+00
    0.13321E+03        -0.18668E+02         0.00000E+00
    0.00000E+00         0.00000E+00         0.00000E+00
 
    0.58408E+04         0.18690E+03         0.00000E+00
    0.18690E+03        -0.88189E+01         0.00000E+00
    0.00000E+00         0.00000E+00         0.00000E+00
 
    0.58445E+04         0.24067E+03         0.00000E+00
    0.24067E+03         0.43126E+01         0.00000E+00
    0.00000E+00         0.00000E+00         0.00000E+00
 
    0.58416E+04         0.29446E+03         0.00000E+00
    0.29446E+03         0.20718E+02         0.00000E+00
    0.00000E+00         0.00000E+00         0.00000E+00
 
    0.58322E+04         0.34822E+03         0.00000E+00
    0.34822E+03         0.40387E+02         0.00000E+00
    0.00000E+00         0.00000E+00         0.00000E+00
 
    0.58163E+04         0.40187E+03         0.00000E+00
    0.40187E+03         0.63305E+02         0.00000E+00
    0.00000E+00         0.00000E+00         0.00000E+00
 
    0.57940E+04         0.45536E+03         0.00000E+00
    0.45536E+03         0.89458E+02         0.00000E+00
    0.00000E+00         0.00000E+00         0.00000E+00
 
    0.57652E+04         0.50862E+03         0.00000E+00
    0.50862E+03         0.11883E+03         0.00000E+00
    0.00000E+00         0.00000E+00         0.00000E+00
 
    0.57300E+04         0.56160E+03         0.00000E+00
    0.56160E+03         0.15140E+03         0.00000E+00
    0.00000E+00         0.00000E+00         0.00000E+00
 
    0.56884E+04         0.61423E+03         0.00000E+00
    0.61423E+03         0.18714E+03         0.00000E+00
    0.00000E+00         0.00000E+00         0.00000E+00
 
    0.56404E+04         0.66646E+03         0.00000E+00
    0.66646E+03         0.22603E+03         0.00000E+00
    0.00000E+00         0.00000E+00         0.00000E+00
 
    0.55861E+04         0.71822E+03         0.00000E+00
    0.71822E+03         0.26804E+03         0.00000E+00
    0.00000E+00         0.00000E+00         0.00000E+00
 
    0.55256E+04         0.76945E+03         0.00000E+00
    0.76945E+03         0.31313E+03         0.00000E+00
    0.00000E+00         0.00000E+00         0.00000E+00
 
    0.54588E+04         0.82009E+03         0.00000E+00
    0.82009E+03         0.36129E+03         0.00000E+00
    0.00000E+00         0.00000E+00         0.00000E+00
 
    0.53858E+04         0.87009E+03         0.00000E+00
    0.87009E+03         0.41246E+03         0.00000E+00
    0.00000E+00         0.00000E+00         0.00000E+00
 
    0.53068E+04         0.91940E+03         0.00000E+00
    0.91940E+03         0.46661E+03         0.00000E+00
    0.00000E+00         0.00000E+00         0.00000E+00
 
    0.52216E+04         0.96795E+03         0.00000E+00
    0.96795E+03         0.52369E+03         0.00000E+00
    0.00000E+00         0.00000E+00         0.00000E+00
 
    0.51305E+04         0.10157E+04         0.00000E+00
    0.10157E+04         0.58365E+03         0.00000E+00
    0.00000E+00         0.00000E+00         0.00000E+00
 
    0.50335E+04         0.10626E+04         0.00000E+00
    0.10626E+04         0.64645E+03         0.00000E+00
    0.00000E+00         0.00000E+00         0.00000E+00
 
    0.49306E+04         0.11086E+04         0.00000E+00
    0.11086E+04         0.71204E+03         0.00000E+00
    0.00000E+00         0.00000E+00         0.00000E+00
 
    0.48219E+04         0.11536E+04         0.00000E+00
    0.11536E+04         0.78035E+03         0.00000E+00
    0.00000E+00         0.00000E+00         0.00000E+00
 
    0.47075E+04         0.11976E+04         0.00000E+00
    0.11976E+04         0.85133E+03         0.00000E+00
    0.00000E+00         0.00000E+00         0.00000E+00
 
    0.45876E+04         0.12405E+04         0.00000E+00
    0.12405E+04         0.92491E+03         0.00000E+00
    0.00000E+00         0.00000E+00         0.00000E+00
 
    0.44621E+04         0.12823E+04         0.00000E+00
    0.12823E+04         0.10010E+04         0.00000E+00
    0.00000E+00         0.00000E+00         0.00000E+00
 
    0.43313E+04         0.13230E+04         0.00000E+00
    0.13230E+04         0.10796E+04         0.00000E+00
    0.00000E+00         0.00000E+00         0.00000E+00
 
    0.41951E+04         0.13624E+04         0.00000E+00
    0.13624E+04         0.11606E+04         0.00000E+00
    0.00000E+00         0.00000E+00         0.00000E+00
 
    0.40537E+04         0.14006E+04         0.00000E+00
    0.14006E+04         0.12439E+04         0.00000E+00
    0.00000E+00         0.00000E+00         0.00000E+00
 
    0.39072E+04         0.14375E+04         0.00000E+00
    0.14375E+04         0.13295E+04         0.00000E+00
    0.00000E+00         0.00000E+00         0.00000E+00
 
    0.37558E+04         0.14731E+04         0.00000E+00
    0.14731E+04         0.14173E+04         0.00000E+00
    0.00000E+00         0.00000E+00         0.00000E+00
 
    0.35994E+04         0.15073E+04         0.00000E+00
    0.15073E+04         0.15071E+04         0.00000E+00
    0.00000E+00         0.00000E+00         0.00000E+00
 
    0.34384E+04         0.15401E+04         0.00000E+00
    0.15401E+04         0.15989E+04         0.00000E+00
    0.00000E+00         0.00000E+00         0.00000E+00
 
    0.32727E+04         0.15714E+04         0.00000E+00
    0.15714E+04         0.16927E+04         0.00000E+00
    0.00000E+00         0.00000E+00         0.00000E+00
 
    0.31025E+04         0.16013E+04         0.00000E+00
    0.16013E+04         0.17883E+04         0.00000E+00
    0.00000E+00         0.00000E+00         0.00000E+00
 
    0.29280E+04         0.16296E+04         0.00000E+00
    0.16296E+04         0.18856E+04         0.00000E+00
    0.00000E+00         0.00000E+00         0.00000E+00
 
    0.27492E+04         0.16563E+04         0.00000E+00
    0.16563E+04         0.19846E+04         0.00000E+00
    0.00000E+00         0.00000E+00         0.00000E+00
 
    0.25664E+04         0.16815E+04         0.00000E+00
    0.16815E+04         0.20851E+04         0.00000E+00
    0.00000E+00         0.00000E+00         0.00000E+00
 
    0.23796E+04         0.17050E+04         0.00000E+00
    0.17050E+04         0.21871E+04         0.00000E+00
    0.00000E+00         0.00000E+00         0.00000E+00
 
    0.21890E+04         0.17269E+04         0.00000E+00
    0.17269E+04         0.22904E+04         0.00000E+00
    0.00000E+00         0.00000E+00         0.00000E+00
 
    0.19948E+04         0.17470E+04         0.00000E+00
    0.17470E+04         0.23949E+04         0.00000E+00
    0.00000E+00         0.00000E+00         0.00000E+00
 
    0.17972E+04         0.17655E+04         0.00000E+00
    0.17655E+04         0.25006E+04         0.00000E+00
    0.00000E+00         0.00000E+00         0.00000E+00
 
    0.15962E+04         0.17822E+04         0.00000E+00
    0.17822E+04         0.26073E+04         0.00000E+00
    0.00000E+00         0.00000E+00         0.00000E+00
 
    0.13920E+04         0.17971E+04         0.00000E+00
    0.17971E+04         0.27150E+04         0.00000E+00
    0.00000E+00         0.00000E+00         0.00000E+00
 
    0.11849E+04         0.18103E+04         0.00000E+00
    0.18103E+04         0.28234E+04         0.00000E+00
    0.00000E+00         0.00000E+00         0.00000E+00
 
    0.97491E+03         0.18216E+04         0.00000E+00
    0.18216E+04         0.29326E+04         0.00000E+00
    0.00000E+00         0.00000E+00         0.00000E+00
 
    0.76228E+03         0.18311E+04         0.00000E+00
    0.18311E+04         0.30423E+04         0.00000E+00
    0.00000E+00         0.00000E+00         0.00000E+00
 
    0.54719E+03         0.18387E+04         0.00000E+00
    0.18387E+04         0.31525E+04         0.00000E+00
    0.00000E+00         0.00000E+00         0.00000E+00
 
    0.32979E+03         0.18444E+04         0.00000E+00
    0.18444E+04         0.32630E+04         0.00000E+00
    0.00000E+00         0.00000E+00         0.00000E+00
 
    0.11027E+03         0.18482E+04         0.00000E+00
    0.18482E+04         0.33738E+04         0.00000E+00
    0.00000E+00         0.00000E+00         0.00000E+00
 
    0.60886E+04         0.34680E+02         0.00000E+00
    0.34680E+02        -0.38426E+02         0.00000E+00
    0.00000E+00         0.00000E+00         0.00000E+00
 
    0.61130E+04         0.10487E+03         0.00000E+00
    0.10487E+03        -0.34982E+02         0.00000E+00
    0.00000E+00         0.00000E+00         0.00000E+00
 
    0.61306E+04         0.17526E+03         0.00000E+00
    0.17526E+03        -0.28083E+02         0.00000E+00
    0.00000E+00         0.00000E+00         0.00000E+00
 
    0.61413E+04         0.24578E+03         0.00000E+00
    0.24578E+03        -0.17728E+02         0.00000E+00
    0.00000E+00         0.00000E+00         0.00000E+00
 
    0.61451E+04         0.31635E+03         0.00000E+00
    0.31635E+03        -0.39192E+01         0.00000E+00
    0.00000E+00         0.00000E+00         0.00000E+00
 
    0.61420E+04         0.38691E+03         0.00000E+00
    0.38691E+03         0.13338E+02         0.00000E+00
    0.00000E+00         0.00000E+00         0.00000E+00
 
    0.61322E+04         0.45738E+03         0.00000E+00
    0.45738E+03         0.34033E+02         0.00000E+00
    0.00000E+00         0.00000E+00         0.00000E+00
 
    0.61154E+04         0.52767E+03         0.00000E+00
    0.52767E+03         0.58156E+02         0.00000E+00
    0.00000E+00         0.00000E+00         0.00000E+00
 
    0.60919E+04         0.59771E+03         0.00000E+00
    0.59771E+03         0.85689E+02         0.00000E+00
    0.00000E+00         0.00000E+00         0.00000E+00
 
    0.60616E+04         0.66744E+03         0.00000E+00
    0.66744E+03         0.11661E+03         0.00000E+00
    0.00000E+00         0.00000E+00         0.00000E+00
 
    0.60245E+04         0.73676E+03         0.00000E+00
    0.73676E+03         0.15091E+03         0.00000E+00
    0.00000E+00         0.00000E+00         0.00000E+00
 
    0.59806E+04         0.80561E+03         0.00000E+00
    0.80561E+03         0.18855E+03         0.00000E+00
    0.00000E+00         0.00000E+00         0.00000E+00
 
    0.59301E+04         0.87391E+03         0.00000E+00
    0.87391E+03         0.22951E+03         0.00000E+00
    0.00000E+00         0.00000E+00         0.00000E+00
 
    0.58729E+04         0.94159E+03         0.00000E+00
    0.94159E+03         0.27375E+03         0.00000E+00
    0.00000E+00         0.00000E+00         0.00000E+00
 
    0.58091E+04         0.10086E+04         0.00000E+00
    0.10086E+04         0.32125E+03         0.00000E+00
    0.00000E+00         0.00000E+00         0.00000E+00
 
    0.57388E+04         0.10748E+04         0.00000E+00
    0.10748E+04         0.37196E+03         0.00000E+00
    0.00000E+00         0.00000E+00         0.00000E+00
 
    0.56620E+04         0.11401E+04         0.00000E+00
    0.11401E+04         0.42584E+03         0.00000E+00
    0.00000E+00         0.00000E+00         0.00000E+00
 
    0.55787E+04         0.12046E+04         0.00000E+00
    0.12046E+04         0.48285E+03         0.00000E+00
    0.00000E+00         0.00000E+00         0.00000E+00
 
    0.54891E+04         0.12680E+04         0.00000E+00
    0.12680E+04         0.54294E+03         0.00000E+00
    0.00000E+00         0.00000E+00         0.00000E+00
 
    0.53932E+04         0.13304E+04         0.00000E+00
    0.13304E+04         0.60607E+03         0.00000E+00
    0.00000E+00         0.00000E+00         0.00000E+00
 
    0.52910E+04         0.13917E+04         0.00000E+00
    0.13917E+04         0.67217E+03         0.00000E+00
    0.00000E+00         0.00000E+00         0.00000E+00
 
    0.51827E+04         0.14518E+04         0.00000E+00
    0.14518E+04         0.74119E+03         0.00000E+00
    0.00000E+00         0.00000E+00         0.00000E+00
 
    0.50683E+04         0.15106E+04         0.00000E+00
    0.15106E+04         0.81308E+03         0.00000E+00
    0.00000E+00         0.00000E+00         0.00000E+00
 
    0.49480E+04         0.15681E+04         0.00000E+00
    0.15681E+04         0.88776E+03         0.00000E+00
    0.00000E+00         0.00000E+00         0.00000E+00
 
    0.48218E+04         0.16242E+04         0.00000E+00
    0.16242E+04         0.96518E+03         0.00000E+00
    0.00000E+00         0.00000E+00         0.00000E+00
 
    0.46898E+04         0.16788E+04         0.00000E+00
    0.16788E+04         0.10453E+04         0.00000E+00
    0.00000E+00         0.00000E+00         0.00000E+00
 
    0.45521E+04         0.17319E+04         0.00000E+00
    0.17319E+04         0.11279E+04         0.00000E+00
    0.00000E+00         0.00000E+00         0.00000E+00
 
    0.44088E+04         0.17835E+04         0.00000E+00
    0.17835E+04         0.12131E+04         0.00000E+00
    0.00000E+00         0.00000E+00         0.00000E+00
 
    0.42601E+04         0.18334E+04         0.00000E+00
    0.18334E+04         0.13008E+04         0.00000E+00
    0.00000E+00         0.00000E+00         0.00000E+00
 
    0.41061E+04         0.18816E+04         0.00000E+00
    0.18816E+04         0.13907E+04         0.00000E+00
    0.00000E+00         0.00000E+00         0.00000E+00
 
    0.39468E+04         0.19281E+04         0.00000E+00
    0.19281E+04         0.14830E+04         0.00000E+00
    0.00000E+00         0.00000E+00         0.00000E+00
 
    0.37824E+04         0.19728E+04         0.00000E+00
    0.19728E+04         0.15775E+04         0.00000E+00
    0.00000E+00         0.00000E+00         0.00000E+00
 
    0.36130E+04         0.20156E+04         0.00000E+00
    0.20156E+04         0.16740E+04         0.00000E+00
    0.00000E+00         0.00000E+00         0.00000E+00
 
    0.34388E+04         0.20565E+04         0.00000E+00
    0.20565E+04         0.17726E+04         0.00000E+00
    0.00000E+00         0.00000E+00         0.00000E+00
 
    0.32599E+04         0.20955E+04         0.00000E+00
    0.20955E+04         0.18731E+04         0.00000E+00
    0.00000E+00         0.00000E+00         0.00000E+00
 
    0.30765E+04         0.21324E+04         0.00000E+00
    0.21324E+04         0.19754E+04         0.00000E+00
    0.00000E+00         0.00000E+00         0.00000E+00
 
    0.28886E+04         0.21673E+04         0.00000E+00
    0.21673E+04         0.20794E+04         0.00000E+00
    0.00000E+00         0.00000E+00         0.00000E+00
 
    0.26964E+04         0.22001E+04         0.00000E+00
    0.22001E+04         0.21850E+04         0.00000E+00
    0.00000E+00         0.00000E+00         0.00000E+00
 
    0.25001E+04         0.22308E+04         0.00000E+00
    0.22308E+04         0.22922E+04         0.00000E+00
    0.00000E+00         0.00000E+00         0.00000E+00
 
    0.22999E+04         0.22592E+04         0.00000E+00
    0.22592E+04         0.24007E+04         0.00000E+00
    0.00000E+00         0.00000E+00         0.00000E+00
 
    0.20958E+04         0.22855E+04         0.00000E+00
    0.22855E+04         0.25106E+04         0.00000E+00
    0.00000E+00         0.00000E+00         0.00000E+00
 
    0.18881E+04         0.23095E+04         0.00000E+00
    0.23095E+04         0.26216E+04         0.00000E+00
    0.00000E+00         0.00000E+00         0.00000E+00
 
    0.16769E+04         0.23312E+04         0.00000E+00
    0.23312E+04         0.27337E+04         0.00000E+00
    0.00000E+00         0.00000E+00         0.00000E+00
 
    0.14624E+04         0.23505E+04         0.00000E+00
    0.23505E+04         0.28468E+04         0.00000E+00
    0.00000E+00         0.00000E+00         0.00000E+00
 
    0.12448E+04         0.23675E+04         0.00000E+00
    0.23675E+04         0.29608E+04         0.00000E+00
    0.00000E+00         0.00000E+00         0.00000E+00
 
    0.10242E+04         0.23821E+04         0.00000E+00
    0.23821E+04         0.30754E+04         0.00000E+00
    0.00000E+00         0.00000E+00         0.00000E+00
 
    0.80086E+03         0.23942E+04         0.00000E+00
    0.23942E+04         0.31907E+04         0.00000E+00
    0.00000E+00         0.00000E+00         0.00000E+00
 
    0.57489E+03         0.24039E+04         0.00000E+00
    0.24039E+04         0.33064E+04         0.00000E+00
    0.00000E+00         0.00000E+00         0.00000E+00
 
    0.34649E+03         0.24111E+04         0.00000E+00
    0.24111E+04         0.34226E+04         0.00000E+00
    0.00000E+00         0.00000E+00         0.00000E+00
 
    0.11585E+03         0.24158E+04         0.00000E+00
    0.24158E+04         0.35389E+04         0.00000E+00
    0.00000E+00         0.00000E+00         0.00000E+00
 
    0.64717E+04         0.43512E+02         0.00000E+00
    0.43512E+02        -0.49567E+02         0.00000E+00
    0.00000E+00         0.00000E+00         0.00000E+00
 
    0.64974E+04         0.13148E+03         0.00000E+00
    0.13148E+03        -0.45912E+02         0.00000E+00
    0.00000E+00         0.00000E+00         0.00000E+00
 
    0.65158E+04         0.21967E+03         0.00000E+00
    0.21967E+03        -0.38589E+02         0.00000E+00
    0.00000E+00         0.00000E+00         0.00000E+00
 
    0.65269E+04         0.30799E+03         0.00000E+00
    0.30799E+03        -0.27594E+02         0.00000E+00
    0.00000E+00         0.00000E+00         0.00000E+00
 
    0.65308E+04         0.39635E+03         0.00000E+00
    0.39635E+03        -0.12929E+02         0.00000E+00
    0.00000E+00         0.00000E+00         0.00000E+00
 
    0.65273E+04         0.48465E+03         0.00000E+00
    0.48465E+03         0.54009E+01         0.00000E+00
    0.00000E+00         0.00000E+00         0.00000E+00
 
    0.65166E+04         0.57281E+03         0.00000E+00
    0.57281E+03         0.27387E+02         0.00000E+00
    0.00000E+00         0.00000E+00         0.00000E+00
 
    0.64987E+04         0.66072E+03         0.00000E+00
    0.66072E+03         0.53016E+02         0.00000E+00
    0.00000E+00         0.00000E+00         0.00000E+00
 
    0.64735E+04         0.74830E+03         0.00000E+00
    0.74830E+03         0.82272E+02         0.00000E+00
    0.00000E+00         0.00000E+00         0.00000E+00
 
    0.64410E+04         0.83545E+03         0.00000E+00
    0.83545E+03         0.11514E+03         0.00000E+00
    0.00000E+00         0.00000E+00         0.00000E+00
 
    0.64014E+04         0.92209E+03         0.00000E+00
    0.92209E+03         0.15158E+03         0.00000E+00
    0.00000E+00         0.00000E+00         0.00000E+00
 
    0.63547E+04         0.10081E+04         0.00000E+00
    0.10081E+04         0.19159E+03         0.00000E+00
    0.00000E+00         0.00000E+00         0.00000E+00
 
    0.63008E+04         0.10934E+04         0.00000E+00
    0.10934E+04         0.23512E+03         0.00000E+00
    0.00000E+00         0.00000E+00         0.00000E+00
 
    0.62399E+04         0.11779E+04         0.00000E+00
    0.11779E+04         0.28215E+03         0.00000E+00
    0.00000E+00         0.00000E+00         0.00000E+00
 
    0.61719E+04         0.12616E+04         0.00000E+00
    0.12616E+04         0.33263E+03         0.00000E+00
    0.00000E+00         0.00000E+00         0.00000E+00
 
    0.60970E+04         0.13442E+04         0.00000E+00
    0.13442E+04         0.38653E+03         0.00000E+00
    0.00000E+00         0.00000E+00         0.00000E+00
 
    0.60152E+04         0.14258E+04         0.00000E+00
    0.14258E+04         0.44380E+03         0.00000E+00
    0.00000E+00         0.00000E+00         0.00000E+00
 
    0.59266E+04         0.15063E+04         0.00000E+00
    0.15063E+04         0.50439E+03         0.00000E+00
    0.00000E+00         0.00000E+00         0.00000E+00
 
    0.58312E+04         0.15855E+04         0.00000E+00
    0.15855E+04         0.56826E+03         0.00000E+00
    0.00000E+00         0.00000E+00         0.00000E+00
 
    0.57291E+04         0.16633E+04         0.00000E+00
    0.16633E+04         0.63535E+03         0.00000E+00
    0.00000E+00         0.00000E+00         0.00000E+00
 
    0.56204E+04         0.17398E+04         0.00000E+00
    0.17398E+04         0.70559E+03         0.00000E+00
    0.00000E+00         0.00000E+00         0.00000E+00
 
    0.55052E+04         0.18147E+04         0.00000E+00
    0.18147E+04         0.77894E+03         0.00000E+00
    0.00000E+00         0.00000E+00         0.00000E+00
 
    0.53836E+04         0.18881E+04         0.00000E+00
    0.18881E+04         0.85533E+03         0.00000E+00
    0.00000E+00         0.00000E+00         0.00000E+00
 
    0.52556E+04         0.19599E+04         0.00000E+00
    0.19599E+04         0.93468E+03         0.00000E+00
    0.00000E+00         0.00000E+00         0.00000E+00
 
    0.51214E+04         0.20298E+04         0.00000E+00
    0.20298E+04         0.10169E+04         0.00000E+00
    0.00000E+00         0.00000E+00         0.00000E+00
 
    0.49810E+04         0.20980E+04         0.00000E+00
    0.20980E+04         0.11020E+04         0.00000E+00
    0.00000E+00         0.00000E+00         0.00000E+00
 
    0.48347E+04         0.21643E+04         0.00000E+00
    0.21643E+04         0.11898E+04         0.00000E+00
    0.00000E+00         0.00000E+00         0.00000E+00
 
    0.46824E+04         0.22286E+04         0.00000E+00
    0.22286E+04         0.12803E+04         0.00000E+00
    0.00000E+00         0.00000E+00         0.00000E+00
 
    0.45243E+04         0.22908E+04         0.00000E+00
    0.22908E+04         0.13734E+04         0.00000E+00
    0.00000E+00         0.00000E+00         0.00000E+00
 
    0.43606E+04         0.23510E+04         0.00000E+00
    0.23510E+04         0.14690E+04         0.00000E+00
    0.00000E+00         0.00000E+00         0.00000E+00
 
    0.41914E+04         0.24090E+04         0.00000E+00
    0.24090E+04         0.15670E+04         0.00000E+00
    0.00000E+00         0.00000E+00         0.00000E+00
 
    0.40167E+04         0.24647E+04         0.00000E+00
    0.24647E+04         0.16673E+04         0.00000E+00
    0.00000E+00         0.00000E+00         0.00000E+00
 
    0.38367E+04         0.25181E+04         0.00000E+00
    0.25181E+04         0.17698E+04         0.00000E+00
    0.00000E+00         0.00000E+00         0.00000E+00
 
    0.36517E+04         0.25691E+04         0.00000E+00
    0.25691E+04         0.18745E+04         0.00000E+00
    0.00000E+00         0.00000E+00         0.00000E+00
 
    0.34616E+04         0.26176E+04         0.00000E+00
    0.26176E+04         0.19812E+04         0.00000E+00
    0.00000E+00         0.00000E+00         0.00000E+00
 
    0.32668E+04         0.26637E+04         0.00000E+00
    0.26637E+04         0.20898E+04         0.00000E+00
    0.00000E+00         0.00000E+00         0.00000E+00
 
    0.30672E+04         0.27071E+04         0.00000E+00
    0.27071E+04         0.22003E+04         0.00000E+00
    0.00000E+00         0.00000E+00         0.00000E+00
 
    0.28631E+04         0.27480E+04         0.00000E+00
    0.27480E+04         0.23124E+04         0.00000E+00
    0.00000E+00         0.00000E+00         0.00000E+00
 
    0.26547E+04         0.27862E+04         0.00000E+00
    0.27862E+04         0.24262E+04         0.00000E+00
    0.00000E+00         0.00000E+00         0.00000E+00
 
    0.24420E+04         0.28216E+04         0.00000E+00
    0.28216E+04         0.25414E+04         0.00000E+00
    0.00000E+00         0.00000E+00         0.00000E+00
 
    0.22253E+04         0.28543E+04         0.00000E+00
    0.28543E+04         0.26580E+04         0.00000E+00
    0.00000E+00         0.00000E+00         0.00000E+00
 
    0.20048E+04         0.28841E+04         0.00000E+00
    0.28841E+04         0.27759E+04         0.00000E+00
    0.00000E+00         0.00000E+00         0.00000E+00
 
    0.17805E+04         0.29110E+04         0.00000E+00
    0.29110E+04         0.28949E+04         0.00000E+00
    0.00000E+00         0.00000E+00         0.00000E+00
 
    0.15528E+04         0.29350E+04         0.00000E+00
    0.29350E+04         0.30150E+04         0.00000E+00
    0.00000E+00         0.00000E+00         0.00000E+00
 
    0.13217E+04         0.29561E+04         0.00000E+00
    0.29561E+04         0.31359E+04         0.00000E+00
    0.00000E+00         0.00000E+00         0.00000E+00
 
    0.10875E+04         0.29741E+04         0.00000E+00
    0.29741E+04         0.32576E+04         0.00000E+00
    0.00000E+00         0.00000E+00         0.00000E+00
 
    0.85036E+03         0.29890E+04         0.00000E+00
    0.29890E+04         0.33800E+04         0.00000E+00
    0.00000E+00         0.00000E+00         0.00000E+00
 
    0.61042E+03         0.30009E+04         0.00000E+00
    0.30009E+04         0.35029E+04         0.00000E+00
    0.00000E+00         0.00000E+00         0.00000E+00
 
    0.36791E+03         0.30097E+04         0.00000E+00
    0.30097E+04         0.36262E+04         0.00000E+00
    0.00000E+00         0.00000E+00         0.00000E+00
 
    0.12302E+03         0.30153E+04         0.00000E+00
    0.30153E+04         0.37497E+04         0.00000E+00
    0.00000E+00         0.00000E+00         0.00000E+00
 
    0.69449E+04         0.52929E+02         0.00000E+00
    0.52929E+02        -0.62287E+02         0.00000E+00
    0.00000E+00         0.00000E+00         0.00000E+00
 
    0.69720E+04         0.15987E+03         0.00000E+00
    0.15987E+03        -0.58372E+02         0.00000E+00
    0.00000E+00         0.00000E+00         0.00000E+00
 
    0.69913E+04         0.26705E+03         0.00000E+00
    0.26705E+03        -0.50526E+02         0.00000E+00
    0.00000E+00         0.00000E+00         0.00000E+00
 
    0.70029E+04         0.37437E+03         0.00000E+00
    0.37437E+03        -0.38744E+02         0.00000E+00
    0.00000E+00         0.00000E+00         0.00000E+00
 
    0.70066E+04         0.48171E+03         0.00000E+00
    0.48171E+03        -0.23029E+02         0.00000E+00
    0.00000E+00         0.00000E+00         0.00000E+00
 
    0.70025E+04         0.58895E+03         0.00000E+00
    0.58895E+03        -0.33852E+01         0.00000E+00
    0.00000E+00         0.00000E+00         0.00000E+00
 
    0.69907E+04         0.69600E+03         0.00000E+00
    0.69600E+03         0.20178E+02         0.00000E+00
    0.00000E+00         0.00000E+00         0.00000E+00
 
    0.69711E+04         0.80273E+03         0.00000E+00
    0.80273E+03         0.47647E+02         0.00000E+00
    0.00000E+00         0.00000E+00         0.00000E+00
 
    0.69437E+04         0.90903E+03         0.00000E+00
    0.90903E+03         0.79006E+02         0.00000E+00
    0.00000E+00         0.00000E+00         0.00000E+00
 
    0.69086E+04         0.10148E+04         0.00000E+00
    0.10148E+04         0.11423E+03         0.00000E+00
    0.00000E+00         0.00000E+00         0.00000E+00
 
    0.68659E+04         0.11199E+04         0.00000E+00
    0.11199E+04         0.15330E+03         0.00000E+00
    0.00000E+00         0.00000E+00         0.00000E+00
 
    0.68154E+04         0.12243E+04         0.00000E+00
    0.12243E+04         0.19619E+03         0.00000E+00
    0.00000E+00         0.00000E+00         0.00000E+00
 
    0.67574E+04         0.13278E+04         0.00000E+00
    0.13278E+04         0.24285E+03         0.00000E+00
    0.00000E+00         0.00000E+00         0.00000E+00
 
    0.66918E+04         0.14303E+04         0.00000E+00
    0.14303E+04         0.29326E+03         0.00000E+00
    0.00000E+00         0.00000E+00         0.00000E+00
 
    0.66186E+04         0.15317E+04         0.00000E+00
    0.15317E+04         0.34738E+03         0.00000E+00
    0.00000E+00         0.00000E+00         0.00000E+00
 
    0.65381E+04         0.16319E+04         0.00000E+00
    0.16319E+04         0.40516E+03         0.00000E+00
    0.00000E+00         0.00000E+00         0.00000E+00
 
    0.64501E+04         0.17308E+04         0.00000E+00
    0.17308E+04         0.46655E+03         0.00000E+00
    0.00000E+00         0.00000E+00         0.00000E+00
 
    0.63548E+04         0.18283E+04         0.00000E+00
    0.18283E+04         0.53150E+03         0.00000E+00
    0.00000E+00         0.00000E+00         0.00000E+00
 
    0.62523E+04         0.19243E+04         0.00000E+00
    0.19243E+04         0.59996E+03         0.00000E+00
    0.00000E+00         0.00000E+00         0.00000E+00
 
    0.61426E+04         0.20187E+04         0.00000E+00
    0.20187E+04         0.67187E+03         0.00000E+00
    0.00000E+00         0.00000E+00         0.00000E+00
 
    0.60259E+04         0.21113E+04         0.00000E+00
    0.21113E+04         0.74717E+03         0.00000E+00
    0.00000E+00         0.00000E+00         0.00000E+00
 
    0.59022E+04         0.22022E+04         0.00000E+00
    0.22022E+04         0.82579E+03         0.00000E+00
    0.00000E+00         0.00000E+00         0.00000E+00
 
    0.57716E+04         0.22911E+04         0.00000E+00
    0.22911E+04         0.90766E+03         0.00000E+00
    0.00000E+00         0.00000E+00         0.00000E+00
 
    0.56342E+04         0.23780E+04         0.00000E+00
    0.23780E+04         0.99271E+03         0.00000E+00
    0.00000E+00         0.00000E+00         0.00000E+00
 
    0.54901E+04         0.24628E+04         0.00000E+00
    0.24628E+04         0.10809E+04         0.00000E+00
    0.00000E+00         0.00000E+00         0.00000E+00
 
    0.53395E+04         0.25454E+04         0.00000E+00
    0.25454E+04         0.11720E+04         0.00000E+00
    0.00000E+00         0.00000E+00         0.00000E+00
 
    0.51825E+04         0.26256E+04         0.00000E+00
    0.26256E+04         0.12662E+04         0.00000E+00
    0.00000E+00         0.00000E+00         0.00000E+00
 
    0.50191E+04         0.27035E+04         0.00000E+00
    0.27035E+04         0.13631E+04         0.00000E+00
    0.00000E+00         0.00000E+00         0.00000E+00
 
    0.48495E+04         0.27789E+04         0.00000E+00
    0.27789E+04         0.14629E+04         0.00000E+00
    0.00000E+00         0.00000E+00         0.00000E+00
 
    0.46739E+04         0.28518E+04         0.00000E+00
    0.28518E+04         0.15653E+04         0.00000E+00
    0.00000E+00         0.00000E+00         0.00000E+00
 
    0.44924E+04         0.29220E+04         0.00000E+00
    0.29220E+04         0.16703E+04         0.00000E+00
    0.00000E+00         0.00000E+00         0.00000E+00
 
    0.43051E+04         0.29894E+04         0.00000E+00
    0.29894E+04         0.17778E+04         0.00000E+00
    0.00000E+00         0.00000E+00         0.00000E+00
 
    0.41121E+04         0.30541E+04         0.00000E+00
    0.30541E+04         0.18876E+04         0.00000E+00
    0.00000E+00         0.00000E+00         0.00000E+00
 
    0.39137E+04         0.31158E+04         0.00000E+00
    0.31158E+04         0.19998E+04         0.00000E+00
    0.00000E+00         0.00000E+00         0.00000E+00
 
    0.37100E+04         0.31746E+04         0.00000E+00
    0.31746E+04         0.21141E+04         0.00000E+00
    0.00000E+00         0.00000E+00         0.00000E+00
 
    0.35010E+04         0.32303E+04         0.00000E+00
    0.32303E+04         0.22304E+04         0.00000E+00
    0.00000E+00         0.00000E+00         0.00000E+00
 
    0.32871E+04         0.32830E+04         0.00000E+00
    0.32830E+04         0.23487E+04         0.00000E+00
    0.00000E+00         0.00000E+00         0.00000E+00
 
    0.30683E+04         0.33324E+04         0.00000E+00
    0.33324E+04         0.24689E+04         0.00000E+00
    0.00000E+00         0.00000E+00         0.00000E+00
 
    0.28449E+04         0.33786E+04         0.00000E+00
    0.33786E+04         0.25908E+04         0.00000E+00
    0.00000E+00         0.00000E+00         0.00000E+00
 
    0.26170E+04         0.34214E+04         0.00000E+00
    0.34214E+04         0.27142E+04         0.00000E+00
    0.00000E+00         0.00000E+00         0.00000E+00
 
    0.23848E+04         0.34609E+04         0.00000E+00
    0.34609E+04         0.28392E+04         0.00000E+00
    0.00000E+00         0.00000E+00         0.00000E+00
 
    0.21484E+04         0.34969E+04         0.00000E+00
    0.34969E+04         0.29654E+04         0.00000E+00
    0.00000E+00         0.00000E+00         0.00000E+00
 
    0.19081E+04         0.35295E+04         0.00000E+00
    0.35295E+04         0.30929E+04         0.00000E+00
    0.00000E+00         0.00000E+00         0.00000E+00
 
    0.16640E+04         0.35584E+04         0.00000E+00
    0.35584E+04         0.32215E+04         0.00000E+00
    0.00000E+00         0.00000E+00         0.00000E+00
 
    0.14164E+04         0.35838E+04         0.00000E+00
    0.35838E+04         0.33511E+04         0.00000E+00
    0.00000E+00         0.00000E+00         0.00000E+00
 
    0.11654E+04         0.36055E+04         0.00000E+00
    0.36055E+04         0.34815E+04         0.00000E+00
    0.00000E+00         0.00000E+00         0.00000E+00
 
    0.91129E+03         0.36235E+04         0.00000E+00
    0.36235E+04         0.36126E+04         0.00000E+00
    0.00000E+00         0.00000E+00         0.00000E+00
 
    0.65416E+03         0.36378E+04         0.00000E+00
    0.36378E+04         0.37443E+04         0.00000E+00
    0.00000E+00         0.00000E+00         0.00000E+00
 
    0.39428E+03         0.36482E+04         0.00000E+00
    0.36482E+04         0.38764E+04         0.00000E+00
    0.00000E+00         0.00000E+00         0.00000E+00
 
    0.13183E+03         0.36549E+04         0.00000E+00
    0.36549E+04         0.40088E+04         0.00000E+00
    0.00000E+00         0.00000E+00         0.00000E+00
 
    0.75144E+04         0.63059E+02         0.00000E+00
    0.63059E+02        -0.76984E+02         0.00000E+00
    0.00000E+00         0.00000E+00         0.00000E+00
 
    0.75431E+04         0.19041E+03         0.00000E+00
    0.19041E+03        -0.72755E+02         0.00000E+00
    0.00000E+00         0.00000E+00         0.00000E+00
 
    0.75634E+04         0.31803E+03         0.00000E+00
    0.31803E+03        -0.64280E+02         0.00000E+00
    0.00000E+00         0.00000E+00         0.00000E+00
 
    0.75753E+04         0.44579E+03         0.00000E+00
    0.44579E+03        -0.51554E+02         0.00000E+00
    0.00000E+00         0.00000E+00         0.00000E+00
 
    0.75788E+04         0.57355E+03         0.00000E+00
    0.57355E+03        -0.34579E+02         0.00000E+00
    0.00000E+00         0.00000E+00         0.00000E+00
 
    0.75739E+04         0.70119E+03         0.00000E+00
    0.70119E+03        -0.13361E+02         0.00000E+00
    0.00000E+00         0.00000E+00         0.00000E+00
 
    0.75606E+04         0.82856E+03         0.00000E+00
    0.82856E+03         0.12091E+02         0.00000E+00
    0.00000E+00         0.00000E+00         0.00000E+00
 
    0.75389E+04         0.95555E+03         0.00000E+00
    0.95555E+03         0.41763E+02         0.00000E+00
    0.00000E+00         0.00000E+00         0.00000E+00
 
    0.75088E+04         0.10820E+04         0.00000E+00
    0.10820E+04         0.75635E+02         0.00000E+00
    0.00000E+00         0.00000E+00         0.00000E+00
 
    0.74704E+04         0.12078E+04         0.00000E+00
    0.12078E+04         0.11369E+03         0.00000E+00
    0.00000E+00         0.00000E+00         0.00000E+00
 
    0.74238E+04         0.13328E+04         0.00000E+00
    0.13328E+04         0.15589E+03         0.00000E+00
    0.00000E+00         0.00000E+00         0.00000E+00
 
    0.73688E+04         0.14569E+04         0.00000E+00
    0.14569E+04         0.20221E+03         0.00000E+00
    0.00000E+00         0.00000E+00         0.00000E+00
 
    0.73057E+04         0.15799E+04         0.00000E+00
    0.15799E+04         0.25262E+03         0.00000E+00
    0.00000E+00         0.00000E+00         0.00000E+00
 
    0.72344E+04         0.17018E+04         0.00000E+00
    0.17018E+04         0.30707E+03         0.00000E+00
    0.00000E+00         0.00000E+00         0.00000E+00
 
    0.71550E+04         0.18224E+04         0.00000E+00
    0.18224E+04         0.36552E+03         0.00000E+00
    0.00000E+00         0.00000E+00         0.00000E+00
 
    0.70675E+04         0.19415E+04         0.00000E+00
    0.19415E+04         0.42793E+03         0.00000E+00
    0.00000E+00         0.00000E+00         0.00000E+00
 
    0.69721E+04         0.20590E+04         0.00000E+00
    0.20590E+04         0.49424E+03         0.00000E+00
    0.00000E+00         0.00000E+00         0.00000E+00
 
    0.68688E+04         0.21749E+04         0.00000E+00
    0.21749E+04         0.56439E+03         0.00000E+00
    0.00000E+00         0.00000E+00         0.00000E+00
 
    0.67577E+04         0.22890E+04         0.00000E+00
    0.22890E+04         0.63833E+03         0.00000E+00
    0.00000E+00         0.00000E+00         0.00000E+00
 
    0.66389E+04         0.24011E+04         0.00000E+00
    0.24011E+04         0.71600E+03         0.00000E+00
    0.00000E+00         0.00000E+00         0.00000E+00
 
    0.65125E+04         0.25112E+04         0.00000E+00
    0.25112E+04         0.79732E+03         0.00000E+00
    0.00000E+00         0.00000E+00         0.00000E+00
 
    0.63785E+04         0.26191E+04         0.00000E+00
    0.26191E+04         0.88223E+03         0.00000E+00
    0.00000E+00         0.00000E+00         0.00000E+00
 
    0.62371E+04         0.27247E+04         0.00000E+00
    0.27247E+04         0.97064E+03         0.00000E+00
    0.00000E+00         0.00000E+00         0.00000E+00
 
    0.60885E+04         0.28279E+04         0.00000E+00
    0.28279E+04         0.10625E+04         0.00000E+00
    0.00000E+00         0.00000E+00         0.00000E+00
 
    0.59326E+04         0.29286E+04         0.00000E+00
    0.29286E+04         0.11577E+04         0.00000E+00
    0.00000E+00         0.00000E+00         0.00000E+00
 
    0.57696E+04         0.30267E+04         0.00000E+00
    0.30267E+04         0.12561E+04         0.00000E+00
    0.00000E+00         0.00000E+00         0.00000E+00
 
    0.55998E+04         0.31220E+04         0.00000E+00
    0.31220E+04         0.13578E+04         0.00000E+00
    0.00000E+00         0.00000E+00         0.00000E+00
 
    0.54231E+04         0.32145E+04         0.00000E+00
    0.32145E+04         0.14625E+04         0.00000E+00
    0.00000E+00         0.00000E+00         0.00000E+00
 
    0.52397E+04         0.33040E+04         0.00000E+00
    0.33040E+04         0.15702E+04         0.00000E+00
    0.00000E+00         0.00000E+00         0.00000E+00
 
    0.50498E+04         0.33905E+04         0.00000E+00
    0.33905E+04         0.16808E+04         0.00000E+00
    0.00000E+00         0.00000E+00         0.00000E+00
 
    0.48536E+04         0.34739E+04         0.00000E+00
    0.34739E+04         0.17942E+04         0.00000E+00
    0.00000E+00         0.00000E+00         0.00000E+00
 
    0.46511E+04         0.35540E+04         0.00000E+00
    0.35540E+04         0.19102E+04         0.00000E+00
    0.00000E+00         0.00000E+00         0.00000E+00
 
    0.44425E+04         0.36307E+04         0.00000E+00
    0.36307E+04         0.20288E+04         0.00000E+00
    0.00000E+00         0.00000E+00         0.00000E+00
 
    0.42281E+04         0.37040E+04         0.00000E+00
    0.37040E+04         0.21499E+04         0.00000E+00
    0.00000E+00         0.00000E+00         0.00000E+00
 
    0.40079E+04         0.37737E+04         0.00000E+00
    0.37737E+04         0.22733E+04         0.00000E+00
    0.00000E+00         0.00000E+00         0.00000E+00
 
    0.37821E+04         0.38399E+04         0.00000E+00
    0.38399E+04         0.23989E+04         0.00000E+00
    0.00000E+00         0.00000E+00         0.00000E+00
 
    0.35509E+04         0.39023E+04         0.00000E+00
    0.39023E+04         0.25267E+04         0.00000E+00
    0.00000E+00         0.00000E+00         0.00000E+00
 
    0.33146E+04         0.39610E+04         0.00000E+00
    0.39610E+04         0.26564E+04         0.00000E+00
    0.00000E+00         0.00000E+00         0.00000E+00
 
    0.30732E+04         0.40157E+04         0.00000E+00
    0.40157E+04         0.27880E+04         0.00000E+00
    0.00000E+00         0.00000E+00         0.00000E+00
 
    0.28269E+04         0.40666E+04         0.00000E+00
    0.40666E+04         0.29213E+04         0.00000E+00
    0.00000E+00         0.00000E+00         0.00000E+00
 
    0.25760E+04         0.41134E+04         0.00000E+00
    0.41134E+04         0.30562E+04         0.00000E+00
    0.00000E+00         0.00000E+00         0.00000E+00
 
    0.23207E+04         0.41561E+04         0.00000E+00
    0.41561E+04         0.31925E+04         0.00000E+00
    0.00000E+00         0.00000E+00         0.00000E+00
 
    0.20611E+04         0.41947E+04         0.00000E+00
    0.41947E+04         0.33302E+04         0.00000E+00
    0.00000E+00         0.00000E+00         0.00000E+00
 
    0.17975E+04         0.42290E+04         0.00000E+00
    0.42290E+04         0.34690E+04         0.00000E+00
    0.00000E+00         0.00000E+00         0.00000E+00
 
    0.15300E+04         0.42591E+04         0.00000E+00
    0.42591E+04         0.36090E+04         0.00000E+00
    0.00000E+00         0.00000E+00         0.00000E+00
 
    0.12589E+04         0.42848E+04         0.00000E+00
    0.42848E+04         0.37498E+04         0.00000E+00
    0.00000E+00         0.00000E+00         0.00000E+00
 
    0.98435E+03         0.43061E+04         0.00000E+00
    0.43061E+04         0.38913E+04         0.00000E+00
    0.00000E+00         0.00000E+00         0.00000E+00
 
    0.70661E+03         0.43230E+04         0.00000E+00
    0.43230E+04         0.40335E+04         0.00000E+00
    0.00000E+00         0.00000E+00         0.00000E+00
 
    0.42589E+03         0.43353E+04         0.00000E+00
    0.43353E+04         0.41762E+04         0.00000E+00
    0.00000E+00         0.00000E+00         0.00000E+00
 
    0.14241E+03         0.43431E+04         0.00000E+00
    0.43431E+04         0.43192E+04         0.00000E+00
    0.00000E+00         0.00000E+00         0.00000E+00
 
    0.81875E+04         0.74042E+02         0.00000E+00
    0.74042E+02        -0.94112E+02         0.00000E+00
    0.00000E+00         0.00000E+00         0.00000E+00
 
    0.82180E+04         0.22352E+03         0.00000E+00
    0.22352E+03        -0.89512E+02         0.00000E+00
    0.00000E+00         0.00000E+00         0.00000E+00
 
    0.82394E+04         0.37329E+03         0.00000E+00
    0.37329E+03        -0.80294E+02         0.00000E+00
    0.00000E+00         0.00000E+00         0.00000E+00
 
    0.82516E+04         0.52321E+03         0.00000E+00
    0.52321E+03        -0.66453E+02         0.00000E+00
    0.00000E+00         0.00000E+00         0.00000E+00
 
    0.82547E+04         0.67311E+03         0.00000E+00
    0.67311E+03        -0.47992E+02         0.00000E+00
    0.00000E+00         0.00000E+00         0.00000E+00
 
    0.82487E+04         0.82285E+03         0.00000E+00
    0.82285E+03        -0.24917E+02         0.00000E+00
    0.00000E+00         0.00000E+00         0.00000E+00
 
    0.82336E+04         0.97226E+03         0.00000E+00
    0.97226E+03         0.27616E+01         0.00000E+00
    0.00000E+00         0.00000E+00         0.00000E+00
 
    0.82094E+04         0.11212E+04         0.00000E+00
    0.11212E+04         0.35028E+02         0.00000E+00
    0.00000E+00         0.00000E+00         0.00000E+00
 
    0.81761E+04         0.12695E+04         0.00000E+00
    0.12695E+04         0.71862E+02         0.00000E+00
    0.00000E+00         0.00000E+00         0.00000E+00
 
    0.81337E+04         0.14170E+04         0.00000E+00
    0.14170E+04         0.11324E+03         0.00000E+00
    0.00000E+00         0.00000E+00         0.00000E+00
 
    0.80824E+04         0.15636E+04         0.00000E+00
    0.15636E+04         0.15913E+03         0.00000E+00
    0.00000E+00         0.00000E+00         0.00000E+00
 
    0.80220E+04         0.17091E+04         0.00000E+00
    0.17091E+04         0.20949E+03         0.00000E+00
    0.00000E+00         0.00000E+00         0.00000E+00
 
    0.79528E+04         0.18533E+04         0.00000E+00
    0.18533E+04         0.26430E+03         0.00000E+00
    0.00000E+00         0.00000E+00         0.00000E+00
 
    0.78747E+04         0.19961E+04         0.00000E+00
    0.19961E+04         0.32350E+03         0.00000E+00
    0.00000E+00         0.00000E+00         0.00000E+00
 
    0.77878E+04         0.21374E+04         0.00000E+00
    0.21374E+04         0.38706E+03         0.00000E+00
    0.00000E+00         0.00000E+00         0.00000E+00
 
    0.76922E+04         0.22770E+04         0.00000E+00
    0.22770E+04         0.45491E+03         0.00000E+00
    0.00000E+00         0.00000E+00         0.00000E+00
 
    0.75880E+04         0.24147E+04         0.00000E+00
    0.24147E+04         0.52700E+03         0.00000E+00
    0.00000E+00         0.00000E+00         0.00000E+00
 
    0.74752E+04         0.25505E+04         0.00000E+00
    0.25505E+04         0.60327E+03         0.00000E+00
    0.00000E+00         0.00000E+00         0.00000E+00
 
    0.73539E+04         0.26841E+04         0.00000E+00
    0.26841E+04         0.68365E+03         0.00000E+00
    0.00000E+00         0.00000E+00         0.00000E+00
 
    0.72243E+04         0.28155E+04         0.00000E+00
    0.28155E+04         0.76808E+03         0.00000E+00
    0.00000E+00         0.00000E+00         0.00000E+00
 
    0.70864E+04         0.29444E+04         0.00000E+00
    0.29444E+04         0.85649E+03         0.00000E+00
    0.00000E+00         0.00000E+00         0.00000E+00
 
    0.69403E+04         0.30708E+04         0.00000E+00
    0.30708E+04         0.94878E+03         0.00000E+00
    0.00000E+00         0.00000E+00         0.00000E+00
 
    0.67862E+04         0.31946E+04         0.00000E+00
    0.31946E+04         0.10449E+04         0.00000E+00
    0.00000E+00         0.00000E+00         0.00000E+00
 
    0.66241E+04         0.33154E+04         0.00000E+00
    0.33154E+04         0.11447E+04         0.00000E+00
    0.00000E+00         0.00000E+00         0.00000E+00
 
    0.64543E+04         0.34334E+04         0.00000E+00
    0.34334E+04         0.12482E+04         0.00000E+00
    0.00000E+00         0.00000E+00         0.00000E+00
 
    0.62768E+04         0.35482E+04         0.00000E+00
    0.35482E+04         0.13552E+04         0.00000E+00
    0.00000E+00         0.00000E+00         0.00000E+00
 
    0.60917E+04         0.36598E+04         0.00000E+00
    0.36598E+04         0.14657E+04         0.00000E+00
    0.00000E+00         0.00000E+00         0.00000E+00
 
    0.58993E+04         0.37681E+04         0.00000E+00
    0.37681E+04         0.15795E+04         0.00000E+00
    0.00000E+00         0.00000E+00         0.00000E+00
 
    0.56997E+04         0.38730E+04         0.00000E+00
    0.38730E+04         0.16966E+04         0.00000E+00
    0.00000E+00         0.00000E+00         0.00000E+00
 
    0.54929E+04         0.39742E+04         0.00000E+00
    0.39742E+04         0.18168E+04         0.00000E+00
    0.00000E+00         0.00000E+00         0.00000E+00
 
    0.52793E+04         0.40718E+04         0.00000E+00
    0.40718E+04         0.19400E+04         0.00000E+00
    0.00000E+00         0.00000E+00         0.00000E+00
 
    0.50589E+04         0.41656E+04         0.00000E+00
    0.41656E+04         0.20661E+04         0.00000E+00
    0.00000E+00         0.00000E+00         0.00000E+00
 
    0.48319E+04         0.42554E+04         0.00000E+00
    0.42554E+04         0.21950E+04         0.00000E+00
    0.00000E+00         0.00000E+00         0.00000E+00
 
    0.45985E+04         0.43412E+04         0.00000E+00
    0.43412E+04         0.23266E+04         0.00000E+00
    0.00000E+00         0.00000E+00         0.00000E+00
 
    0.43589E+04         0.44228E+04         0.00000E+00
    0.44228E+04         0.24607E+04         0.00000E+00
    0.00000E+00         0.00000E+00         0.00000E+00
 
    0.41133E+04         0.45002E+04         0.00000E+00
    0.45002E+04         0.25973E+04         0.00000E+00
    0.00000E+00         0.00000E+00         0.00000E+00
 
    0.38618E+04         0.45733E+04         0.00000E+00
    0.45733E+04         0.27361E+04         0.00000E+00
    0.00000E+00         0.00000E+00         0.00000E+00
 
    0.36047E+04         0.46420E+04         0.00000E+00
    0.46420E+04         0.28771E+04         0.00000E+00
    0.00000E+00         0.00000E+00         0.00000E+00
 
    0.33421E+04         0.47061E+04         0.00000E+00
    0.47061E+04         0.30201E+04         0.00000E+00
    0.00000E+00         0.00000E+00         0.00000E+00
 
    0.30743E+04         0.47656E+04         0.00000E+00
    0.47656E+04         0.31650E+04         0.00000E+00
    0.00000E+00         0.00000E+00         0.00000E+00
 
    0.28014E+04         0.48204E+04         0.00000E+00
    0.48204E+04         0.33116E+04         0.00000E+00
    0.00000E+00         0.00000E+00         0.00000E+00
 
    0.25237E+04         0.48704E+04         0.00000E+00
    0.48704E+04         0.34598E+04         0.00000E+00
    0.00000E+00         0.00000E+00         0.00000E+00
 
    0.22414E+04         0.49155E+04         0.00000E+00
    0.49155E+04         0.36094E+04         0.00000E+00
    0.00000E+00         0.00000E+00         0.00000E+00
 
    0.19547E+04         0.49557E+04         0.00000E+00
    0.49557E+04         0.37604E+04         0.00000E+00
    0.00000E+00         0.00000E+00         0.00000E+00
 
    0.16638E+04         0.49908E+04         0.00000E+00
    0.49908E+04         0.39125E+04         0.00000E+00
    0.00000E+00         0.00000E+00         0.00000E+00
 
    0.13690E+04         0.50209E+04         0.00000E+00
    0.50209E+04         0.40655E+04         0.00000E+00
    0.00000E+00         0.00000E+00         0.00000E+00
 
    0.10704E+04         0.50459E+04         0.00000E+00
    0.50459E+04         0.42195E+04         0.00000E+00
    0.00000E+00         0.00000E+00         0.00000E+00
 
    0.76839E+03         0.50656E+04         0.00000E+00
    0.50656E+04         0.43740E+04         0.00000E+00
    0.00000E+00         0.00000E+00         0.00000E+00
 
    0.46313E+03         0.50800E+04         0.00000E+00
    0.50800E+04         0.45292E+04         0.00000E+00
    0.00000E+00         0.00000E+00         0.00000E+00
 
    0.15486E+03         0.50891E+04         0.00000E+00
    0.50891E+04         0.46846E+04         0.00000E+00
    0.00000E+00         0.00000E+00         0.00000E+00
 
    0.89731E+04         0.86026E+02         0.00000E+00
    0.86026E+02        -0.11420E+03         0.00000E+00
    0.00000E+00         0.00000E+00         0.00000E+00
 
    0.90056E+04         0.25964E+03         0.00000E+00
    0.25964E+03        -0.10917E+03         0.00000E+00
    0.00000E+00         0.00000E+00         0.00000E+00
 
    0.90281E+04         0.43357E+03         0.00000E+00
    0.43357E+03        -0.99081E+02         0.00000E+00
    0.00000E+00         0.00000E+00         0.00000E+00
 
    0.90406E+04         0.60766E+03         0.00000E+00
    0.60766E+03        -0.83941E+02         0.00000E+00
    0.00000E+00         0.00000E+00         0.00000E+00
 
    0.90432E+04         0.78171E+03         0.00000E+00
    0.78171E+03        -0.63748E+02         0.00000E+00
    0.00000E+00         0.00000E+00         0.00000E+00
 
    0.90358E+04         0.95555E+03         0.00000E+00
    0.95555E+03        -0.38509E+02         0.00000E+00
    0.00000E+00         0.00000E+00         0.00000E+00
 
    0.90185E+04         0.11290E+04         0.00000E+00
    0.11290E+04        -0.82366E+01         0.00000E+00
    0.00000E+00         0.00000E+00         0.00000E+00
 
    0.89912E+04         0.13019E+04         0.00000E+00
    0.13019E+04         0.27052E+02         0.00000E+00
    0.00000E+00         0.00000E+00         0.00000E+00
 
    0.89540E+04         0.14740E+04         0.00000E+00
    0.14740E+04         0.67333E+02         0.00000E+00
    0.00000E+00         0.00000E+00         0.00000E+00
 
    0.89070E+04         0.16452E+04         0.00000E+00
    0.16452E+04         0.11258E+03         0.00000E+00
    0.00000E+00         0.00000E+00         0.00000E+00
 
    0.88501E+04         0.18152E+04         0.00000E+00
    0.18152E+04         0.16276E+03         0.00000E+00
    0.00000E+00         0.00000E+00         0.00000E+00
 
    0.87834E+04         0.19840E+04         0.00000E+00
    0.19840E+04         0.21783E+03         0.00000E+00
    0.00000E+00         0.00000E+00         0.00000E+00
 
    0.87070E+04         0.21513E+04         0.00000E+00
    0.21513E+04         0.27776E+03         0.00000E+00
    0.00000E+00         0.00000E+00         0.00000E+00
 
    0.86209E+04         0.23170E+04         0.00000E+00
    0.23170E+04         0.34249E+03         0.00000E+00
    0.00000E+00         0.00000E+00         0.00000E+00
 
    0.85253E+04         0.24809E+04         0.00000E+00
    0.24809E+04         0.41198E+03         0.00000E+00
    0.00000E+00         0.00000E+00         0.00000E+00
 
    0.84201E+04         0.26428E+04         0.00000E+00
    0.26428E+04         0.48615E+03         0.00000E+00
    0.00000E+00         0.00000E+00         0.00000E+00
 
    0.83055E+04         0.28026E+04         0.00000E+00
    0.28026E+04         0.56497E+03         0.00000E+00
    0.00000E+00         0.00000E+00         0.00000E+00
 
    0.81816E+04         0.29600E+04         0.00000E+00
    0.29600E+04         0.64835E+03         0.00000E+00
    0.00000E+00         0.00000E+00         0.00000E+00
 
    0.80484E+04         0.31150E+04         0.00000E+00
    0.31150E+04         0.73622E+03         0.00000E+00
    0.00000E+00         0.00000E+00         0.00000E+00
 
    0.79061E+04         0.32673E+04         0.00000E+00
    0.32673E+04         0.82851E+03         0.00000E+00
    0.00000E+00         0.00000E+00         0.00000E+00
 
    0.77548E+04         0.34168E+04         0.00000E+00
    0.34168E+04         0.92515E+03         0.00000E+00
    0.00000E+00         0.00000E+00         0.00000E+00
 
    0.75945E+04         0.35633E+04         0.00000E+00
    0.35633E+04         0.10260E+04         0.00000E+00
    0.00000E+00         0.00000E+00         0.00000E+00
 
    0.74255E+04         0.37068E+04         0.00000E+00
    0.37068E+04         0.11311E+04         0.00000E+00
    0.00000E+00         0.00000E+00         0.00000E+00
 
    0.72479E+04         0.38469E+04         0.00000E+00
    0.38469E+04         0.12402E+04         0.00000E+00
    0.00000E+00         0.00000E+00         0.00000E+00
 
    0.70617E+04         0.39836E+04         0.00000E+00
    0.39836E+04         0.13533E+04         0.00000E+00
    0.00000E+00         0.00000E+00         0.00000E+00
 
    0.68672E+04         0.41167E+04         0.00000E+00
    0.41167E+04         0.14703E+04         0.00000E+00
    0.00000E+00         0.00000E+00         0.00000E+00
 
    0.66645E+04         0.42461E+04         0.00000E+00
    0.42461E+04         0.15910E+04         0.00000E+00
    0.00000E+00         0.00000E+00         0.00000E+00
 
    0.64537E+04         0.43716E+04         0.00000E+00
    0.43716E+04         0.17154E+04         0.00000E+00
    0.00000E+00         0.00000E+00         0.00000E+00
 
    0.62351E+04         0.44931E+04         0.00000E+00
    0.44931E+04         0.18433E+04         0.00000E+00
    0.00000E+00         0.00000E+00         0.00000E+00
 
    0.60087E+04         0.46105E+04         0.00000E+00
    0.46105E+04         0.19747E+04         0.00000E+00
    0.00000E+00         0.00000E+00         0.00000E+00
 
    0.57748E+04         0.47235E+04         0.00000E+00
    0.47235E+04         0.21094E+04         0.00000E+00
    0.00000E+00         0.00000E+00         0.00000E+00
 
    0.55336E+04         0.48322E+04         0.00000E+00
    0.48322E+04         0.22472E+04         0.00000E+00
    0.00000E+00         0.00000E+00         0.00000E+00
 
    0.52851E+04         0.49363E+04         0.00000E+00
    0.49363E+04         0.23881E+04         0.00000E+00
    0.00000E+00         0.00000E+00         0.00000E+00
 
    0.50297E+04         0.50357E+04         0.00000E+00
    0.50357E+04         0.25319E+04         0.00000E+00
    0.00000E+00         0.00000E+00         0.00000E+00
 
    0.47675E+04         0.51303E+04         0.00000E+00
    0.51303E+04         0.26785E+04         0.00000E+00
    0.00000E+00         0.00000E+00         0.00000E+00
 
    0.44988E+04         0.52200E+04         0.00000E+00
    0.52200E+04         0.28277E+04         0.00000E+00
    0.00000E+00         0.00000E+00         0.00000E+00
 
    0.42236E+04         0.53047E+04         0.00000E+00
    0.53047E+04         0.29794E+04         0.00000E+00
    0.00000E+00         0.00000E+00         0.00000E+00
 
    0.39423E+04         0.53843E+04         0.00000E+00
    0.53843E+04         0.31335E+04         0.00000E+00
    0.00000E+00         0.00000E+00         0.00000E+00
 
    0.36550E+04         0.54586E+04         0.00000E+00
    0.54586E+04         0.32898E+04         0.00000E+00
    0.00000E+00         0.00000E+00         0.00000E+00
 
    0.33621E+04         0.55275E+04         0.00000E+00
    0.55275E+04         0.34481E+04         0.00000E+00
    0.00000E+00         0.00000E+00         0.00000E+00
 
    0.30636E+04         0.55910E+04         0.00000E+00
    0.55910E+04         0.36084E+04         0.00000E+00
    0.00000E+00         0.00000E+00         0.00000E+00
 
    0.27599E+04         0.56489E+04         0.00000E+00
    0.56489E+04         0.37703E+04         0.00000E+00
    0.00000E+00         0.00000E+00         0.00000E+00
 
    0.24511E+04         0.57012E+04         0.00000E+00
    0.57012E+04         0.39339E+04         0.00000E+00
    0.00000E+00         0.00000E+00         0.00000E+00
 
    0.21375E+04         0.57478E+04         0.00000E+00
    0.57478E+04         0.40989E+04         0.00000E+00
    0.00000E+00         0.00000E+00         0.00000E+00
 
    0.18194E+04         0.57886E+04         0.00000E+00
    0.57886E+04         0.42651E+04         0.00000E+00
    0.00000E+00         0.00000E+00         0.00000E+00
 
    0.14970E+04         0.58235E+04         0.00000E+00
    0.58235E+04         0.44325E+04         0.00000E+00
    0.00000E+00         0.00000E+00         0.00000E+00
 
    0.11705E+04         0.58524E+04         0.00000E+00
    0.58524E+04         0.46007E+04         0.00000E+00
    0.00000E+00         0.00000E+00         0.00000E+00
 
    0.84025E+03         0.58753E+04         0.00000E+00
    0.58753E+04         0.47698E+04         0.00000E+00
    0.00000E+00         0.00000E+00         0.00000E+00
 
    0.50644E+03         0.58921E+04         0.00000E+00
    0.58921E+04         0.49394E+04         0.00000E+00
    0.00000E+00         0.00000E+00         0.00000E+00
 
    0.16934E+03         0.59027E+04         0.00000E+00
    0.59027E+04         0.51094E+04         0.00000E+00
    0.00000E+00         0.00000E+00         0.00000E+00
 
    0.98813E+04         0.99174E+02         0.00000E+00
    0.99174E+02        -0.13786E+03         0.00000E+00
    0.00000E+00         0.00000E+00         0.00000E+00
 
    0.99160E+04         0.29925E+03         0.00000E+00
    0.29925E+03        -0.13233E+03         0.00000E+00
    0.00000E+00         0.00000E+00         0.00000E+00
 
    0.99397E+04         0.49969E+03         0.00000E+00
    0.49969E+03        -0.12124E+03         0.00000E+00
    0.00000E+00         0.00000E+00         0.00000E+00
 
    0.99525E+04         0.70027E+03         0.00000E+00
    0.70027E+03        -0.10460E+03         0.00000E+00
    0.00000E+00         0.00000E+00         0.00000E+00
 
    0.99544E+04         0.90079E+03         0.00000E+00
    0.90079E+03        -0.82405E+02         0.00000E+00
    0.00000E+00         0.00000E+00         0.00000E+00
 
    0.99453E+04         0.11010E+04         0.00000E+00
    0.11010E+04        -0.54668E+02         0.00000E+00
    0.00000E+00         0.00000E+00         0.00000E+00
 
    0.99253E+04         0.13008E+04         0.00000E+00
    0.13008E+04        -0.21401E+02         0.00000E+00
    0.00000E+00         0.00000E+00         0.00000E+00
 
    0.98945E+04         0.14999E+04         0.00000E+00
    0.14999E+04         0.17375E+02         0.00000E+00
    0.00000E+00         0.00000E+00         0.00000E+00
 
    0.98527E+04         0.16981E+04         0.00000E+00
    0.16981E+04         0.61635E+02         0.00000E+00
    0.00000E+00         0.00000E+00         0.00000E+00
 
    0.98001E+04         0.18953E+04         0.00000E+00
    0.18953E+04         0.11135E+03         0.00000E+00
    0.00000E+00         0.00000E+00         0.00000E+00
 
    0.97367E+04         0.20911E+04         0.00000E+00
    0.20911E+04         0.16648E+03         0.00000E+00
    0.00000E+00         0.00000E+00         0.00000E+00
 
    0.96627E+04         0.22854E+04         0.00000E+00
    0.22854E+04         0.22698E+03         0.00000E+00
    0.00000E+00         0.00000E+00         0.00000E+00
 
    0.95779E+04         0.24780E+04         0.00000E+00
    0.24780E+04         0.29281E+03         0.00000E+00
    0.00000E+00         0.00000E+00         0.00000E+00
 
    0.94825E+04         0.26688E+04         0.00000E+00
    0.26688E+04         0.36392E+03         0.00000E+00
    0.00000E+00         0.00000E+00         0.00000E+00
 
    0.93767E+04         0.28574E+04         0.00000E+00
    0.28574E+04         0.44024E+03         0.00000E+00
    0.00000E+00         0.00000E+00         0.00000E+00
 
    0.92604E+04         0.30438E+04         0.00000E+00
    0.30438E+04         0.52171E+03         0.00000E+00
    0.00000E+00         0.00000E+00         0.00000E+00
 
    0.91337E+04         0.32276E+04         0.00000E+00
    0.32276E+04         0.60827E+03         0.00000E+00
    0.00000E+00         0.00000E+00         0.00000E+00
 
    0.89969E+04         0.34088E+04         0.00000E+00
    0.34088E+04         0.69985E+03         0.00000E+00
    0.00000E+00         0.00000E+00         0.00000E+00
 
    0.88499E+04         0.35871E+04         0.00000E+00
    0.35871E+04         0.79635E+03         0.00000E+00
    0.00000E+00         0.00000E+00         0.00000E+00
 
    0.86929E+04         0.37624E+04         0.00000E+00
    0.37624E+04         0.89771E+03         0.00000E+00
    0.00000E+00         0.00000E+00         0.00000E+00
 
    0.85260E+04         0.39344E+04         0.00000E+00
    0.39344E+04         0.10038E+04         0.00000E+00
    0.00000E+00         0.00000E+00         0.00000E+00
 
    0.83494E+04         0.41030E+04         0.00000E+00
    0.41030E+04         0.11146E+04         0.00000E+00
    0.00000E+00         0.00000E+00         0.00000E+00
 
    0.81632E+04         0.42680E+04         0.00000E+00
    0.42680E+04         0.12300E+04         0.00000E+00
    0.00000E+00         0.00000E+00         0.00000E+00
 
    0.79675E+04         0.44292E+04         0.00000E+00
    0.44292E+04         0.13498E+04         0.00000E+00
    0.00000E+00         0.00000E+00         0.00000E+00
 
    0.77625E+04         0.45864E+04         0.00000E+00
    0.45864E+04         0.14740E+04         0.00000E+00
    0.00000E+00         0.00000E+00         0.00000E+00
 
    0.75483E+04         0.47396E+04         0.00000E+00
    0.47396E+04         0.16024E+04         0.00000E+00
    0.00000E+00         0.00000E+00         0.00000E+00
 
    0.73252E+04         0.48884E+04         0.00000E+00
    0.48884E+04         0.17350E+04         0.00000E+00
    0.00000E+00         0.00000E+00         0.00000E+00
 
    0.70932E+04         0.50328E+04         0.00000E+00
    0.50328E+04         0.18715E+04         0.00000E+00
    0.00000E+00         0.00000E+00         0.00000E+00
 
    0.68526E+04         0.51725E+04         0.00000E+00
    0.51725E+04         0.20120E+04         0.00000E+00
    0.00000E+00         0.00000E+00         0.00000E+00
 
    0.66036E+04         0.53075E+04         0.00000E+00
    0.53075E+04         0.21562E+04         0.00000E+00
    0.00000E+00         0.00000E+00         0.00000E+00
 
    0.63463E+04         0.54375E+04         0.00000E+00
    0.54375E+04         0.23041E+04         0.00000E+00
    0.00000E+00         0.00000E+00         0.00000E+00
 
    0.60810E+04         0.55625E+04         0.00000E+00
    0.55625E+04         0.24554E+04         0.00000E+00
    0.00000E+00         0.00000E+00         0.00000E+00
 
    0.58078E+04         0.56822E+04         0.00000E+00
    0.56822E+04         0.26101E+04         0.00000E+00
    0.00000E+00         0.00000E+00         0.00000E+00
 
    0.55269E+04         0.57965E+04         0.00000E+00
    0.57965E+04         0.27679E+04         0.00000E+00
    0.00000E+00         0.00000E+00         0.00000E+00
 
    0.52386E+04         0.59054E+04         0.00000E+00
    0.59054E+04         0.29289E+04         0.00000E+00
    0.00000E+00         0.00000E+00         0.00000E+00
 
    0.49432E+04         0.60086E+04         0.00000E+00
    0.60086E+04         0.30927E+04         0.00000E+00
    0.00000E+00         0.00000E+00         0.00000E+00
 
    0.46407E+04         0.61060E+04         0.00000E+00
    0.61060E+04         0.32593E+04         0.00000E+00
    0.00000E+00         0.00000E+00         0.00000E+00
 
    0.43315E+04         0.61975E+04         0.00000E+00
    0.61975E+04         0.34284E+04         0.00000E+00
    0.00000E+00         0.00000E+00         0.00000E+00
 
    0.40158E+04         0.62829E+04         0.00000E+00
    0.62829E+04         0.36000E+04         0.00000E+00
    0.00000E+00         0.00000E+00         0.00000E+00
 
    0.36938E+04         0.63622E+04         0.00000E+00
    0.63622E+04         0.37739E+04         0.00000E+00
    0.00000E+00         0.00000E+00         0.00000E+00
 
    0.33658E+04         0.64353E+04         0.00000E+00
    0.64353E+04         0.39498E+04         0.00000E+00
    0.00000E+00         0.00000E+00         0.00000E+00
 
    0.30321E+04         0.65020E+04         0.00000E+00
    0.65020E+04         0.41277E+04         0.00000E+00
    0.00000E+00         0.00000E+00         0.00000E+00
 
    0.26928E+04         0.65622E+04         0.00000E+00
    0.65622E+04         0.43073E+04         0.00000E+00
    0.00000E+00         0.00000E+00         0.00000E+00
 
    0.23483E+04         0.66158E+04         0.00000E+00
    0.66158E+04         0.44884E+04         0.00000E+00
    0.00000E+00         0.00000E+00         0.00000E+00
 
    0.19988E+04         0.66627E+04         0.00000E+00
    0.66627E+04         0.46710E+04         0.00000E+00
    0.00000E+00         0.00000E+00         0.00000E+00
 
    0.16446E+04         0.67029E+04         0.00000E+00
    0.67029E+04         0.48548E+04         0.00000E+00
    0.00000E+00         0.00000E+00         0.00000E+00
 
    0.12859E+04         0.67363E+04         0.00000E+00
    0.67363E+04         0.50396E+04         0.00000E+00
    0.00000E+00         0.00000E+00         0.00000E+00
 
    0.92306E+03         0.67627E+04         0.00000E+00
    0.67627E+04         0.52252E+04         0.00000E+00
    0.00000E+00         0.00000E+00         0.00000E+00
 
    0.55634E+03         0.67821E+04         0.00000E+00
    0.67821E+04         0.54115E+04         0.00000E+00
    0.00000E+00         0.00000E+00         0.00000E+00
 
    0.18602E+03         0.67945E+04         0.00000E+00
    0.67945E+04         0.55982E+04         0.00000E+00
    0.00000E+00         0.00000E+00         0.00000E+00
 
    0.10924E+05         0.11366E+03         0.00000E+00
    0.11366E+03        -0.16581E+03         0.00000E+00
    0.00000E+00         0.00000E+00         0.00000E+00
 
    0.10961E+05         0.34290E+03         0.00000E+00
    0.34290E+03        -0.15971E+03         0.00000E+00
    0.00000E+00         0.00000E+00         0.00000E+00
 
    0.10986E+05         0.57251E+03         0.00000E+00
    0.57251E+03        -0.14747E+03         0.00000E+00
    0.00000E+00         0.00000E+00         0.00000E+00
 
    0.10999E+05         0.80227E+03         0.00000E+00
    0.80227E+03        -0.12911E+03         0.00000E+00
    0.00000E+00         0.00000E+00         0.00000E+00
 
    0.11000E+05         0.10319E+04         0.00000E+00
    0.10319E+04        -0.10462E+03         0.00000E+00
    0.00000E+00         0.00000E+00         0.00000E+00
 
    0.10989E+05         0.12613E+04         0.00000E+00
    0.12613E+04        -0.74018E+02         0.00000E+00
    0.00000E+00         0.00000E+00         0.00000E+00
 
    0.10966E+05         0.14900E+04         0.00000E+00
    0.14900E+04        -0.37318E+02         0.00000E+00
    0.00000E+00         0.00000E+00         0.00000E+00
 
    0.10931E+05         0.17180E+04         0.00000E+00
    0.17180E+04         0.54554E+01         0.00000E+00
    0.00000E+00         0.00000E+00         0.00000E+00
 
    0.10884E+05         0.19449E+04         0.00000E+00
    0.19449E+04         0.54275E+02         0.00000E+00
    0.00000E+00         0.00000E+00         0.00000E+00
 
    0.10825E+05         0.21706E+04         0.00000E+00
    0.21706E+04         0.10911E+03         0.00000E+00
    0.00000E+00         0.00000E+00         0.00000E+00
 
    0.10754E+05         0.23948E+04         0.00000E+00
    0.23948E+04         0.16991E+03         0.00000E+00
    0.00000E+00         0.00000E+00         0.00000E+00
 
    0.10671E+05         0.26172E+04         0.00000E+00
    0.26172E+04         0.23663E+03         0.00000E+00
    0.00000E+00         0.00000E+00         0.00000E+00
 
    0.10576E+05         0.28376E+04         0.00000E+00
    0.28376E+04         0.30922E+03         0.00000E+00
    0.00000E+00         0.00000E+00         0.00000E+00
 
    0.10470E+05         0.30559E+04         0.00000E+00
    0.30559E+04         0.38763E+03         0.00000E+00
    0.00000E+00         0.00000E+00         0.00000E+00
 
    0.10353E+05         0.32718E+04         0.00000E+00
    0.32718E+04         0.47178E+03         0.00000E+00
    0.00000E+00         0.00000E+00         0.00000E+00
 
    0.10224E+05         0.34850E+04         0.00000E+00
    0.34850E+04         0.56161E+03         0.00000E+00
    0.00000E+00         0.00000E+00         0.00000E+00
 
    0.10083E+05         0.36953E+04         0.00000E+00
    0.36953E+04         0.65704E+03         0.00000E+00
    0.00000E+00         0.00000E+00         0.00000E+00
 
    0.99314E+04         0.39026E+04         0.00000E+00
    0.39026E+04         0.75799E+03         0.00000E+00
    0.00000E+00         0.00000E+00         0.00000E+00
 
    0.97685E+04         0.41066E+04         0.00000E+00
    0.41066E+04         0.86437E+03         0.00000E+00
    0.00000E+00         0.00000E+00         0.00000E+00
 
    0.95946E+04         0.43071E+04         0.00000E+00
    0.43071E+04         0.97610E+03         0.00000E+00
    0.00000E+00         0.00000E+00         0.00000E+00
 
    0.94099E+04         0.45039E+04         0.00000E+00
    0.45039E+04         0.10931E+04         0.00000E+00
    0.00000E+00         0.00000E+00         0.00000E+00
 
    0.92144E+04         0.46967E+04         0.00000E+00
    0.46967E+04         0.12152E+04         0.00000E+00
    0.00000E+00         0.00000E+00         0.00000E+00
 
    0.90084E+04         0.48854E+04         0.00000E+00
    0.48854E+04         0.13423E+04         0.00000E+00
    0.00000E+00         0.00000E+00         0.00000E+00
 
    0.87920E+04         0.50698E+04         0.00000E+00
    0.50698E+04         0.14744E+04         0.00000E+00
    0.00000E+00         0.00000E+00         0.00000E+00
 
    0.85653E+04         0.52496E+04         0.00000E+00
    0.52496E+04         0.16113E+04         0.00000E+00
    0.00000E+00         0.00000E+00         0.00000E+00
 
    0.83286E+04         0.54248E+04         0.00000E+00
    0.54248E+04         0.17528E+04         0.00000E+00
    0.00000E+00         0.00000E+00         0.00000E+00
 
    0.80820E+04         0.55950E+04         0.00000E+00
    0.55950E+04         0.18989E+04         0.00000E+00
    0.00000E+00         0.00000E+00         0.00000E+00
 
    0.78257E+04         0.57601E+04         0.00000E+00
    0.57601E+04         0.20494E+04         0.00000E+00
    0.00000E+00         0.00000E+00         0.00000E+00
 
    0.75599E+04         0.59199E+04         0.00000E+00
    0.59199E+04         0.22042E+04         0.00000E+00
    0.00000E+00         0.00000E+00         0.00000E+00
 
    0.72849E+04         0.60742E+04         0.00000E+00
    0.60742E+04         0.23631E+04         0.00000E+00
    0.00000E+00         0.00000E+00         0.00000E+00
 
    0.70008E+04         0.62229E+04         0.00000E+00
    0.62229E+04         0.25260E+04         0.00000E+00
    0.00000E+00         0.00000E+00         0.00000E+00
 
    0.67078E+04         0.63658E+04         0.00000E+00
    0.63658E+04         0.26928E+04         0.00000E+00
    0.00000E+00         0.00000E+00         0.00000E+00
 
    0.64062E+04         0.65027E+04         0.00000E+00
    0.65027E+04         0.28633E+04         0.00000E+00
    0.00000E+00         0.00000E+00         0.00000E+00
 
    0.60962E+04         0.66335E+04         0.00000E+00
    0.66335E+04         0.30372E+04         0.00000E+00
    0.00000E+00         0.00000E+00         0.00000E+00
 
    0.57780E+04         0.67580E+04         0.00000E+00
    0.67580E+04         0.32146E+04         0.00000E+00
    0.00000E+00         0.00000E+00         0.00000E+00
 
    0.54520E+04         0.68760E+04         0.00000E+00
    0.68760E+04         0.33951E+04         0.00000E+00
    0.00000E+00         0.00000E+00         0.00000E+00
 
    0.51182E+04         0.69874E+04         0.00000E+00
    0.69874E+04         0.35787E+04         0.00000E+00
    0.00000E+00         0.00000E+00         0.00000E+00
 
    0.47771E+04         0.70920E+04         0.00000E+00
    0.70920E+04         0.37651E+04         0.00000E+00
    0.00000E+00         0.00000E+00         0.00000E+00
 
    0.44288E+04         0.71898E+04         0.00000E+00
    0.71898E+04         0.39542E+04         0.00000E+00
    0.00000E+00         0.00000E+00         0.00000E+00
 
    0.40736E+04         0.72805E+04         0.00000E+00
    0.72805E+04         0.41458E+04         0.00000E+00
    0.00000E+00         0.00000E+00         0.00000E+00
 
    0.37118E+04         0.73641E+04         0.00000E+00
    0.73641E+04         0.43397E+04         0.00000E+00
    0.00000E+00         0.00000E+00         0.00000E+00
 
    0.33436E+04         0.74404E+04         0.00000E+00
    0.74404E+04         0.45357E+04         0.00000E+00
    0.00000E+00         0.00000E+00         0.00000E+00
 
    0.29695E+04         0.75094E+04         0.00000E+00
    0.75094E+04         0.47336E+04         0.00000E+00
    0.00000E+00         0.00000E+00         0.00000E+00
 
    0.25895E+04         0.75708E+04         0.00000E+00
    0.75708E+04         0.49333E+04         0.00000E+00
    0.00000E+00         0.00000E+00         0.00000E+00
 
    0.22041E+04         0.76246E+04         0.00000E+00
    0.76246E+04         0.51345E+04         0.00000E+00
    0.00000E+00         0.00000E+00         0.00000E+00
 
    0.18134E+04         0.76707E+04         0.00000E+00
    0.76707E+04         0.53371E+04         0.00000E+00
    0.00000E+00         0.00000E+00         0.00000E+00
 
    0.14179E+04         0.77089E+04         0.00000E+00
    0.77089E+04         0.55408E+04         0.00000E+00
    0.00000E+00         0.00000E+00         0.00000E+00
 
    0.10178E+04         0.77393E+04         0.00000E+00
    0.77393E+04         0.57454E+04         0.00000E+00
    0.00000E+00         0.00000E+00         0.00000E+00
 
    0.61345E+03         0.77617E+04         0.00000E+00
    0.77617E+04         0.59508E+04         0.00000E+00
    0.00000E+00         0.00000E+00         0.00000E+00
 
    0.20512E+03         0.77759E+04         0.00000E+00
    0.77759E+04         0.61567E+04         0.00000E+00
    0.00000E+00         0.00000E+00         0.00000E+00
 
    0.12115E+05         0.12969E+03         0.00000E+00
    0.12969E+03        -0.19890E+03         0.00000E+00
    0.00000E+00         0.00000E+00         0.00000E+00
 
    0.12155E+05         0.39115E+03         0.00000E+00
    0.39115E+03        -0.19214E+03         0.00000E+00
    0.00000E+00         0.00000E+00         0.00000E+00
 
    0.12181E+05         0.65301E+03         0.00000E+00
    0.65301E+03        -0.17860E+03         0.00000E+00
    0.00000E+00         0.00000E+00         0.00000E+00
 
    0.12194E+05         0.91501E+03         0.00000E+00
    0.91501E+03        -0.15827E+03         0.00000E+00
    0.00000E+00         0.00000E+00         0.00000E+00
 
    0.12194E+05         0.11769E+04         0.00000E+00
    0.11769E+04        -0.13117E+03         0.00000E+00
    0.00000E+00         0.00000E+00         0.00000E+00
 
    0.12180E+05         0.14383E+04         0.00000E+00
    0.14383E+04        -0.97297E+02         0.00000E+00
    0.00000E+00         0.00000E+00         0.00000E+00
 
    0.12153E+05         0.16991E+04         0.00000E+00
    0.16991E+04        -0.56684E+02         0.00000E+00
    0.00000E+00         0.00000E+00         0.00000E+00
 
    0.12113E+05         0.19590E+04         0.00000E+00
    0.19590E+04        -0.93523E+01         0.00000E+00
    0.00000E+00         0.00000E+00         0.00000E+00
 
    0.12060E+05         0.22176E+04         0.00000E+00
    0.22176E+04         0.44664E+02         0.00000E+00
    0.00000E+00         0.00000E+00         0.00000E+00
 
    0.11993E+05         0.24748E+04         0.00000E+00
    0.24748E+04         0.10533E+03         0.00000E+00
    0.00000E+00         0.00000E+00         0.00000E+00
 
    0.11914E+05         0.27302E+04         0.00000E+00
    0.27302E+04         0.17259E+03         0.00000E+00
    0.00000E+00         0.00000E+00         0.00000E+00
 
    0.11821E+05         0.29836E+04         0.00000E+00
    0.29836E+04         0.24640E+03         0.00000E+00
    0.00000E+00         0.00000E+00         0.00000E+00
 
    0.11715E+05         0.32348E+04         0.00000E+00
    0.32348E+04         0.32669E+03         0.00000E+00
    0.00000E+00         0.00000E+00         0.00000E+00
 
    0.11597E+05         0.34835E+04         0.00000E+00
    0.34835E+04         0.41341E+03         0.00000E+00
    0.00000E+00         0.00000E+00         0.00000E+00
 
    0.11466E+05         0.37294E+04         0.00000E+00
    0.37294E+04         0.50649E+03         0.00000E+00
    0.00000E+00         0.00000E+00         0.00000E+00
 
    0.11322E+05         0.39722E+04         0.00000E+00
    0.39722E+04         0.60583E+03         0.00000E+00
    0.00000E+00         0.00000E+00         0.00000E+00
 
    0.11165E+05         0.42118E+04         0.00000E+00
    0.42118E+04         0.71136E+03         0.00000E+00
    0.00000E+00         0.00000E+00         0.00000E+00
 
    0.10997E+05         0.44479E+04         0.00000E+00
    0.44479E+04         0.82299E+03         0.00000E+00
    0.00000E+00         0.00000E+00         0.00000E+00
 
    0.10816E+05         0.46802E+04         0.00000E+00
    0.46802E+04         0.94063E+03         0.00000E+00
    0.00000E+00         0.00000E+00         0.00000E+00
 
    0.10622E+05         0.49085E+04         0.00000E+00
    0.49085E+04         0.10642E+04         0.00000E+00
    0.00000E+00         0.00000E+00         0.00000E+00
 
    0.10417E+05         0.51326E+04         0.00000E+00
    0.51326E+04         0.11935E+04         0.00000E+00
    0.00000E+00         0.00000E+00         0.00000E+00
 
    0.10200E+05         0.53522E+04         0.00000E+00
    0.53522E+04         0.13285E+04         0.00000E+00
    0.00000E+00         0.00000E+00         0.00000E+00
 
    0.99715E+04         0.55670E+04         0.00000E+00
    0.55670E+04         0.14691E+04         0.00000E+00
    0.00000E+00         0.00000E+00         0.00000E+00
 
    0.97314E+04         0.57770E+04         0.00000E+00
    0.57770E+04         0.16150E+04         0.00000E+00
    0.00000E+00         0.00000E+00         0.00000E+00
 
    0.94800E+04         0.59817E+04         0.00000E+00
    0.59817E+04         0.17663E+04         0.00000E+00
    0.00000E+00         0.00000E+00         0.00000E+00
 
    0.92175E+04         0.61811E+04         0.00000E+00
    0.61811E+04         0.19228E+04         0.00000E+00
    0.00000E+00         0.00000E+00         0.00000E+00
 
    0.89442E+04         0.63749E+04         0.00000E+00
    0.63749E+04         0.20843E+04         0.00000E+00
    0.00000E+00         0.00000E+00         0.00000E+00
 
    0.86601E+04         0.65628E+04         0.00000E+00
    0.65628E+04         0.22507E+04         0.00000E+00
    0.00000E+00         0.00000E+00         0.00000E+00
 
    0.83656E+04         0.67448E+04         0.00000E+00
    0.67448E+04         0.24218E+04         0.00000E+00
    0.00000E+00         0.00000E+00         0.00000E+00
 
    0.80609E+04         0.69205E+04         0.00000E+00
    0.69205E+04         0.25974E+04         0.00000E+00
    0.00000E+00         0.00000E+00         0.00000E+00
 
    0.77462E+04         0.70898E+04         0.00000E+00
    0.70898E+04         0.27775E+04         0.00000E+00
    0.00000E+00         0.00000E+00         0.00000E+00
 
    0.74217E+04         0.72525E+04         0.00000E+00
    0.72525E+04         0.29619E+04         0.00000E+00
    0.00000E+00         0.00000E+00         0.00000E+00
 
    0.70877E+04         0.74084E+04         0.00000E+00
    0.74084E+04         0.31502E+04         0.00000E+00
    0.00000E+00         0.00000E+00         0.00000E+00
 
    0.67445E+04         0.75572E+04         0.00000E+00
    0.75572E+04         0.33425E+04         0.00000E+00
    0.00000E+00         0.00000E+00         0.00000E+00
 
    0.63923E+04         0.76990E+04         0.00000E+00
    0.76990E+04         0.35386E+04         0.00000E+00
    0.00000E+00         0.00000E+00         0.00000E+00
 
    0.60313E+04         0.78333E+04         0.00000E+00
    0.78333E+04         0.37381E+04         0.00000E+00
    0.00000E+00         0.00000E+00         0.00000E+00
 
    0.56620E+04         0.79602E+04         0.00000E+00
    0.79602E+04         0.39410E+04         0.00000E+00
    0.00000E+00         0.00000E+00         0.00000E+00
 
    0.52844E+04         0.80794E+04         0.00000E+00
    0.80794E+04         0.41471E+04         0.00000E+00
    0.00000E+00         0.00000E+00         0.00000E+00
 
    0.48990E+04         0.81908E+04         0.00000E+00
    0.81908E+04         0.43561E+04         0.00000E+00
    0.00000E+00         0.00000E+00         0.00000E+00
 
    0.45060E+04         0.82942E+04         0.00000E+00
    0.82942E+04         0.45678E+04         0.00000E+00
    0.00000E+00         0.00000E+00         0.00000E+00
 
    0.41057E+04         0.83894E+04         0.00000E+00
    0.83894E+04         0.47822E+04         0.00000E+00
    0.00000E+00         0.00000E+00         0.00000E+00
 
    0.36984E+04         0.84764E+04         0.00000E+00
    0.84764E+04         0.49988E+04         0.00000E+00
    0.00000E+00         0.00000E+00         0.00000E+00
 
    0.32844E+04         0.85550E+04         0.00000E+00
    0.85550E+04         0.52177E+04         0.00000E+00
    0.00000E+00         0.00000E+00         0.00000E+00
 
    0.28641E+04         0.86250E+04         0.00000E+00
    0.86250E+04         0.54384E+04         0.00000E+00
    0.00000E+00         0.00000E+00         0.00000E+00
 
    0.24377E+04         0.86864E+04         0.00000E+00
    0.86864E+04         0.56609E+04         0.00000E+00
    0.00000E+00         0.00000E+00         0.00000E+00
 
    0.20057E+04         0.87391E+04         0.00000E+00
    0.87391E+04         0.58848E+04         0.00000E+00
    0.00000E+00         0.00000E+00         0.00000E+00
 
    0.15682E+04         0.87828E+04         0.00000E+00
    0.87828E+04         0.61100E+04         0.00000E+00
    0.00000E+00         0.00000E+00         0.00000E+00
 
    0.11257E+04         0.88176E+04         0.00000E+00
    0.88176E+04         0.63363E+04         0.00000E+00
    0.00000E+00         0.00000E+00         0.00000E+00
 
    0.67846E+03         0.88433E+04         0.00000E+00
    0.88433E+04         0.65634E+04         0.00000E+00
    0.00000E+00         0.00000E+00         0.00000E+00
 
    0.22685E+03         0.88598E+04         0.00000E+00
    0.88598E+04         0.67911E+04         0.00000E+00
    0.00000E+00         0.00000E+00         0.00000E+00
 
    0.13469E+05         0.14746E+03         0.00000E+00
    0.14746E+03        -0.23813E+03         0.00000E+00
    0.00000E+00         0.00000E+00         0.00000E+00
 
    0.13511E+05         0.44464E+03         0.00000E+00
    0.44464E+03        -0.23062E+03         0.00000E+00
    0.00000E+00         0.00000E+00         0.00000E+00
 
    0.13539E+05         0.74225E+03         0.00000E+00
    0.74225E+03        -0.21559E+03         0.00000E+00
    0.00000E+00         0.00000E+00         0.00000E+00
 
    0.13552E+05         0.10400E+04         0.00000E+00
    0.10400E+04        -0.19303E+03         0.00000E+00
    0.00000E+00         0.00000E+00         0.00000E+00
 
    0.13550E+05         0.13375E+04         0.00000E+00
    0.13375E+04        -0.16295E+03         0.00000E+00
    0.00000E+00         0.00000E+00         0.00000E+00
 
    0.13534E+05         0.16345E+04         0.00000E+00
    0.16345E+04        -0.12538E+03         0.00000E+00
    0.00000E+00         0.00000E+00         0.00000E+00
 
    0.13503E+05         0.19308E+04         0.00000E+00
    0.19308E+04        -0.80321E+02         0.00000E+00
    0.00000E+00         0.00000E+00         0.00000E+00
 
    0.13457E+05         0.22259E+04         0.00000E+00
    0.22259E+04        -0.27816E+02         0.00000E+00
    0.00000E+00         0.00000E+00         0.00000E+00
 
    0.13396E+05         0.25197E+04         0.00000E+00
    0.25197E+04         0.32098E+02         0.00000E+00
    0.00000E+00         0.00000E+00         0.00000E+00
 
    0.13321E+05         0.28117E+04         0.00000E+00
    0.28117E+04         0.99379E+02         0.00000E+00
    0.00000E+00         0.00000E+00         0.00000E+00
 
    0.13231E+05         0.31018E+04         0.00000E+00
    0.31018E+04         0.17397E+03         0.00000E+00
    0.00000E+00         0.00000E+00         0.00000E+00
 
    0.13127E+05         0.33895E+04         0.00000E+00
    0.33895E+04         0.25582E+03         0.00000E+00
    0.00000E+00         0.00000E+00         0.00000E+00
 
    0.13009E+05         0.36747E+04         0.00000E+00
    0.36747E+04         0.34486E+03         0.00000E+00
    0.00000E+00         0.00000E+00         0.00000E+00
 
    0.12876E+05         0.39570E+04         0.00000E+00
    0.39570E+04         0.44101E+03         0.00000E+00
    0.00000E+00         0.00000E+00         0.00000E+00
 
    0.12730E+05         0.42361E+04         0.00000E+00
    0.42361E+04         0.54419E+03         0.00000E+00
    0.00000E+00         0.00000E+00         0.00000E+00
 
    0.12569E+05         0.45118E+04         0.00000E+00
    0.45118E+04         0.65433E+03         0.00000E+00
    0.00000E+00         0.00000E+00         0.00000E+00
 
    0.12394E+05         0.47837E+04         0.00000E+00
    0.47837E+04         0.77132E+03         0.00000E+00
    0.00000E+00         0.00000E+00         0.00000E+00
 
    0.12206E+05         0.50516E+04         0.00000E+00
    0.50516E+04         0.89506E+03         0.00000E+00
    0.00000E+00         0.00000E+00         0.00000E+00
 
    0.12004E+05         0.53153E+04         0.00000E+00
    0.53153E+04         0.10254E+04         0.00000E+00
    0.00000E+00         0.00000E+00         0.00000E+00
 
    0.11789E+05         0.55743E+04         0.00000E+00
    0.55743E+04         0.11624E+04         0.00000E+00
    0.00000E+00         0.00000E+00         0.00000E+00
 
    0.11561E+05         0.58286E+04         0.00000E+00
    0.58286E+04         0.13057E+04         0.00000E+00
    0.00000E+00         0.00000E+00         0.00000E+00
 
    0.11319E+05         0.60777E+04         0.00000E+00
    0.60777E+04         0.14553E+04         0.00000E+00
    0.00000E+00         0.00000E+00         0.00000E+00
 
    0.11065E+05         0.63215E+04         0.00000E+00
    0.63215E+04         0.16111E+04         0.00000E+00
    0.00000E+00         0.00000E+00         0.00000E+00
 
    0.10797E+05         0.65597E+04         0.00000E+00
    0.65597E+04         0.17729E+04         0.00000E+00
    0.00000E+00         0.00000E+00         0.00000E+00
 
    0.10518E+05         0.67920E+04         0.00000E+00
    0.67920E+04         0.19405E+04         0.00000E+00
    0.00000E+00         0.00000E+00         0.00000E+00
 
    0.10226E+05         0.70182E+04         0.00000E+00
    0.70182E+04         0.21139E+04         0.00000E+00
    0.00000E+00         0.00000E+00         0.00000E+00
 
    0.99223E+04         0.72381E+04         0.00000E+00
    0.72381E+04         0.22928E+04         0.00000E+00
    0.00000E+00         0.00000E+00         0.00000E+00
 
    0.96067E+04         0.74513E+04         0.00000E+00
    0.74513E+04         0.24772E+04         0.00000E+00
    0.00000E+00         0.00000E+00         0.00000E+00
 
    0.92796E+04         0.76577E+04         0.00000E+00
    0.76577E+04         0.26668E+04         0.00000E+00
    0.00000E+00         0.00000E+00         0.00000E+00
 
    0.89411E+04         0.78571E+04         0.00000E+00
    0.78571E+04         0.28614E+04         0.00000E+00
    0.00000E+00         0.00000E+00         0.00000E+00
 
    0.85917E+04         0.80492E+04         0.00000E+00
    0.80492E+04         0.30609E+04         0.00000E+00
    0.00000E+00         0.00000E+00         0.00000E+00
 
    0.82314E+04         0.82337E+04         0.00000E+00
    0.82337E+04         0.32651E+04         0.00000E+00
    0.00000E+00         0.00000E+00         0.00000E+00
 
    0.78607E+04         0.84106E+04         0.00000E+00
    0.84106E+04         0.34739E+04         0.00000E+00
    0.00000E+00         0.00000E+00         0.00000E+00
 
    0.74797E+04         0.85795E+04         0.00000E+00
    0.85795E+04         0.36869E+04         0.00000E+00
    0.00000E+00         0.00000E+00         0.00000E+00
 
    0.70888E+04         0.87404E+04         0.00000E+00
    0.87404E+04         0.39041E+04         0.00000E+00
    0.00000E+00         0.00000E+00         0.00000E+00
 
    0.66883E+04         0.88929E+04         0.00000E+00
    0.88929E+04         0.41252E+04         0.00000E+00
    0.00000E+00         0.00000E+00         0.00000E+00
 
    0.62785E+04         0.90369E+04         0.00000E+00
    0.90369E+04         0.43500E+04         0.00000E+00
    0.00000E+00         0.00000E+00         0.00000E+00
 
    0.58596E+04         0.91722E+04         0.00000E+00
    0.91722E+04         0.45783E+04         0.00000E+00
    0.00000E+00         0.00000E+00         0.00000E+00
 
    0.54321E+04         0.92986E+04         0.00000E+00
    0.92986E+04         0.48098E+04         0.00000E+00
    0.00000E+00         0.00000E+00         0.00000E+00
 
    0.49962E+04         0.94160E+04         0.00000E+00
    0.94160E+04         0.50445E+04         0.00000E+00
    0.00000E+00         0.00000E+00         0.00000E+00
 
    0.45522E+04         0.95242E+04         0.00000E+00
    0.95242E+04         0.52819E+04         0.00000E+00
    0.00000E+00         0.00000E+00         0.00000E+00
 
    0.41005E+04         0.96230E+04         0.00000E+00
    0.96230E+04         0.55220E+04         0.00000E+00
    0.00000E+00         0.00000E+00         0.00000E+00
 
    0.36415E+04         0.97123E+04         0.00000E+00
    0.97123E+04         0.57645E+04         0.00000E+00
    0.00000E+00         0.00000E+00         0.00000E+00
 
    0.31754E+04         0.97920E+04         0.00000E+00
    0.97920E+04         0.60091E+04         0.00000E+00
    0.00000E+00         0.00000E+00         0.00000E+00
 
    0.27026E+04         0.98619E+04         0.00000E+00
    0.98619E+04         0.62556E+04         0.00000E+00
    0.00000E+00         0.00000E+00         0.00000E+00
 
    0.22236E+04         0.99218E+04         0.00000E+00
    0.99218E+04         0.65038E+04         0.00000E+00
    0.00000E+00         0.00000E+00         0.00000E+00
 
    0.17385E+04         0.99717E+04         0.00000E+00
    0.99717E+04         0.67534E+04         0.00000E+00
    0.00000E+00         0.00000E+00         0.00000E+00
 
    0.12479E+04         0.10011E+05         0.00000E+00
    0.10011E+05         0.70042E+04         0.00000E+00
    0.00000E+00         0.00000E+00         0.00000E+00
 
    0.75213E+03         0.10041E+05         0.00000E+00
    0.10041E+05         0.72559E+04         0.00000E+00
    0.00000E+00         0.00000E+00         0.00000E+00
 
    0.25149E+03         0.10060E+05         0.00000E+00
    0.10060E+05         0.75083E+04         0.00000E+00
    0.00000E+00         0.00000E+00         0.00000E+00
 
    0.15004E+05         0.16721E+03         0.00000E+00
    0.16721E+03        -0.28466E+03         0.00000E+00
    0.00000E+00         0.00000E+00         0.00000E+00
 
    0.15050E+05         0.50409E+03         0.00000E+00
    0.50409E+03        -0.27631E+03         0.00000E+00
    0.00000E+00         0.00000E+00         0.00000E+00
 
    0.15079E+05         0.84139E+03         0.00000E+00
    0.84139E+03        -0.25959E+03         0.00000E+00
    0.00000E+00         0.00000E+00         0.00000E+00
 
    0.15091E+05         0.11788E+04         0.00000E+00
    0.11788E+04        -0.23450E+03         0.00000E+00
    0.00000E+00         0.00000E+00         0.00000E+00
 
    0.15087E+05         0.15159E+04         0.00000E+00
    0.15159E+04        -0.20107E+03         0.00000E+00
    0.00000E+00         0.00000E+00         0.00000E+00
 
    0.15067E+05         0.18525E+04         0.00000E+00
    0.18525E+04        -0.15929E+03         0.00000E+00
    0.00000E+00         0.00000E+00         0.00000E+00
 
    0.15031E+05         0.21880E+04         0.00000E+00
    0.21880E+04        -0.10921E+03         0.00000E+00
    0.00000E+00         0.00000E+00         0.00000E+00
 
    0.14978E+05         0.25224E+04         0.00000E+00
    0.25224E+04        -0.50855E+02         0.00000E+00
    0.00000E+00         0.00000E+00         0.00000E+00
 
    0.14909E+05         0.28550E+04         0.00000E+00
    0.28550E+04         0.15731E+02         0.00000E+00
    0.00000E+00         0.00000E+00         0.00000E+00
 
    0.14824E+05         0.31858E+04         0.00000E+00
    0.31858E+04         0.90496E+02         0.00000E+00
    0.00000E+00         0.00000E+00         0.00000E+00
 
    0.14723E+05         0.35142E+04         0.00000E+00
    0.35142E+04         0.17338E+03         0.00000E+00
    0.00000E+00         0.00000E+00         0.00000E+00
 
    0.14606E+05         0.38400E+04         0.00000E+00
    0.38400E+04         0.26432E+03         0.00000E+00
    0.00000E+00         0.00000E+00         0.00000E+00
 
    0.14473E+05         0.41629E+04         0.00000E+00
    0.41629E+04         0.36323E+03         0.00000E+00
    0.00000E+00         0.00000E+00         0.00000E+00
 
    0.14324E+05         0.44825E+04         0.00000E+00
    0.44825E+04         0.47005E+03         0.00000E+00
    0.00000E+00         0.00000E+00         0.00000E+00
 
    0.14160E+05         0.47984E+04         0.00000E+00
    0.47984E+04         0.58466E+03         0.00000E+00
    0.00000E+00         0.00000E+00         0.00000E+00
 
    0.13980E+05         0.51105E+04         0.00000E+00
    0.51105E+04         0.70699E+03         0.00000E+00
    0.00000E+00         0.00000E+00         0.00000E+00
 
    0.13785E+05         0.54182E+04         0.00000E+00
    0.54182E+04         0.83692E+03         0.00000E+00
    0.00000E+00         0.00000E+00         0.00000E+00
 
    0.13575E+05         0.57215E+04         0.00000E+00
    0.57215E+04         0.97435E+03         0.00000E+00
    0.00000E+00         0.00000E+00         0.00000E+00
 
    0.13349E+05         0.60198E+04         0.00000E+00
    0.60198E+04         0.11191E+04         0.00000E+00
    0.00000E+00         0.00000E+00         0.00000E+00
 
    0.13109E+05         0.63130E+04         0.00000E+00
    0.63130E+04         0.12712E+04         0.00000E+00
    0.00000E+00         0.00000E+00         0.00000E+00
 
    0.12854E+05         0.66007E+04         0.00000E+00
    0.66007E+04         0.14303E+04         0.00000E+00
    0.00000E+00         0.00000E+00         0.00000E+00
 
    0.12584E+05         0.68826E+04         0.00000E+00
    0.68826E+04         0.15965E+04         0.00000E+00
    0.00000E+00         0.00000E+00         0.00000E+00
 
    0.12301E+05         0.71585E+04         0.00000E+00
    0.71585E+04         0.17694E+04         0.00000E+00
    0.00000E+00         0.00000E+00         0.00000E+00
 
    0.12003E+05         0.74280E+04         0.00000E+00
    0.74280E+04         0.19490E+04         0.00000E+00
    0.00000E+00         0.00000E+00         0.00000E+00
 
    0.11692E+05         0.76908E+04         0.00000E+00
    0.76908E+04         0.21352E+04         0.00000E+00
    0.00000E+00         0.00000E+00         0.00000E+00
 
    0.11367E+05         0.79468E+04         0.00000E+00
    0.79468E+04         0.23276E+04         0.00000E+00
    0.00000E+00         0.00000E+00         0.00000E+00
 
    0.11028E+05         0.81955E+04         0.00000E+00
    0.81955E+04         0.25263E+04         0.00000E+00
    0.00000E+00         0.00000E+00         0.00000E+00
 
    0.10677E+05         0.84367E+04         0.00000E+00
    0.84367E+04         0.27309E+04         0.00000E+00
    0.00000E+00         0.00000E+00         0.00000E+00
 
    0.10313E+05         0.86703E+04         0.00000E+00
    0.86703E+04         0.29414E+04         0.00000E+00
    0.00000E+00         0.00000E+00         0.00000E+00
 
    0.99363E+04         0.88958E+04         0.00000E+00
    0.88958E+04         0.31574E+04         0.00000E+00
    0.00000E+00         0.00000E+00         0.00000E+00
 
    0.95474E+04         0.91132E+04         0.00000E+00
    0.91132E+04         0.33789E+04         0.00000E+00
    0.00000E+00         0.00000E+00         0.00000E+00
 
    0.91467E+04         0.93220E+04         0.00000E+00
    0.93220E+04         0.36056E+04         0.00000E+00
    0.00000E+00         0.00000E+00         0.00000E+00
 
    0.87344E+04         0.95221E+04         0.00000E+00
    0.95221E+04         0.38373E+04         0.00000E+00
    0.00000E+00         0.00000E+00         0.00000E+00
 
    0.83107E+04         0.97133E+04         0.00000E+00
    0.97133E+04         0.40737E+04         0.00000E+00
    0.00000E+00         0.00000E+00         0.00000E+00
 
    0.78761E+04         0.98953E+04         0.00000E+00
    0.98953E+04         0.43148E+04         0.00000E+00
    0.00000E+00         0.00000E+00         0.00000E+00
 
    0.74308E+04         0.10068E+05         0.00000E+00
    0.10068E+05         0.45602E+04         0.00000E+00
    0.00000E+00         0.00000E+00         0.00000E+00
 
    0.69752E+04         0.10231E+05         0.00000E+00
    0.10231E+05         0.48097E+04         0.00000E+00
    0.00000E+00         0.00000E+00         0.00000E+00
 
    0.65097E+04         0.10384E+05         0.00000E+00
    0.10384E+05         0.50631E+04         0.00000E+00
    0.00000E+00         0.00000E+00         0.00000E+00
 
    0.60345E+04         0.10527E+05         0.00000E+00
    0.10527E+05         0.53202E+04         0.00000E+00
    0.00000E+00         0.00000E+00         0.00000E+00
 
    0.55501E+04         0.10660E+05         0.00000E+00
    0.10660E+05         0.55806E+04         0.00000E+00
    0.00000E+00         0.00000E+00         0.00000E+00
 
    0.50567E+04         0.10783E+05         0.00000E+00
    0.10783E+05         0.58442E+04         0.00000E+00
    0.00000E+00         0.00000E+00         0.00000E+00
 
    0.45549E+04         0.10895E+05         0.00000E+00
    0.10895E+05         0.61107E+04         0.00000E+00
    0.00000E+00         0.00000E+00         0.00000E+00
 
    0.40448E+04         0.10996E+05         0.00000E+00
    0.10996E+05         0.63799E+04         0.00000E+00
    0.00000E+00         0.00000E+00         0.00000E+00
 
    0.35271E+04         0.11086E+05         0.00000E+00
    0.11086E+05         0.66515E+04         0.00000E+00
    0.00000E+00         0.00000E+00         0.00000E+00
 
    0.30019E+04         0.11166E+05         0.00000E+00
    0.11166E+05         0.69252E+04         0.00000E+00
    0.00000E+00         0.00000E+00         0.00000E+00
 
    0.24697E+04         0.11234E+05         0.00000E+00
    0.11234E+05         0.72007E+04         0.00000E+00
    0.00000E+00         0.00000E+00         0.00000E+00
 
    0.19310E+04         0.11291E+05         0.00000E+00
    0.11291E+05         0.74779E+04         0.00000E+00
    0.00000E+00         0.00000E+00         0.00000E+00
 
    0.13861E+04         0.11336E+05         0.00000E+00
    0.11336E+05         0.77563E+04         0.00000E+00
    0.00000E+00         0.00000E+00         0.00000E+00
 
    0.83537E+03         0.11370E+05         0.00000E+00
    0.11370E+05         0.80358E+04         0.00000E+00
    0.00000E+00         0.00000E+00         0.00000E+00
 
    0.27931E+03         0.11392E+05         0.00000E+00
    0.11392E+05         0.83161E+04         0.00000E+00
    0.00000E+00         0.00000E+00         0.00000E+00
 
    0.16740E+05         0.18921E+03         0.00000E+00
    0.18921E+03        -0.33987E+03         0.00000E+00
    0.00000E+00         0.00000E+00         0.00000E+00
 
    0.16788E+05         0.57025E+03         0.00000E+00
    0.57025E+03        -0.33056E+03         0.00000E+00
    0.00000E+00         0.00000E+00         0.00000E+00
 
    0.16819E+05         0.95172E+03         0.00000E+00
    0.95172E+03        -0.31194E+03         0.00000E+00
    0.00000E+00         0.00000E+00         0.00000E+00
 
    0.16831E+05         0.13332E+04         0.00000E+00
    0.13332E+04        -0.28401E+03         0.00000E+00
    0.00000E+00         0.00000E+00         0.00000E+00
 
    0.16825E+05         0.17144E+04         0.00000E+00
    0.17144E+04        -0.24678E+03         0.00000E+00
    0.00000E+00         0.00000E+00         0.00000E+00
 
    0.16800E+05         0.20949E+04         0.00000E+00
    0.20949E+04        -0.20027E+03         0.00000E+00
    0.00000E+00         0.00000E+00         0.00000E+00
 
    0.16758E+05         0.24742E+04         0.00000E+00
    0.24742E+04        -0.14452E+03         0.00000E+00
    0.00000E+00         0.00000E+00         0.00000E+00
 
    0.16697E+05         0.28521E+04         0.00000E+00
    0.28521E+04        -0.79563E+02         0.00000E+00
    0.00000E+00         0.00000E+00         0.00000E+00
 
    0.16619E+05         0.32280E+04         0.00000E+00
    0.32280E+04        -0.54540E+01         0.00000E+00
    0.00000E+00         0.00000E+00         0.00000E+00
 
    0.16522E+05         0.36018E+04         0.00000E+00
    0.36018E+04         0.77750E+02         0.00000E+00
    0.00000E+00         0.00000E+00         0.00000E+00
 
    0.16408E+05         0.39729E+04         0.00000E+00
    0.39729E+04         0.16998E+03         0.00000E+00
    0.00000E+00         0.00000E+00         0.00000E+00
 
    0.16276E+05         0.43410E+04         0.00000E+00
    0.43410E+04         0.27117E+03         0.00000E+00
    0.00000E+00         0.00000E+00         0.00000E+00
 
    0.16126E+05         0.47057E+04         0.00000E+00
    0.47057E+04         0.38122E+03         0.00000E+00
    0.00000E+00         0.00000E+00         0.00000E+00
 
    0.15959E+05         0.50667E+04         0.00000E+00
    0.50667E+04         0.50005E+03         0.00000E+00
    0.00000E+00         0.00000E+00         0.00000E+00
 
    0.15775E+05         0.54235E+04         0.00000E+00
    0.54235E+04         0.62755E+03         0.00000E+00
    0.00000E+00         0.00000E+00         0.00000E+00
 
    0.15573E+05         0.57759E+04         0.00000E+00
    0.57759E+04         0.76362E+03         0.00000E+00
    0.00000E+00         0.00000E+00         0.00000E+00
 
    0.15354E+05         0.61235E+04         0.00000E+00
    0.61235E+04         0.90814E+03         0.00000E+00
    0.00000E+00         0.00000E+00         0.00000E+00
 
    0.15119E+05         0.64660E+04         0.00000E+00
    0.64660E+04         0.10610E+04         0.00000E+00
    0.00000E+00         0.00000E+00         0.00000E+00
 
    0.14867E+05         0.68029E+04         0.00000E+00
    0.68029E+04         0.12220E+04         0.00000E+00
    0.00000E+00         0.00000E+00         0.00000E+00
 
    0.14598E+05         0.71339E+04         0.00000E+00
    0.71339E+04         0.13911E+04         0.00000E+00
    0.00000E+00         0.00000E+00         0.00000E+00
 
    0.14313E+05         0.74587E+04         0.00000E+00
    0.74587E+04         0.15681E+04         0.00000E+00
    0.00000E+00         0.00000E+00         0.00000E+00
 
    0.14012E+05         0.77770E+04         0.00000E+00
    0.77770E+04         0.17528E+04         0.00000E+00
    0.00000E+00         0.00000E+00         0.00000E+00
 
    0.13695E+05         0.80884E+04         0.00000E+00
    0.80884E+04         0.19451E+04         0.00000E+00
    0.00000E+00         0.00000E+00         0.00000E+00
 
    0.13363E+05         0.83927E+04         0.00000E+00
    0.83927E+04         0.21448E+04         0.00000E+00
    0.00000E+00         0.00000E+00         0.00000E+00
 
    0.13015E+05         0.86894E+04         0.00000E+00
    0.86894E+04         0.23517E+04         0.00000E+00
    0.00000E+00         0.00000E+00         0.00000E+00
 
    0.12653E+05         0.89783E+04         0.00000E+00
    0.89783E+04         0.25657E+04         0.00000E+00
    0.00000E+00         0.00000E+00         0.00000E+00
 
    0.12276E+05         0.92591E+04         0.00000E+00
    0.92591E+04         0.27866E+04         0.00000E+00
    0.00000E+00         0.00000E+00         0.00000E+00
 
    0.11884E+05         0.95315E+04         0.00000E+00
    0.95315E+04         0.30140E+04         0.00000E+00
    0.00000E+00         0.00000E+00         0.00000E+00
 
    0.11478E+05         0.97951E+04         0.00000E+00
    0.97951E+04         0.32480E+04         0.00000E+00
    0.00000E+00         0.00000E+00         0.00000E+00
 
    0.11058E+05         0.10050E+05         0.00000E+00
    0.10050E+05         0.34881E+04         0.00000E+00
    0.00000E+00         0.00000E+00         0.00000E+00
 
    0.10625E+05         0.10295E+05         0.00000E+00
    0.10295E+05         0.37343E+04         0.00000E+00
    0.00000E+00         0.00000E+00         0.00000E+00
 
    0.10179E+05         0.10531E+05         0.00000E+00
    0.10531E+05         0.39863E+04         0.00000E+00
    0.00000E+00         0.00000E+00         0.00000E+00
 
    0.97192E+04         0.10757E+05         0.00000E+00
    0.10757E+05         0.42438E+04         0.00000E+00
    0.00000E+00         0.00000E+00         0.00000E+00
 
    0.92474E+04         0.10973E+05         0.00000E+00
    0.10973E+05         0.45067E+04         0.00000E+00
    0.00000E+00         0.00000E+00         0.00000E+00
 
    0.87635E+04         0.11178E+05         0.00000E+00
    0.11178E+05         0.47746E+04         0.00000E+00
    0.00000E+00         0.00000E+00         0.00000E+00
 
    0.82677E+04         0.11373E+05         0.00000E+00
    0.11373E+05         0.50474E+04         0.00000E+00
    0.00000E+00         0.00000E+00         0.00000E+00
 
    0.77605E+04         0.11557E+05         0.00000E+00
    0.11557E+05         0.53248E+04         0.00000E+00
    0.00000E+00         0.00000E+00         0.00000E+00
 
    0.72423E+04         0.11730E+05         0.00000E+00
    0.11730E+05         0.56064E+04         0.00000E+00
    0.00000E+00         0.00000E+00         0.00000E+00
 
    0.67134E+04         0.11892E+05         0.00000E+00
    0.11892E+05         0.58922E+04         0.00000E+00
    0.00000E+00         0.00000E+00         0.00000E+00
 
    0.61743E+04         0.12042E+05         0.00000E+00
    0.12042E+05         0.61817E+04         0.00000E+00
    0.00000E+00         0.00000E+00         0.00000E+00
 
    0.56253E+04         0.12181E+05         0.00000E+00
    0.12181E+05         0.64747E+04         0.00000E+00
    0.00000E+00         0.00000E+00         0.00000E+00
 
    0.50669E+04         0.12308E+05         0.00000E+00
    0.12308E+05         0.67710E+04         0.00000E+00
    0.00000E+00         0.00000E+00         0.00000E+00
 
    0.44994E+04         0.12422E+05         0.00000E+00
    0.12422E+05         0.70703E+04         0.00000E+00
    0.00000E+00         0.00000E+00         0.00000E+00
 
    0.39233E+04         0.12525E+05         0.00000E+00
    0.12525E+05         0.73722E+04         0.00000E+00
    0.00000E+00         0.00000E+00         0.00000E+00
 
    0.33391E+04         0.12614E+05         0.00000E+00
    0.12614E+05         0.76764E+04         0.00000E+00
    0.00000E+00         0.00000E+00         0.00000E+00
 
    0.27471E+04         0.12692E+05         0.00000E+00
    0.12692E+05         0.79828E+04         0.00000E+00
    0.00000E+00         0.00000E+00         0.00000E+00
 
    0.21478E+04         0.12756E+05         0.00000E+00
    0.12756E+05         0.82910E+04         0.00000E+00
    0.00000E+00         0.00000E+00         0.00000E+00
 
    0.15417E+04         0.12808E+05         0.00000E+00
    0.12808E+05         0.86006E+04         0.00000E+00
    0.00000E+00         0.00000E+00         0.00000E+00
 
    0.92913E+03         0.12846E+05         0.00000E+00
    0.12846E+05         0.89115E+04         0.00000E+00
    0.00000E+00         0.00000E+00         0.00000E+00
 
    0.31066E+03         0.12872E+05         0.00000E+00
    0.12872E+05         0.92232E+04         0.00000E+00
    0.00000E+00         0.00000E+00         0.00000E+00
 
    0.18698E+05         0.21374E+03         0.00000E+00
    0.21374E+03        -0.40539E+03         0.00000E+00
    0.00000E+00         0.00000E+00         0.00000E+00
 
    0.18750E+05         0.64400E+03         0.00000E+00
    0.64400E+03        -0.39501E+03         0.00000E+00
    0.00000E+00         0.00000E+00         0.00000E+00
 
    0.18781E+05         0.10747E+04         0.00000E+00
    0.10747E+04        -0.37425E+03         0.00000E+00
    0.00000E+00         0.00000E+00         0.00000E+00
 
    0.18793E+05         0.15053E+04         0.00000E+00
    0.15053E+04        -0.34311E+03         0.00000E+00
    0.00000E+00         0.00000E+00         0.00000E+00
 
    0.18784E+05         0.19356E+04         0.00000E+00
    0.19356E+04        -0.30160E+03         0.00000E+00
    0.00000E+00         0.00000E+00         0.00000E+00
 
    0.18754E+05         0.23649E+04         0.00000E+00
    0.23649E+04        -0.24977E+03         0.00000E+00
    0.00000E+00         0.00000E+00         0.00000E+00
 
    0.18705E+05         0.27930E+04         0.00000E+00
    0.27930E+04        -0.18763E+03         0.00000E+00
    0.00000E+00         0.00000E+00         0.00000E+00
 
    0.18635E+05         0.32193E+04         0.00000E+00
    0.32193E+04        -0.11525E+03         0.00000E+00
    0.00000E+00         0.00000E+00         0.00000E+00
 
    0.18546E+05         0.36434E+04         0.00000E+00
    0.36434E+04        -0.32677E+02         0.00000E+00
    0.00000E+00         0.00000E+00         0.00000E+00
 
    0.18436E+05         0.40650E+04         0.00000E+00
    0.40650E+04         0.60022E+02         0.00000E+00
    0.00000E+00         0.00000E+00         0.00000E+00
 
    0.18307E+05         0.44835E+04         0.00000E+00
    0.44835E+04         0.16277E+03         0.00000E+00
    0.00000E+00         0.00000E+00         0.00000E+00
 
    0.18158E+05         0.48986E+04         0.00000E+00
    0.48986E+04         0.27548E+03         0.00000E+00
    0.00000E+00         0.00000E+00         0.00000E+00
 
    0.17989E+05         0.53099E+04         0.00000E+00
    0.53099E+04         0.39806E+03         0.00000E+00
    0.00000E+00         0.00000E+00         0.00000E+00
 
    0.17801E+05         0.57169E+04         0.00000E+00
    0.57169E+04         0.53040E+03         0.00000E+00
    0.00000E+00         0.00000E+00         0.00000E+00
 
    0.17593E+05         0.61193E+04         0.00000E+00
    0.61193E+04         0.67239E+03         0.00000E+00
    0.00000E+00         0.00000E+00         0.00000E+00
 
    0.17367E+05         0.65166E+04         0.00000E+00
    0.65166E+04         0.82391E+03         0.00000E+00
    0.00000E+00         0.00000E+00         0.00000E+00
 
    0.17122E+05         0.69084E+04         0.00000E+00
    0.69084E+04         0.98483E+03         0.00000E+00
    0.00000E+00         0.00000E+00         0.00000E+00
 
    0.16858E+05         0.72944E+04         0.00000E+00
    0.72944E+04         0.11550E+04         0.00000E+00
    0.00000E+00         0.00000E+00         0.00000E+00
 
    0.16575E+05         0.76741E+04         0.00000E+00
    0.76741E+04         0.13343E+04         0.00000E+00
    0.00000E+00         0.00000E+00         0.00000E+00
 
    0.16274E+05         0.80472E+04         0.00000E+00
    0.80472E+04         0.15225E+04         0.00000E+00
    0.00000E+00         0.00000E+00         0.00000E+00
 
    0.15956E+05         0.84133E+04         0.00000E+00
    0.84133E+04         0.17195E+04         0.00000E+00
    0.00000E+00         0.00000E+00         0.00000E+00
 
    0.15619E+05         0.87720E+04         0.00000E+00
    0.87720E+04         0.19251E+04         0.00000E+00
    0.00000E+00         0.00000E+00         0.00000E+00
 
    0.15265E+05         0.91230E+04         0.00000E+00
    0.91230E+04         0.21392E+04         0.00000E+00
    0.00000E+00         0.00000E+00         0.00000E+00
 
    0.14893E+05         0.94658E+04         0.00000E+00
    0.94658E+04         0.23615E+04         0.00000E+00
    0.00000E+00         0.00000E+00         0.00000E+00
 
    0.14505E+05         0.98002E+04         0.00000E+00
    0.98002E+04         0.25918E+04         0.00000E+00
    0.00000E+00         0.00000E+00         0.00000E+00
 
    0.14100E+05         0.10126E+05         0.00000E+00
    0.10126E+05         0.28299E+04         0.00000E+00
    0.00000E+00         0.00000E+00         0.00000E+00
 
    0.13679E+05         0.10442E+05         0.00000E+00
    0.10442E+05         0.30757E+04         0.00000E+00
    0.00000E+00         0.00000E+00         0.00000E+00
 
    0.13242E+05         0.10749E+05         0.00000E+00
    0.10749E+05         0.33289E+04         0.00000E+00
    0.00000E+00         0.00000E+00         0.00000E+00
 
    0.12789E+05         0.11046E+05         0.00000E+00
    0.11046E+05         0.35892E+04         0.00000E+00
    0.00000E+00         0.00000E+00         0.00000E+00
 
    0.12320E+05         0.11333E+05         0.00000E+00
    0.11333E+05         0.38564E+04         0.00000E+00
    0.00000E+00         0.00000E+00         0.00000E+00
 
    0.11837E+05         0.11610E+05         0.00000E+00
    0.11610E+05         0.41304E+04         0.00000E+00
    0.00000E+00         0.00000E+00         0.00000E+00
 
    0.11339E+05         0.11875E+05         0.00000E+00
    0.11875E+05         0.44108E+04         0.00000E+00
    0.00000E+00         0.00000E+00         0.00000E+00
 
    0.10827E+05         0.12130E+05         0.00000E+00
    0.12130E+05         0.46973E+04         0.00000E+00
    0.00000E+00         0.00000E+00         0.00000E+00
 
    0.10301E+05         0.12373E+05         0.00000E+00
    0.12373E+05         0.49898E+04         0.00000E+00
    0.00000E+00         0.00000E+00         0.00000E+00
 
    0.97614E+04         0.12605E+05         0.00000E+00
    0.12605E+05         0.52880E+04         0.00000E+00
    0.00000E+00         0.00000E+00         0.00000E+00
 
    0.92088E+04         0.12825E+05         0.00000E+00
    0.12825E+05         0.55915E+04         0.00000E+00
    0.00000E+00         0.00000E+00         0.00000E+00
 
    0.86436E+04         0.13032E+05         0.00000E+00
    0.13032E+05         0.59001E+04         0.00000E+00
    0.00000E+00         0.00000E+00         0.00000E+00
 
    0.80661E+04         0.13228E+05         0.00000E+00
    0.13228E+05         0.62136E+04         0.00000E+00
    0.00000E+00         0.00000E+00         0.00000E+00
 
    0.74768E+04         0.13410E+05         0.00000E+00
    0.13410E+05         0.65315E+04         0.00000E+00
    0.00000E+00         0.00000E+00         0.00000E+00
 
    0.68761E+04         0.13580E+05         0.00000E+00
    0.13580E+05         0.68537E+04         0.00000E+00
    0.00000E+00         0.00000E+00         0.00000E+00
 
    0.62646E+04         0.13736E+05         0.00000E+00
    0.13736E+05         0.71798E+04         0.00000E+00
    0.00000E+00         0.00000E+00         0.00000E+00
 
    0.56425E+04         0.13879E+05         0.00000E+00
    0.13879E+05         0.75095E+04         0.00000E+00
    0.00000E+00         0.00000E+00         0.00000E+00
 
    0.50104E+04         0.14009E+05         0.00000E+00
    0.14009E+05         0.78425E+04         0.00000E+00
    0.00000E+00         0.00000E+00         0.00000E+00
 
    0.43688E+04         0.14124E+05         0.00000E+00
    0.14124E+05         0.81785E+04         0.00000E+00
    0.00000E+00         0.00000E+00         0.00000E+00
 
    0.37181E+04         0.14226E+05         0.00000E+00
    0.14226E+05         0.85172E+04         0.00000E+00
    0.00000E+00         0.00000E+00         0.00000E+00
 
    0.30589E+04         0.14314E+05         0.00000E+00
    0.14314E+05         0.88582E+04         0.00000E+00
    0.00000E+00         0.00000E+00         0.00000E+00
 
    0.23915E+04         0.14387E+05         0.00000E+00
    0.14387E+05         0.92012E+04         0.00000E+00
    0.00000E+00         0.00000E+00         0.00000E+00
 
    0.17166E+04         0.14446E+05         0.00000E+00
    0.14446E+05         0.95459E+04         0.00000E+00
    0.00000E+00         0.00000E+00         0.00000E+00
 
    0.10345E+04         0.14490E+05         0.00000E+00
    0.14490E+05         0.98919E+04         0.00000E+00
    0.00000E+00         0.00000E+00         0.00000E+00
 
    0.34590E+03         0.14519E+05         0.00000E+00
    0.14519E+05         0.10239E+05         0.00000E+00
    0.00000E+00         0.00000E+00         0.00000E+00
 
    0.20905E+05         0.24113E+03         0.00000E+00
    0.24113E+03        -0.48313E+03         0.00000E+00
    0.00000E+00         0.00000E+00         0.00000E+00
 
    0.20960E+05         0.72627E+03         0.00000E+00
    0.72627E+03        -0.47155E+03         0.00000E+00
    0.00000E+00         0.00000E+00         0.00000E+00
 
    0.20992E+05         0.12118E+04         0.00000E+00
    0.12118E+04        -0.44838E+03         0.00000E+00
    0.00000E+00         0.00000E+00         0.00000E+00
 
    0.21002E+05         0.16973E+04         0.00000E+00
    0.16973E+04        -0.41364E+03         0.00000E+00
    0.00000E+00         0.00000E+00         0.00000E+00
 
    0.20989E+05         0.21822E+04         0.00000E+00
    0.21822E+04        -0.36733E+03         0.00000E+00
    0.00000E+00         0.00000E+00         0.00000E+00
 
    0.20954E+05         0.26660E+04         0.00000E+00
    0.26660E+04        -0.30951E+03         0.00000E+00
    0.00000E+00         0.00000E+00         0.00000E+00
 
    0.20896E+05         0.31483E+04         0.00000E+00
    0.31483E+04        -0.24021E+03         0.00000E+00
    0.00000E+00         0.00000E+00         0.00000E+00
 
    0.20816E+05         0.36286E+04         0.00000E+00
    0.36286E+04        -0.15948E+03         0.00000E+00
    0.00000E+00         0.00000E+00         0.00000E+00
 
    0.20713E+05         0.41064E+04         0.00000E+00
    0.41064E+04        -0.67404E+02         0.00000E+00
    0.00000E+00         0.00000E+00         0.00000E+00
 
    0.20589E+05         0.45812E+04         0.00000E+00
    0.45812E+04         0.35956E+02         0.00000E+00
    0.00000E+00         0.00000E+00         0.00000E+00
 
    0.20442E+05         0.50526E+04         0.00000E+00
    0.50526E+04         0.15051E+03         0.00000E+00
    0.00000E+00         0.00000E+00         0.00000E+00
 
    0.20274E+05         0.55201E+04         0.00000E+00
    0.55201E+04         0.27616E+03         0.00000E+00
    0.00000E+00         0.00000E+00         0.00000E+00
 
    0.20084E+05         0.59832E+04         0.00000E+00
    0.59832E+04         0.41280E+03         0.00000E+00
    0.00000E+00         0.00000E+00         0.00000E+00
 
    0.19872E+05         0.64415E+04         0.00000E+00
    0.64415E+04         0.56031E+03         0.00000E+00
    0.00000E+00         0.00000E+00         0.00000E+00
 
    0.19638E+05         0.68944E+04         0.00000E+00
    0.68944E+04         0.71856E+03         0.00000E+00
    0.00000E+00         0.00000E+00         0.00000E+00
 
    0.19384E+05         0.73417E+04         0.00000E+00
    0.73417E+04         0.88742E+03         0.00000E+00
    0.00000E+00         0.00000E+00         0.00000E+00
 
    0.19108E+05         0.77827E+04         0.00000E+00
    0.77827E+04         0.10667E+04         0.00000E+00
    0.00000E+00         0.00000E+00         0.00000E+00
 
    0.18812E+05         0.82172E+04         0.00000E+00
    0.82172E+04         0.12563E+04         0.00000E+00
    0.00000E+00         0.00000E+00         0.00000E+00
 
    0.18495E+05         0.86445E+04         0.00000E+00
    0.86445E+04         0.14561E+04         0.00000E+00
    0.00000E+00         0.00000E+00         0.00000E+00
 
    0.18158E+05         0.90644E+04         0.00000E+00
    0.90644E+04         0.16658E+04         0.00000E+00
    0.00000E+00         0.00000E+00         0.00000E+00
 
    0.17801E+05         0.94764E+04         0.00000E+00
    0.94764E+04         0.18853E+04         0.00000E+00
    0.00000E+00         0.00000E+00         0.00000E+00
 
    0.17425E+05         0.98801E+04         0.00000E+00
    0.98801E+04         0.21143E+04         0.00000E+00
    0.00000E+00         0.00000E+00         0.00000E+00
 
    0.17028E+05         0.10275E+05         0.00000E+00
    0.10275E+05         0.23528E+04         0.00000E+00
    0.00000E+00         0.00000E+00         0.00000E+00
 
    0.16613E+05         0.10661E+05         0.00000E+00
    0.10661E+05         0.26004E+04         0.00000E+00
    0.00000E+00         0.00000E+00         0.00000E+00
 
    0.16179E+05         0.11037E+05         0.00000E+00
    0.11037E+05         0.28569E+04         0.00000E+00
    0.00000E+00         0.00000E+00         0.00000E+00
 
    0.15726E+05         0.11403E+05         0.00000E+00
    0.11403E+05         0.31221E+04         0.00000E+00
    0.00000E+00         0.00000E+00         0.00000E+00
 
    0.15255E+05         0.11759E+05         0.00000E+00
    0.11759E+05         0.33959E+04         0.00000E+00
    0.00000E+00         0.00000E+00         0.00000E+00
 
    0.14767E+05         0.12105E+05         0.00000E+00
    0.12105E+05         0.36778E+04         0.00000E+00
    0.00000E+00         0.00000E+00         0.00000E+00
 
    0.14261E+05         0.12439E+05         0.00000E+00
    0.12439E+05         0.39677E+04         0.00000E+00
    0.00000E+00         0.00000E+00         0.00000E+00
 
    0.13738E+05         0.12762E+05         0.00000E+00
    0.12762E+05         0.42654E+04         0.00000E+00
    0.00000E+00         0.00000E+00         0.00000E+00
 
    0.13198E+05         0.13073E+05         0.00000E+00
    0.13073E+05         0.45704E+04         0.00000E+00
    0.00000E+00         0.00000E+00         0.00000E+00
 
    0.12642E+05         0.13372E+05         0.00000E+00
    0.13372E+05         0.48827E+04         0.00000E+00
    0.00000E+00         0.00000E+00         0.00000E+00
 
    0.12071E+05         0.13659E+05         0.00000E+00
    0.13659E+05         0.52018E+04         0.00000E+00
    0.00000E+00         0.00000E+00         0.00000E+00
 
    0.11484E+05         0.13933E+05         0.00000E+00
    0.13933E+05         0.55275E+04         0.00000E+00
    0.00000E+00         0.00000E+00         0.00000E+00
 
    0.10882E+05         0.14193E+05         0.00000E+00
    0.14193E+05         0.58595E+04         0.00000E+00
    0.00000E+00         0.00000E+00         0.00000E+00
 
    0.10265E+05         0.14441E+05         0.00000E+00
    0.14441E+05         0.61975E+04         0.00000E+00
    0.00000E+00         0.00000E+00         0.00000E+00
 
    0.96348E+04         0.14675E+05         0.00000E+00
    0.14675E+05         0.65412E+04         0.00000E+00
    0.00000E+00         0.00000E+00         0.00000E+00
 
    0.89908E+04         0.14894E+05         0.00000E+00
    0.14894E+05         0.68902E+04         0.00000E+00
    0.00000E+00         0.00000E+00         0.00000E+00
 
    0.83336E+04         0.15100E+05         0.00000E+00
    0.15100E+05         0.72443E+04         0.00000E+00
    0.00000E+00         0.00000E+00         0.00000E+00
 
    0.76639E+04         0.15291E+05         0.00000E+00
    0.15291E+05         0.76031E+04         0.00000E+00
    0.00000E+00         0.00000E+00         0.00000E+00
 
    0.69820E+04         0.15467E+05         0.00000E+00
    0.15467E+05         0.79663E+04         0.00000E+00
    0.00000E+00         0.00000E+00         0.00000E+00
 
    0.62885E+04         0.15629E+05         0.00000E+00
    0.15629E+05         0.83335E+04         0.00000E+00
    0.00000E+00         0.00000E+00         0.00000E+00
 
    0.55839E+04         0.15775E+05         0.00000E+00
    0.15775E+05         0.87043E+04         0.00000E+00
    0.00000E+00         0.00000E+00         0.00000E+00
 
    0.48687E+04         0.15905E+05         0.00000E+00
    0.15905E+05         0.90786E+04         0.00000E+00
    0.00000E+00         0.00000E+00         0.00000E+00
 
    0.41435E+04         0.16020E+05         0.00000E+00
    0.16020E+05         0.94558E+04         0.00000E+00
    0.00000E+00         0.00000E+00         0.00000E+00
 
    0.34088E+04         0.16120E+05         0.00000E+00
    0.16120E+05         0.98356E+04         0.00000E+00
    0.00000E+00         0.00000E+00         0.00000E+00
 
    0.26650E+04         0.16203E+05         0.00000E+00
    0.16203E+05         0.10218E+05         0.00000E+00
    0.00000E+00         0.00000E+00         0.00000E+00
 
    0.19129E+04         0.16269E+05         0.00000E+00
    0.16269E+05         0.10602E+05         0.00000E+00
    0.00000E+00         0.00000E+00         0.00000E+00
 
    0.11528E+04         0.16320E+05         0.00000E+00
    0.16320E+05         0.10987E+05         0.00000E+00
    0.00000E+00         0.00000E+00         0.00000E+00
 
    0.38544E+03         0.16354E+05         0.00000E+00
    0.16354E+05         0.11374E+05         0.00000E+00
    0.00000E+00         0.00000E+00         0.00000E+00
 
    0.23386E+05         0.27171E+03         0.00000E+00
    0.27171E+03        -0.57537E+03         0.00000E+00
    0.00000E+00         0.00000E+00         0.00000E+00
 
    0.23445E+05         0.81813E+03         0.00000E+00
    0.81813E+03        -0.56244E+03         0.00000E+00
    0.00000E+00         0.00000E+00         0.00000E+00
 
    0.23478E+05         0.13649E+04         0.00000E+00
    0.13649E+04        -0.53657E+03         0.00000E+00
    0.00000E+00         0.00000E+00         0.00000E+00
 
    0.23485E+05         0.19115E+04         0.00000E+00
    0.19115E+04        -0.49777E+03         0.00000E+00
    0.00000E+00         0.00000E+00         0.00000E+00
 
    0.23468E+05         0.24574E+04         0.00000E+00
    0.24574E+04        -0.44609E+03         0.00000E+00
    0.00000E+00         0.00000E+00         0.00000E+00
 
    0.23426E+05         0.30020E+04         0.00000E+00
    0.30020E+04        -0.38155E+03         0.00000E+00
    0.00000E+00         0.00000E+00         0.00000E+00
 
    0.23358E+05         0.35448E+04         0.00000E+00
    0.35448E+04        -0.30421E+03         0.00000E+00
    0.00000E+00         0.00000E+00         0.00000E+00
 
    0.23266E+05         0.40853E+04         0.00000E+00
    0.40853E+04        -0.21413E+03         0.00000E+00
    0.00000E+00         0.00000E+00         0.00000E+00
 
    0.23149E+05         0.46228E+04         0.00000E+00
    0.46228E+04        -0.11139E+03         0.00000E+00
    0.00000E+00         0.00000E+00         0.00000E+00
 
    0.23007E+05         0.51570E+04         0.00000E+00
    0.51570E+04         0.39176E+01         0.00000E+00
    0.00000E+00         0.00000E+00         0.00000E+00
 
    0.22841E+05         0.56873E+04         0.00000E+00
    0.56873E+04         0.13170E+03         0.00000E+00
    0.00000E+00         0.00000E+00         0.00000E+00
 
    0.22651E+05         0.62131E+04         0.00000E+00
    0.62131E+04         0.27185E+03         0.00000E+00
    0.00000E+00         0.00000E+00         0.00000E+00
 
    0.22436E+05         0.67339E+04         0.00000E+00
    0.67339E+04         0.42425E+03         0.00000E+00
    0.00000E+00         0.00000E+00         0.00000E+00
 
    0.22197E+05         0.72492E+04         0.00000E+00
    0.72492E+04         0.58875E+03         0.00000E+00
    0.00000E+00         0.00000E+00         0.00000E+00
 
    0.21934E+05         0.77585E+04         0.00000E+00
    0.77585E+04         0.76522E+03         0.00000E+00
    0.00000E+00         0.00000E+00         0.00000E+00
 
    0.21648E+05         0.82614E+04         0.00000E+00
    0.82614E+04         0.95350E+03         0.00000E+00
    0.00000E+00         0.00000E+00         0.00000E+00
 
    0.21339E+05         0.87572E+04         0.00000E+00
    0.87572E+04         0.11534E+04         0.00000E+00
    0.00000E+00         0.00000E+00         0.00000E+00
 
    0.21006E+05         0.92456E+04         0.00000E+00
    0.92456E+04         0.13648E+04         0.00000E+00
    0.00000E+00         0.00000E+00         0.00000E+00
 
    0.20650E+05         0.97260E+04         0.00000E+00
    0.97260E+04         0.15875E+04         0.00000E+00
    0.00000E+00         0.00000E+00         0.00000E+00
 
    0.20272E+05         0.10198E+05         0.00000E+00
    0.10198E+05         0.18213E+04         0.00000E+00
    0.00000E+00         0.00000E+00         0.00000E+00
 
    0.19872E+05         0.10661E+05         0.00000E+00
    0.10661E+05         0.20659E+04         0.00000E+00
    0.00000E+00         0.00000E+00         0.00000E+00
 
    0.19450E+05         0.11115E+05         0.00000E+00
    0.11115E+05         0.23212E+04         0.00000E+00
    0.00000E+00         0.00000E+00         0.00000E+00
 
    0.19006E+05         0.11559E+05         0.00000E+00
    0.11559E+05         0.25869E+04         0.00000E+00
    0.00000E+00         0.00000E+00         0.00000E+00
 
    0.18542E+05         0.11992E+05         0.00000E+00
    0.11992E+05         0.28629E+04         0.00000E+00
    0.00000E+00         0.00000E+00         0.00000E+00
 
    0.18056E+05         0.12415E+05         0.00000E+00
    0.12415E+05         0.31487E+04         0.00000E+00
    0.00000E+00         0.00000E+00         0.00000E+00
 
    0.17549E+05         0.12827E+05         0.00000E+00
    0.12827E+05         0.34443E+04         0.00000E+00
    0.00000E+00         0.00000E+00         0.00000E+00
 
    0.17023E+05         0.13227E+05         0.00000E+00
    0.13227E+05         0.37493E+04         0.00000E+00
    0.00000E+00         0.00000E+00         0.00000E+00
 
    0.16477E+05         0.13615E+05         0.00000E+00
    0.13615E+05         0.40635E+04         0.00000E+00
    0.00000E+00         0.00000E+00         0.00000E+00
 
    0.15911E+05         0.13991E+05         0.00000E+00
    0.13991E+05         0.43865E+04         0.00000E+00
    0.00000E+00         0.00000E+00         0.00000E+00
 
    0.15327E+05         0.14353E+05         0.00000E+00
    0.14353E+05         0.47182E+04         0.00000E+00
    0.00000E+00         0.00000E+00         0.00000E+00
 
    0.14724E+05         0.14703E+05         0.00000E+00
    0.14703E+05         0.50581E+04         0.00000E+00
    0.00000E+00         0.00000E+00         0.00000E+00
 
    0.14103E+05         0.15039E+05         0.00000E+00
    0.15039E+05         0.54060E+04         0.00000E+00
    0.00000E+00         0.00000E+00         0.00000E+00
 
    0.13465E+05         0.15361E+05         0.00000E+00
    0.15361E+05         0.57615E+04         0.00000E+00
    0.00000E+00         0.00000E+00         0.00000E+00
 
    0.12809E+05         0.15669E+05         0.00000E+00
    0.15669E+05         0.61244E+04         0.00000E+00
    0.00000E+00         0.00000E+00         0.00000E+00
 
    0.12137E+05         0.15963E+05         0.00000E+00
    0.15963E+05         0.64943E+04         0.00000E+00
    0.00000E+00         0.00000E+00         0.00000E+00
 
    0.11449E+05         0.16241E+05         0.00000E+00
    0.16241E+05         0.68709E+04         0.00000E+00
    0.00000E+00         0.00000E+00         0.00000E+00
 
    0.10746E+05         0.16504E+05         0.00000E+00
    0.16504E+05         0.72538E+04         0.00000E+00
    0.00000E+00         0.00000E+00         0.00000E+00
 
    0.10027E+05         0.16751E+05         0.00000E+00
    0.16751E+05         0.76427E+04         0.00000E+00
    0.00000E+00         0.00000E+00         0.00000E+00
 
    0.92938E+04         0.16982E+05         0.00000E+00
    0.16982E+05         0.80372E+04         0.00000E+00
    0.00000E+00         0.00000E+00         0.00000E+00
 
    0.85465E+04         0.17197E+05         0.00000E+00
    0.17197E+05         0.84370E+04         0.00000E+00
    0.00000E+00         0.00000E+00         0.00000E+00
 
    0.77859E+04         0.17396E+05         0.00000E+00
    0.17396E+05         0.88417E+04         0.00000E+00
    0.00000E+00         0.00000E+00         0.00000E+00
 
    0.70123E+04         0.17578E+05         0.00000E+00
    0.17578E+05         0.92508E+04         0.00000E+00
    0.00000E+00         0.00000E+00         0.00000E+00
 
    0.62265E+04         0.17743E+05         0.00000E+00
    0.17743E+05         0.96641E+04         0.00000E+00
    0.00000E+00         0.00000E+00         0.00000E+00
 
    0.54289E+04         0.17890E+05         0.00000E+00
    0.17890E+05         0.10081E+05         0.00000E+00
    0.00000E+00         0.00000E+00         0.00000E+00
 
    0.46201E+04         0.18020E+05         0.00000E+00
    0.18020E+05         0.10501E+05         0.00000E+00
    0.00000E+00         0.00000E+00         0.00000E+00
 
    0.38007E+04         0.18132E+05         0.00000E+00
    0.18132E+05         0.10925E+05         0.00000E+00
    0.00000E+00         0.00000E+00         0.00000E+00
 
    0.29714E+04         0.18226E+05         0.00000E+00
    0.18226E+05         0.11351E+05         0.00000E+00
    0.00000E+00         0.00000E+00         0.00000E+00
 
    0.21327E+04         0.18302E+05         0.00000E+00
    0.18302E+05         0.11779E+05         0.00000E+00
    0.00000E+00         0.00000E+00         0.00000E+00
 
    0.12853E+04         0.18359E+05         0.00000E+00
    0.18359E+05         0.12208E+05         0.00000E+00
    0.00000E+00         0.00000E+00         0.00000E+00
 
    0.42974E+03         0.18398E+05         0.00000E+00
    0.18398E+05         0.12640E+05         0.00000E+00
    0.00000E+00         0.00000E+00         0.00000E+00
 
    0.26175E+05         0.30589E+03         0.00000E+00
    0.30589E+03        -0.68476E+03         0.00000E+00
    0.00000E+00         0.00000E+00         0.00000E+00
 
    0.26236E+05         0.92072E+03         0.00000E+00
    0.92072E+03        -0.67031E+03         0.00000E+00
    0.00000E+00         0.00000E+00         0.00000E+00
 
    0.26269E+05         0.15359E+04         0.00000E+00
    0.15359E+04        -0.64141E+03         0.00000E+00
    0.00000E+00         0.00000E+00         0.00000E+00
 
    0.26275E+05         0.21507E+04         0.00000E+00
    0.21507E+04        -0.59808E+03         0.00000E+00
    0.00000E+00         0.00000E+00         0.00000E+00
 
    0.26252E+05         0.27646E+04         0.00000E+00
    0.27646E+04        -0.54037E+03         0.00000E+00
    0.00000E+00         0.00000E+00         0.00000E+00
 
    0.26201E+05         0.33770E+04         0.00000E+00
    0.33770E+04        -0.46831E+03         0.00000E+00
    0.00000E+00         0.00000E+00         0.00000E+00
 
    0.26123E+05         0.39873E+04         0.00000E+00
    0.39873E+04        -0.38197E+03         0.00000E+00
    0.00000E+00         0.00000E+00         0.00000E+00
 
    0.26016E+05         0.45949E+04         0.00000E+00
    0.45949E+04        -0.28142E+03         0.00000E+00
    0.00000E+00         0.00000E+00         0.00000E+00
 
    0.25882E+05         0.51991E+04         0.00000E+00
    0.51991E+04        -0.16675E+03         0.00000E+00
    0.00000E+00         0.00000E+00         0.00000E+00
 
    0.25721E+05         0.57995E+04         0.00000E+00
    0.57995E+04        -0.38064E+02         0.00000E+00
    0.00000E+00         0.00000E+00         0.00000E+00
 
    0.25532E+05         0.63953E+04         0.00000E+00
    0.63953E+04         0.10453E+03         0.00000E+00
    0.00000E+00         0.00000E+00         0.00000E+00
 
    0.25317E+05         0.69861E+04         0.00000E+00
    0.69861E+04         0.26091E+03         0.00000E+00
    0.00000E+00         0.00000E+00         0.00000E+00
 
    0.25074E+05         0.75712E+04         0.00000E+00
    0.75712E+04         0.43093E+03         0.00000E+00
    0.00000E+00         0.00000E+00         0.00000E+00
 
    0.24804E+05         0.81501E+04         0.00000E+00
    0.81501E+04         0.61445E+03         0.00000E+00
    0.00000E+00         0.00000E+00         0.00000E+00
 
    0.24509E+05         0.87223E+04         0.00000E+00
    0.87223E+04         0.81130E+03         0.00000E+00
    0.00000E+00         0.00000E+00         0.00000E+00
 
    0.24187E+05         0.92870E+04         0.00000E+00
    0.92870E+04         0.10213E+04         0.00000E+00
    0.00000E+00         0.00000E+00         0.00000E+00
 
    0.23838E+05         0.98439E+04         0.00000E+00
    0.98439E+04         0.12443E+04         0.00000E+00
    0.00000E+00         0.00000E+00         0.00000E+00
 
    0.23465E+05         0.10392E+05         0.00000E+00
    0.10392E+05         0.14800E+04         0.00000E+00
    0.00000E+00         0.00000E+00         0.00000E+00
 
    0.23066E+05         0.10932E+05         0.00000E+00
    0.10932E+05         0.17283E+04         0.00000E+00
    0.00000E+00         0.00000E+00         0.00000E+00
 
    0.22642E+05         0.11462E+05         0.00000E+00
    0.11462E+05         0.19890E+04         0.00000E+00
    0.00000E+00         0.00000E+00         0.00000E+00
 
    0.22193E+05         0.11982E+05         0.00000E+00
    0.11982E+05         0.22618E+04         0.00000E+00
    0.00000E+00         0.00000E+00         0.00000E+00
 
    0.21720E+05         0.12491E+05         0.00000E+00
    0.12491E+05         0.25464E+04         0.00000E+00
    0.00000E+00         0.00000E+00         0.00000E+00
 
    0.21223E+05         0.12989E+05         0.00000E+00
    0.12989E+05         0.28427E+04         0.00000E+00
    0.00000E+00         0.00000E+00         0.00000E+00
 
    0.20702E+05         0.13476E+05         0.00000E+00
    0.13476E+05         0.31503E+04         0.00000E+00
    0.00000E+00         0.00000E+00         0.00000E+00
 
    0.20158E+05         0.13951E+05         0.00000E+00
    0.13951E+05         0.34690E+04         0.00000E+00
    0.00000E+00         0.00000E+00         0.00000E+00
 
    0.19592E+05         0.14413E+05         0.00000E+00
    0.14413E+05         0.37985E+04         0.00000E+00
    0.00000E+00         0.00000E+00         0.00000E+00
 
    0.19003E+05         0.14862E+05         0.00000E+00
    0.14862E+05         0.41385E+04         0.00000E+00
    0.00000E+00         0.00000E+00         0.00000E+00
 
    0.18392E+05         0.15298E+05         0.00000E+00
    0.15298E+05         0.44886E+04         0.00000E+00
    0.00000E+00         0.00000E+00         0.00000E+00
 
    0.17759E+05         0.15720E+05         0.00000E+00
    0.15720E+05         0.48487E+04         0.00000E+00
    0.00000E+00         0.00000E+00         0.00000E+00
 
    0.17106E+05         0.16127E+05         0.00000E+00
    0.16127E+05         0.52183E+04         0.00000E+00
    0.00000E+00         0.00000E+00         0.00000E+00
 
    0.16432E+05         0.16520E+05         0.00000E+00
    0.16520E+05         0.55972E+04         0.00000E+00
    0.00000E+00         0.00000E+00         0.00000E+00
 
    0.15739E+05         0.16897E+05         0.00000E+00
    0.16897E+05         0.59849E+04         0.00000E+00
    0.00000E+00         0.00000E+00         0.00000E+00
 
    0.15026E+05         0.17259E+05         0.00000E+00
    0.17259E+05         0.63812E+04         0.00000E+00
    0.00000E+00         0.00000E+00         0.00000E+00
 
    0.14293E+05         0.17605E+05         0.00000E+00
    0.17605E+05         0.67856E+04         0.00000E+00
    0.00000E+00         0.00000E+00         0.00000E+00
 
    0.13543E+05         0.17934E+05         0.00000E+00
    0.17934E+05         0.71979E+04         0.00000E+00
    0.00000E+00         0.00000E+00         0.00000E+00
 
    0.12775E+05         0.18247E+05         0.00000E+00
    0.18247E+05         0.76176E+04         0.00000E+00
    0.00000E+00         0.00000E+00         0.00000E+00
 
    0.11989E+05         0.18542E+05         0.00000E+00
    0.18542E+05         0.80444E+04         0.00000E+00
    0.00000E+00         0.00000E+00         0.00000E+00
 
    0.11187E+05         0.18820E+05         0.00000E+00
    0.18820E+05         0.84778E+04         0.00000E+00
    0.00000E+00         0.00000E+00         0.00000E+00
 
    0.10368E+05         0.19080E+05         0.00000E+00
    0.19080E+05         0.89175E+04         0.00000E+00
    0.00000E+00         0.00000E+00         0.00000E+00
 
    0.95343E+04         0.19322E+05         0.00000E+00
    0.19322E+05         0.93631E+04         0.00000E+00
    0.00000E+00         0.00000E+00         0.00000E+00
 
    0.86854E+04         0.19545E+05         0.00000E+00
    0.19545E+05         0.98141E+04         0.00000E+00
    0.00000E+00         0.00000E+00         0.00000E+00
 
    0.78223E+04         0.19750E+05         0.00000E+00
    0.19750E+05         0.10270E+05         0.00000E+00
    0.00000E+00         0.00000E+00         0.00000E+00
 
    0.69454E+04         0.19936E+05         0.00000E+00
    0.19936E+05         0.10731E+05         0.00000E+00
    0.00000E+00         0.00000E+00         0.00000E+00
 
    0.60555E+04         0.20102E+05         0.00000E+00
    0.20102E+05         0.11196E+05         0.00000E+00
    0.00000E+00         0.00000E+00         0.00000E+00
 
    0.51533E+04         0.20248E+05         0.00000E+00
    0.20248E+05         0.11664E+05         0.00000E+00
    0.00000E+00         0.00000E+00         0.00000E+00
 
    0.42393E+04         0.20375E+05         0.00000E+00
    0.20375E+05         0.12136E+05         0.00000E+00
    0.00000E+00         0.00000E+00         0.00000E+00
 
    0.33142E+04         0.20482E+05         0.00000E+00
    0.20482E+05         0.12611E+05         0.00000E+00
    0.00000E+00         0.00000E+00         0.00000E+00
 
    0.23787E+04         0.20568E+05         0.00000E+00
    0.20568E+05         0.13088E+05         0.00000E+00
    0.00000E+00         0.00000E+00         0.00000E+00
 
    0.14335E+04         0.20634E+05         0.00000E+00
    0.20634E+05         0.13568E+05         0.00000E+00
    0.00000E+00         0.00000E+00         0.00000E+00
 
    0.47929E+03         0.20678E+05         0.00000E+00
    0.20678E+05         0.14048E+05         0.00000E+00
    0.00000E+00         0.00000E+00         0.00000E+00
 
    0.29305E+05         0.34409E+03         0.00000E+00
    0.34409E+03        -0.81444E+03         0.00000E+00
    0.00000E+00         0.00000E+00         0.00000E+00
 
    0.29369E+05         0.10354E+04         0.00000E+00
    0.10354E+04        -0.79829E+03         0.00000E+00
    0.00000E+00         0.00000E+00         0.00000E+00
 
    0.29402E+05         0.17268E+04         0.00000E+00
    0.17268E+04        -0.76600E+03         0.00000E+00
    0.00000E+00         0.00000E+00         0.00000E+00
 
    0.29404E+05         0.24178E+04         0.00000E+00
    0.24178E+04        -0.71761E+03         0.00000E+00
    0.00000E+00         0.00000E+00         0.00000E+00
 
    0.29374E+05         0.31077E+04         0.00000E+00
    0.31077E+04        -0.65314E+03         0.00000E+00
    0.00000E+00         0.00000E+00         0.00000E+00
 
    0.29314E+05         0.37958E+04         0.00000E+00
    0.37958E+04        -0.57267E+03         0.00000E+00
    0.00000E+00         0.00000E+00         0.00000E+00
 
    0.29222E+05         0.44813E+04         0.00000E+00
    0.44813E+04        -0.47627E+03         0.00000E+00
    0.00000E+00         0.00000E+00         0.00000E+00
 
    0.29099E+05         0.51638E+04         0.00000E+00
    0.51638E+04        -0.36401E+03         0.00000E+00
    0.00000E+00         0.00000E+00         0.00000E+00
 
    0.28946E+05         0.58424E+04         0.00000E+00
    0.58424E+04        -0.23600E+03         0.00000E+00
    0.00000E+00         0.00000E+00         0.00000E+00
 
    0.28762E+05         0.65165E+04         0.00000E+00
    0.65165E+04        -0.92358E+02         0.00000E+00
    0.00000E+00         0.00000E+00         0.00000E+00
 
    0.28548E+05         0.71855E+04         0.00000E+00
    0.71855E+04         0.66791E+02         0.00000E+00
    0.00000E+00         0.00000E+00         0.00000E+00
 
    0.28304E+05         0.78487E+04         0.00000E+00
    0.78487E+04         0.24131E+03         0.00000E+00
    0.00000E+00         0.00000E+00         0.00000E+00
 
    0.28029E+05         0.85055E+04         0.00000E+00
    0.85055E+04         0.43103E+03         0.00000E+00
    0.00000E+00         0.00000E+00         0.00000E+00
 
    0.27725E+05         0.91553E+04         0.00000E+00
    0.91553E+04         0.63579E+03         0.00000E+00
    0.00000E+00         0.00000E+00         0.00000E+00
 
    0.27392E+05         0.97973E+04         0.00000E+00
    0.97973E+04         0.85540E+03         0.00000E+00
    0.00000E+00         0.00000E+00         0.00000E+00
 
    0.27029E+05         0.10431E+05         0.00000E+00
    0.10431E+05         0.10897E+04         0.00000E+00
    0.00000E+00         0.00000E+00         0.00000E+00
 
    0.26638E+05         0.11056E+05         0.00000E+00
    0.11056E+05         0.13384E+04         0.00000E+00
    0.00000E+00         0.00000E+00         0.00000E+00
 
    0.26218E+05         0.11671E+05         0.00000E+00
    0.11671E+05         0.16014E+04         0.00000E+00
    0.00000E+00         0.00000E+00         0.00000E+00
 
    0.25770E+05         0.12277E+05         0.00000E+00
    0.12277E+05         0.18783E+04         0.00000E+00
    0.00000E+00         0.00000E+00         0.00000E+00
 
    0.25294E+05         0.12871E+05         0.00000E+00
    0.12871E+05         0.21690E+04         0.00000E+00
    0.00000E+00         0.00000E+00         0.00000E+00
 
    0.24790E+05         0.13454E+05         0.00000E+00
    0.13454E+05         0.24732E+04         0.00000E+00
    0.00000E+00         0.00000E+00         0.00000E+00
 
    0.24260E+05         0.14026E+05         0.00000E+00
    0.14026E+05         0.27906E+04         0.00000E+00
    0.00000E+00         0.00000E+00         0.00000E+00
 
    0.23703E+05         0.14585E+05         0.00000E+00
    0.14585E+05         0.31209E+04         0.00000E+00
    0.00000E+00         0.00000E+00         0.00000E+00
 
    0.23119E+05         0.15131E+05         0.00000E+00
    0.15131E+05         0.34639E+04         0.00000E+00
    0.00000E+00         0.00000E+00         0.00000E+00
 
    0.22510E+05         0.15663E+05         0.00000E+00
    0.15663E+05         0.38192E+04         0.00000E+00
    0.00000E+00         0.00000E+00         0.00000E+00
 
    0.21876E+05         0.16181E+05         0.00000E+00
    0.16181E+05         0.41866E+04         0.00000E+00
    0.00000E+00         0.00000E+00         0.00000E+00
 
    0.21217E+05         0.16685E+05         0.00000E+00
    0.16685E+05         0.45656E+04         0.00000E+00
    0.00000E+00         0.00000E+00         0.00000E+00
 
    0.20534E+05         0.17174E+05         0.00000E+00
    0.17174E+05         0.49560E+04         0.00000E+00
    0.00000E+00         0.00000E+00         0.00000E+00
 
    0.19826E+05         0.17647E+05         0.00000E+00
    0.17647E+05         0.53574E+04         0.00000E+00
    0.00000E+00         0.00000E+00         0.00000E+00
 
    0.19096E+05         0.18104E+05         0.00000E+00
    0.18104E+05         0.57694E+04         0.00000E+00
    0.00000E+00         0.00000E+00         0.00000E+00
 
    0.18343E+05         0.18544E+05         0.00000E+00
    0.18544E+05         0.61917E+04         0.00000E+00
    0.00000E+00         0.00000E+00         0.00000E+00
 
    0.17568E+05         0.18968E+05         0.00000E+00
    0.18968E+05         0.66239E+04         0.00000E+00
    0.00000E+00         0.00000E+00         0.00000E+00
 
    0.16771E+05         0.19374E+05         0.00000E+00
    0.19374E+05         0.70657E+04         0.00000E+00
    0.00000E+00         0.00000E+00         0.00000E+00
 
    0.15953E+05         0.19762E+05         0.00000E+00
    0.19762E+05         0.75165E+04         0.00000E+00
    0.00000E+00         0.00000E+00         0.00000E+00
 
    0.15114E+05         0.20132E+05         0.00000E+00
    0.20132E+05         0.79760E+04         0.00000E+00
    0.00000E+00         0.00000E+00         0.00000E+00
 
    0.14256E+05         0.20482E+05         0.00000E+00
    0.20482E+05         0.84439E+04         0.00000E+00
    0.00000E+00         0.00000E+00         0.00000E+00
 
    0.13379E+05         0.20814E+05         0.00000E+00
    0.20814E+05         0.89196E+04         0.00000E+00
    0.00000E+00         0.00000E+00         0.00000E+00
 
    0.12483E+05         0.21126E+05         0.00000E+00
    0.21126E+05         0.94027E+04         0.00000E+00
    0.00000E+00         0.00000E+00         0.00000E+00
 
    0.11569E+05         0.21418E+05         0.00000E+00
    0.21418E+05         0.98929E+04         0.00000E+00
    0.00000E+00         0.00000E+00         0.00000E+00
 
    0.10638E+05         0.21690E+05         0.00000E+00
    0.21690E+05         0.10390E+05         0.00000E+00
    0.00000E+00         0.00000E+00         0.00000E+00
 
    0.96908E+04         0.21941E+05         0.00000E+00
    0.21941E+05         0.10892E+05         0.00000E+00
    0.00000E+00         0.00000E+00         0.00000E+00
 
    0.87274E+04         0.22172E+05         0.00000E+00
    0.22172E+05         0.11401E+05         0.00000E+00
    0.00000E+00         0.00000E+00         0.00000E+00
 
    0.77489E+04         0.22381E+05         0.00000E+00
    0.22381E+05         0.11914E+05         0.00000E+00
    0.00000E+00         0.00000E+00         0.00000E+00
 
    0.67559E+04         0.22568E+05         0.00000E+00
    0.22568E+05         0.12433E+05         0.00000E+00
    0.00000E+00         0.00000E+00         0.00000E+00
 
    0.57491E+04         0.22733E+05         0.00000E+00
    0.22733E+05         0.12955E+05         0.00000E+00
    0.00000E+00         0.00000E+00         0.00000E+00
 
    0.47293E+04         0.22876E+05         0.00000E+00
    0.22876E+05         0.13481E+05         0.00000E+00
    0.00000E+00         0.00000E+00         0.00000E+00
 
    0.36972E+04         0.22997E+05         0.00000E+00
    0.22997E+05         0.14011E+05         0.00000E+00
    0.00000E+00         0.00000E+00         0.00000E+00
 
    0.26536E+04         0.23095E+05         0.00000E+00
    0.23095E+05         0.14543E+05         0.00000E+00
    0.00000E+00         0.00000E+00         0.00000E+00
 
    0.15991E+04         0.23170E+05         0.00000E+00
    0.23170E+05         0.15078E+05         0.00000E+00
    0.00000E+00         0.00000E+00         0.00000E+00
 
    0.53466E+03         0.23221E+05         0.00000E+00
    0.23221E+05         0.15614E+05         0.00000E+00
    0.00000E+00         0.00000E+00         0.00000E+00
 
    0.32815E+05         0.38681E+03         0.00000E+00
    0.38681E+03        -0.96810E+03         0.00000E+00
    0.00000E+00         0.00000E+00         0.00000E+00
 
    0.32882E+05         0.11634E+04         0.00000E+00
    0.11634E+04        -0.95005E+03         0.00000E+00
    0.00000E+00         0.00000E+00         0.00000E+00
 
    0.32914E+05         0.19402E+04         0.00000E+00
    0.19402E+04        -0.91398E+03         0.00000E+00
    0.00000E+00         0.00000E+00         0.00000E+00
 
    0.32911E+05         0.27163E+04         0.00000E+00
    0.27163E+04        -0.85991E+03         0.00000E+00
    0.00000E+00         0.00000E+00         0.00000E+00
 
    0.32873E+05         0.34909E+04         0.00000E+00
    0.34909E+04        -0.78791E+03         0.00000E+00
    0.00000E+00         0.00000E+00         0.00000E+00
 
    0.32801E+05         0.42634E+04         0.00000E+00
    0.42634E+04        -0.69805E+03         0.00000E+00
    0.00000E+00         0.00000E+00         0.00000E+00
 
    0.32694E+05         0.50330E+04         0.00000E+00
    0.50330E+04        -0.59039E+03         0.00000E+00
    0.00000E+00         0.00000E+00         0.00000E+00
 
    0.32553E+05         0.57989E+04         0.00000E+00
    0.57989E+04        -0.46506E+03         0.00000E+00
    0.00000E+00         0.00000E+00         0.00000E+00
 
    0.32377E+05         0.65604E+04         0.00000E+00
    0.65604E+04        -0.32215E+03         0.00000E+00
    0.00000E+00         0.00000E+00         0.00000E+00
 
    0.32168E+05         0.73168E+04         0.00000E+00
    0.73168E+04        -0.16181E+03         0.00000E+00
    0.00000E+00         0.00000E+00         0.00000E+00
 
    0.31924E+05         0.80673E+04         0.00000E+00
    0.80673E+04         0.15817E+02         0.00000E+00
    0.00000E+00         0.00000E+00         0.00000E+00
 
    0.31648E+05         0.88113E+04         0.00000E+00
    0.88113E+04         0.21058E+03         0.00000E+00
    0.00000E+00         0.00000E+00         0.00000E+00
 
    0.31337E+05         0.95480E+04         0.00000E+00
    0.95480E+04         0.42229E+03         0.00000E+00
    0.00000E+00         0.00000E+00         0.00000E+00
 
    0.30994E+05         0.10277E+05         0.00000E+00
    0.10277E+05         0.65076E+03         0.00000E+00
    0.00000E+00         0.00000E+00         0.00000E+00
 
    0.30618E+05         0.10997E+05         0.00000E+00
    0.10997E+05         0.89578E+03         0.00000E+00
    0.00000E+00         0.00000E+00         0.00000E+00
 
    0.30210E+05         0.11707E+05         0.00000E+00
    0.11707E+05         0.11571E+04         0.00000E+00
    0.00000E+00         0.00000E+00         0.00000E+00
 
    0.29769E+05         0.12408E+05         0.00000E+00
    0.12408E+05         0.14346E+04         0.00000E+00
    0.00000E+00         0.00000E+00         0.00000E+00
 
    0.29297E+05         0.13098E+05         0.00000E+00
    0.13098E+05         0.17279E+04         0.00000E+00
    0.00000E+00         0.00000E+00         0.00000E+00
 
    0.28794E+05         0.13776E+05         0.00000E+00
    0.13776E+05         0.20368E+04         0.00000E+00
    0.00000E+00         0.00000E+00         0.00000E+00
 
    0.28259E+05         0.14443E+05         0.00000E+00
    0.14443E+05         0.23610E+04         0.00000E+00
    0.00000E+00         0.00000E+00         0.00000E+00
 
    0.27694E+05         0.15096E+05         0.00000E+00
    0.15096E+05         0.27002E+04         0.00000E+00
    0.00000E+00         0.00000E+00         0.00000E+00
 
    0.27100E+05         0.15737E+05         0.00000E+00
    0.15737E+05         0.30542E+04         0.00000E+00
    0.00000E+00         0.00000E+00         0.00000E+00
 
    0.26475E+05         0.16363E+05         0.00000E+00
    0.16363E+05         0.34225E+04         0.00000E+00
    0.00000E+00         0.00000E+00         0.00000E+00
 
    0.25822E+05         0.16975E+05         0.00000E+00
    0.16975E+05         0.38049E+04         0.00000E+00
    0.00000E+00         0.00000E+00         0.00000E+00
 
    0.25140E+05         0.17572E+05         0.00000E+00
    0.17572E+05         0.42011E+04         0.00000E+00
    0.00000E+00         0.00000E+00         0.00000E+00
 
    0.24429E+05         0.18153E+05         0.00000E+00
    0.18153E+05         0.46106E+04         0.00000E+00
    0.00000E+00         0.00000E+00         0.00000E+00
 
    0.23692E+05         0.18718E+05         0.00000E+00
    0.18718E+05         0.50332E+04         0.00000E+00
    0.00000E+00         0.00000E+00         0.00000E+00
 
    0.22927E+05         0.19265E+05         0.00000E+00
    0.19265E+05         0.54684E+04         0.00000E+00
    0.00000E+00         0.00000E+00         0.00000E+00
 
    0.22136E+05         0.19796E+05         0.00000E+00
    0.19796E+05         0.59159E+04         0.00000E+00
    0.00000E+00         0.00000E+00         0.00000E+00
 
    0.21319E+05         0.20308E+05         0.00000E+00
    0.20308E+05         0.63752E+04         0.00000E+00
    0.00000E+00         0.00000E+00         0.00000E+00
 
    0.20477E+05         0.20802E+05         0.00000E+00
    0.20802E+05         0.68459E+04         0.00000E+00
    0.00000E+00         0.00000E+00         0.00000E+00
 
    0.19610E+05         0.21276E+05         0.00000E+00
    0.21276E+05         0.73277E+04         0.00000E+00
    0.00000E+00         0.00000E+00         0.00000E+00
 
    0.18720E+05         0.21731E+05         0.00000E+00
    0.21731E+05         0.78201E+04         0.00000E+00
    0.00000E+00         0.00000E+00         0.00000E+00
 
    0.17806E+05         0.22166E+05         0.00000E+00
    0.22166E+05         0.83227E+04         0.00000E+00
    0.00000E+00         0.00000E+00         0.00000E+00
 
    0.16869E+05         0.22581E+05         0.00000E+00
    0.22581E+05         0.88349E+04         0.00000E+00
    0.00000E+00         0.00000E+00         0.00000E+00
 
    0.15911E+05         0.22975E+05         0.00000E+00
    0.22975E+05         0.93564E+04         0.00000E+00
    0.00000E+00         0.00000E+00         0.00000E+00
 
    0.14931E+05         0.23347E+05         0.00000E+00
    0.23347E+05         0.98867E+04         0.00000E+00
    0.00000E+00         0.00000E+00         0.00000E+00
 
    0.13930E+05         0.23697E+05         0.00000E+00
    0.23697E+05         0.10425E+05         0.00000E+00
    0.00000E+00         0.00000E+00         0.00000E+00
 
    0.12910E+05         0.24025E+05         0.00000E+00
    0.24025E+05         0.10972E+05         0.00000E+00
    0.00000E+00         0.00000E+00         0.00000E+00
 
    0.11871E+05         0.24330E+05         0.00000E+00
    0.24330E+05         0.11525E+05         0.00000E+00
    0.00000E+00         0.00000E+00         0.00000E+00
 
    0.10813E+05         0.24613E+05         0.00000E+00
    0.24613E+05         0.12086E+05         0.00000E+00
    0.00000E+00         0.00000E+00         0.00000E+00
 
    0.97379E+04         0.24871E+05         0.00000E+00
    0.24871E+05         0.12653E+05         0.00000E+00
    0.00000E+00         0.00000E+00         0.00000E+00
 
    0.86458E+04         0.25106E+05         0.00000E+00
    0.25106E+05         0.13225E+05         0.00000E+00
    0.00000E+00         0.00000E+00         0.00000E+00
 
    0.75376E+04         0.25317E+05         0.00000E+00
    0.25317E+05         0.13803E+05         0.00000E+00
    0.00000E+00         0.00000E+00         0.00000E+00
 
    0.64142E+04         0.25504E+05         0.00000E+00
    0.25504E+05         0.14386E+05         0.00000E+00
    0.00000E+00         0.00000E+00         0.00000E+00
 
    0.52763E+04         0.25665E+05         0.00000E+00
    0.25665E+05         0.14973E+05         0.00000E+00
    0.00000E+00         0.00000E+00         0.00000E+00
 
    0.41248E+04         0.25802E+05         0.00000E+00
    0.25802E+05         0.15563E+05         0.00000E+00
    0.00000E+00         0.00000E+00         0.00000E+00
 
    0.29604E+04         0.25913E+05         0.00000E+00
    0.25913E+05         0.16157E+05         0.00000E+00
    0.00000E+00         0.00000E+00         0.00000E+00
 
    0.17840E+04         0.25999E+05         0.00000E+00
    0.25999E+05         0.16753E+05         0.00000E+00
    0.00000E+00         0.00000E+00         0.00000E+00
 
    0.59646E+03         0.26058E+05         0.00000E+00
    0.26058E+05         0.17351E+05         0.00000E+00
    0.00000E+00         0.00000E+00         0.00000E+00
 
    0.36749E+05         0.43456E+03         0.00000E+00
    0.43456E+03        -0.11501E+04         0.00000E+00
    0.00000E+00         0.00000E+00         0.00000E+00
 
    0.36818E+05         0.13066E+04         0.00000E+00
    0.13066E+04        -0.11299E+04         0.00000E+00
    0.00000E+00         0.00000E+00         0.00000E+00
 
    0.36848E+05         0.21785E+04         0.00000E+00
    0.21785E+04        -0.10896E+04         0.00000E+00
    0.00000E+00         0.00000E+00         0.00000E+00
 
    0.36839E+05         0.30496E+04         0.00000E+00
    0.30496E+04        -0.10292E+04         0.00000E+00
    0.00000E+00         0.00000E+00         0.00000E+00
 
    0.36791E+05         0.39189E+04         0.00000E+00
    0.39189E+04        -0.94881E+03         0.00000E+00
    0.00000E+00         0.00000E+00         0.00000E+00
 
    0.36705E+05         0.47856E+04         0.00000E+00
    0.47856E+04        -0.84846E+03         0.00000E+00
    0.00000E+00         0.00000E+00         0.00000E+00
 
    0.36580E+05         0.56489E+04         0.00000E+00
    0.56489E+04        -0.72826E+03         0.00000E+00
    0.00000E+00         0.00000E+00         0.00000E+00
 
    0.36418E+05         0.65079E+04         0.00000E+00
    0.65079E+04        -0.58833E+03         0.00000E+00
    0.00000E+00         0.00000E+00         0.00000E+00
 
    0.36217E+05         0.73619E+04         0.00000E+00
    0.73619E+04        -0.42881E+03         0.00000E+00
    0.00000E+00         0.00000E+00         0.00000E+00
 
    0.35978E+05         0.82101E+04         0.00000E+00
    0.82101E+04        -0.24984E+03         0.00000E+00
    0.00000E+00         0.00000E+00         0.00000E+00
 
    0.35701E+05         0.90515E+04         0.00000E+00
    0.90515E+04        -0.51601E+02         0.00000E+00
    0.00000E+00         0.00000E+00         0.00000E+00
 
    0.35387E+05         0.98855E+04         0.00000E+00
    0.98855E+04         0.16573E+03         0.00000E+00
    0.00000E+00         0.00000E+00         0.00000E+00
 
    0.35036E+05         0.10711E+05         0.00000E+00
    0.10711E+05         0.40196E+03         0.00000E+00
    0.00000E+00         0.00000E+00         0.00000E+00
 
    0.34649E+05         0.11528E+05         0.00000E+00
    0.11528E+05         0.65686E+03         0.00000E+00
    0.00000E+00         0.00000E+00         0.00000E+00
 
    0.34225E+05         0.12335E+05         0.00000E+00
    0.12335E+05         0.93021E+03         0.00000E+00
    0.00000E+00         0.00000E+00         0.00000E+00
 
    0.33765E+05         0.13131E+05         0.00000E+00
    0.13131E+05         0.12217E+04         0.00000E+00
    0.00000E+00         0.00000E+00         0.00000E+00
 
    0.33269E+05         0.13916E+05         0.00000E+00
    0.13916E+05         0.15312E+04         0.00000E+00
    0.00000E+00         0.00000E+00         0.00000E+00
 
    0.32738E+05         0.14689E+05         0.00000E+00
    0.14689E+05         0.18583E+04         0.00000E+00
    0.00000E+00         0.00000E+00         0.00000E+00
 
    0.32172E+05         0.15449E+05         0.00000E+00
    0.15449E+05         0.22028E+04         0.00000E+00
    0.00000E+00         0.00000E+00         0.00000E+00
 
    0.31572E+05         0.16195E+05         0.00000E+00
    0.16195E+05         0.25644E+04         0.00000E+00
    0.00000E+00         0.00000E+00         0.00000E+00
 
    0.30939E+05         0.16928E+05         0.00000E+00
    0.16928E+05         0.29426E+04         0.00000E+00
    0.00000E+00         0.00000E+00         0.00000E+00
 
    0.30271E+05         0.17645E+05         0.00000E+00
    0.17645E+05         0.33373E+04         0.00000E+00
    0.00000E+00         0.00000E+00         0.00000E+00
 
    0.29571E+05         0.18347E+05         0.00000E+00
    0.18347E+05         0.37480E+04         0.00000E+00
    0.00000E+00         0.00000E+00         0.00000E+00
 
    0.28839E+05         0.19032E+05         0.00000E+00
    0.19032E+05         0.41743E+04         0.00000E+00
    0.00000E+00         0.00000E+00         0.00000E+00
 
    0.28075E+05         0.19700E+05         0.00000E+00
    0.19700E+05         0.46160E+04         0.00000E+00
    0.00000E+00         0.00000E+00         0.00000E+00
 
    0.27280E+05         0.20351E+05         0.00000E+00
    0.20351E+05         0.50725E+04         0.00000E+00
    0.00000E+00         0.00000E+00         0.00000E+00
 
    0.26454E+05         0.20983E+05         0.00000E+00
    0.20983E+05         0.55436E+04         0.00000E+00
    0.00000E+00         0.00000E+00         0.00000E+00
 
    0.25599E+05         0.21597E+05         0.00000E+00
    0.21597E+05         0.60287E+04         0.00000E+00
    0.00000E+00         0.00000E+00         0.00000E+00
 
    0.24714E+05         0.22191E+05         0.00000E+00
    0.22191E+05         0.65274E+04         0.00000E+00
    0.00000E+00         0.00000E+00         0.00000E+00
 
    0.23800E+05         0.22764E+05         0.00000E+00
    0.22764E+05         0.70394E+04         0.00000E+00
    0.00000E+00         0.00000E+00         0.00000E+00
 
    0.22859E+05         0.23317E+05         0.00000E+00
    0.23317E+05         0.75641E+04         0.00000E+00
    0.00000E+00         0.00000E+00         0.00000E+00
 
    0.21890E+05         0.23849E+05         0.00000E+00
    0.23849E+05         0.81011E+04         0.00000E+00
    0.00000E+00         0.00000E+00         0.00000E+00
 
    0.20895E+05         0.24359E+05         0.00000E+00
    0.24359E+05         0.86499E+04         0.00000E+00
    0.00000E+00         0.00000E+00         0.00000E+00
 
    0.19873E+05         0.24847E+05         0.00000E+00
    0.24847E+05         0.92101E+04         0.00000E+00
    0.00000E+00         0.00000E+00         0.00000E+00
 
    0.18827E+05         0.25311E+05         0.00000E+00
    0.25311E+05         0.97810E+04         0.00000E+00
    0.00000E+00         0.00000E+00         0.00000E+00
 
    0.17756E+05         0.25753E+05         0.00000E+00
    0.25753E+05         0.10362E+05         0.00000E+00
    0.00000E+00         0.00000E+00         0.00000E+00
 
    0.16662E+05         0.26170E+05         0.00000E+00
    0.26170E+05         0.10953E+05         0.00000E+00
    0.00000E+00         0.00000E+00         0.00000E+00
 
    0.15545E+05         0.26563E+05         0.00000E+00
    0.26563E+05         0.11554E+05         0.00000E+00
    0.00000E+00         0.00000E+00         0.00000E+00
 
    0.14406E+05         0.26931E+05         0.00000E+00
    0.26931E+05         0.12163E+05         0.00000E+00
    0.00000E+00         0.00000E+00         0.00000E+00
 
    0.13246E+05         0.27273E+05         0.00000E+00
    0.27273E+05         0.12780E+05         0.00000E+00
    0.00000E+00         0.00000E+00         0.00000E+00
 
    0.12065E+05         0.27590E+05         0.00000E+00
    0.27590E+05         0.13405E+05         0.00000E+00
    0.00000E+00         0.00000E+00         0.00000E+00
 
    0.10865E+05         0.27881E+05         0.00000E+00
    0.27881E+05         0.14036E+05         0.00000E+00
    0.00000E+00         0.00000E+00         0.00000E+00
 
    0.96461E+04         0.28145E+05         0.00000E+00
    0.28145E+05         0.14675E+05         0.00000E+00
    0.00000E+00         0.00000E+00         0.00000E+00
 
    0.84095E+04         0.28383E+05         0.00000E+00
    0.28383E+05         0.15319E+05         0.00000E+00
    0.00000E+00         0.00000E+00         0.00000E+00
 
    0.71559E+04         0.28593E+05         0.00000E+00
    0.28593E+05         0.15969E+05         0.00000E+00
    0.00000E+00         0.00000E+00         0.00000E+00
 
    0.58863E+04         0.28775E+05         0.00000E+00
    0.28775E+05         0.16623E+05         0.00000E+00
    0.00000E+00         0.00000E+00         0.00000E+00
 
    0.46015E+04         0.28930E+05         0.00000E+00
    0.28930E+05         0.17281E+05         0.00000E+00
    0.00000E+00         0.00000E+00         0.00000E+00
 
    0.33025E+04         0.29056E+05         0.00000E+00
    0.29056E+05         0.17943E+05         0.00000E+00
    0.00000E+00         0.00000E+00         0.00000E+00
 
    0.19901E+04         0.29154E+05         0.00000E+00
    0.29154E+05         0.18608E+05         0.00000E+00
    0.00000E+00         0.00000E+00         0.00000E+00
 
    0.66536E+03         0.29223E+05         0.00000E+00
    0.29223E+05         0.19275E+05         0.00000E+00
    0.00000E+00         0.00000E+00         0.00000E+00
 
    0.41154E+05         0.48795E+03         0.00000E+00
    0.48795E+03        -0.13655E+04         0.00000E+00
    0.00000E+00         0.00000E+00         0.00000E+00
 
    0.41224E+05         0.14665E+04         0.00000E+00
    0.14665E+04        -0.13430E+04         0.00000E+00
    0.00000E+00         0.00000E+00         0.00000E+00
 
    0.41251E+05         0.24448E+04         0.00000E+00
    0.24448E+04        -0.12980E+04         0.00000E+00
    0.00000E+00         0.00000E+00         0.00000E+00
 
    0.41234E+05         0.34219E+04         0.00000E+00
    0.34219E+04        -0.12305E+04         0.00000E+00
    0.00000E+00         0.00000E+00         0.00000E+00
 
    0.41175E+05         0.43968E+04         0.00000E+00
    0.43968E+04        -0.11407E+04         0.00000E+00
    0.00000E+00         0.00000E+00         0.00000E+00
 
    0.41072E+05         0.53686E+04         0.00000E+00
    0.53686E+04        -0.10287E+04         0.00000E+00
    0.00000E+00         0.00000E+00         0.00000E+00
 
    0.40927E+05         0.63365E+04         0.00000E+00
    0.63365E+04        -0.89447E+03         0.00000E+00
    0.00000E+00         0.00000E+00         0.00000E+00
 
    0.40739E+05         0.72994E+04         0.00000E+00
    0.72994E+04        -0.73828E+03         0.00000E+00
    0.00000E+00         0.00000E+00         0.00000E+00
 
    0.40509E+05         0.82566E+04         0.00000E+00
    0.82566E+04        -0.56025E+03         0.00000E+00
    0.00000E+00         0.00000E+00         0.00000E+00
 
    0.40236E+05         0.92070E+04         0.00000E+00
    0.92070E+04        -0.36053E+03         0.00000E+00
    0.00000E+00         0.00000E+00         0.00000E+00
 
    0.39922E+05         0.10150E+05         0.00000E+00
    0.10150E+05        -0.13933E+03         0.00000E+00
    0.00000E+00         0.00000E+00         0.00000E+00
 
    0.39566E+05         0.11084E+05         0.00000E+00
    0.11084E+05         0.10315E+03         0.00000E+00
    0.00000E+00         0.00000E+00         0.00000E+00
 
    0.39169E+05         0.12009E+05         0.00000E+00
    0.12009E+05         0.36669E+03         0.00000E+00
    0.00000E+00         0.00000E+00         0.00000E+00
 
    0.38731E+05         0.12924E+05         0.00000E+00
    0.12924E+05         0.65103E+03         0.00000E+00
    0.00000E+00         0.00000E+00         0.00000E+00
 
    0.38253E+05         0.13827E+05         0.00000E+00
    0.13827E+05         0.95591E+03         0.00000E+00
    0.00000E+00         0.00000E+00         0.00000E+00
 
    0.37735E+05         0.14719E+05         0.00000E+00
    0.14719E+05         0.12811E+04         0.00000E+00
    0.00000E+00         0.00000E+00         0.00000E+00
 
    0.37177E+05         0.15598E+05         0.00000E+00
    0.15598E+05         0.16262E+04         0.00000E+00
    0.00000E+00         0.00000E+00         0.00000E+00
 
    0.36580E+05         0.16463E+05         0.00000E+00
    0.16463E+05         0.19909E+04         0.00000E+00
    0.00000E+00         0.00000E+00         0.00000E+00
 
    0.35944E+05         0.17314E+05         0.00000E+00
    0.17314E+05         0.23751E+04         0.00000E+00
    0.00000E+00         0.00000E+00         0.00000E+00
 
    0.35271E+05         0.18150E+05         0.00000E+00
    0.18150E+05         0.27781E+04         0.00000E+00
    0.00000E+00         0.00000E+00         0.00000E+00
 
    0.34559E+05         0.18969E+05         0.00000E+00
    0.18969E+05         0.31998E+04         0.00000E+00
    0.00000E+00         0.00000E+00         0.00000E+00
 
    0.33811E+05         0.19772E+05         0.00000E+00
    0.19772E+05         0.36398E+04         0.00000E+00
    0.00000E+00         0.00000E+00         0.00000E+00
 
    0.33026E+05         0.20557E+05         0.00000E+00
    0.20557E+05         0.40976E+04         0.00000E+00
    0.00000E+00         0.00000E+00         0.00000E+00
 
    0.32206E+05         0.21325E+05         0.00000E+00
    0.21325E+05         0.45728E+04         0.00000E+00
    0.00000E+00         0.00000E+00         0.00000E+00
 
    0.31350E+05         0.22073E+05         0.00000E+00
    0.22073E+05         0.50651E+04         0.00000E+00
    0.00000E+00         0.00000E+00         0.00000E+00
 
    0.30460E+05         0.22801E+05         0.00000E+00
    0.22801E+05         0.55739E+04         0.00000E+00
    0.00000E+00         0.00000E+00         0.00000E+00
 
    0.29536E+05         0.23509E+05         0.00000E+00
    0.23509E+05         0.60989E+04         0.00000E+00
    0.00000E+00         0.00000E+00         0.00000E+00
 
    0.28578E+05         0.24195E+05         0.00000E+00
    0.24195E+05         0.66396E+04         0.00000E+00
    0.00000E+00         0.00000E+00         0.00000E+00
 
    0.27589E+05         0.24860E+05         0.00000E+00
    0.24860E+05         0.71954E+04         0.00000E+00
    0.00000E+00         0.00000E+00         0.00000E+00
 
    0.26567E+05         0.25502E+05         0.00000E+00
    0.25502E+05         0.77659E+04         0.00000E+00
    0.00000E+00         0.00000E+00         0.00000E+00
 
    0.25514E+05         0.26121E+05         0.00000E+00
    0.26121E+05         0.83507E+04         0.00000E+00
    0.00000E+00         0.00000E+00         0.00000E+00
 
    0.24431E+05         0.26717E+05         0.00000E+00
    0.26717E+05         0.89491E+04         0.00000E+00
    0.00000E+00         0.00000E+00         0.00000E+00
 
    0.23319E+05         0.27288E+05         0.00000E+00
    0.27288E+05         0.95607E+04         0.00000E+00
    0.00000E+00         0.00000E+00         0.00000E+00
 
    0.22178E+05         0.27834E+05         0.00000E+00
    0.27834E+05         0.10185E+05         0.00000E+00
    0.00000E+00         0.00000E+00         0.00000E+00
 
    0.21009E+05         0.28354E+05         0.00000E+00
    0.28354E+05         0.10821E+05         0.00000E+00
    0.00000E+00         0.00000E+00         0.00000E+00
 
    0.19814E+05         0.28849E+05         0.00000E+00
    0.28849E+05         0.11469E+05         0.00000E+00
    0.00000E+00         0.00000E+00         0.00000E+00
 
    0.18592E+05         0.29316E+05         0.00000E+00
    0.29316E+05         0.12127E+05         0.00000E+00
    0.00000E+00         0.00000E+00         0.00000E+00
 
    0.17344E+05         0.29757E+05         0.00000E+00
    0.29757E+05         0.12796E+05         0.00000E+00
    0.00000E+00         0.00000E+00         0.00000E+00
 
    0.16073E+05         0.30169E+05         0.00000E+00
    0.30169E+05         0.13475E+05         0.00000E+00
    0.00000E+00         0.00000E+00         0.00000E+00
 
    0.14778E+05         0.30554E+05         0.00000E+00
    0.30554E+05         0.14163E+05         0.00000E+00
    0.00000E+00         0.00000E+00         0.00000E+00
 
    0.13460E+05         0.30910E+05         0.00000E+00
    0.30910E+05         0.14859E+05         0.00000E+00
    0.00000E+00         0.00000E+00         0.00000E+00
 
    0.12121E+05         0.31236E+05         0.00000E+00
    0.31236E+05         0.15564E+05         0.00000E+00
    0.00000E+00         0.00000E+00         0.00000E+00
 
    0.10761E+05         0.31533E+05         0.00000E+00
    0.31533E+05         0.16275E+05         0.00000E+00
    0.00000E+00         0.00000E+00         0.00000E+00
 
    0.93808E+04         0.31800E+05         0.00000E+00
    0.31800E+05         0.16993E+05         0.00000E+00
    0.00000E+00         0.00000E+00         0.00000E+00
 
    0.79822E+04         0.32037E+05         0.00000E+00
    0.32037E+05         0.17717E+05         0.00000E+00
    0.00000E+00         0.00000E+00         0.00000E+00
 
    0.65658E+04         0.32243E+05         0.00000E+00
    0.32243E+05         0.18447E+05         0.00000E+00
    0.00000E+00         0.00000E+00         0.00000E+00
 
    0.51326E+04         0.32418E+05         0.00000E+00
    0.32418E+05         0.19181E+05         0.00000E+00
    0.00000E+00         0.00000E+00         0.00000E+00
 
    0.36836E+04         0.32561E+05         0.00000E+00
    0.32561E+05         0.19919E+05         0.00000E+00
    0.00000E+00         0.00000E+00         0.00000E+00
 
    0.22197E+04         0.32672E+05         0.00000E+00
    0.32672E+05         0.20660E+05         0.00000E+00
    0.00000E+00         0.00000E+00         0.00000E+00
 
    0.74212E+03         0.32752E+05         0.00000E+00
    0.32752E+05         0.21404E+05         0.00000E+00
    0.00000E+00         0.00000E+00         0.00000E+00
 
    0.46082E+05         0.54762E+03         0.00000E+00
    0.54762E+03        -0.16204E+04         0.00000E+00
    0.00000E+00         0.00000E+00         0.00000E+00
 
    0.46153E+05         0.16452E+04         0.00000E+00
    0.16452E+04        -0.15952E+04         0.00000E+00
    0.00000E+00         0.00000E+00         0.00000E+00
 
    0.46176E+05         0.27422E+04         0.00000E+00
    0.27422E+04        -0.15449E+04         0.00000E+00
    0.00000E+00         0.00000E+00         0.00000E+00
 
    0.46150E+05         0.38376E+04         0.00000E+00
    0.38376E+04        -0.14696E+04         0.00000E+00
    0.00000E+00         0.00000E+00         0.00000E+00
 
    0.46076E+05         0.49304E+04         0.00000E+00
    0.49304E+04        -0.13694E+04         0.00000E+00
    0.00000E+00         0.00000E+00         0.00000E+00
 
    0.45954E+05         0.60195E+04         0.00000E+00
    0.60195E+04        -0.12443E+04         0.00000E+00
    0.00000E+00         0.00000E+00         0.00000E+00
 
    0.45785E+05         0.71040E+04         0.00000E+00
    0.71040E+04        -0.10945E+04         0.00000E+00
    0.00000E+00         0.00000E+00         0.00000E+00
 
    0.45568E+05         0.81827E+04         0.00000E+00
    0.81827E+04        -0.92022E+03         0.00000E+00
    0.00000E+00         0.00000E+00         0.00000E+00
 
    0.45304E+05         0.92548E+04         0.00000E+00
    0.92548E+04        -0.72157E+03         0.00000E+00
    0.00000E+00         0.00000E+00         0.00000E+00
 
    0.44993E+05         0.10319E+05         0.00000E+00
    0.10319E+05        -0.49875E+03         0.00000E+00
    0.00000E+00         0.00000E+00         0.00000E+00
 
    0.44636E+05         0.11375E+05         0.00000E+00
    0.11375E+05        -0.25199E+03         0.00000E+00
    0.00000E+00         0.00000E+00         0.00000E+00
 
    0.44233E+05         0.12421E+05         0.00000E+00
    0.12421E+05         0.18470E+02         0.00000E+00
    0.00000E+00         0.00000E+00         0.00000E+00
 
    0.43783E+05         0.13456E+05         0.00000E+00
    0.13456E+05         0.31238E+03         0.00000E+00
    0.00000E+00         0.00000E+00         0.00000E+00
 
    0.43289E+05         0.14480E+05         0.00000E+00
    0.14480E+05         0.62947E+03         0.00000E+00
    0.00000E+00         0.00000E+00         0.00000E+00
 
    0.42749E+05         0.15492E+05         0.00000E+00
    0.15492E+05         0.96944E+03         0.00000E+00
    0.00000E+00         0.00000E+00         0.00000E+00
 
    0.42165E+05         0.16490E+05         0.00000E+00
    0.16490E+05         0.13320E+04         0.00000E+00
    0.00000E+00         0.00000E+00         0.00000E+00
 
    0.41537E+05         0.17473E+05         0.00000E+00
    0.17473E+05         0.17167E+04         0.00000E+00
    0.00000E+00         0.00000E+00         0.00000E+00
 
    0.40866E+05         0.18441E+05         0.00000E+00
    0.18441E+05         0.21234E+04         0.00000E+00
    0.00000E+00         0.00000E+00         0.00000E+00
 
    0.40152E+05         0.19393E+05         0.00000E+00
    0.19393E+05         0.25515E+04         0.00000E+00
    0.00000E+00         0.00000E+00         0.00000E+00
 
    0.39396E+05         0.20328E+05         0.00000E+00
    0.20328E+05         0.30008E+04         0.00000E+00
    0.00000E+00         0.00000E+00         0.00000E+00
 
    0.38597E+05         0.21245E+05         0.00000E+00
    0.21245E+05         0.34708E+04         0.00000E+00
    0.00000E+00         0.00000E+00         0.00000E+00
 
    0.37758E+05         0.22143E+05         0.00000E+00
    0.22143E+05         0.39611E+04         0.00000E+00
    0.00000E+00         0.00000E+00         0.00000E+00
 
    0.36879E+05         0.23022E+05         0.00000E+00
    0.23022E+05         0.44713E+04         0.00000E+00
    0.00000E+00         0.00000E+00         0.00000E+00
 
    0.35959E+05         0.23880E+05         0.00000E+00
    0.23880E+05         0.50009E+04         0.00000E+00
    0.00000E+00         0.00000E+00         0.00000E+00
 
    0.35001E+05         0.24716E+05         0.00000E+00
    0.24716E+05         0.55494E+04         0.00000E+00
    0.00000E+00         0.00000E+00         0.00000E+00
 
    0.34004E+05         0.25531E+05         0.00000E+00
    0.25531E+05         0.61164E+04         0.00000E+00
    0.00000E+00         0.00000E+00         0.00000E+00
 
    0.32970E+05         0.26323E+05         0.00000E+00
    0.26323E+05         0.67013E+04         0.00000E+00
    0.00000E+00         0.00000E+00         0.00000E+00
 
    0.31899E+05         0.27091E+05         0.00000E+00
    0.27091E+05         0.73036E+04         0.00000E+00
    0.00000E+00         0.00000E+00         0.00000E+00
 
    0.30792E+05         0.27834E+05         0.00000E+00
    0.27834E+05         0.79229E+04         0.00000E+00
    0.00000E+00         0.00000E+00         0.00000E+00
 
    0.29649E+05         0.28553E+05         0.00000E+00
    0.28553E+05         0.85586E+04         0.00000E+00
    0.00000E+00         0.00000E+00         0.00000E+00
 
    0.28473E+05         0.29246E+05         0.00000E+00
    0.29246E+05         0.92100E+04         0.00000E+00
    0.00000E+00         0.00000E+00         0.00000E+00
 
    0.27263E+05         0.29912E+05         0.00000E+00
    0.29912E+05         0.98767E+04         0.00000E+00
    0.00000E+00         0.00000E+00         0.00000E+00
 
    0.26020E+05         0.30551E+05         0.00000E+00
    0.30551E+05         0.10558E+05         0.00000E+00
    0.00000E+00         0.00000E+00         0.00000E+00
 
    0.24745E+05         0.31162E+05         0.00000E+00
    0.31162E+05         0.11253E+05         0.00000E+00
    0.00000E+00         0.00000E+00         0.00000E+00
 
    0.23440E+05         0.31745E+05         0.00000E+00
    0.31745E+05         0.11962E+05         0.00000E+00
    0.00000E+00         0.00000E+00         0.00000E+00
 
    0.22105E+05         0.32298E+05         0.00000E+00
    0.32298E+05         0.12684E+05         0.00000E+00
    0.00000E+00         0.00000E+00         0.00000E+00
 
    0.20740E+05         0.32822E+05         0.00000E+00
    0.32822E+05         0.13417E+05         0.00000E+00
    0.00000E+00         0.00000E+00         0.00000E+00
 
    0.19348E+05         0.33315E+05         0.00000E+00
    0.33315E+05         0.14163E+05         0.00000E+00
    0.00000E+00         0.00000E+00         0.00000E+00
 
    0.17929E+05         0.33778E+05         0.00000E+00
    0.33778E+05         0.14919E+05         0.00000E+00
    0.00000E+00         0.00000E+00         0.00000E+00
 
    0.16483E+05         0.34209E+05         0.00000E+00
    0.34209E+05         0.15685E+05         0.00000E+00
    0.00000E+00         0.00000E+00         0.00000E+00
 
    0.15013E+05         0.34608E+05         0.00000E+00
    0.34608E+05         0.16461E+05         0.00000E+00
    0.00000E+00         0.00000E+00         0.00000E+00
 
    0.13519E+05         0.34975E+05         0.00000E+00
    0.34975E+05         0.17246E+05         0.00000E+00
    0.00000E+00         0.00000E+00         0.00000E+00
 
    0.12001E+05         0.35309E+05         0.00000E+00
    0.35309E+05         0.18039E+05         0.00000E+00
    0.00000E+00         0.00000E+00         0.00000E+00
 
    0.10462E+05         0.35609E+05         0.00000E+00
    0.35609E+05         0.18839E+05         0.00000E+00
    0.00000E+00         0.00000E+00         0.00000E+00
 
    0.89020E+04         0.35876E+05         0.00000E+00
    0.35876E+05         0.19646E+05         0.00000E+00
    0.00000E+00         0.00000E+00         0.00000E+00
 
    0.73222E+04         0.36108E+05         0.00000E+00
    0.36108E+05         0.20459E+05         0.00000E+00
    0.00000E+00         0.00000E+00         0.00000E+00
 
    0.57237E+04         0.36306E+05         0.00000E+00
    0.36306E+05         0.21277E+05         0.00000E+00
    0.00000E+00         0.00000E+00         0.00000E+00
 
    0.41077E+04         0.36469E+05         0.00000E+00
    0.36469E+05         0.22100E+05         0.00000E+00
    0.00000E+00         0.00000E+00         0.00000E+00
 
    0.24753E+04         0.36596E+05         0.00000E+00
    0.36596E+05         0.22926E+05         0.00000E+00
    0.00000E+00         0.00000E+00         0.00000E+00
 
    0.82754E+03         0.36688E+05         0.00000E+00
    0.36688E+05         0.23756E+05         0.00000E+00
    0.00000E+00         0.00000E+00         0.00000E+00
 
    0.51594E+05         0.61430E+03         0.00000E+00
    0.61430E+03        -0.19217E+04         0.00000E+00
    0.00000E+00         0.00000E+00         0.00000E+00
 
    0.51664E+05         0.18447E+04         0.00000E+00
    0.18447E+04        -0.18936E+04         0.00000E+00
    0.00000E+00         0.00000E+00         0.00000E+00
 
    0.51680E+05         0.30742E+04         0.00000E+00
    0.30742E+04        -0.18375E+04         0.00000E+00
    0.00000E+00         0.00000E+00         0.00000E+00
 
    0.51643E+05         0.43016E+04         0.00000E+00
    0.43016E+04        -0.17534E+04         0.00000E+00
    0.00000E+00         0.00000E+00         0.00000E+00
 
    0.51552E+05         0.55259E+04         0.00000E+00
    0.55259E+04        -0.16415E+04         0.00000E+00
    0.00000E+00         0.00000E+00         0.00000E+00
 
    0.51408E+05         0.67458E+04         0.00000E+00
    0.67458E+04        -0.15019E+04         0.00000E+00
    0.00000E+00         0.00000E+00         0.00000E+00
 
    0.51210E+05         0.79603E+04         0.00000E+00
    0.79603E+04        -0.13349E+04         0.00000E+00
    0.00000E+00         0.00000E+00         0.00000E+00
 
    0.50960E+05         0.91682E+04         0.00000E+00
    0.91682E+04        -0.11404E+04         0.00000E+00
    0.00000E+00         0.00000E+00         0.00000E+00
 
    0.50658E+05         0.10368E+05         0.00000E+00
    0.10368E+05        -0.91883E+03         0.00000E+00
    0.00000E+00         0.00000E+00         0.00000E+00
 
    0.50303E+05         0.11560E+05         0.00000E+00
    0.11560E+05        -0.67033E+03         0.00000E+00
    0.00000E+00         0.00000E+00         0.00000E+00
 
    0.49897E+05         0.12741E+05         0.00000E+00
    0.12741E+05        -0.39516E+03         0.00000E+00
    0.00000E+00         0.00000E+00         0.00000E+00
 
    0.49439E+05         0.13912E+05         0.00000E+00
    0.13912E+05        -0.93585E+02         0.00000E+00
    0.00000E+00         0.00000E+00         0.00000E+00
 
    0.48931E+05         0.15071E+05         0.00000E+00
    0.15071E+05         0.23410E+03         0.00000E+00
    0.00000E+00         0.00000E+00         0.00000E+00
 
    0.48372E+05         0.16216E+05         0.00000E+00
    0.16216E+05         0.58758E+03         0.00000E+00
    0.00000E+00         0.00000E+00         0.00000E+00
 
    0.47764E+05         0.17347E+05         0.00000E+00
    0.17347E+05         0.96654E+03         0.00000E+00
    0.00000E+00         0.00000E+00         0.00000E+00
 
    0.47106E+05         0.18463E+05         0.00000E+00
    0.18463E+05         0.13706E+04         0.00000E+00
    0.00000E+00         0.00000E+00         0.00000E+00
 
    0.46399E+05         0.19563E+05         0.00000E+00
    0.19563E+05         0.17994E+04         0.00000E+00
    0.00000E+00         0.00000E+00         0.00000E+00
 
    0.45644E+05         0.20646E+05         0.00000E+00
    0.20646E+05         0.22526E+04         0.00000E+00
    0.00000E+00         0.00000E+00         0.00000E+00
 
    0.44842E+05         0.21710E+05         0.00000E+00
    0.21710E+05         0.27297E+04         0.00000E+00
    0.00000E+00         0.00000E+00         0.00000E+00
 
    0.43992E+05         0.22756E+05         0.00000E+00
    0.22756E+05         0.32302E+04         0.00000E+00
    0.00000E+00         0.00000E+00         0.00000E+00
 
    0.43097E+05         0.23781E+05         0.00000E+00
    0.23781E+05         0.37539E+04         0.00000E+00
    0.00000E+00         0.00000E+00         0.00000E+00
 
    0.42156E+05         0.24785E+05         0.00000E+00
    0.24785E+05         0.43001E+04         0.00000E+00
    0.00000E+00         0.00000E+00         0.00000E+00
 
    0.41170E+05         0.25767E+05         0.00000E+00
    0.25767E+05         0.48684E+04         0.00000E+00
    0.00000E+00         0.00000E+00         0.00000E+00
 
    0.40140E+05         0.26726E+05         0.00000E+00
    0.26726E+05         0.54584E+04         0.00000E+00
    0.00000E+00         0.00000E+00         0.00000E+00
 
    0.39067E+05         0.27662E+05         0.00000E+00
    0.27662E+05         0.60694E+04         0.00000E+00
    0.00000E+00         0.00000E+00         0.00000E+00
 
    0.37951E+05         0.28572E+05         0.00000E+00
    0.28572E+05         0.67009E+04         0.00000E+00
    0.00000E+00         0.00000E+00         0.00000E+00
 
    0.36794E+05         0.29457E+05         0.00000E+00
    0.29457E+05         0.73524E+04         0.00000E+00
    0.00000E+00         0.00000E+00         0.00000E+00
 
    0.35596E+05         0.30316E+05         0.00000E+00
    0.30316E+05         0.80232E+04         0.00000E+00
    0.00000E+00         0.00000E+00         0.00000E+00
 
    0.34358E+05         0.31148E+05         0.00000E+00
    0.31148E+05         0.87129E+04         0.00000E+00
    0.00000E+00         0.00000E+00         0.00000E+00
 
    0.33081E+05         0.31951E+05         0.00000E+00
    0.31951E+05         0.94208E+04         0.00000E+00
    0.00000E+00         0.00000E+00         0.00000E+00
 
    0.31766E+05         0.32726E+05         0.00000E+00
    0.32726E+05         0.10146E+05         0.00000E+00
    0.00000E+00         0.00000E+00         0.00000E+00
 
    0.30414E+05         0.33471E+05         0.00000E+00
    0.33471E+05         0.10889E+05         0.00000E+00
    0.00000E+00         0.00000E+00         0.00000E+00
 
    0.29025E+05         0.34185E+05         0.00000E+00
    0.34185E+05         0.11648E+05         0.00000E+00
    0.00000E+00         0.00000E+00         0.00000E+00
 
    0.27602E+05         0.34869E+05         0.00000E+00
    0.34869E+05         0.12422E+05         0.00000E+00
    0.00000E+00         0.00000E+00         0.00000E+00
 
    0.26144E+05         0.35521E+05         0.00000E+00
    0.35521E+05         0.13211E+05         0.00000E+00
    0.00000E+00         0.00000E+00         0.00000E+00
 
    0.24654E+05         0.36141E+05         0.00000E+00
    0.36141E+05         0.14015E+05         0.00000E+00
    0.00000E+00         0.00000E+00         0.00000E+00
 
    0.23131E+05         0.36727E+05         0.00000E+00
    0.36727E+05         0.14832E+05         0.00000E+00
    0.00000E+00         0.00000E+00         0.00000E+00
 
    0.21577E+05         0.37280E+05         0.00000E+00
    0.37280E+05         0.15662E+05         0.00000E+00
    0.00000E+00         0.00000E+00         0.00000E+00
 
    0.19993E+05         0.37798E+05         0.00000E+00
    0.37798E+05         0.16504E+05         0.00000E+00
    0.00000E+00         0.00000E+00         0.00000E+00
 
    0.18381E+05         0.38281E+05         0.00000E+00
    0.38281E+05         0.17358E+05         0.00000E+00
    0.00000E+00         0.00000E+00         0.00000E+00
 
    0.16740E+05         0.38729E+05         0.00000E+00
    0.38729E+05         0.18222E+05         0.00000E+00
    0.00000E+00         0.00000E+00         0.00000E+00
 
    0.15073E+05         0.39140E+05         0.00000E+00
    0.39140E+05         0.19096E+05         0.00000E+00
    0.00000E+00         0.00000E+00         0.00000E+00
 
    0.13381E+05         0.39515E+05         0.00000E+00
    0.39515E+05         0.19979E+05         0.00000E+00
    0.00000E+00         0.00000E+00         0.00000E+00
 
    0.11665E+05         0.39853E+05         0.00000E+00
    0.39853E+05         0.20871E+05         0.00000E+00
    0.00000E+00         0.00000E+00         0.00000E+00
 
    0.99249E+04         0.40154E+05         0.00000E+00
    0.40154E+05         0.21770E+05         0.00000E+00
    0.00000E+00         0.00000E+00         0.00000E+00
 
    0.81633E+04         0.40416E+05         0.00000E+00
    0.40416E+05         0.22676E+05         0.00000E+00
    0.00000E+00         0.00000E+00         0.00000E+00
 
    0.63811E+04         0.40640E+05         0.00000E+00
    0.40640E+05         0.23587E+05         0.00000E+00
    0.00000E+00         0.00000E+00         0.00000E+00
 
    0.45794E+04         0.40824E+05         0.00000E+00
    0.40824E+05         0.24504E+05         0.00000E+00
    0.00000E+00         0.00000E+00         0.00000E+00
 
    0.27594E+04         0.40970E+05         0.00000E+00
    0.40970E+05         0.25425E+05         0.00000E+00
    0.00000E+00         0.00000E+00         0.00000E+00
 
    0.92254E+03         0.41076E+05         0.00000E+00
    0.41076E+05         0.26350E+05         0.00000E+00
    0.00000E+00         0.00000E+00         0.00000E+00
 
    0.57754E+05         0.68878E+03         0.00000E+00
    0.68878E+03        -0.22778E+04         0.00000E+00
    0.00000E+00         0.00000E+00         0.00000E+00
 
    0.57822E+05         0.20674E+04         0.00000E+00
    0.20674E+04        -0.22464E+04         0.00000E+00
    0.00000E+00         0.00000E+00         0.00000E+00
 
    0.57830E+05         0.34447E+04         0.00000E+00
    0.34447E+04        -0.21838E+04         0.00000E+00
    0.00000E+00         0.00000E+00         0.00000E+00
 
    0.57777E+05         0.48195E+04         0.00000E+00
    0.48195E+04        -0.20900E+04         0.00000E+00
    0.00000E+00         0.00000E+00         0.00000E+00
 
    0.57666E+05         0.61904E+04         0.00000E+00
    0.61904E+04        -0.19651E+04         0.00000E+00
    0.00000E+00         0.00000E+00         0.00000E+00
 
    0.57495E+05         0.75561E+04         0.00000E+00
    0.75561E+04        -0.18095E+04         0.00000E+00
    0.00000E+00         0.00000E+00         0.00000E+00
 
    0.57265E+05         0.89156E+04         0.00000E+00
    0.89156E+04        -0.16231E+04         0.00000E+00
    0.00000E+00         0.00000E+00         0.00000E+00
 
    0.56977E+05         0.10267E+05         0.00000E+00
    0.10267E+05        -0.14063E+04         0.00000E+00
    0.00000E+00         0.00000E+00         0.00000E+00
 
    0.56630E+05         0.11610E+05         0.00000E+00
    0.11610E+05        -0.11592E+04         0.00000E+00
    0.00000E+00         0.00000E+00         0.00000E+00
 
    0.56226E+05         0.12943E+05         0.00000E+00
    0.12943E+05        -0.88219E+03         0.00000E+00
    0.00000E+00         0.00000E+00         0.00000E+00
 
    0.55764E+05         0.14265E+05         0.00000E+00
    0.14265E+05        -0.57546E+03         0.00000E+00
    0.00000E+00         0.00000E+00         0.00000E+00
 
    0.55245E+05         0.15574E+05         0.00000E+00
    0.15574E+05        -0.23933E+03         0.00000E+00
    0.00000E+00         0.00000E+00         0.00000E+00
 
    0.54670E+05         0.16870E+05         0.00000E+00
    0.16870E+05         0.12586E+03         0.00000E+00
    0.00000E+00         0.00000E+00         0.00000E+00
 
    0.54038E+05         0.18150E+05         0.00000E+00
    0.18150E+05         0.51975E+03         0.00000E+00
    0.00000E+00         0.00000E+00         0.00000E+00
 
    0.53352E+05         0.19415E+05         0.00000E+00
    0.19415E+05         0.94199E+03         0.00000E+00
    0.00000E+00         0.00000E+00         0.00000E+00
 
    0.52611E+05         0.20663E+05         0.00000E+00
    0.20663E+05         0.13922E+04         0.00000E+00
    0.00000E+00         0.00000E+00         0.00000E+00
 
    0.51815E+05         0.21892E+05         0.00000E+00
    0.21892E+05         0.18699E+04         0.00000E+00
    0.00000E+00         0.00000E+00         0.00000E+00
 
    0.50966E+05         0.23102E+05         0.00000E+00
    0.23102E+05         0.23746E+04         0.00000E+00
    0.00000E+00         0.00000E+00         0.00000E+00
 
    0.50065E+05         0.24292E+05         0.00000E+00
    0.24292E+05         0.29060E+04         0.00000E+00
    0.00000E+00         0.00000E+00         0.00000E+00
 
    0.49111E+05         0.25460E+05         0.00000E+00
    0.25460E+05         0.34636E+04         0.00000E+00
    0.00000E+00         0.00000E+00         0.00000E+00
 
    0.48107E+05         0.26606E+05         0.00000E+00
    0.26606E+05         0.40467E+04         0.00000E+00
    0.00000E+00         0.00000E+00         0.00000E+00
 
    0.47051E+05         0.27727E+05         0.00000E+00
    0.27727E+05         0.46550E+04         0.00000E+00
    0.00000E+00         0.00000E+00         0.00000E+00
 
    0.45947E+05         0.28825E+05         0.00000E+00
    0.28825E+05         0.52879E+04         0.00000E+00
    0.00000E+00         0.00000E+00         0.00000E+00
 
    0.44793E+05         0.29897E+05         0.00000E+00
    0.29897E+05         0.59447E+04         0.00000E+00
    0.00000E+00         0.00000E+00         0.00000E+00
 
    0.43592E+05         0.30942E+05         0.00000E+00
    0.30942E+05         0.66250E+04         0.00000E+00
    0.00000E+00         0.00000E+00         0.00000E+00
 
    0.42343E+05         0.31959E+05         0.00000E+00
    0.31959E+05         0.73281E+04         0.00000E+00
    0.00000E+00         0.00000E+00         0.00000E+00
 
    0.41048E+05         0.32948E+05         0.00000E+00
    0.32948E+05         0.80534E+04         0.00000E+00
    0.00000E+00         0.00000E+00         0.00000E+00
 
    0.39709E+05         0.33908E+05         0.00000E+00
    0.33908E+05         0.88003E+04         0.00000E+00
    0.00000E+00         0.00000E+00         0.00000E+00
 
    0.38325E+05         0.34837E+05         0.00000E+00
    0.34837E+05         0.95681E+04         0.00000E+00
    0.00000E+00         0.00000E+00         0.00000E+00
 
    0.36898E+05         0.35735E+05         0.00000E+00
    0.35735E+05         0.10356E+05         0.00000E+00
    0.00000E+00         0.00000E+00         0.00000E+00
 
    0.35428E+05         0.36600E+05         0.00000E+00
    0.36600E+05         0.11164E+05         0.00000E+00
    0.00000E+00         0.00000E+00         0.00000E+00
 
    0.33918E+05         0.37433E+05         0.00000E+00
    0.37433E+05         0.11990E+05         0.00000E+00
    0.00000E+00         0.00000E+00         0.00000E+00
 
    0.32368E+05         0.38232E+05         0.00000E+00
    0.38232E+05         0.12835E+05         0.00000E+00
    0.00000E+00         0.00000E+00         0.00000E+00
 
    0.30778E+05         0.38997E+05         0.00000E+00
    0.38997E+05         0.13697E+05         0.00000E+00
    0.00000E+00         0.00000E+00         0.00000E+00
 
    0.29151E+05         0.39726E+05         0.00000E+00
    0.39726E+05         0.14576E+05         0.00000E+00
    0.00000E+00         0.00000E+00         0.00000E+00
 
    0.27488E+05         0.40419E+05         0.00000E+00
    0.40419E+05         0.15470E+05         0.00000E+00
    0.00000E+00         0.00000E+00         0.00000E+00
 
    0.25788E+05         0.41075E+05         0.00000E+00
    0.41075E+05         0.16380E+05         0.00000E+00
    0.00000E+00         0.00000E+00         0.00000E+00
 
    0.24055E+05         0.41694E+05         0.00000E+00
    0.41694E+05         0.17304E+05         0.00000E+00
    0.00000E+00         0.00000E+00         0.00000E+00
 
    0.22288E+05         0.42274E+05         0.00000E+00
    0.42274E+05         0.18242E+05         0.00000E+00
    0.00000E+00         0.00000E+00         0.00000E+00
 
    0.20489E+05         0.42816E+05         0.00000E+00
    0.42816E+05         0.19192E+05         0.00000E+00
    0.00000E+00         0.00000E+00         0.00000E+00
 
    0.18660E+05         0.43318E+05         0.00000E+00
    0.43318E+05         0.20154E+05         0.00000E+00
    0.00000E+00         0.00000E+00         0.00000E+00
 
    0.16801E+05         0.43780E+05         0.00000E+00
    0.43780E+05         0.21127E+05         0.00000E+00
    0.00000E+00         0.00000E+00         0.00000E+00
 
    0.14915E+05         0.44201E+05         0.00000E+00
    0.44201E+05         0.22111E+05         0.00000E+00
    0.00000E+00         0.00000E+00         0.00000E+00
 
    0.13001E+05         0.44581E+05         0.00000E+00
    0.44581E+05         0.23104E+05         0.00000E+00
    0.00000E+00         0.00000E+00         0.00000E+00
 
    0.11061E+05         0.44919E+05         0.00000E+00
    0.44919E+05         0.24105E+05         0.00000E+00
    0.00000E+00         0.00000E+00         0.00000E+00
 
    0.90979E+04         0.45215E+05         0.00000E+00
    0.45215E+05         0.25114E+05         0.00000E+00
    0.00000E+00         0.00000E+00         0.00000E+00
 
    0.71114E+04         0.45468E+05         0.00000E+00
    0.45468E+05         0.26129E+05         0.00000E+00
    0.00000E+00         0.00000E+00         0.00000E+00
 
    0.51034E+04         0.45678E+05         0.00000E+00
    0.45678E+05         0.27150E+05         0.00000E+00
    0.00000E+00         0.00000E+00         0.00000E+00
 
    0.30752E+04         0.45844E+05         0.00000E+00
    0.45844E+05         0.28177E+05         0.00000E+00
    0.00000E+00         0.00000E+00         0.00000E+00
 
    0.10281E+04         0.45966E+05         0.00000E+00
    0.45966E+05         0.29207E+05         0.00000E+00
    0.00000E+00         0.00000E+00         0.00000E+00
 
    0.64634E+05         0.77195E+03         0.00000E+00
    0.77195E+03        -0.26983E+04         0.00000E+00
    0.00000E+00         0.00000E+00         0.00000E+00
 
    0.64697E+05         0.23160E+04         0.00000E+00
    0.23160E+04        -0.26633E+04         0.00000E+00
    0.00000E+00         0.00000E+00         0.00000E+00
 
    0.64694E+05         0.38582E+04         0.00000E+00
    0.38582E+04        -0.25934E+04         0.00000E+00
    0.00000E+00         0.00000E+00         0.00000E+00
 
    0.64624E+05         0.53971E+04         0.00000E+00
    0.53971E+04        -0.24888E+04         0.00000E+00
    0.00000E+00         0.00000E+00         0.00000E+00
 
    0.64488E+05         0.69315E+04         0.00000E+00
    0.69315E+04        -0.23496E+04         0.00000E+00
    0.00000E+00         0.00000E+00         0.00000E+00
 
    0.64286E+05         0.84597E+04         0.00000E+00
    0.84597E+04        -0.21760E+04         0.00000E+00
    0.00000E+00         0.00000E+00         0.00000E+00
 
    0.64018E+05         0.99806E+04         0.00000E+00
    0.99806E+04        -0.19683E+04         0.00000E+00
    0.00000E+00         0.00000E+00         0.00000E+00
 
    0.63686E+05         0.11493E+05         0.00000E+00
    0.11493E+05        -0.17266E+04         0.00000E+00
    0.00000E+00         0.00000E+00         0.00000E+00
 
    0.63288E+05         0.12995E+05         0.00000E+00
    0.12995E+05        -0.14513E+04         0.00000E+00
    0.00000E+00         0.00000E+00         0.00000E+00
 
    0.62827E+05         0.14485E+05         0.00000E+00
    0.14485E+05        -0.11426E+04         0.00000E+00
    0.00000E+00         0.00000E+00         0.00000E+00
 
    0.62302E+05         0.15962E+05         0.00000E+00
    0.15962E+05        -0.80080E+03         0.00000E+00
    0.00000E+00         0.00000E+00         0.00000E+00
 
    0.61713E+05         0.17426E+05         0.00000E+00
    0.17426E+05        -0.42634E+03         0.00000E+00
    0.00000E+00         0.00000E+00         0.00000E+00
 
    0.61062E+05         0.18874E+05         0.00000E+00
    0.18874E+05        -0.19548E+02         0.00000E+00
    0.00000E+00         0.00000E+00         0.00000E+00
 
    0.60349E+05         0.20305E+05         0.00000E+00
    0.20305E+05         0.41918E+03         0.00000E+00
    0.00000E+00         0.00000E+00         0.00000E+00
 
    0.59575E+05         0.21718E+05         0.00000E+00
    0.21718E+05         0.88942E+03         0.00000E+00
    0.00000E+00         0.00000E+00         0.00000E+00
 
    0.58740E+05         0.23112E+05         0.00000E+00
    0.23112E+05         0.13907E+04         0.00000E+00
    0.00000E+00         0.00000E+00         0.00000E+00
 
    0.57845E+05         0.24486E+05         0.00000E+00
    0.24486E+05         0.19226E+04         0.00000E+00
    0.00000E+00         0.00000E+00         0.00000E+00
 
    0.56890E+05         0.25837E+05         0.00000E+00
    0.25837E+05         0.24846E+04         0.00000E+00
    0.00000E+00         0.00000E+00         0.00000E+00
 
    0.55878E+05         0.27166E+05         0.00000E+00
    0.27166E+05         0.30762E+04         0.00000E+00
    0.00000E+00         0.00000E+00         0.00000E+00
 
    0.54807E+05         0.28471E+05         0.00000E+00
    0.28471E+05         0.36969E+04         0.00000E+00
    0.00000E+00         0.00000E+00         0.00000E+00
 
    0.53680E+05         0.29750E+05         0.00000E+00
    0.29750E+05         0.43460E+04         0.00000E+00
    0.00000E+00         0.00000E+00         0.00000E+00
 
    0.52498E+05         0.31003E+05         0.00000E+00
    0.31003E+05         0.50231E+04         0.00000E+00
    0.00000E+00         0.00000E+00         0.00000E+00
 
    0.51260E+05         0.32229E+05         0.00000E+00
    0.32229E+05         0.57274E+04         0.00000E+00
    0.00000E+00         0.00000E+00         0.00000E+00
 
    0.49968E+05         0.33426E+05         0.00000E+00
    0.33426E+05         0.64585E+04         0.00000E+00
    0.00000E+00         0.00000E+00         0.00000E+00
 
    0.48623E+05         0.34593E+05         0.00000E+00
    0.34593E+05         0.72155E+04         0.00000E+00
    0.00000E+00         0.00000E+00         0.00000E+00
 
    0.47226E+05         0.35729E+05         0.00000E+00
    0.35729E+05         0.79980E+04         0.00000E+00
    0.00000E+00         0.00000E+00         0.00000E+00
 
    0.45778E+05         0.36833E+05         0.00000E+00
    0.36833E+05         0.88051E+04         0.00000E+00
    0.00000E+00         0.00000E+00         0.00000E+00
 
    0.44281E+05         0.37905E+05         0.00000E+00
    0.37905E+05         0.96362E+04         0.00000E+00
    0.00000E+00         0.00000E+00         0.00000E+00
 
    0.42734E+05         0.38943E+05         0.00000E+00
    0.38943E+05         0.10491E+05         0.00000E+00
    0.00000E+00         0.00000E+00         0.00000E+00
 
    0.41139E+05         0.39946E+05         0.00000E+00
    0.39946E+05         0.11367E+05         0.00000E+00
    0.00000E+00         0.00000E+00         0.00000E+00
 
    0.39498E+05         0.40913E+05         0.00000E+00
    0.40913E+05         0.12266E+05         0.00000E+00
    0.00000E+00         0.00000E+00         0.00000E+00
 
    0.37812E+05         0.41843E+05         0.00000E+00
    0.41843E+05         0.13186E+05         0.00000E+00
    0.00000E+00         0.00000E+00         0.00000E+00
 
    0.36081E+05         0.42736E+05         0.00000E+00
    0.42736E+05         0.14125E+05         0.00000E+00
    0.00000E+00         0.00000E+00         0.00000E+00
 
    0.34307E+05         0.43590E+05         0.00000E+00
    0.43590E+05         0.15085E+05         0.00000E+00
    0.00000E+00         0.00000E+00         0.00000E+00
 
    0.32492E+05         0.44406E+05         0.00000E+00
    0.44406E+05         0.16062E+05         0.00000E+00
    0.00000E+00         0.00000E+00         0.00000E+00
 
    0.30636E+05         0.45180E+05         0.00000E+00
    0.45180E+05         0.17058E+05         0.00000E+00
    0.00000E+00         0.00000E+00         0.00000E+00
 
    0.28740E+05         0.45914E+05         0.00000E+00
    0.45914E+05         0.18070E+05         0.00000E+00
    0.00000E+00         0.00000E+00         0.00000E+00
 
    0.26807E+05         0.46607E+05         0.00000E+00
    0.46607E+05         0.19098E+05         0.00000E+00
    0.00000E+00         0.00000E+00         0.00000E+00
 
    0.24837E+05         0.47256E+05         0.00000E+00
    0.47256E+05         0.20142E+05         0.00000E+00
    0.00000E+00         0.00000E+00         0.00000E+00
 
    0.22831E+05         0.47863E+05         0.00000E+00
    0.47863E+05         0.21199E+05         0.00000E+00
    0.00000E+00         0.00000E+00         0.00000E+00
 
    0.20792E+05         0.48426E+05         0.00000E+00
    0.48426E+05         0.22270E+05         0.00000E+00
    0.00000E+00         0.00000E+00         0.00000E+00
 
    0.18720E+05         0.48944E+05         0.00000E+00
    0.48944E+05         0.23353E+05         0.00000E+00
    0.00000E+00         0.00000E+00         0.00000E+00
 
    0.16617E+05         0.49417E+05         0.00000E+00
    0.49417E+05         0.24448E+05         0.00000E+00
    0.00000E+00         0.00000E+00         0.00000E+00
 
    0.14484E+05         0.49844E+05         0.00000E+00
    0.49844E+05         0.25553E+05         0.00000E+00
    0.00000E+00         0.00000E+00         0.00000E+00
 
    0.12323E+05         0.50225E+05         0.00000E+00
    0.50225E+05         0.26667E+05         0.00000E+00
    0.00000E+00         0.00000E+00         0.00000E+00
 
    0.10136E+05         0.50558E+05         0.00000E+00
    0.50558E+05         0.27790E+05         0.00000E+00
    0.00000E+00         0.00000E+00         0.00000E+00
 
    0.79223E+04         0.50845E+05         0.00000E+00
    0.50845E+05         0.28921E+05         0.00000E+00
    0.00000E+00         0.00000E+00         0.00000E+00
 
    0.56852E+04         0.51083E+05         0.00000E+00
    0.51083E+05         0.30058E+05         0.00000E+00
    0.00000E+00         0.00000E+00         0.00000E+00
 
    0.34256E+04         0.51273E+05         0.00000E+00
    0.51273E+05         0.31201E+05         0.00000E+00
    0.00000E+00         0.00000E+00         0.00000E+00
 
    0.11452E+04         0.51414E+05         0.00000E+00
    0.51414E+05         0.32349E+05         0.00000E+00
    0.00000E+00         0.00000E+00         0.00000E+00
 
    0.72313E+05         0.86477E+03         0.00000E+00
    0.86477E+03        -0.31946E+04         0.00000E+00
    0.00000E+00         0.00000E+00         0.00000E+00
 
    0.72369E+05         0.25932E+04         0.00000E+00
    0.25932E+04        -0.31555E+04         0.00000E+00
    0.00000E+00         0.00000E+00         0.00000E+00
 
    0.72352E+05         0.43192E+04         0.00000E+00
    0.43192E+04        -0.30776E+04         0.00000E+00
    0.00000E+00         0.00000E+00         0.00000E+00
 
    0.72260E+05         0.60412E+04         0.00000E+00
    0.60412E+04        -0.29610E+04         0.00000E+00
    0.00000E+00         0.00000E+00         0.00000E+00
 
    0.72094E+05         0.77576E+04         0.00000E+00
    0.77576E+04        -0.28058E+04         0.00000E+00
    0.00000E+00         0.00000E+00         0.00000E+00
 
    0.71856E+05         0.94668E+04         0.00000E+00
    0.94668E+04        -0.26124E+04         0.00000E+00
    0.00000E+00         0.00000E+00         0.00000E+00
 
    0.71545E+05         0.11167E+05         0.00000E+00
    0.11167E+05        -0.23809E+04         0.00000E+00
    0.00000E+00         0.00000E+00         0.00000E+00
 
    0.71161E+05         0.12858E+05         0.00000E+00
    0.12858E+05        -0.21117E+04         0.00000E+00
    0.00000E+00         0.00000E+00         0.00000E+00
 
    0.70706E+05         0.14537E+05         0.00000E+00
    0.14537E+05        -0.18050E+04         0.00000E+00
    0.00000E+00         0.00000E+00         0.00000E+00
 
    0.70179E+05         0.16202E+05         0.00000E+00
    0.16202E+05        -0.14612E+04         0.00000E+00
    0.00000E+00         0.00000E+00         0.00000E+00
 
    0.69582E+05         0.17853E+05         0.00000E+00
    0.17853E+05        -0.10806E+04         0.00000E+00
    0.00000E+00         0.00000E+00         0.00000E+00
 
    0.68915E+05         0.19488E+05         0.00000E+00
    0.19488E+05        -0.66366E+03         0.00000E+00
    0.00000E+00         0.00000E+00         0.00000E+00
 
    0.68178E+05         0.21106E+05         0.00000E+00
    0.21106E+05        -0.21076E+03         0.00000E+00
    0.00000E+00         0.00000E+00         0.00000E+00
 
    0.67373E+05         0.22704E+05         0.00000E+00
    0.22704E+05         0.27764E+03         0.00000E+00
    0.00000E+00         0.00000E+00         0.00000E+00
 
    0.66499E+05         0.24283E+05         0.00000E+00
    0.24283E+05         0.80107E+03         0.00000E+00
    0.00000E+00         0.00000E+00         0.00000E+00
 
    0.65559E+05         0.25839E+05         0.00000E+00
    0.25839E+05         0.13590E+04         0.00000E+00
    0.00000E+00         0.00000E+00         0.00000E+00
 
    0.64552E+05         0.27373E+05         0.00000E+00
    0.27373E+05         0.19510E+04         0.00000E+00
    0.00000E+00         0.00000E+00         0.00000E+00
 
    0.63479E+05         0.28882E+05         0.00000E+00
    0.28882E+05         0.25764E+04         0.00000E+00
    0.00000E+00         0.00000E+00         0.00000E+00
 
    0.62342E+05         0.30365E+05         0.00000E+00
    0.30365E+05         0.32347E+04         0.00000E+00
    0.00000E+00         0.00000E+00         0.00000E+00
 
    0.61141E+05         0.31822E+05         0.00000E+00
    0.31822E+05         0.39252E+04         0.00000E+00
    0.00000E+00         0.00000E+00         0.00000E+00
 
    0.59877E+05         0.33250E+05         0.00000E+00
    0.33250E+05         0.46474E+04         0.00000E+00
    0.00000E+00         0.00000E+00         0.00000E+00
 
    0.58551E+05         0.34648E+05         0.00000E+00
    0.34648E+05         0.54006E+04         0.00000E+00
    0.00000E+00         0.00000E+00         0.00000E+00
 
    0.57165E+05         0.36016E+05         0.00000E+00
    0.36016E+05         0.61841E+04         0.00000E+00
    0.00000E+00         0.00000E+00         0.00000E+00
 
    0.55719E+05         0.37352E+05         0.00000E+00
    0.37352E+05         0.69973E+04         0.00000E+00
    0.00000E+00         0.00000E+00         0.00000E+00
 
    0.54214E+05         0.38655E+05         0.00000E+00
    0.38655E+05         0.78394E+04         0.00000E+00
    0.00000E+00         0.00000E+00         0.00000E+00
 
    0.52651E+05         0.39923E+05         0.00000E+00
    0.39923E+05         0.87096E+04         0.00000E+00
    0.00000E+00         0.00000E+00         0.00000E+00
 
    0.51033E+05         0.41156E+05         0.00000E+00
    0.41156E+05         0.96073E+04         0.00000E+00
    0.00000E+00         0.00000E+00         0.00000E+00
 
    0.49359E+05         0.42352E+05         0.00000E+00
    0.42352E+05         0.10532E+05         0.00000E+00
    0.00000E+00         0.00000E+00         0.00000E+00
 
    0.47631E+05         0.43510E+05         0.00000E+00
    0.43510E+05         0.11482E+05         0.00000E+00
    0.00000E+00         0.00000E+00         0.00000E+00
 
    0.45850E+05         0.44630E+05         0.00000E+00
    0.44630E+05         0.12457E+05         0.00000E+00
    0.00000E+00         0.00000E+00         0.00000E+00
 
    0.44018E+05         0.45710E+05         0.00000E+00
    0.45710E+05         0.13456E+05         0.00000E+00
    0.00000E+00         0.00000E+00         0.00000E+00
 
    0.42135E+05         0.46749E+05         0.00000E+00
    0.46749E+05         0.14479E+05         0.00000E+00
    0.00000E+00         0.00000E+00         0.00000E+00
 
    0.40204E+05         0.47746E+05         0.00000E+00
    0.47746E+05         0.15524E+05         0.00000E+00
    0.00000E+00         0.00000E+00         0.00000E+00
 
    0.38225E+05         0.48700E+05         0.00000E+00
    0.48700E+05         0.16591E+05         0.00000E+00
    0.00000E+00         0.00000E+00         0.00000E+00
 
    0.36199E+05         0.49611E+05         0.00000E+00
    0.49611E+05         0.17678E+05         0.00000E+00
    0.00000E+00         0.00000E+00         0.00000E+00
 
    0.34129E+05         0.50477E+05         0.00000E+00
    0.50477E+05         0.18785E+05         0.00000E+00
    0.00000E+00         0.00000E+00         0.00000E+00
 
    0.32016E+05         0.51298E+05         0.00000E+00
    0.51298E+05         0.19911E+05         0.00000E+00
    0.00000E+00         0.00000E+00         0.00000E+00
 
    0.29860E+05         0.52072E+05         0.00000E+00
    0.52072E+05         0.21054E+05         0.00000E+00
    0.00000E+00         0.00000E+00         0.00000E+00
 
    0.27665E+05         0.52800E+05         0.00000E+00
    0.52800E+05         0.22215E+05         0.00000E+00
    0.00000E+00         0.00000E+00         0.00000E+00
 
    0.25430E+05         0.53479E+05         0.00000E+00
    0.53479E+05         0.23391E+05         0.00000E+00
    0.00000E+00         0.00000E+00         0.00000E+00
 
    0.23157E+05         0.54109E+05         0.00000E+00
    0.54109E+05         0.24582E+05         0.00000E+00
    0.00000E+00         0.00000E+00         0.00000E+00
 
    0.20849E+05         0.54690E+05         0.00000E+00
    0.54690E+05         0.25787E+05         0.00000E+00
    0.00000E+00         0.00000E+00         0.00000E+00
 
    0.18506E+05         0.55221E+05         0.00000E+00
    0.55221E+05         0.27005E+05         0.00000E+00
    0.00000E+00         0.00000E+00         0.00000E+00
 
    0.16130E+05         0.55701E+05         0.00000E+00
    0.55701E+05         0.28234E+05         0.00000E+00
    0.00000E+00         0.00000E+00         0.00000E+00
 
    0.13723E+05         0.56130E+05         0.00000E+00
    0.56130E+05         0.29475E+05         0.00000E+00
    0.00000E+00         0.00000E+00         0.00000E+00
 
    0.11287E+05         0.56507E+05         0.00000E+00
    0.56507E+05         0.30724E+05         0.00000E+00
    0.00000E+00         0.00000E+00         0.00000E+00
 
    0.88217E+04         0.56830E+05         0.00000E+00
    0.56830E+05         0.31983E+05         0.00000E+00
    0.00000E+00         0.00000E+00         0.00000E+00
 
    0.63304E+04         0.57101E+05         0.00000E+00
    0.57101E+05         0.33248E+05         0.00000E+00
    0.00000E+00         0.00000E+00         0.00000E+00
 
    0.38144E+04         0.57318E+05         0.00000E+00
    0.57318E+05         0.34520E+05         0.00000E+00
    0.00000E+00         0.00000E+00         0.00000E+00
 
    0.12752E+04         0.57481E+05         0.00000E+00
    0.57481E+05         0.35798E+05         0.00000E+00
    0.00000E+00         0.00000E+00         0.00000E+00
 
    0.80879E+05         0.96832E+03         0.00000E+00
    0.96832E+03        -0.37799E+04         0.00000E+00
    0.00000E+00         0.00000E+00         0.00000E+00
 
    0.80925E+05         0.29023E+04         0.00000E+00
    0.29023E+04        -0.37363E+04         0.00000E+00
    0.00000E+00         0.00000E+00         0.00000E+00
 
    0.80889E+05         0.48331E+04         0.00000E+00
    0.48331E+04        -0.36495E+04         0.00000E+00
    0.00000E+00         0.00000E+00         0.00000E+00
 
    0.80770E+05         0.67589E+04         0.00000E+00
    0.67589E+04        -0.35196E+04         0.00000E+00
    0.00000E+00         0.00000E+00         0.00000E+00
 
    0.80570E+05         0.86780E+04         0.00000E+00
    0.86780E+04        -0.33468E+04         0.00000E+00
    0.00000E+00         0.00000E+00         0.00000E+00
 
    0.80289E+05         0.10589E+05         0.00000E+00
    0.10589E+05        -0.31313E+04         0.00000E+00
    0.00000E+00         0.00000E+00         0.00000E+00
 
    0.79927E+05         0.12489E+05         0.00000E+00
    0.12489E+05        -0.28736E+04         0.00000E+00
    0.00000E+00         0.00000E+00         0.00000E+00
 
    0.79485E+05         0.14378E+05         0.00000E+00
    0.14378E+05        -0.25738E+04         0.00000E+00
    0.00000E+00         0.00000E+00         0.00000E+00
 
    0.78963E+05         0.16254E+05         0.00000E+00
    0.16254E+05        -0.22324E+04         0.00000E+00
    0.00000E+00         0.00000E+00         0.00000E+00
 
    0.78363E+05         0.18114E+05         0.00000E+00
    0.18114E+05        -0.18497E+04         0.00000E+00
    0.00000E+00         0.00000E+00         0.00000E+00
 
    0.77684E+05         0.19958E+05         0.00000E+00
    0.19958E+05        -0.14261E+04         0.00000E+00
    0.00000E+00         0.00000E+00         0.00000E+00
 
    0.76927E+05         0.21784E+05         0.00000E+00
    0.21784E+05        -0.96208E+03         0.00000E+00
    0.00000E+00         0.00000E+00         0.00000E+00
 
    0.76093E+05         0.23590E+05         0.00000E+00
    0.23590E+05        -0.45814E+03         0.00000E+00
    0.00000E+00         0.00000E+00         0.00000E+00
 
    0.75184E+05         0.25375E+05         0.00000E+00
    0.25375E+05         0.85250E+02         0.00000E+00
    0.00000E+00         0.00000E+00         0.00000E+00
 
    0.74199E+05         0.27136E+05         0.00000E+00
    0.27136E+05         0.66754E+03         0.00000E+00
    0.00000E+00         0.00000E+00         0.00000E+00
 
    0.73139E+05         0.28873E+05         0.00000E+00
    0.28873E+05         0.12882E+04         0.00000E+00
    0.00000E+00         0.00000E+00         0.00000E+00
 
    0.72006E+05         0.30585E+05         0.00000E+00
    0.30585E+05         0.19466E+04         0.00000E+00
    0.00000E+00         0.00000E+00         0.00000E+00
 
    0.70801E+05         0.32269E+05         0.00000E+00
    0.32269E+05         0.26421E+04         0.00000E+00
    0.00000E+00         0.00000E+00         0.00000E+00
 
    0.69524E+05         0.33924E+05         0.00000E+00
    0.33924E+05         0.33742E+04         0.00000E+00
    0.00000E+00         0.00000E+00         0.00000E+00
 
    0.68177E+05         0.35549E+05         0.00000E+00
    0.35549E+05         0.41421E+04         0.00000E+00
    0.00000E+00         0.00000E+00         0.00000E+00
 
    0.66760E+05         0.37142E+05         0.00000E+00
    0.37142E+05         0.49451E+04         0.00000E+00
    0.00000E+00         0.00000E+00         0.00000E+00
 
    0.65275E+05         0.38702E+05         0.00000E+00
    0.38702E+05         0.57825E+04         0.00000E+00
    0.00000E+00         0.00000E+00         0.00000E+00
 
    0.63722E+05         0.40228E+05         0.00000E+00
    0.40228E+05         0.66536E+04         0.00000E+00
    0.00000E+00         0.00000E+00         0.00000E+00
 
    0.62104E+05         0.41718E+05         0.00000E+00
    0.41718E+05         0.75576E+04         0.00000E+00
    0.00000E+00         0.00000E+00         0.00000E+00
 
    0.60420E+05         0.43171E+05         0.00000E+00
    0.43171E+05         0.84936E+04         0.00000E+00
    0.00000E+00         0.00000E+00         0.00000E+00
 
    0.58674E+05         0.44586E+05         0.00000E+00
    0.44586E+05         0.94610E+04         0.00000E+00
    0.00000E+00         0.00000E+00         0.00000E+00
 
    0.56864E+05         0.45961E+05         0.00000E+00
    0.45961E+05         0.10459E+05         0.00000E+00
    0.00000E+00         0.00000E+00         0.00000E+00
 
    0.54994E+05         0.47296E+05         0.00000E+00
    0.47296E+05         0.11486E+05         0.00000E+00
    0.00000E+00         0.00000E+00         0.00000E+00
 
    0.53064E+05         0.48588E+05         0.00000E+00
    0.48588E+05         0.12542E+05         0.00000E+00
    0.00000E+00         0.00000E+00         0.00000E+00
 
    0.51076E+05         0.49838E+05         0.00000E+00
    0.49838E+05         0.13626E+05         0.00000E+00
    0.00000E+00         0.00000E+00         0.00000E+00
 
    0.49031E+05         0.51043E+05         0.00000E+00
    0.51043E+05         0.14737E+05         0.00000E+00
    0.00000E+00         0.00000E+00         0.00000E+00
 
    0.46931E+05         0.52203E+05         0.00000E+00
    0.52203E+05         0.15874E+05         0.00000E+00
    0.00000E+00         0.00000E+00         0.00000E+00
 
    0.44776E+05         0.53316E+05         0.00000E+00
    0.53316E+05         0.17035E+05         0.00000E+00
    0.00000E+00         0.00000E+00         0.00000E+00
 
    0.42569E+05         0.54382E+05         0.00000E+00
    0.54382E+05         0.18221E+05         0.00000E+00
    0.00000E+00         0.00000E+00         0.00000E+00
 
    0.40311E+05         0.55399E+05         0.00000E+00
    0.55399E+05         0.19429E+05         0.00000E+00
    0.00000E+00         0.00000E+00         0.00000E+00
 
    0.38004E+05         0.56367E+05         0.00000E+00
    0.56367E+05         0.20660E+05         0.00000E+00
    0.00000E+00         0.00000E+00         0.00000E+00
 
    0.35648E+05         0.57284E+05         0.00000E+00
    0.57284E+05         0.21911E+05         0.00000E+00
    0.00000E+00         0.00000E+00         0.00000E+00
 
    0.33246E+05         0.58150E+05         0.00000E+00
    0.58150E+05         0.23182E+05         0.00000E+00
    0.00000E+00         0.00000E+00         0.00000E+00
 
    0.30800E+05         0.58963E+05         0.00000E+00
    0.58963E+05         0.24472E+05         0.00000E+00
    0.00000E+00         0.00000E+00         0.00000E+00
 
    0.28310E+05         0.59723E+05         0.00000E+00
    0.59723E+05         0.25780E+05         0.00000E+00
    0.00000E+00         0.00000E+00         0.00000E+00
 
    0.25779E+05         0.60430E+05         0.00000E+00
    0.60430E+05         0.27104E+05         0.00000E+00
    0.00000E+00         0.00000E+00         0.00000E+00
 
    0.23208E+05         0.61081E+05         0.00000E+00
    0.61081E+05         0.28444E+05         0.00000E+00
    0.00000E+00         0.00000E+00         0.00000E+00
 
    0.20600E+05         0.61677E+05         0.00000E+00
    0.61677E+05         0.29798E+05         0.00000E+00
    0.00000E+00         0.00000E+00         0.00000E+00
 
    0.17954E+05         0.62217E+05         0.00000E+00
    0.62217E+05         0.31165E+05         0.00000E+00
    0.00000E+00         0.00000E+00         0.00000E+00
 
    0.15275E+05         0.62699E+05         0.00000E+00
    0.62699E+05         0.32544E+05         0.00000E+00
    0.00000E+00         0.00000E+00         0.00000E+00
 
    0.12562E+05         0.63124E+05         0.00000E+00
    0.63124E+05         0.33934E+05         0.00000E+00
    0.00000E+00         0.00000E+00         0.00000E+00
 
    0.98184E+04         0.63490E+05         0.00000E+00
    0.63490E+05         0.35333E+05         0.00000E+00
    0.00000E+00         0.00000E+00         0.00000E+00
 
    0.70455E+04         0.63798E+05         0.00000E+00
    0.63798E+05         0.36742E+05         0.00000E+00
    0.00000E+00         0.00000E+00         0.00000E+00
 
    0.42452E+04         0.64046E+05         0.00000E+00
    0.64046E+05         0.38157E+05         0.00000E+00
    0.00000E+00         0.00000E+00         0.00000E+00
 
    0.14192E+04         0.64234E+05         0.00000E+00
    0.64234E+05         0.39578E+05         0.00000E+00
    0.00000E+00         0.00000E+00         0.00000E+00
 
    0.90427E+05         0.10838E+04         0.00000E+00
    0.10838E+04        -0.44697E+04         0.00000E+00
    0.00000E+00         0.00000E+00         0.00000E+00
 
    0.90459E+05         0.32468E+04         0.00000E+00
    0.32468E+04        -0.44212E+04         0.00000E+00
    0.00000E+00         0.00000E+00         0.00000E+00
 
    0.90400E+05         0.54056E+04         0.00000E+00
    0.54056E+04        -0.43245E+04         0.00000E+00
    0.00000E+00         0.00000E+00         0.00000E+00
 
    0.90249E+05         0.75582E+04         0.00000E+00
    0.75582E+04        -0.41798E+04         0.00000E+00
    0.00000E+00         0.00000E+00         0.00000E+00
 
    0.90008E+05         0.97030E+04         0.00000E+00
    0.97030E+04        -0.39875E+04         0.00000E+00
    0.00000E+00         0.00000E+00         0.00000E+00
 
    0.89677E+05         0.11838E+05         0.00000E+00
    0.11838E+05        -0.37477E+04         0.00000E+00
    0.00000E+00         0.00000E+00         0.00000E+00
 
    0.89257E+05         0.13961E+05         0.00000E+00
    0.13961E+05        -0.34608E+04         0.00000E+00
    0.00000E+00         0.00000E+00         0.00000E+00
 
    0.88747E+05         0.16071E+05         0.00000E+00
    0.16071E+05        -0.31272E+04         0.00000E+00
    0.00000E+00         0.00000E+00         0.00000E+00
 
    0.88149E+05         0.18165E+05         0.00000E+00
    0.18165E+05        -0.27474E+04         0.00000E+00
    0.00000E+00         0.00000E+00         0.00000E+00
 
    0.87464E+05         0.20242E+05         0.00000E+00
    0.20242E+05        -0.23216E+04         0.00000E+00
    0.00000E+00         0.00000E+00         0.00000E+00
 
    0.86692E+05         0.22300E+05         0.00000E+00
    0.22300E+05        -0.18505E+04         0.00000E+00
    0.00000E+00         0.00000E+00         0.00000E+00
 
    0.85834E+05         0.24338E+05         0.00000E+00
    0.24338E+05        -0.13344E+04         0.00000E+00
    0.00000E+00         0.00000E+00         0.00000E+00
 
    0.84891E+05         0.26353E+05         0.00000E+00
    0.26353E+05        -0.77404E+03         0.00000E+00
    0.00000E+00         0.00000E+00         0.00000E+00
 
    0.83864E+05         0.28344E+05         0.00000E+00
    0.28344E+05        -0.16986E+03         0.00000E+00
    0.00000E+00         0.00000E+00         0.00000E+00
 
    0.82753E+05         0.30309E+05         0.00000E+00
    0.30309E+05         0.47752E+03         0.00000E+00
    0.00000E+00         0.00000E+00         0.00000E+00
 
    0.81560E+05         0.32247E+05         0.00000E+00
    0.32247E+05         0.11675E+04         0.00000E+00
    0.00000E+00         0.00000E+00         0.00000E+00
 
    0.80286E+05         0.34156E+05         0.00000E+00
    0.34156E+05         0.18993E+04         0.00000E+00
    0.00000E+00         0.00000E+00         0.00000E+00
 
    0.78932E+05         0.36034E+05         0.00000E+00
    0.36034E+05         0.26724E+04         0.00000E+00
    0.00000E+00         0.00000E+00         0.00000E+00
 
    0.77499E+05         0.37880E+05         0.00000E+00
    0.37880E+05         0.34860E+04         0.00000E+00
    0.00000E+00         0.00000E+00         0.00000E+00
 
    0.75987E+05         0.39692E+05         0.00000E+00
    0.39692E+05         0.43393E+04         0.00000E+00
    0.00000E+00         0.00000E+00         0.00000E+00
 
    0.74399E+05         0.41468E+05         0.00000E+00
    0.41468E+05         0.52316E+04         0.00000E+00
    0.00000E+00         0.00000E+00         0.00000E+00
 
    0.72736E+05         0.43208E+05         0.00000E+00
    0.43208E+05         0.61621E+04         0.00000E+00
    0.00000E+00         0.00000E+00         0.00000E+00
 
    0.70998E+05         0.44909E+05         0.00000E+00
    0.44909E+05         0.71299E+04         0.00000E+00
    0.00000E+00         0.00000E+00         0.00000E+00
 
    0.69188E+05         0.46570E+05         0.00000E+00
    0.46570E+05         0.81342E+04         0.00000E+00
    0.00000E+00         0.00000E+00         0.00000E+00
 
    0.67305E+05         0.48190E+05         0.00000E+00
    0.48190E+05         0.91742E+04         0.00000E+00
    0.00000E+00         0.00000E+00         0.00000E+00
 
    0.65353E+05         0.49768E+05         0.00000E+00
    0.49768E+05         0.10249E+05         0.00000E+00
    0.00000E+00         0.00000E+00         0.00000E+00
 
    0.63332E+05         0.51301E+05         0.00000E+00
    0.51301E+05         0.11357E+05         0.00000E+00
    0.00000E+00         0.00000E+00         0.00000E+00
 
    0.61243E+05         0.52789E+05         0.00000E+00
    0.52789E+05         0.12498E+05         0.00000E+00
    0.00000E+00         0.00000E+00         0.00000E+00
 
    0.59089E+05         0.54231E+05         0.00000E+00
    0.54231E+05         0.13672E+05         0.00000E+00
    0.00000E+00         0.00000E+00         0.00000E+00
 
    0.56870E+05         0.55624E+05         0.00000E+00
    0.55624E+05         0.14876E+05         0.00000E+00
    0.00000E+00         0.00000E+00         0.00000E+00
 
    0.54589E+05         0.56968E+05         0.00000E+00
    0.56968E+05         0.16109E+05         0.00000E+00
    0.00000E+00         0.00000E+00         0.00000E+00
 
    0.52246E+05         0.58262E+05         0.00000E+00
    0.58262E+05         0.17372E+05         0.00000E+00
    0.00000E+00         0.00000E+00         0.00000E+00
 
    0.49844E+05         0.59505E+05         0.00000E+00
    0.59505E+05         0.18662E+05         0.00000E+00
    0.00000E+00         0.00000E+00         0.00000E+00
 
    0.47384E+05         0.60694E+05         0.00000E+00
    0.60694E+05         0.19979E+05         0.00000E+00
    0.00000E+00         0.00000E+00         0.00000E+00
 
    0.44867E+05         0.61830E+05         0.00000E+00
    0.61830E+05         0.21321E+05         0.00000E+00
    0.00000E+00         0.00000E+00         0.00000E+00
 
    0.42296E+05         0.62911E+05         0.00000E+00
    0.62911E+05         0.22688E+05         0.00000E+00
    0.00000E+00         0.00000E+00         0.00000E+00
 
    0.39672E+05         0.63935E+05         0.00000E+00
    0.63935E+05         0.24078E+05         0.00000E+00
    0.00000E+00         0.00000E+00         0.00000E+00
 
    0.36997E+05         0.64903E+05         0.00000E+00
    0.64903E+05         0.25491E+05         0.00000E+00
    0.00000E+00         0.00000E+00         0.00000E+00
 
    0.34273E+05         0.65813E+05         0.00000E+00
    0.65813E+05         0.26924E+05         0.00000E+00
    0.00000E+00         0.00000E+00         0.00000E+00
 
    0.31501E+05         0.66664E+05         0.00000E+00
    0.66664E+05         0.28376E+05         0.00000E+00
    0.00000E+00         0.00000E+00         0.00000E+00
 
    0.28683E+05         0.67455E+05         0.00000E+00
    0.67455E+05         0.29848E+05         0.00000E+00
    0.00000E+00         0.00000E+00         0.00000E+00
 
    0.25822E+05         0.68185E+05         0.00000E+00
    0.68185E+05         0.31336E+05         0.00000E+00
    0.00000E+00         0.00000E+00         0.00000E+00
 
    0.22918E+05         0.68854E+05         0.00000E+00
    0.68854E+05         0.32841E+05         0.00000E+00
    0.00000E+00         0.00000E+00         0.00000E+00
 
    0.19975E+05         0.69460E+05         0.00000E+00
    0.69460E+05         0.34360E+05         0.00000E+00
    0.00000E+00         0.00000E+00         0.00000E+00
 
    0.16993E+05         0.70003E+05         0.00000E+00
    0.70003E+05         0.35893E+05         0.00000E+00
    0.00000E+00         0.00000E+00         0.00000E+00
 
    0.13975E+05         0.70482E+05         0.00000E+00
    0.70482E+05         0.37438E+05         0.00000E+00
    0.00000E+00         0.00000E+00         0.00000E+00
 
    0.10922E+05         0.70897E+05         0.00000E+00
    0.70897E+05         0.38994E+05         0.00000E+00
    0.00000E+00         0.00000E+00         0.00000E+00
 
    0.78373E+04         0.71246E+05         0.00000E+00
    0.71246E+05         0.40559E+05         0.00000E+00
    0.00000E+00         0.00000E+00         0.00000E+00
 
    0.47221E+04         0.71530E+05         0.00000E+00
    0.71530E+05         0.42133E+05         0.00000E+00
    0.00000E+00         0.00000E+00         0.00000E+00
 
    0.15786E+04         0.71747E+05         0.00000E+00
    0.71747E+05         0.43714E+05         0.00000E+00
    0.00000E+00         0.00000E+00         0.00000E+00
 
    0.10106E+06         0.12124E+04         0.00000E+00
    0.12124E+04        -0.52823E+04         0.00000E+00
    0.00000E+00         0.00000E+00         0.00000E+00
 
    0.10108E+06         0.36303E+04         0.00000E+00
    0.36303E+04        -0.52283E+04         0.00000E+00
    0.00000E+00         0.00000E+00         0.00000E+00
 
    0.10099E+06         0.60428E+04         0.00000E+00
    0.60428E+04        -0.51206E+04         0.00000E+00
    0.00000E+00         0.00000E+00         0.00000E+00
 
    0.10080E+06         0.84479E+04         0.00000E+00
    0.84479E+04        -0.49596E+04         0.00000E+00
    0.00000E+00         0.00000E+00         0.00000E+00
 
    0.10051E+06         0.10844E+05         0.00000E+00
    0.10844E+05        -0.47456E+04         0.00000E+00
    0.00000E+00         0.00000E+00         0.00000E+00
 
    0.10012E+06         0.13228E+05         0.00000E+00
    0.13228E+05        -0.44789E+04         0.00000E+00
    0.00000E+00         0.00000E+00         0.00000E+00
 
    0.99632E+05         0.15598E+05         0.00000E+00
    0.15598E+05        -0.41598E+04         0.00000E+00
    0.00000E+00         0.00000E+00         0.00000E+00
 
    0.99045E+05         0.17953E+05         0.00000E+00
    0.17953E+05        -0.37889E+04         0.00000E+00
    0.00000E+00         0.00000E+00         0.00000E+00
 
    0.98360E+05         0.20290E+05         0.00000E+00
    0.20290E+05        -0.33665E+04         0.00000E+00
    0.00000E+00         0.00000E+00         0.00000E+00
 
    0.97579E+05         0.22608E+05         0.00000E+00
    0.22608E+05        -0.28932E+04         0.00000E+00
    0.00000E+00         0.00000E+00         0.00000E+00
 
    0.96701E+05         0.24904E+05         0.00000E+00
    0.24904E+05        -0.23695E+04         0.00000E+00
    0.00000E+00         0.00000E+00         0.00000E+00
 
    0.95729E+05         0.27177E+05         0.00000E+00
    0.27177E+05        -0.17960E+04         0.00000E+00
    0.00000E+00         0.00000E+00         0.00000E+00
 
    0.94662E+05         0.29424E+05         0.00000E+00
    0.29424E+05        -0.11732E+04         0.00000E+00
    0.00000E+00         0.00000E+00         0.00000E+00
 
    0.93502E+05         0.31645E+05         0.00000E+00
    0.31645E+05        -0.50188E+03         0.00000E+00
    0.00000E+00         0.00000E+00         0.00000E+00
 
    0.92250E+05         0.33836E+05         0.00000E+00
    0.33836E+05         0.21738E+03         0.00000E+00
    0.00000E+00         0.00000E+00         0.00000E+00
 
    0.90907E+05         0.35996E+05         0.00000E+00
    0.35996E+05         0.98385E+03         0.00000E+00
    0.00000E+00         0.00000E+00         0.00000E+00
 
    0.89475E+05         0.38124E+05         0.00000E+00
    0.38124E+05         0.17968E+04         0.00000E+00
    0.00000E+00         0.00000E+00         0.00000E+00
 
    0.87954E+05         0.40217E+05         0.00000E+00
    0.40217E+05         0.26555E+04         0.00000E+00
    0.00000E+00         0.00000E+00         0.00000E+00
 
    0.86345E+05         0.42275E+05         0.00000E+00
    0.42275E+05         0.35590E+04         0.00000E+00
    0.00000E+00         0.00000E+00         0.00000E+00
 
    0.84651E+05         0.44294E+05         0.00000E+00
    0.44294E+05         0.45067E+04         0.00000E+00
    0.00000E+00         0.00000E+00         0.00000E+00
 
    0.82872E+05         0.46274E+05         0.00000E+00
    0.46274E+05         0.54975E+04         0.00000E+00
    0.00000E+00         0.00000E+00         0.00000E+00
 
    0.81009E+05         0.48212E+05         0.00000E+00
    0.48212E+05         0.65307E+04         0.00000E+00
    0.00000E+00         0.00000E+00         0.00000E+00
 
    0.79065E+05         0.50108E+05         0.00000E+00
    0.50108E+05         0.76053E+04         0.00000E+00
    0.00000E+00         0.00000E+00         0.00000E+00
 
    0.77040E+05         0.51959E+05         0.00000E+00
    0.51959E+05         0.87203E+04         0.00000E+00
    0.00000E+00         0.00000E+00         0.00000E+00
 
    0.74936E+05         0.53765E+05         0.00000E+00
    0.53765E+05         0.98749E+04         0.00000E+00
    0.00000E+00         0.00000E+00         0.00000E+00
 
    0.72755E+05         0.55522E+05         0.00000E+00
    0.55522E+05         0.11068E+05         0.00000E+00
    0.00000E+00         0.00000E+00         0.00000E+00
 
    0.70498E+05         0.57231E+05         0.00000E+00
    0.57231E+05         0.12298E+05         0.00000E+00
    0.00000E+00         0.00000E+00         0.00000E+00
 
    0.68167E+05         0.58890E+05         0.00000E+00
    0.58890E+05         0.13565E+05         0.00000E+00
    0.00000E+00         0.00000E+00         0.00000E+00
 
    0.65763E+05         0.60496E+05         0.00000E+00
    0.60496E+05         0.14867E+05         0.00000E+00
    0.00000E+00         0.00000E+00         0.00000E+00
 
    0.63288E+05         0.62050E+05         0.00000E+00
    0.62050E+05         0.16204E+05         0.00000E+00
    0.00000E+00         0.00000E+00         0.00000E+00
 
    0.60744E+05         0.63548E+05         0.00000E+00
    0.63548E+05         0.17573E+05         0.00000E+00
    0.00000E+00         0.00000E+00         0.00000E+00
 
    0.58133E+05         0.64991E+05         0.00000E+00
    0.64991E+05         0.18975E+05         0.00000E+00
    0.00000E+00         0.00000E+00         0.00000E+00
 
    0.55455E+05         0.66377E+05         0.00000E+00
    0.66377E+05         0.20407E+05         0.00000E+00
    0.00000E+00         0.00000E+00         0.00000E+00
 
    0.52714E+05         0.67704E+05         0.00000E+00
    0.67704E+05         0.21869E+05         0.00000E+00
    0.00000E+00         0.00000E+00         0.00000E+00
 
    0.49911E+05         0.68971E+05         0.00000E+00
    0.68971E+05         0.23359E+05         0.00000E+00
    0.00000E+00         0.00000E+00         0.00000E+00
 
    0.47048E+05         0.70177E+05         0.00000E+00
    0.70177E+05         0.24877E+05         0.00000E+00
    0.00000E+00         0.00000E+00         0.00000E+00
 
    0.44127E+05         0.71322E+05         0.00000E+00
    0.71322E+05         0.26420E+05         0.00000E+00
    0.00000E+00         0.00000E+00         0.00000E+00
 
    0.41149E+05         0.72403E+05         0.00000E+00
    0.72403E+05         0.27987E+05         0.00000E+00
    0.00000E+00         0.00000E+00         0.00000E+00
 
    0.38117E+05         0.73420E+05         0.00000E+00
    0.73420E+05         0.29579E+05         0.00000E+00
    0.00000E+00         0.00000E+00         0.00000E+00
 
    0.35032E+05         0.74372E+05         0.00000E+00
    0.74372E+05         0.31192E+05         0.00000E+00
    0.00000E+00         0.00000E+00         0.00000E+00
 
    0.31897E+05         0.75258E+05         0.00000E+00
    0.75258E+05         0.32825E+05         0.00000E+00
    0.00000E+00         0.00000E+00         0.00000E+00
 
    0.28713E+05         0.76076E+05         0.00000E+00
    0.76076E+05         0.34478E+05         0.00000E+00
    0.00000E+00         0.00000E+00         0.00000E+00
 
    0.25484E+05         0.76826E+05         0.00000E+00
    0.76826E+05         0.36149E+05         0.00000E+00
    0.00000E+00         0.00000E+00         0.00000E+00
 
    0.22210E+05         0.77507E+05         0.00000E+00
    0.77507E+05         0.37837E+05         0.00000E+00
    0.00000E+00         0.00000E+00         0.00000E+00
 
    0.18893E+05         0.78119E+05         0.00000E+00
    0.78119E+05         0.39539E+05         0.00000E+00
    0.00000E+00         0.00000E+00         0.00000E+00
 
    0.15537E+05         0.78659E+05         0.00000E+00
    0.78659E+05         0.41256E+05         0.00000E+00
    0.00000E+00         0.00000E+00         0.00000E+00
 
    0.12143E+05         0.79128E+05         0.00000E+00
    0.79128E+05         0.42984E+05         0.00000E+00
    0.00000E+00         0.00000E+00         0.00000E+00
 
    0.87132E+04         0.79525E+05         0.00000E+00
    0.79525E+05         0.44724E+05         0.00000E+00
    0.00000E+00         0.00000E+00         0.00000E+00
 
    0.52497E+04         0.79850E+05         0.00000E+00
    0.79850E+05         0.46473E+05         0.00000E+00
    0.00000E+00         0.00000E+00         0.00000E+00
 
    0.17550E+04         0.80100E+05         0.00000E+00
    0.80100E+05         0.48230E+05         0.00000E+00
    0.00000E+00         0.00000E+00         0.00000E+00
 
    0.11290E+06         0.13557E+04         0.00000E+00
    0.13557E+04        -0.62386E+04         0.00000E+00
    0.00000E+00         0.00000E+00         0.00000E+00
 
    0.11289E+06         0.40571E+04         0.00000E+00
    0.40571E+04        -0.61785E+04         0.00000E+00
    0.00000E+00         0.00000E+00         0.00000E+00
 
    0.11277E+06         0.67518E+04         0.00000E+00
    0.67518E+04        -0.60588E+04         0.00000E+00
    0.00000E+00         0.00000E+00         0.00000E+00
 
    0.11253E+06         0.94375E+04         0.00000E+00
    0.94375E+04        -0.58798E+04         0.00000E+00
    0.00000E+00         0.00000E+00         0.00000E+00
 
    0.11219E+06         0.12112E+05         0.00000E+00
    0.12112E+05        -0.56418E+04         0.00000E+00
    0.00000E+00         0.00000E+00         0.00000E+00
 
    0.11173E+06         0.14773E+05         0.00000E+00
    0.14773E+05        -0.53453E+04         0.00000E+00
    0.00000E+00         0.00000E+00         0.00000E+00
 
    0.11116E+06         0.17418E+05         0.00000E+00
    0.17418E+05        -0.49907E+04         0.00000E+00
    0.00000E+00         0.00000E+00         0.00000E+00
 
    0.11049E+06         0.20045E+05         0.00000E+00
    0.20045E+05        -0.45785E+04         0.00000E+00
    0.00000E+00         0.00000E+00         0.00000E+00
 
    0.10970E+06         0.22652E+05         0.00000E+00
    0.22652E+05        -0.41092E+04         0.00000E+00
    0.00000E+00         0.00000E+00         0.00000E+00
 
    0.10881E+06         0.25237E+05         0.00000E+00
    0.25237E+05        -0.35834E+04         0.00000E+00
    0.00000E+00         0.00000E+00         0.00000E+00
 
    0.10781E+06         0.27797E+05         0.00000E+00
    0.27797E+05        -0.30017E+04         0.00000E+00
    0.00000E+00         0.00000E+00         0.00000E+00
 
    0.10671E+06         0.30331E+05         0.00000E+00
    0.30331E+05        -0.23648E+04         0.00000E+00
    0.00000E+00         0.00000E+00         0.00000E+00
 
    0.10550E+06         0.32836E+05         0.00000E+00
    0.32836E+05        -0.16732E+04         0.00000E+00
    0.00000E+00         0.00000E+00         0.00000E+00
 
    0.10420E+06         0.35311E+05         0.00000E+00
    0.35311E+05        -0.92776E+03         0.00000E+00
    0.00000E+00         0.00000E+00         0.00000E+00
 
    0.10278E+06         0.37753E+05         0.00000E+00
    0.37753E+05        -0.12922E+03         0.00000E+00
    0.00000E+00         0.00000E+00         0.00000E+00
 
    0.10127E+06         0.40160E+05         0.00000E+00
    0.40160E+05         0.72166E+03         0.00000E+00
    0.00000E+00         0.00000E+00         0.00000E+00
 
    0.99663E+05         0.42530E+05         0.00000E+00
    0.42530E+05         0.16240E+04         0.00000E+00
    0.00000E+00         0.00000E+00         0.00000E+00
 
    0.97955E+05         0.44862E+05         0.00000E+00
    0.44862E+05         0.25771E+04         0.00000E+00
    0.00000E+00         0.00000E+00         0.00000E+00
 
    0.96151E+05         0.47154E+05         0.00000E+00
    0.47154E+05         0.35799E+04         0.00000E+00
    0.00000E+00         0.00000E+00         0.00000E+00
 
    0.94252E+05         0.49403E+05         0.00000E+00
    0.49403E+05         0.46315E+04         0.00000E+00
    0.00000E+00         0.00000E+00         0.00000E+00
 
    0.92259E+05         0.51608E+05         0.00000E+00
    0.51608E+05         0.57310E+04         0.00000E+00
    0.00000E+00         0.00000E+00         0.00000E+00
 
    0.90175E+05         0.53767E+05         0.00000E+00
    0.53767E+05         0.68774E+04         0.00000E+00
    0.00000E+00         0.00000E+00         0.00000E+00
 
    0.88000E+05         0.55878E+05         0.00000E+00
    0.55878E+05         0.80697E+04         0.00000E+00
    0.00000E+00         0.00000E+00         0.00000E+00
 
    0.85737E+05         0.57940E+05         0.00000E+00
    0.57940E+05         0.93068E+04         0.00000E+00
    0.00000E+00         0.00000E+00         0.00000E+00
 
    0.83386E+05         0.59950E+05         0.00000E+00
    0.59950E+05         0.10588E+05         0.00000E+00
    0.00000E+00         0.00000E+00         0.00000E+00
 
    0.80950E+05         0.61908E+05         0.00000E+00
    0.61908E+05         0.11911E+05         0.00000E+00
    0.00000E+00         0.00000E+00         0.00000E+00
 
    0.78431E+05         0.63812E+05         0.00000E+00
    0.63812E+05         0.13276E+05         0.00000E+00
    0.00000E+00         0.00000E+00         0.00000E+00
 
    0.75830E+05         0.65659E+05         0.00000E+00
    0.65659E+05         0.14681E+05         0.00000E+00
    0.00000E+00         0.00000E+00         0.00000E+00
 
    0.73149E+05         0.67449E+05         0.00000E+00
    0.67449E+05         0.16126E+05         0.00000E+00
    0.00000E+00         0.00000E+00         0.00000E+00
 
    0.70390E+05         0.69180E+05         0.00000E+00
    0.69180E+05         0.17608E+05         0.00000E+00
    0.00000E+00         0.00000E+00         0.00000E+00
 
    0.67555E+05         0.70850E+05         0.00000E+00
    0.70850E+05         0.19128E+05         0.00000E+00
    0.00000E+00         0.00000E+00         0.00000E+00
 
    0.64645E+05         0.72458E+05         0.00000E+00
    0.72458E+05         0.20682E+05         0.00000E+00
    0.00000E+00         0.00000E+00         0.00000E+00
 
    0.61663E+05         0.74002E+05         0.00000E+00
    0.74002E+05         0.22271E+05         0.00000E+00
    0.00000E+00         0.00000E+00         0.00000E+00
 
    0.58611E+05         0.75482E+05         0.00000E+00
    0.75482E+05         0.23893E+05         0.00000E+00
    0.00000E+00         0.00000E+00         0.00000E+00
 
    0.55490E+05         0.76896E+05         0.00000E+00
    0.76896E+05         0.25546E+05         0.00000E+00
    0.00000E+00         0.00000E+00         0.00000E+00
 
    0.52303E+05         0.78242E+05         0.00000E+00
    0.78242E+05         0.27229E+05         0.00000E+00
    0.00000E+00         0.00000E+00         0.00000E+00
 
    0.49052E+05         0.79519E+05         0.00000E+00
    0.79519E+05         0.28941E+05         0.00000E+00
    0.00000E+00         0.00000E+00         0.00000E+00
 
    0.45739E+05         0.80727E+05         0.00000E+00
    0.80727E+05         0.30680E+05         0.00000E+00
    0.00000E+00         0.00000E+00         0.00000E+00
 
    0.42366E+05         0.81864E+05         0.00000E+00
    0.81864E+05         0.32445E+05         0.00000E+00
    0.00000E+00         0.00000E+00         0.00000E+00
 
    0.38936E+05         0.82928E+05         0.00000E+00
    0.82928E+05         0.34235E+05         0.00000E+00
    0.00000E+00         0.00000E+00         0.00000E+00
 
    0.35449E+05         0.83919E+05         0.00000E+00
    0.83919E+05         0.36048E+05         0.00000E+00
    0.00000E+00         0.00000E+00         0.00000E+00
 
    0.31910E+05         0.84836E+05         0.00000E+00
    0.84836E+05         0.37882E+05         0.00000E+00
    0.00000E+00         0.00000E+00         0.00000E+00
 
    0.28319E+05         0.85678E+05         0.00000E+00
    0.85678E+05         0.39737E+05         0.00000E+00
    0.00000E+00         0.00000E+00         0.00000E+00
 
    0.24680E+05         0.86443E+05         0.00000E+00
    0.86443E+05         0.41610E+05         0.00000E+00
    0.00000E+00         0.00000E+00         0.00000E+00
 
    0.20994E+05         0.87131E+05         0.00000E+00
    0.87131E+05         0.43500E+05         0.00000E+00
    0.00000E+00         0.00000E+00         0.00000E+00
 
    0.17264E+05         0.87741E+05         0.00000E+00
    0.87741E+05         0.45406E+05         0.00000E+00
    0.00000E+00         0.00000E+00         0.00000E+00
 
    0.13492E+05         0.88272E+05         0.00000E+00
    0.88272E+05         0.47325E+05         0.00000E+00
    0.00000E+00         0.00000E+00         0.00000E+00
 
    0.96811E+04         0.88723E+05         0.00000E+00
    0.88723E+05         0.49257E+05         0.00000E+00
    0.00000E+00         0.00000E+00         0.00000E+00
 
    0.58328E+04         0.89094E+05         0.00000E+00
    0.89094E+05         0.51199E+05         0.00000E+00
    0.00000E+00         0.00000E+00         0.00000E+00
 
    0.19499E+04         0.89383E+05         0.00000E+00
    0.89383E+05         0.53151E+05         0.00000E+00
    0.00000E+00         0.00000E+00         0.00000E+00
 
    0.12607E+06         0.15151E+04         0.00000E+00
    0.15151E+04        -0.73634E+04         0.00000E+00
    0.00000E+00         0.00000E+00         0.00000E+00
 
    0.12603E+06         0.45317E+04         0.00000E+00
    0.45317E+04        -0.72966E+04         0.00000E+00
    0.00000E+00         0.00000E+00         0.00000E+00
 
    0.12586E+06         0.75400E+04         0.00000E+00
    0.75400E+04        -0.71635E+04         0.00000E+00
    0.00000E+00         0.00000E+00         0.00000E+00
 
    0.12557E+06         0.10537E+05         0.00000E+00
    0.10537E+05        -0.69646E+04         0.00000E+00
    0.00000E+00         0.00000E+00         0.00000E+00
 
    0.12516E+06         0.13522E+05         0.00000E+00
    0.13522E+05        -0.67002E+04         0.00000E+00
    0.00000E+00         0.00000E+00         0.00000E+00
 
    0.12462E+06         0.16490E+05         0.00000E+00
    0.16490E+05        -0.63709E+04         0.00000E+00
    0.00000E+00         0.00000E+00         0.00000E+00
 
    0.12397E+06         0.19440E+05         0.00000E+00
    0.19440E+05        -0.59771E+04         0.00000E+00
    0.00000E+00         0.00000E+00         0.00000E+00
 
    0.12319E+06         0.22369E+05         0.00000E+00
    0.22369E+05        -0.55194E+04         0.00000E+00
    0.00000E+00         0.00000E+00         0.00000E+00
 
    0.12229E+06         0.25275E+05         0.00000E+00
    0.25275E+05        -0.49983E+04         0.00000E+00
    0.00000E+00         0.00000E+00         0.00000E+00
 
    0.12127E+06         0.28156E+05         0.00000E+00
    0.28156E+05        -0.44147E+04         0.00000E+00
    0.00000E+00         0.00000E+00         0.00000E+00
 
    0.12014E+06         0.31009E+05         0.00000E+00
    0.31009E+05        -0.37690E+04         0.00000E+00
    0.00000E+00         0.00000E+00         0.00000E+00
 
    0.11889E+06         0.33833E+05         0.00000E+00
    0.33833E+05        -0.30621E+04         0.00000E+00
    0.00000E+00         0.00000E+00         0.00000E+00
 
    0.11753E+06         0.36623E+05         0.00000E+00
    0.36623E+05        -0.22947E+04         0.00000E+00
    0.00000E+00         0.00000E+00         0.00000E+00
 
    0.11605E+06         0.39379E+05         0.00000E+00
    0.39379E+05        -0.14677E+04         0.00000E+00
    0.00000E+00         0.00000E+00         0.00000E+00
 
    0.11446E+06         0.42099E+05         0.00000E+00
    0.42099E+05        -0.58177E+03         0.00000E+00
    0.00000E+00         0.00000E+00         0.00000E+00
 
    0.11276E+06         0.44779E+05         0.00000E+00
    0.44779E+05         0.36209E+03         0.00000E+00
    0.00000E+00         0.00000E+00         0.00000E+00
 
    0.11095E+06         0.47419E+05         0.00000E+00
    0.47419E+05         0.13630E+04         0.00000E+00
    0.00000E+00         0.00000E+00         0.00000E+00
 
    0.10903E+06         0.50015E+05         0.00000E+00
    0.50015E+05         0.24200E+04         0.00000E+00
    0.00000E+00         0.00000E+00         0.00000E+00
 
    0.10701E+06         0.52566E+05         0.00000E+00
    0.52566E+05         0.35320E+04         0.00000E+00
    0.00000E+00         0.00000E+00         0.00000E+00
 
    0.10488E+06         0.55070E+05         0.00000E+00
    0.55070E+05         0.46982E+04         0.00000E+00
    0.00000E+00         0.00000E+00         0.00000E+00
 
    0.10265E+06         0.57524E+05         0.00000E+00
    0.57524E+05         0.59173E+04         0.00000E+00
    0.00000E+00         0.00000E+00         0.00000E+00
 
    0.10032E+06         0.59927E+05         0.00000E+00
    0.59927E+05         0.71884E+04         0.00000E+00
    0.00000E+00         0.00000E+00         0.00000E+00
 
    0.97888E+05         0.62277E+05         0.00000E+00
    0.62277E+05         0.85102E+04         0.00000E+00
    0.00000E+00         0.00000E+00         0.00000E+00
 
    0.95359E+05         0.64572E+05         0.00000E+00
    0.64572E+05         0.98817E+04         0.00000E+00
    0.00000E+00         0.00000E+00         0.00000E+00
 
    0.92735E+05         0.66810E+05         0.00000E+00
    0.66810E+05         0.11302E+05         0.00000E+00
    0.00000E+00         0.00000E+00         0.00000E+00
 
    0.90016E+05         0.68990E+05         0.00000E+00
    0.68990E+05         0.12769E+05         0.00000E+00
    0.00000E+00         0.00000E+00         0.00000E+00
 
    0.87206E+05         0.71109E+05         0.00000E+00
    0.71109E+05         0.14282E+05         0.00000E+00
    0.00000E+00         0.00000E+00         0.00000E+00
 
    0.84305E+05         0.73165E+05         0.00000E+00
    0.73165E+05         0.15840E+05         0.00000E+00
    0.00000E+00         0.00000E+00         0.00000E+00
 
    0.81316E+05         0.75158E+05         0.00000E+00
    0.75158E+05         0.17441E+05         0.00000E+00
    0.00000E+00         0.00000E+00         0.00000E+00
 
    0.78242E+05         0.77085E+05         0.00000E+00
    0.77085E+05         0.19084E+05         0.00000E+00
    0.00000E+00         0.00000E+00         0.00000E+00
 
    0.75084E+05         0.78946E+05         0.00000E+00
    0.78946E+05         0.20768E+05         0.00000E+00
    0.00000E+00         0.00000E+00         0.00000E+00
 
    0.71844E+05         0.80737E+05         0.00000E+00
    0.80737E+05         0.22491E+05         0.00000E+00
    0.00000E+00         0.00000E+00         0.00000E+00
 
    0.68524E+05         0.82458E+05         0.00000E+00
    0.82458E+05         0.24252E+05         0.00000E+00
    0.00000E+00         0.00000E+00         0.00000E+00
 
    0.65127E+05         0.84107E+05         0.00000E+00
    0.84107E+05         0.26049E+05         0.00000E+00
    0.00000E+00         0.00000E+00         0.00000E+00
 
    0.61655E+05         0.85683E+05         0.00000E+00
    0.85683E+05         0.27882E+05         0.00000E+00
    0.00000E+00         0.00000E+00         0.00000E+00
 
    0.58110E+05         0.87185E+05         0.00000E+00
    0.87185E+05         0.29748E+05         0.00000E+00
    0.00000E+00         0.00000E+00         0.00000E+00
 
    0.54494E+05         0.88611E+05         0.00000E+00
    0.88611E+05         0.31646E+05         0.00000E+00
    0.00000E+00         0.00000E+00         0.00000E+00
 
    0.50811E+05         0.89959E+05         0.00000E+00
    0.89959E+05         0.33574E+05         0.00000E+00
    0.00000E+00         0.00000E+00         0.00000E+00
 
    0.47061E+05         0.91229E+05         0.00000E+00
    0.91229E+05         0.35531E+05         0.00000E+00
    0.00000E+00         0.00000E+00         0.00000E+00
 
    0.43248E+05         0.92419E+05         0.00000E+00
    0.92419E+05         0.37516E+05         0.00000E+00
    0.00000E+00         0.00000E+00         0.00000E+00
 
    0.39373E+05         0.93528E+05         0.00000E+00
    0.93528E+05         0.39526E+05         0.00000E+00
    0.00000E+00         0.00000E+00         0.00000E+00
 
    0.35440E+05         0.94555E+05         0.00000E+00
    0.94555E+05         0.41560E+05         0.00000E+00
    0.00000E+00         0.00000E+00         0.00000E+00
 
    0.31451E+05         0.95498E+05         0.00000E+00
    0.95498E+05         0.43617E+05         0.00000E+00
    0.00000E+00         0.00000E+00         0.00000E+00
 
    0.27408E+05         0.96358E+05         0.00000E+00
    0.96358E+05         0.45694E+05         0.00000E+00
    0.00000E+00         0.00000E+00         0.00000E+00
 
    0.23314E+05         0.97132E+05         0.00000E+00
    0.97132E+05         0.47791E+05         0.00000E+00
    0.00000E+00         0.00000E+00         0.00000E+00
 
    0.19171E+05         0.97820E+05         0.00000E+00
    0.97820E+05         0.49905E+05         0.00000E+00
    0.00000E+00         0.00000E+00         0.00000E+00
 
    0.14982E+05         0.98421E+05         0.00000E+00
    0.98421E+05         0.52035E+05         0.00000E+00
    0.00000E+00         0.00000E+00         0.00000E+00
 
    0.10750E+05         0.98934E+05         0.00000E+00
    0.98934E+05         0.54179E+05         0.00000E+00
    0.00000E+00         0.00000E+00         0.00000E+00
 
    0.64766E+04         0.99358E+05         0.00000E+00
    0.99358E+05         0.56335E+05         0.00000E+00
    0.00000E+00         0.00000E+00         0.00000E+00
 
    0.21650E+04         0.99692E+05         0.00000E+00
    0.99692E+05         0.58501E+05         0.00000E+00
    0.00000E+00         0.00000E+00         0.00000E+00
 
    0.14071E+06         0.16924E+04         0.00000E+00
    0.16924E+04        -0.86854E+04         0.00000E+00
    0.00000E+00         0.00000E+00         0.00000E+00
 
    0.14063E+06         0.50591E+04         0.00000E+00
    0.50591E+04        -0.86111E+04         0.00000E+00
    0.00000E+00         0.00000E+00         0.00000E+00
 
    0.14041E+06         0.84156E+04         0.00000E+00
    0.84156E+04        -0.84634E+04         0.00000E+00
    0.00000E+00         0.00000E+00         0.00000E+00
 
    0.14005E+06         0.11759E+05         0.00000E+00
    0.11759E+05        -0.82425E+04         0.00000E+00
    0.00000E+00         0.00000E+00         0.00000E+00
 
    0.13956E+06         0.15087E+05         0.00000E+00
    0.15087E+05        -0.79490E+04         0.00000E+00
    0.00000E+00         0.00000E+00         0.00000E+00
 
    0.13893E+06         0.18396E+05         0.00000E+00
    0.18396E+05        -0.75835E+04         0.00000E+00
    0.00000E+00         0.00000E+00         0.00000E+00
 
    0.13817E+06         0.21684E+05         0.00000E+00
    0.21684E+05        -0.71465E+04         0.00000E+00
    0.00000E+00         0.00000E+00         0.00000E+00
 
    0.13727E+06         0.24949E+05         0.00000E+00
    0.24949E+05        -0.66386E+04         0.00000E+00
    0.00000E+00         0.00000E+00         0.00000E+00
 
    0.13625E+06         0.28187E+05         0.00000E+00
    0.28187E+05        -0.60606E+04         0.00000E+00
    0.00000E+00         0.00000E+00         0.00000E+00
 
    0.13509E+06         0.31396E+05         0.00000E+00
    0.31396E+05        -0.54132E+04         0.00000E+00
    0.00000E+00         0.00000E+00         0.00000E+00
 
    0.13380E+06         0.34573E+05         0.00000E+00
    0.34573E+05        -0.46972E+04         0.00000E+00
    0.00000E+00         0.00000E+00         0.00000E+00
 
    0.13239E+06         0.37717E+05         0.00000E+00
    0.37717E+05        -0.39133E+04         0.00000E+00
    0.00000E+00         0.00000E+00         0.00000E+00
 
    0.13085E+06         0.40824E+05         0.00000E+00
    0.40824E+05        -0.30625E+04         0.00000E+00
    0.00000E+00         0.00000E+00         0.00000E+00
 
    0.12918E+06         0.43892E+05         0.00000E+00
    0.43892E+05        -0.21455E+04         0.00000E+00
    0.00000E+00         0.00000E+00         0.00000E+00
 
    0.12739E+06         0.46918E+05         0.00000E+00
    0.46918E+05        -0.11635E+04         0.00000E+00
    0.00000E+00         0.00000E+00         0.00000E+00
 
    0.12548E+06         0.49902E+05         0.00000E+00
    0.49902E+05        -0.11737E+03         0.00000E+00
    0.00000E+00         0.00000E+00         0.00000E+00
 
    0.12344E+06         0.52839E+05         0.00000E+00
    0.52839E+05         0.99190E+03         0.00000E+00
    0.00000E+00         0.00000E+00         0.00000E+00
 
    0.12129E+06         0.55727E+05         0.00000E+00
    0.55727E+05         0.21632E+04         0.00000E+00
    0.00000E+00         0.00000E+00         0.00000E+00
 
    0.11903E+06         0.58566E+05         0.00000E+00
    0.58566E+05         0.33955E+04         0.00000E+00
    0.00000E+00         0.00000E+00         0.00000E+00
 
    0.11664E+06         0.61351E+05         0.00000E+00
    0.61351E+05         0.46876E+04         0.00000E+00
    0.00000E+00         0.00000E+00         0.00000E+00
 
    0.11415E+06         0.64082E+05         0.00000E+00
    0.64082E+05         0.60383E+04         0.00000E+00
    0.00000E+00         0.00000E+00         0.00000E+00
 
    0.11154E+06         0.66755E+05         0.00000E+00
    0.66755E+05         0.74464E+04         0.00000E+00
    0.00000E+00         0.00000E+00         0.00000E+00
 
    0.10882E+06         0.69369E+05         0.00000E+00
    0.69369E+05         0.89107E+04         0.00000E+00
    0.00000E+00         0.00000E+00         0.00000E+00
 
    0.10600E+06         0.71922E+05         0.00000E+00
    0.71922E+05         0.10430E+05         0.00000E+00
    0.00000E+00         0.00000E+00         0.00000E+00
 
    0.10307E+06         0.74412E+05         0.00000E+00
    0.74412E+05         0.12003E+05         0.00000E+00
    0.00000E+00         0.00000E+00         0.00000E+00
 
    0.10003E+06         0.76836E+05         0.00000E+00
    0.76836E+05         0.13628E+05         0.00000E+00
    0.00000E+00         0.00000E+00         0.00000E+00
 
    0.96901E+05         0.79194E+05         0.00000E+00
    0.79194E+05         0.15304E+05         0.00000E+00
    0.00000E+00         0.00000E+00         0.00000E+00
 
    0.93668E+05         0.81482E+05         0.00000E+00
    0.81482E+05         0.17029E+05         0.00000E+00
    0.00000E+00         0.00000E+00         0.00000E+00
 
    0.90339E+05         0.83700E+05         0.00000E+00
    0.83700E+05         0.18802E+05         0.00000E+00
    0.00000E+00         0.00000E+00         0.00000E+00
 
    0.86915E+05         0.85845E+05         0.00000E+00
    0.85845E+05         0.20622E+05         0.00000E+00
    0.00000E+00         0.00000E+00         0.00000E+00
 
    0.83399E+05         0.87916E+05         0.00000E+00
    0.87916E+05         0.22487E+05         0.00000E+00
    0.00000E+00         0.00000E+00         0.00000E+00
 
    0.79793E+05         0.89910E+05         0.00000E+00
    0.89910E+05         0.24396E+05         0.00000E+00
    0.00000E+00         0.00000E+00         0.00000E+00
 
    0.76099E+05         0.91827E+05         0.00000E+00
    0.91827E+05         0.26346E+05         0.00000E+00
    0.00000E+00         0.00000E+00         0.00000E+00
 
    0.72321E+05         0.93664E+05         0.00000E+00
    0.93664E+05         0.28337E+05         0.00000E+00
    0.00000E+00         0.00000E+00         0.00000E+00
 
    0.68460E+05         0.95421E+05         0.00000E+00
    0.95421E+05         0.30367E+05         0.00000E+00
    0.00000E+00         0.00000E+00         0.00000E+00
 
    0.64519E+05         0.97095E+05         0.00000E+00
    0.97095E+05         0.32434E+05         0.00000E+00
    0.00000E+00         0.00000E+00         0.00000E+00
 
    0.60501E+05         0.98685E+05         0.00000E+00
    0.98685E+05         0.34536E+05         0.00000E+00
    0.00000E+00         0.00000E+00         0.00000E+00
 
    0.56407E+05         0.10019E+06         0.00000E+00
    0.10019E+06         0.36672E+05         0.00000E+00
    0.00000E+00         0.00000E+00         0.00000E+00
 
    0.52241E+05         0.10161E+06         0.00000E+00
    0.10161E+06         0.38841E+05         0.00000E+00
    0.00000E+00         0.00000E+00         0.00000E+00
 
    0.48006E+05         0.10294E+06         0.00000E+00
    0.10294E+06         0.41039E+05         0.00000E+00
    0.00000E+00         0.00000E+00         0.00000E+00
 
    0.43703E+05         0.10418E+06         0.00000E+00
    0.10418E+06         0.43267E+05         0.00000E+00
    0.00000E+00         0.00000E+00         0.00000E+00
 
    0.39335E+05         0.10533E+06         0.00000E+00
    0.10533E+06         0.45521E+05         0.00000E+00
    0.00000E+00         0.00000E+00         0.00000E+00
 
    0.34906E+05         0.10639E+06         0.00000E+00
    0.10639E+06         0.47800E+05         0.00000E+00
    0.00000E+00         0.00000E+00         0.00000E+00
 
    0.30418E+05         0.10735E+06         0.00000E+00
    0.10735E+06         0.50103E+05         0.00000E+00
    0.00000E+00         0.00000E+00         0.00000E+00
 
    0.25873E+05         0.10822E+06         0.00000E+00
    0.10822E+06         0.52427E+05         0.00000E+00
    0.00000E+00         0.00000E+00         0.00000E+00
 
    0.21275E+05         0.10900E+06         0.00000E+00
    0.10900E+06         0.54771E+05         0.00000E+00
    0.00000E+00         0.00000E+00         0.00000E+00
 
    0.16626E+05         0.10968E+06         0.00000E+00
    0.10968E+06         0.57133E+05         0.00000E+00
    0.00000E+00         0.00000E+00         0.00000E+00
 
    0.11929E+05         0.11026E+06         0.00000E+00
    0.11026E+06         0.59510E+05         0.00000E+00
    0.00000E+00         0.00000E+00         0.00000E+00
 
    0.71866E+04         0.11075E+06         0.00000E+00
    0.11075E+06         0.61902E+05         0.00000E+00
    0.00000E+00         0.00000E+00         0.00000E+00
 
    0.24023E+04         0.11113E+06         0.00000E+00
    0.11113E+06         0.64305E+05         0.00000E+00
    0.00000E+00         0.00000E+00         0.00000E+00
 
    0.15697E+06         0.18894E+04         0.00000E+00
    0.18894E+04        -0.10238E+05         0.00000E+00
    0.00000E+00         0.00000E+00         0.00000E+00
 
    0.15684E+06         0.56447E+04         0.00000E+00
    0.56447E+04        -0.10155E+05         0.00000E+00
    0.00000E+00         0.00000E+00         0.00000E+00
 
    0.15656E+06         0.93875E+04         0.00000E+00
    0.93875E+04        -0.99915E+04         0.00000E+00
    0.00000E+00         0.00000E+00         0.00000E+00
 
    0.15612E+06         0.13115E+05         0.00000E+00
    0.13115E+05        -0.97465E+04         0.00000E+00
    0.00000E+00         0.00000E+00         0.00000E+00
 
    0.15554E+06         0.16823E+05         0.00000E+00
    0.16823E+05        -0.94209E+04         0.00000E+00
    0.00000E+00         0.00000E+00         0.00000E+00
 
    0.15480E+06         0.20511E+05         0.00000E+00
    0.20511E+05        -0.90156E+04         0.00000E+00
    0.00000E+00         0.00000E+00         0.00000E+00
 
    0.15392E+06         0.24173E+05         0.00000E+00
    0.24173E+05        -0.85310E+04         0.00000E+00
    0.00000E+00         0.00000E+00         0.00000E+00
 
    0.15289E+06         0.27809E+05         0.00000E+00
    0.27809E+05        -0.79680E+04         0.00000E+00
    0.00000E+00         0.00000E+00         0.00000E+00
 
    0.15171E+06         0.31414E+05         0.00000E+00
    0.31414E+05        -0.73274E+04         0.00000E+00
    0.00000E+00         0.00000E+00         0.00000E+00
 
    0.15039E+06         0.34987E+05         0.00000E+00
    0.34987E+05        -0.66099E+04         0.00000E+00
    0.00000E+00         0.00000E+00         0.00000E+00
 
    0.14893E+06         0.38523E+05         0.00000E+00
    0.38523E+05        -0.58164E+04         0.00000E+00
    0.00000E+00         0.00000E+00         0.00000E+00
 
    0.14733E+06         0.42021E+05         0.00000E+00
    0.42021E+05        -0.49479E+04         0.00000E+00
    0.00000E+00         0.00000E+00         0.00000E+00
 
    0.14559E+06         0.45478E+05         0.00000E+00
    0.45478E+05        -0.40054E+04         0.00000E+00
    0.00000E+00         0.00000E+00         0.00000E+00
 
    0.14371E+06         0.48892E+05         0.00000E+00
    0.48892E+05        -0.29897E+04         0.00000E+00
    0.00000E+00         0.00000E+00         0.00000E+00
 
    0.14169E+06         0.52258E+05         0.00000E+00
    0.52258E+05        -0.19021E+04         0.00000E+00
    0.00000E+00         0.00000E+00         0.00000E+00
 
    0.13954E+06         0.55576E+05         0.00000E+00
    0.55576E+05        -0.74355E+03         0.00000E+00
    0.00000E+00         0.00000E+00         0.00000E+00
 
    0.13726E+06         0.58843E+05         0.00000E+00
    0.58843E+05         0.48477E+03         0.00000E+00
    0.00000E+00         0.00000E+00         0.00000E+00
 
    0.13485E+06         0.62055E+05         0.00000E+00
    0.62055E+05         0.17817E+04         0.00000E+00
    0.00000E+00         0.00000E+00         0.00000E+00
 
    0.13231E+06         0.65211E+05         0.00000E+00
    0.65211E+05         0.31460E+04         0.00000E+00
    0.00000E+00         0.00000E+00         0.00000E+00
 
    0.12964E+06         0.68307E+05         0.00000E+00
    0.68307E+05         0.45764E+04         0.00000E+00
    0.00000E+00         0.00000E+00         0.00000E+00
 
    0.12685E+06         0.71343E+05         0.00000E+00
    0.71343E+05         0.60715E+04         0.00000E+00
    0.00000E+00         0.00000E+00         0.00000E+00
 
    0.12393E+06         0.74315E+05         0.00000E+00
    0.74315E+05         0.76302E+04         0.00000E+00
    0.00000E+00         0.00000E+00         0.00000E+00
 
    0.12090E+06         0.77222E+05         0.00000E+00
    0.77222E+05         0.92510E+04         0.00000E+00
    0.00000E+00         0.00000E+00         0.00000E+00
 
    0.11775E+06         0.80060E+05         0.00000E+00
    0.80060E+05         0.10932E+05         0.00000E+00
    0.00000E+00         0.00000E+00         0.00000E+00
 
    0.11448E+06         0.82828E+05         0.00000E+00
    0.82828E+05         0.12673E+05         0.00000E+00
    0.00000E+00         0.00000E+00         0.00000E+00
 
    0.11110E+06         0.85524E+05         0.00000E+00
    0.85524E+05         0.14472E+05         0.00000E+00
    0.00000E+00         0.00000E+00         0.00000E+00
 
    0.10760E+06         0.88145E+05         0.00000E+00
    0.88145E+05         0.16326E+05         0.00000E+00
    0.00000E+00         0.00000E+00         0.00000E+00
 
    0.10400E+06         0.90690E+05         0.00000E+00
    0.90690E+05         0.18236E+05         0.00000E+00
    0.00000E+00         0.00000E+00         0.00000E+00
 
    0.10029E+06         0.93157E+05         0.00000E+00
    0.93157E+05         0.20198E+05         0.00000E+00
    0.00000E+00         0.00000E+00         0.00000E+00
 
    0.96484E+05         0.95543E+05         0.00000E+00
    0.95543E+05         0.22212E+05         0.00000E+00
    0.00000E+00         0.00000E+00         0.00000E+00
 
    0.92572E+05         0.97847E+05         0.00000E+00
    0.97847E+05         0.24276E+05         0.00000E+00
    0.00000E+00         0.00000E+00         0.00000E+00
 
    0.88562E+05         0.10007E+06         0.00000E+00
    0.10007E+06         0.26388E+05         0.00000E+00
    0.00000E+00         0.00000E+00         0.00000E+00
 
    0.84455E+05         0.10220E+06         0.00000E+00
    0.10220E+06         0.28546E+05         0.00000E+00
    0.00000E+00         0.00000E+00         0.00000E+00
 
    0.80255E+05         0.10425E+06         0.00000E+00
    0.10425E+06         0.30750E+05         0.00000E+00
    0.00000E+00         0.00000E+00         0.00000E+00
 
    0.75965E+05         0.10620E+06         0.00000E+00
    0.10620E+06         0.32996E+05         0.00000E+00
    0.00000E+00         0.00000E+00         0.00000E+00
 
    0.71587E+05         0.10807E+06         0.00000E+00
    0.10807E+06         0.35284E+05         0.00000E+00
    0.00000E+00         0.00000E+00         0.00000E+00
 
    0.67123E+05         0.10984E+06         0.00000E+00
    0.10984E+06         0.37611E+05         0.00000E+00
    0.00000E+00         0.00000E+00         0.00000E+00
 
    0.62577E+05         0.11152E+06         0.00000E+00
    0.11152E+06         0.39975E+05         0.00000E+00
    0.00000E+00         0.00000E+00         0.00000E+00
 
    0.57952E+05         0.11310E+06         0.00000E+00
    0.11310E+06         0.42376E+05         0.00000E+00
    0.00000E+00         0.00000E+00         0.00000E+00
 
    0.53250E+05         0.11459E+06         0.00000E+00
    0.11459E+06         0.44810E+05         0.00000E+00
    0.00000E+00         0.00000E+00         0.00000E+00
 
    0.48475E+05         0.11598E+06         0.00000E+00
    0.11598E+06         0.47276E+05         0.00000E+00
    0.00000E+00         0.00000E+00         0.00000E+00
 
    0.43628E+05         0.11726E+06         0.00000E+00
    0.11726E+06         0.49772E+05         0.00000E+00
    0.00000E+00         0.00000E+00         0.00000E+00
 
    0.38714E+05         0.11845E+06         0.00000E+00
    0.11845E+06         0.52296E+05         0.00000E+00
    0.00000E+00         0.00000E+00         0.00000E+00
 
    0.33734E+05         0.11953E+06         0.00000E+00
    0.11953E+06         0.54847E+05         0.00000E+00
    0.00000E+00         0.00000E+00         0.00000E+00
 
    0.28693E+05         0.12051E+06         0.00000E+00
    0.12051E+06         0.57421E+05         0.00000E+00
    0.00000E+00         0.00000E+00         0.00000E+00
 
    0.23593E+05         0.12139E+06         0.00000E+00
    0.12139E+06         0.60018E+05         0.00000E+00
    0.00000E+00         0.00000E+00         0.00000E+00
 
    0.18436E+05         0.12216E+06         0.00000E+00
    0.12216E+06         0.62634E+05         0.00000E+00
    0.00000E+00         0.00000E+00         0.00000E+00
 
    0.13228E+05         0.12282E+06         0.00000E+00
    0.12282E+06         0.65269E+05         0.00000E+00
    0.00000E+00         0.00000E+00         0.00000E+00
 
    0.79690E+04         0.12338E+06         0.00000E+00
    0.12338E+06         0.67920E+05         0.00000E+00
    0.00000E+00         0.00000E+00         0.00000E+00
 
    0.26638E+04         0.12382E+06         0.00000E+00
    0.12382E+06         0.70584E+05         0.00000E+00
    0.00000E+00         0.00000E+00         0.00000E+00
 
    0.17502E+06         0.21080E+04         0.00000E+00
    0.21080E+04        -0.12060E+05         0.00000E+00
    0.00000E+00         0.00000E+00         0.00000E+00
 
    0.17482E+06         0.62944E+04         0.00000E+00
    0.62944E+04        -0.11968E+05         0.00000E+00
    0.00000E+00         0.00000E+00         0.00000E+00
 
    0.17446E+06         0.10465E+05         0.00000E+00
    0.10465E+05        -0.11787E+05         0.00000E+00
    0.00000E+00         0.00000E+00         0.00000E+00
 
    0.17393E+06         0.14618E+05         0.00000E+00
    0.14618E+05        -0.11515E+05         0.00000E+00
    0.00000E+00         0.00000E+00         0.00000E+00
 
    0.17324E+06         0.18749E+05         0.00000E+00
    0.18749E+05        -0.11154E+05         0.00000E+00
    0.00000E+00         0.00000E+00         0.00000E+00
 
    0.17238E+06         0.22855E+05         0.00000E+00
    0.22855E+05        -0.10705E+05         0.00000E+00
    0.00000E+00         0.00000E+00         0.00000E+00
 
    0.17136E+06         0.26932E+05         0.00000E+00
    0.26932E+05        -0.10168E+05         0.00000E+00
    0.00000E+00         0.00000E+00         0.00000E+00
 
    0.17017E+06         0.30978E+05         0.00000E+00
    0.30978E+05        -0.95447E+04         0.00000E+00
    0.00000E+00         0.00000E+00         0.00000E+00
 
    0.16883E+06         0.34990E+05         0.00000E+00
    0.34990E+05        -0.88353E+04         0.00000E+00
    0.00000E+00         0.00000E+00         0.00000E+00
 
    0.16733E+06         0.38964E+05         0.00000E+00
    0.38964E+05        -0.80408E+04         0.00000E+00
    0.00000E+00         0.00000E+00         0.00000E+00
 
    0.16567E+06         0.42898E+05         0.00000E+00
    0.42898E+05        -0.71624E+04         0.00000E+00
    0.00000E+00         0.00000E+00         0.00000E+00
 
    0.16385E+06         0.46789E+05         0.00000E+00
    0.46789E+05        -0.62010E+04         0.00000E+00
    0.00000E+00         0.00000E+00         0.00000E+00
 
    0.16189E+06         0.50633E+05         0.00000E+00
    0.50633E+05        -0.51578E+04         0.00000E+00
    0.00000E+00         0.00000E+00         0.00000E+00
 
    0.15977E+06         0.54427E+05         0.00000E+00
    0.54427E+05        -0.40338E+04         0.00000E+00
    0.00000E+00         0.00000E+00         0.00000E+00
 
    0.15750E+06         0.58170E+05         0.00000E+00
    0.58170E+05        -0.28302E+04         0.00000E+00
    0.00000E+00         0.00000E+00         0.00000E+00
 
    0.15508E+06         0.61857E+05         0.00000E+00
    0.61857E+05        -0.15484E+04         0.00000E+00
    0.00000E+00         0.00000E+00         0.00000E+00
 
    0.15252E+06         0.65487E+05         0.00000E+00
    0.65487E+05        -0.18944E+03         0.00000E+00
    0.00000E+00         0.00000E+00         0.00000E+00
 
    0.14982E+06         0.69057E+05         0.00000E+00
    0.69057E+05         0.12452E+04         0.00000E+00
    0.00000E+00         0.00000E+00         0.00000E+00
 
    0.14697E+06         0.72564E+05         0.00000E+00
    0.72564E+05         0.27543E+04         0.00000E+00
    0.00000E+00         0.00000E+00         0.00000E+00
 
    0.14399E+06         0.76005E+05         0.00000E+00
    0.76005E+05         0.43364E+04         0.00000E+00
    0.00000E+00         0.00000E+00         0.00000E+00
 
    0.14087E+06         0.79378E+05         0.00000E+00
    0.79378E+05         0.59901E+04         0.00000E+00
    0.00000E+00         0.00000E+00         0.00000E+00
 
    0.13761E+06         0.82680E+05         0.00000E+00
    0.82680E+05         0.77138E+04         0.00000E+00
    0.00000E+00         0.00000E+00         0.00000E+00
 
    0.13422E+06         0.85909E+05         0.00000E+00
    0.85909E+05         0.95061E+04         0.00000E+00
    0.00000E+00         0.00000E+00         0.00000E+00
 
    0.13071E+06         0.89063E+05         0.00000E+00
    0.89063E+05         0.11365E+05         0.00000E+00
    0.00000E+00         0.00000E+00         0.00000E+00
 
    0.12706E+06         0.92138E+05         0.00000E+00
    0.92138E+05         0.13290E+05         0.00000E+00
    0.00000E+00         0.00000E+00         0.00000E+00
 
    0.12329E+06         0.95134E+05         0.00000E+00
    0.95134E+05         0.15279E+05         0.00000E+00
    0.00000E+00         0.00000E+00         0.00000E+00
 
    0.11940E+06         0.98047E+05         0.00000E+00
    0.98047E+05         0.17329E+05         0.00000E+00
    0.00000E+00         0.00000E+00         0.00000E+00
 
    0.11540E+06         0.10088E+06         0.00000E+00
    0.10088E+06         0.19441E+05         0.00000E+00
    0.00000E+00         0.00000E+00         0.00000E+00
 
    0.11127E+06         0.10362E+06         0.00000E+00
    0.10362E+06         0.21610E+05         0.00000E+00
    0.00000E+00         0.00000E+00         0.00000E+00
 
    0.10703E+06         0.10627E+06         0.00000E+00
    0.10627E+06         0.23837E+05         0.00000E+00
    0.00000E+00         0.00000E+00         0.00000E+00
 
    0.10268E+06         0.10883E+06         0.00000E+00
    0.10883E+06         0.26119E+05         0.00000E+00
    0.00000E+00         0.00000E+00         0.00000E+00
 
    0.98224E+05         0.11130E+06         0.00000E+00
    0.11130E+06         0.28454E+05         0.00000E+00
    0.00000E+00         0.00000E+00         0.00000E+00
 
    0.93662E+05         0.11367E+06         0.00000E+00
    0.11367E+06         0.30841E+05         0.00000E+00
    0.00000E+00         0.00000E+00         0.00000E+00
 
    0.88996E+05         0.11595E+06         0.00000E+00
    0.11595E+06         0.33278E+05         0.00000E+00
    0.00000E+00         0.00000E+00         0.00000E+00
 
    0.84232E+05         0.11813E+06         0.00000E+00
    0.11813E+06         0.35762E+05         0.00000E+00
    0.00000E+00         0.00000E+00         0.00000E+00
 
    0.79371E+05         0.12021E+06         0.00000E+00
    0.12021E+06         0.38291E+05         0.00000E+00
    0.00000E+00         0.00000E+00         0.00000E+00
 
    0.74417E+05         0.12218E+06         0.00000E+00
    0.12218E+06         0.40865E+05         0.00000E+00
    0.00000E+00         0.00000E+00         0.00000E+00
 
    0.69373E+05         0.12406E+06         0.00000E+00
    0.12406E+06         0.43480E+05         0.00000E+00
    0.00000E+00         0.00000E+00         0.00000E+00
 
    0.64241E+05         0.12582E+06         0.00000E+00
    0.12582E+06         0.46135E+05         0.00000E+00
    0.00000E+00         0.00000E+00         0.00000E+00
 
    0.59025E+05         0.12748E+06         0.00000E+00
    0.12748E+06         0.48827E+05         0.00000E+00
    0.00000E+00         0.00000E+00         0.00000E+00
 
    0.53729E+05         0.12903E+06         0.00000E+00
    0.12903E+06         0.51556E+05         0.00000E+00
    0.00000E+00         0.00000E+00         0.00000E+00
 
    0.48354E+05         0.13047E+06         0.00000E+00
    0.13047E+06         0.54317E+05         0.00000E+00
    0.00000E+00         0.00000E+00         0.00000E+00
 
    0.42905E+05         0.13180E+06         0.00000E+00
    0.13180E+06         0.57111E+05         0.00000E+00
    0.00000E+00         0.00000E+00         0.00000E+00
 
    0.37385E+05         0.13302E+06         0.00000E+00
    0.13302E+06         0.59933E+05         0.00000E+00
    0.00000E+00         0.00000E+00         0.00000E+00
 
    0.31797E+05         0.13412E+06         0.00000E+00
    0.13412E+06         0.62782E+05         0.00000E+00
    0.00000E+00         0.00000E+00         0.00000E+00
 
    0.26144E+05         0.13511E+06         0.00000E+00
    0.13511E+06         0.65657E+05         0.00000E+00
    0.00000E+00         0.00000E+00         0.00000E+00
 
    0.20430E+05         0.13598E+06         0.00000E+00
    0.13598E+06         0.68554E+05         0.00000E+00
    0.00000E+00         0.00000E+00         0.00000E+00
 
    0.14657E+05         0.13674E+06         0.00000E+00
    0.13674E+06         0.71471E+05         0.00000E+00
    0.00000E+00         0.00000E+00         0.00000E+00
 
    0.88300E+04         0.13737E+06         0.00000E+00
    0.13737E+06         0.74407E+05         0.00000E+00
    0.00000E+00         0.00000E+00         0.00000E+00
 
    0.29516E+04         0.13789E+06         0.00000E+00
    0.13789E+06         0.77359E+05         0.00000E+00
    0.00000E+00         0.00000E+00         0.00000E+00
 
    0.19502E+06         0.23506E+04         0.00000E+00
    0.23506E+04        -0.14196E+05         0.00000E+00
    0.00000E+00         0.00000E+00         0.00000E+00
 
    0.19475E+06         0.70144E+04         0.00000E+00
    0.70144E+04        -0.14095E+05         0.00000E+00
    0.00000E+00         0.00000E+00         0.00000E+00
 
    0.19430E+06         0.11660E+05         0.00000E+00
    0.11660E+05        -0.13893E+05         0.00000E+00
    0.00000E+00         0.00000E+00         0.00000E+00
 
    0.19366E+06         0.16283E+05         0.00000E+00
    0.16283E+05        -0.13593E+05         0.00000E+00
    0.00000E+00         0.00000E+00         0.00000E+00
 
    0.19284E+06         0.20881E+05         0.00000E+00
    0.20881E+05        -0.13193E+05         0.00000E+00
    0.00000E+00         0.00000E+00         0.00000E+00
 
    0.19184E+06         0.25450E+05         0.00000E+00
    0.25450E+05        -0.12696E+05         0.00000E+00
    0.00000E+00         0.00000E+00         0.00000E+00
 
    0.19066E+06         0.29986E+05         0.00000E+00
    0.29986E+05        -0.12102E+05         0.00000E+00
    0.00000E+00         0.00000E+00         0.00000E+00
 
    0.18930E+06         0.34487E+05         0.00000E+00
    0.34487E+05        -0.11412E+05         0.00000E+00
    0.00000E+00         0.00000E+00         0.00000E+00
 
    0.18776E+06         0.38948E+05         0.00000E+00
    0.38948E+05        -0.10627E+05         0.00000E+00
    0.00000E+00         0.00000E+00         0.00000E+00
 
    0.18605E+06         0.43366E+05         0.00000E+00
    0.43366E+05        -0.97482E+04         0.00000E+00
    0.00000E+00         0.00000E+00         0.00000E+00
 
    0.18417E+06         0.47739E+05         0.00000E+00
    0.47739E+05        -0.87766E+04         0.00000E+00
    0.00000E+00         0.00000E+00         0.00000E+00
 
    0.18211E+06         0.52063E+05         0.00000E+00
    0.52063E+05        -0.77134E+04         0.00000E+00
    0.00000E+00         0.00000E+00         0.00000E+00
 
    0.17989E+06         0.56334E+05         0.00000E+00
    0.56334E+05        -0.65598E+04         0.00000E+00
    0.00000E+00         0.00000E+00         0.00000E+00
 
    0.17750E+06         0.60550E+05         0.00000E+00
    0.60550E+05        -0.53171E+04         0.00000E+00
    0.00000E+00         0.00000E+00         0.00000E+00
 
    0.17495E+06         0.64707E+05         0.00000E+00
    0.64707E+05        -0.39866E+04         0.00000E+00
    0.00000E+00         0.00000E+00         0.00000E+00
 
    0.17224E+06         0.68803E+05         0.00000E+00
    0.68803E+05        -0.25697E+04         0.00000E+00
    0.00000E+00         0.00000E+00         0.00000E+00
 
    0.16937E+06         0.72835E+05         0.00000E+00
    0.72835E+05        -0.10677E+04         0.00000E+00
    0.00000E+00         0.00000E+00         0.00000E+00
 
    0.16633E+06         0.76799E+05         0.00000E+00
    0.76799E+05         0.51793E+03         0.00000E+00
    0.00000E+00         0.00000E+00         0.00000E+00
 
    0.16315E+06         0.80693E+05         0.00000E+00
    0.80693E+05         0.21856E+04         0.00000E+00
    0.00000E+00         0.00000E+00         0.00000E+00
 
    0.15981E+06         0.84514E+05         0.00000E+00
    0.84514E+05         0.39338E+04         0.00000E+00
    0.00000E+00         0.00000E+00         0.00000E+00
 
    0.15632E+06         0.88259E+05         0.00000E+00
    0.88259E+05         0.57610E+04         0.00000E+00
    0.00000E+00         0.00000E+00         0.00000E+00
 
    0.15269E+06         0.91926E+05         0.00000E+00
    0.91926E+05         0.76655E+04         0.00000E+00
    0.00000E+00         0.00000E+00         0.00000E+00
 
    0.14891E+06         0.95511E+05         0.00000E+00
    0.95511E+05         0.96456E+04         0.00000E+00
    0.00000E+00         0.00000E+00         0.00000E+00
 
    0.14499E+06         0.99013E+05         0.00000E+00
    0.99013E+05         0.11700E+05         0.00000E+00
    0.00000E+00         0.00000E+00         0.00000E+00
 
    0.14093E+06         0.10243E+06         0.00000E+00
    0.10243E+06         0.13826E+05         0.00000E+00
    0.00000E+00         0.00000E+00         0.00000E+00
 
    0.13673E+06         0.10575E+06         0.00000E+00
    0.10575E+06         0.16023E+05         0.00000E+00
    0.00000E+00         0.00000E+00         0.00000E+00
 
    0.13240E+06         0.10899E+06         0.00000E+00
    0.10899E+06         0.18288E+05         0.00000E+00
    0.00000E+00         0.00000E+00         0.00000E+00
 
    0.12794E+06         0.11213E+06         0.00000E+00
    0.11213E+06         0.20620E+05         0.00000E+00
    0.00000E+00         0.00000E+00         0.00000E+00
 
    0.12336E+06         0.11518E+06         0.00000E+00
    0.11518E+06         0.23017E+05         0.00000E+00
    0.00000E+00         0.00000E+00         0.00000E+00
 
    0.11865E+06         0.11812E+06         0.00000E+00
    0.11812E+06         0.25477E+05         0.00000E+00
    0.00000E+00         0.00000E+00         0.00000E+00
 
    0.11381E+06         0.12097E+06         0.00000E+00
    0.12097E+06         0.27998E+05         0.00000E+00
    0.00000E+00         0.00000E+00         0.00000E+00
 
    0.10886E+06         0.12372E+06         0.00000E+00
    0.12372E+06         0.30577E+05         0.00000E+00
    0.00000E+00         0.00000E+00         0.00000E+00
 
    0.10379E+06         0.12636E+06         0.00000E+00
    0.12636E+06         0.33214E+05         0.00000E+00
    0.00000E+00         0.00000E+00         0.00000E+00
 
    0.98616E+05         0.12889E+06         0.00000E+00
    0.12889E+06         0.35906E+05         0.00000E+00
    0.00000E+00         0.00000E+00         0.00000E+00
 
    0.93329E+05         0.13131E+06         0.00000E+00
    0.13131E+06         0.38650E+05         0.00000E+00
    0.00000E+00         0.00000E+00         0.00000E+00
 
    0.87936E+05         0.13363E+06         0.00000E+00
    0.13363E+06         0.41445E+05         0.00000E+00
    0.00000E+00         0.00000E+00         0.00000E+00
 
    0.82441E+05         0.13583E+06         0.00000E+00
    0.13583E+06         0.44288E+05         0.00000E+00
    0.00000E+00         0.00000E+00         0.00000E+00
 
    0.76847E+05         0.13792E+06         0.00000E+00
    0.13792E+06         0.47178E+05         0.00000E+00
    0.00000E+00         0.00000E+00         0.00000E+00
 
    0.71158E+05         0.13989E+06         0.00000E+00
    0.13989E+06         0.50112E+05         0.00000E+00
    0.00000E+00         0.00000E+00         0.00000E+00
 
    0.65377E+05         0.14174E+06         0.00000E+00
    0.14174E+06         0.53088E+05         0.00000E+00
    0.00000E+00         0.00000E+00         0.00000E+00
 
    0.59507E+05         0.14347E+06         0.00000E+00
    0.14347E+06         0.56104E+05         0.00000E+00
    0.00000E+00         0.00000E+00         0.00000E+00
 
    0.53552E+05         0.14509E+06         0.00000E+00
    0.14509E+06         0.59157E+05         0.00000E+00
    0.00000E+00         0.00000E+00         0.00000E+00
 
    0.47515E+05         0.14658E+06         0.00000E+00
    0.14658E+06         0.62245E+05         0.00000E+00
    0.00000E+00         0.00000E+00         0.00000E+00
 
    0.41399E+05         0.14794E+06         0.00000E+00
    0.14794E+06         0.65366E+05         0.00000E+00
    0.00000E+00         0.00000E+00         0.00000E+00
 
    0.35210E+05         0.14918E+06         0.00000E+00
    0.14918E+06         0.68517E+05         0.00000E+00
    0.00000E+00         0.00000E+00         0.00000E+00
 
    0.28949E+05         0.15030E+06         0.00000E+00
    0.15030E+06         0.71696E+05         0.00000E+00
    0.00000E+00         0.00000E+00         0.00000E+00
 
    0.22621E+05         0.15128E+06         0.00000E+00
    0.15128E+06         0.74901E+05         0.00000E+00
    0.00000E+00         0.00000E+00         0.00000E+00
 
    0.16229E+05         0.15214E+06         0.00000E+00
    0.15214E+06         0.78129E+05         0.00000E+00
    0.00000E+00         0.00000E+00         0.00000E+00
 
    0.97766E+04         0.15287E+06         0.00000E+00
    0.15287E+06         0.81378E+05         0.00000E+00
    0.00000E+00         0.00000E+00         0.00000E+00
 
    0.32680E+04         0.15346E+06         0.00000E+00
    0.15346E+06         0.84645E+05         0.00000E+00
    0.00000E+00         0.00000E+00         0.00000E+00
 
    0.21718E+06         0.26194E+04         0.00000E+00
    0.26194E+04        -0.16699E+05         0.00000E+00
    0.00000E+00         0.00000E+00         0.00000E+00
 
    0.21682E+06         0.78118E+04         0.00000E+00
    0.78118E+04        -0.16587E+05         0.00000E+00
    0.00000E+00         0.00000E+00         0.00000E+00
 
    0.21626E+06         0.12982E+05         0.00000E+00
    0.12982E+05        -0.16364E+05         0.00000E+00
    0.00000E+00         0.00000E+00         0.00000E+00
 
    0.21549E+06         0.18126E+05         0.00000E+00
    0.18126E+05        -0.16031E+05         0.00000E+00
    0.00000E+00         0.00000E+00         0.00000E+00
 
    0.21452E+06         0.23241E+05         0.00000E+00
    0.23241E+05        -0.15590E+05         0.00000E+00
    0.00000E+00         0.00000E+00         0.00000E+00
 
    0.21335E+06         0.28321E+05         0.00000E+00
    0.28321E+05        -0.15040E+05         0.00000E+00
    0.00000E+00         0.00000E+00         0.00000E+00
 
    0.21199E+06         0.33365E+05         0.00000E+00
    0.33365E+05        -0.14383E+05         0.00000E+00
    0.00000E+00         0.00000E+00         0.00000E+00
 
    0.21043E+06         0.38367E+05         0.00000E+00
    0.38367E+05        -0.13620E+05         0.00000E+00
    0.00000E+00         0.00000E+00         0.00000E+00
 
    0.20867E+06         0.43324E+05         0.00000E+00
    0.43324E+05        -0.12753E+05         0.00000E+00
    0.00000E+00         0.00000E+00         0.00000E+00
 
    0.20673E+06         0.48233E+05         0.00000E+00
    0.48233E+05        -0.11781E+05         0.00000E+00
    0.00000E+00         0.00000E+00         0.00000E+00
 
    0.20459E+06         0.53090E+05         0.00000E+00
    0.53090E+05        -0.10708E+05         0.00000E+00
    0.00000E+00         0.00000E+00         0.00000E+00
 
    0.20227E+06         0.57892E+05         0.00000E+00
    0.57892E+05        -0.95332E+04         0.00000E+00
    0.00000E+00         0.00000E+00         0.00000E+00
 
    0.19976E+06         0.62635E+05         0.00000E+00
    0.62635E+05        -0.82589E+04         0.00000E+00
    0.00000E+00         0.00000E+00         0.00000E+00
 
    0.19707E+06         0.67316E+05         0.00000E+00
    0.67316E+05        -0.68863E+04         0.00000E+00
    0.00000E+00         0.00000E+00         0.00000E+00
 
    0.19420E+06         0.71931E+05         0.00000E+00
    0.71931E+05        -0.54169E+04         0.00000E+00
    0.00000E+00         0.00000E+00         0.00000E+00
 
    0.19116E+06         0.76477E+05         0.00000E+00
    0.76477E+05        -0.38522E+04         0.00000E+00
    0.00000E+00         0.00000E+00         0.00000E+00
 
    0.18793E+06         0.80952E+05         0.00000E+00
    0.80952E+05        -0.21937E+04         0.00000E+00
    0.00000E+00         0.00000E+00         0.00000E+00
 
    0.18454E+06         0.85351E+05         0.00000E+00
    0.85351E+05        -0.44309E+03         0.00000E+00
    0.00000E+00         0.00000E+00         0.00000E+00
 
    0.18098E+06         0.89672E+05         0.00000E+00
    0.89672E+05         0.13980E+04         0.00000E+00
    0.00000E+00         0.00000E+00         0.00000E+00
 
    0.17725E+06         0.93912E+05         0.00000E+00
    0.93912E+05         0.33278E+04         0.00000E+00
    0.00000E+00         0.00000E+00         0.00000E+00
 
    0.17335E+06         0.98067E+05         0.00000E+00
    0.98067E+05         0.53447E+04         0.00000E+00
    0.00000E+00         0.00000E+00         0.00000E+00
 
    0.16930E+06         0.10214E+06         0.00000E+00
    0.10214E+06         0.74468E+04         0.00000E+00
    0.00000E+00         0.00000E+00         0.00000E+00
 
    0.16508E+06         0.10611E+06         0.00000E+00
    0.10611E+06         0.96324E+04         0.00000E+00
    0.00000E+00         0.00000E+00         0.00000E+00
 
    0.16071E+06         0.11000E+06         0.00000E+00
    0.11000E+06         0.11899E+05         0.00000E+00
    0.00000E+00         0.00000E+00         0.00000E+00
 
    0.15619E+06         0.11379E+06         0.00000E+00
    0.11379E+06         0.14246E+05         0.00000E+00
    0.00000E+00         0.00000E+00         0.00000E+00
 
    0.15152E+06         0.11748E+06         0.00000E+00
    0.11748E+06         0.16670E+05         0.00000E+00
    0.00000E+00         0.00000E+00         0.00000E+00
 
    0.14671E+06         0.12107E+06         0.00000E+00
    0.12107E+06         0.19170E+05         0.00000E+00
    0.00000E+00         0.00000E+00         0.00000E+00
 
    0.14175E+06         0.12456E+06         0.00000E+00
    0.12456E+06         0.21744E+05         0.00000E+00
    0.00000E+00         0.00000E+00         0.00000E+00
 
    0.13665E+06         0.12794E+06         0.00000E+00
    0.12794E+06         0.24389E+05         0.00000E+00
    0.00000E+00         0.00000E+00         0.00000E+00
 
    0.13142E+06         0.13121E+06         0.00000E+00
    0.13121E+06         0.27104E+05         0.00000E+00
    0.00000E+00         0.00000E+00         0.00000E+00
 
    0.12605E+06         0.13438E+06         0.00000E+00
    0.13438E+06         0.29886E+05         0.00000E+00
    0.00000E+00         0.00000E+00         0.00000E+00
 
    0.12056E+06         0.13743E+06         0.00000E+00
    0.13743E+06         0.32733E+05         0.00000E+00
    0.00000E+00         0.00000E+00         0.00000E+00
 
    0.11493E+06         0.14036E+06         0.00000E+00
    0.14036E+06         0.35643E+05         0.00000E+00
    0.00000E+00         0.00000E+00         0.00000E+00
 
    0.10919E+06         0.14318E+06         0.00000E+00
    0.14318E+06         0.38613E+05         0.00000E+00
    0.00000E+00         0.00000E+00         0.00000E+00
 
    0.10333E+06         0.14587E+06         0.00000E+00
    0.14587E+06         0.41643E+05         0.00000E+00
    0.00000E+00         0.00000E+00         0.00000E+00
 
    0.97349E+05         0.14845E+06         0.00000E+00
    0.14845E+06         0.44728E+05         0.00000E+00
    0.00000E+00         0.00000E+00         0.00000E+00
 
    0.91259E+05         0.15090E+06         0.00000E+00
    0.15090E+06         0.47867E+05         0.00000E+00
    0.00000E+00         0.00000E+00         0.00000E+00
 
    0.85060E+05         0.15322E+06         0.00000E+00
    0.15322E+06         0.51057E+05         0.00000E+00
    0.00000E+00         0.00000E+00         0.00000E+00
 
    0.78758E+05         0.15542E+06         0.00000E+00
    0.15542E+06         0.54297E+05         0.00000E+00
    0.00000E+00         0.00000E+00         0.00000E+00
 
    0.72354E+05         0.15749E+06         0.00000E+00
    0.15749E+06         0.57583E+05         0.00000E+00
    0.00000E+00         0.00000E+00         0.00000E+00
 
    0.65854E+05         0.15943E+06         0.00000E+00
    0.15943E+06         0.60913E+05         0.00000E+00
    0.00000E+00         0.00000E+00         0.00000E+00
 
    0.59260E+05         0.16123E+06         0.00000E+00
    0.16123E+06         0.64285E+05         0.00000E+00
    0.00000E+00         0.00000E+00         0.00000E+00
 
    0.52577E+05         0.16290E+06         0.00000E+00
    0.16290E+06         0.67696E+05         0.00000E+00
    0.00000E+00         0.00000E+00         0.00000E+00
 
    0.45808E+05         0.16444E+06         0.00000E+00
    0.16444E+06         0.71144E+05         0.00000E+00
    0.00000E+00         0.00000E+00         0.00000E+00
 
    0.38958E+05         0.16583E+06         0.00000E+00
    0.16583E+06         0.74626E+05         0.00000E+00
    0.00000E+00         0.00000E+00         0.00000E+00
 
    0.32029E+05         0.16709E+06         0.00000E+00
    0.16709E+06         0.78139E+05         0.00000E+00
    0.00000E+00         0.00000E+00         0.00000E+00
 
    0.25027E+05         0.16820E+06         0.00000E+00
    0.16820E+06         0.81682E+05         0.00000E+00
    0.00000E+00         0.00000E+00         0.00000E+00
 
    0.17954E+05         0.16918E+06         0.00000E+00
    0.16918E+06         0.85251E+05         0.00000E+00
    0.00000E+00         0.00000E+00         0.00000E+00
 
    0.10816E+05         0.17001E+06         0.00000E+00
    0.17001E+06         0.88843E+05         0.00000E+00
    0.00000E+00         0.00000E+00         0.00000E+00
 
    0.36153E+04         0.17070E+06         0.00000E+00
    0.17070E+06         0.92457E+05         0.00000E+00
    0.00000E+00         0.00000E+00         0.00000E+00
 
    0.24170E+06         0.29169E+04         0.00000E+00
    0.29169E+04        -0.19629E+05         0.00000E+00
    0.00000E+00         0.00000E+00         0.00000E+00
 
    0.24123E+06         0.86938E+04         0.00000E+00
    0.86938E+04        -0.19505E+05         0.00000E+00
    0.00000E+00         0.00000E+00         0.00000E+00
 
    0.24054E+06         0.14444E+05         0.00000E+00
    0.14444E+05        -0.19259E+05         0.00000E+00
    0.00000E+00         0.00000E+00         0.00000E+00
 
    0.23962E+06         0.20164E+05         0.00000E+00
    0.20164E+05        -0.18891E+05         0.00000E+00
    0.00000E+00         0.00000E+00         0.00000E+00
 
    0.23848E+06         0.25849E+05         0.00000E+00
    0.25849E+05        -0.18403E+05         0.00000E+00
    0.00000E+00         0.00000E+00         0.00000E+00
 
    0.23712E+06         0.31495E+05         0.00000E+00
    0.31495E+05        -0.17796E+05         0.00000E+00
    0.00000E+00         0.00000E+00         0.00000E+00
 
    0.23554E+06         0.37098E+05         0.00000E+00
    0.37098E+05        -0.17070E+05         0.00000E+00
    0.00000E+00         0.00000E+00         0.00000E+00
 
    0.23375E+06         0.42653E+05         0.00000E+00
    0.42653E+05        -0.16228E+05         0.00000E+00
    0.00000E+00         0.00000E+00         0.00000E+00
 
    0.23175E+06         0.48158E+05         0.00000E+00
    0.48158E+05        -0.15270E+05         0.00000E+00
    0.00000E+00         0.00000E+00         0.00000E+00
 
    0.22954E+06         0.53608E+05         0.00000E+00
    0.53608E+05        -0.14198E+05         0.00000E+00
    0.00000E+00         0.00000E+00         0.00000E+00
 
    0.22712E+06         0.59000E+05         0.00000E+00
    0.59000E+05        -0.13013E+05         0.00000E+00
    0.00000E+00         0.00000E+00         0.00000E+00
 
    0.22449E+06         0.64328E+05         0.00000E+00
    0.64328E+05        -0.11716E+05         0.00000E+00
    0.00000E+00         0.00000E+00         0.00000E+00
 
    0.22166E+06         0.69591E+05         0.00000E+00
    0.69591E+05        -0.10310E+05         0.00000E+00
    0.00000E+00         0.00000E+00         0.00000E+00
 
    0.21863E+06         0.74784E+05         0.00000E+00
    0.74784E+05        -0.87958E+04         0.00000E+00
    0.00000E+00         0.00000E+00         0.00000E+00
 
    0.21541E+06         0.79904E+05         0.00000E+00
    0.79904E+05        -0.71747E+04         0.00000E+00
    0.00000E+00         0.00000E+00         0.00000E+00
 
    0.21199E+06         0.84946E+05         0.00000E+00
    0.84946E+05        -0.54487E+04         0.00000E+00
    0.00000E+00         0.00000E+00         0.00000E+00
 
    0.20838E+06         0.89909E+05         0.00000E+00
    0.89909E+05        -0.36194E+04         0.00000E+00
    0.00000E+00         0.00000E+00         0.00000E+00
 
    0.20458E+06         0.94787E+05         0.00000E+00
    0.94787E+05        -0.16886E+04         0.00000E+00
    0.00000E+00         0.00000E+00         0.00000E+00
 
    0.20060E+06         0.99579E+05         0.00000E+00
    0.99579E+05         0.34180E+03         0.00000E+00
    0.00000E+00         0.00000E+00         0.00000E+00
 
    0.19643E+06         0.10428E+06         0.00000E+00
    0.10428E+06         0.24699E+04         0.00000E+00
    0.00000E+00         0.00000E+00         0.00000E+00
 
    0.19208E+06         0.10889E+06         0.00000E+00
    0.10889E+06         0.46939E+04         0.00000E+00
    0.00000E+00         0.00000E+00         0.00000E+00
 
    0.18756E+06         0.11340E+06         0.00000E+00
    0.11340E+06         0.70117E+04         0.00000E+00
    0.00000E+00         0.00000E+00         0.00000E+00
 
    0.18287E+06         0.11781E+06         0.00000E+00
    0.11781E+06         0.94214E+04         0.00000E+00
    0.00000E+00         0.00000E+00         0.00000E+00
 
    0.17800E+06         0.12212E+06         0.00000E+00
    0.12212E+06         0.11921E+05         0.00000E+00
    0.00000E+00         0.00000E+00         0.00000E+00
 
    0.17297E+06         0.12632E+06         0.00000E+00
    0.12632E+06         0.14508E+05         0.00000E+00
    0.00000E+00         0.00000E+00         0.00000E+00
 
    0.16778E+06         0.13042E+06         0.00000E+00
    0.13042E+06         0.17181E+05         0.00000E+00
    0.00000E+00         0.00000E+00         0.00000E+00
 
    0.16242E+06         0.13440E+06         0.00000E+00
    0.13440E+06         0.19937E+05         0.00000E+00
    0.00000E+00         0.00000E+00         0.00000E+00
 
    0.15692E+06         0.13827E+06         0.00000E+00
    0.13827E+06         0.22774E+05         0.00000E+00
    0.00000E+00         0.00000E+00         0.00000E+00
 
    0.15126E+06         0.14202E+06         0.00000E+00
    0.14202E+06         0.25690E+05         0.00000E+00
    0.00000E+00         0.00000E+00         0.00000E+00
 
    0.14545E+06         0.14565E+06         0.00000E+00
    0.14565E+06         0.28683E+05         0.00000E+00
    0.00000E+00         0.00000E+00         0.00000E+00
 
    0.13949E+06         0.14916E+06         0.00000E+00
    0.14916E+06         0.31750E+05         0.00000E+00
    0.00000E+00         0.00000E+00         0.00000E+00
 
    0.13340E+06         0.15255E+06         0.00000E+00
    0.15255E+06         0.34889E+05         0.00000E+00
    0.00000E+00         0.00000E+00         0.00000E+00
 
    0.12716E+06         0.15581E+06         0.00000E+00
    0.15581E+06         0.38097E+05         0.00000E+00
    0.00000E+00         0.00000E+00         0.00000E+00
 
    0.12080E+06         0.15894E+06         0.00000E+00
    0.15894E+06         0.41373E+05         0.00000E+00
    0.00000E+00         0.00000E+00         0.00000E+00
 
    0.11430E+06         0.16193E+06         0.00000E+00
    0.16193E+06         0.44713E+05         0.00000E+00
    0.00000E+00         0.00000E+00         0.00000E+00
 
    0.10768E+06         0.16480E+06         0.00000E+00
    0.16480E+06         0.48115E+05         0.00000E+00
    0.00000E+00         0.00000E+00         0.00000E+00
 
    0.10094E+06         0.16753E+06         0.00000E+00
    0.16753E+06         0.51577E+05         0.00000E+00
    0.00000E+00         0.00000E+00         0.00000E+00
 
    0.94073E+05         0.17012E+06         0.00000E+00
    0.17012E+06         0.55096E+05         0.00000E+00
    0.00000E+00         0.00000E+00         0.00000E+00
 
    0.87097E+05         0.17257E+06         0.00000E+00
    0.17257E+06         0.58669E+05         0.00000E+00
    0.00000E+00         0.00000E+00         0.00000E+00
 
    0.80010E+05         0.17488E+06         0.00000E+00
    0.17488E+06         0.62294E+05         0.00000E+00
    0.00000E+00         0.00000E+00         0.00000E+00
 
    0.72818E+05         0.17704E+06         0.00000E+00
    0.17704E+06         0.65969E+05         0.00000E+00
    0.00000E+00         0.00000E+00         0.00000E+00
 
    0.65523E+05         0.17906E+06         0.00000E+00
    0.17906E+06         0.69689E+05         0.00000E+00
    0.00000E+00         0.00000E+00         0.00000E+00
 
    0.58131E+05         0.18093E+06         0.00000E+00
    0.18093E+06         0.73454E+05         0.00000E+00
    0.00000E+00         0.00000E+00         0.00000E+00
 
    0.50644E+05         0.18265E+06         0.00000E+00
    0.18265E+06         0.77260E+05         0.00000E+00
    0.00000E+00         0.00000E+00         0.00000E+00
 
    0.43069E+05         0.18422E+06         0.00000E+00
    0.18422E+06         0.81103E+05         0.00000E+00
    0.00000E+00         0.00000E+00         0.00000E+00
 
    0.35408E+05         0.18564E+06         0.00000E+00
    0.18564E+06         0.84983E+05         0.00000E+00
    0.00000E+00         0.00000E+00         0.00000E+00
 
    0.27666E+05         0.18690E+06         0.00000E+00
    0.18690E+06         0.88895E+05         0.00000E+00
    0.00000E+00         0.00000E+00         0.00000E+00
 
    0.19847E+05         0.18801E+06         0.00000E+00
    0.18801E+06         0.92837E+05         0.00000E+00
    0.00000E+00         0.00000E+00         0.00000E+00
 
    0.11956E+05         0.18896E+06         0.00000E+00
    0.18896E+06         0.96806E+05         0.00000E+00
    0.00000E+00         0.00000E+00         0.00000E+00
 
    0.39963E+04         0.18975E+06         0.00000E+00
    0.18975E+06         0.10080E+06         0.00000E+00
    0.00000E+00         0.00000E+00         0.00000E+00
 
    0.26881E+06         0.32460E+04         0.00000E+00
    0.32460E+04        -0.23056E+05         0.00000E+00
    0.00000E+00         0.00000E+00         0.00000E+00
 
    0.26821E+06         0.96684E+04         0.00000E+00
    0.96684E+04        -0.22919E+05         0.00000E+00
    0.00000E+00         0.00000E+00         0.00000E+00
 
    0.26736E+06         0.16059E+05         0.00000E+00
    0.16059E+05        -0.22647E+05         0.00000E+00
    0.00000E+00         0.00000E+00         0.00000E+00
 
    0.26626E+06         0.22414E+05         0.00000E+00
    0.22414E+05        -0.22241E+05         0.00000E+00
    0.00000E+00         0.00000E+00         0.00000E+00
 
    0.26492E+06         0.28729E+05         0.00000E+00
    0.28729E+05        -0.21703E+05         0.00000E+00
    0.00000E+00         0.00000E+00         0.00000E+00
 
    0.26334E+06         0.34998E+05         0.00000E+00
    0.34998E+05        -0.21033E+05         0.00000E+00
    0.00000E+00         0.00000E+00         0.00000E+00
 
    0.26152E+06         0.41218E+05         0.00000E+00
    0.41218E+05        -0.20232E+05         0.00000E+00
    0.00000E+00         0.00000E+00         0.00000E+00
 
    0.25947E+06         0.47384E+05         0.00000E+00
    0.47384E+05        -0.19303E+05         0.00000E+00
    0.00000E+00         0.00000E+00         0.00000E+00
 
    0.25719E+06         0.53492E+05         0.00000E+00
    0.53492E+05        -0.18247E+05         0.00000E+00
    0.00000E+00         0.00000E+00         0.00000E+00
 
    0.25467E+06         0.59538E+05         0.00000E+00
    0.59538E+05        -0.17064E+05         0.00000E+00
    0.00000E+00         0.00000E+00         0.00000E+00
 
    0.25193E+06         0.65518E+05         0.00000E+00
    0.65518E+05        -0.15758E+05         0.00000E+00
    0.00000E+00         0.00000E+00         0.00000E+00
 
    0.24896E+06         0.71427E+05         0.00000E+00
    0.71427E+05        -0.14329E+05         0.00000E+00
    0.00000E+00         0.00000E+00         0.00000E+00
 
    0.24578E+06         0.77263E+05         0.00000E+00
    0.77263E+05        -0.12779E+05         0.00000E+00
    0.00000E+00         0.00000E+00         0.00000E+00
 
    0.24237E+06         0.83020E+05         0.00000E+00
    0.83020E+05        -0.11110E+05         0.00000E+00
    0.00000E+00         0.00000E+00         0.00000E+00
 
    0.23875E+06         0.88694E+05         0.00000E+00
    0.88694E+05        -0.93232E+04         0.00000E+00
    0.00000E+00         0.00000E+00         0.00000E+00
 
    0.23491E+06         0.94283E+05         0.00000E+00
    0.94283E+05        -0.74213E+04         0.00000E+00
    0.00000E+00         0.00000E+00         0.00000E+00
 
    0.23087E+06         0.99783E+05         0.00000E+00
    0.99783E+05        -0.54058E+04         0.00000E+00
    0.00000E+00         0.00000E+00         0.00000E+00
 
    0.22662E+06         0.10519E+06         0.00000E+00
    0.10519E+06        -0.32786E+04         0.00000E+00
    0.00000E+00         0.00000E+00         0.00000E+00
 
    0.22217E+06         0.11050E+06         0.00000E+00
    0.11050E+06        -0.10419E+04         0.00000E+00
    0.00000E+00         0.00000E+00         0.00000E+00
 
    0.21751E+06         0.11571E+06         0.00000E+00
    0.11571E+06         0.13023E+04         0.00000E+00
    0.00000E+00         0.00000E+00         0.00000E+00
 
    0.21267E+06         0.12081E+06         0.00000E+00
    0.12081E+06         0.37519E+04         0.00000E+00
    0.00000E+00         0.00000E+00         0.00000E+00
 
    0.20763E+06         0.12581E+06         0.00000E+00
    0.12581E+06         0.63048E+04         0.00000E+00
    0.00000E+00         0.00000E+00         0.00000E+00
 
    0.20240E+06         0.13070E+06         0.00000E+00
    0.13070E+06         0.89587E+04         0.00000E+00
    0.00000E+00         0.00000E+00         0.00000E+00
 
    0.19699E+06         0.13547E+06         0.00000E+00
    0.13547E+06         0.11711E+05         0.00000E+00
    0.00000E+00         0.00000E+00         0.00000E+00
 
    0.19139E+06         0.14013E+06         0.00000E+00
    0.14013E+06         0.14561E+05         0.00000E+00
    0.00000E+00         0.00000E+00         0.00000E+00
 
    0.18562E+06         0.14467E+06         0.00000E+00
    0.14467E+06         0.17504E+05         0.00000E+00
    0.00000E+00         0.00000E+00         0.00000E+00
 
    0.17968E+06         0.14908E+06         0.00000E+00
    0.14908E+06         0.20539E+05         0.00000E+00
    0.00000E+00         0.00000E+00         0.00000E+00
 
    0.17356E+06         0.15337E+06         0.00000E+00
    0.15337E+06         0.23664E+05         0.00000E+00
    0.00000E+00         0.00000E+00         0.00000E+00
 
    0.16728E+06         0.15753E+06         0.00000E+00
    0.15753E+06         0.26875E+05         0.00000E+00
    0.00000E+00         0.00000E+00         0.00000E+00
 
    0.16084E+06         0.16156E+06         0.00000E+00
    0.16156E+06         0.30171E+05         0.00000E+00
    0.00000E+00         0.00000E+00         0.00000E+00
 
    0.15424E+06         0.16546E+06         0.00000E+00
    0.16546E+06         0.33549E+05         0.00000E+00
    0.00000E+00         0.00000E+00         0.00000E+00
 
    0.14748E+06         0.16921E+06         0.00000E+00
    0.16921E+06         0.37006E+05         0.00000E+00
    0.00000E+00         0.00000E+00         0.00000E+00
 
    0.14058E+06         0.17283E+06         0.00000E+00
    0.17283E+06         0.40540E+05         0.00000E+00
    0.00000E+00         0.00000E+00         0.00000E+00
 
    0.13353E+06         0.17631E+06         0.00000E+00
    0.17631E+06         0.44148E+05         0.00000E+00
    0.00000E+00         0.00000E+00         0.00000E+00
 
    0.12633E+06         0.17964E+06         0.00000E+00
    0.17964E+06         0.47827E+05         0.00000E+00
    0.00000E+00         0.00000E+00         0.00000E+00
 
    0.11900E+06         0.18282E+06         0.00000E+00
    0.18282E+06         0.51575E+05         0.00000E+00
    0.00000E+00         0.00000E+00         0.00000E+00
 
    0.11154E+06         0.18586E+06         0.00000E+00
    0.18586E+06         0.55389E+05         0.00000E+00
    0.00000E+00         0.00000E+00         0.00000E+00
 
    0.10395E+06         0.18874E+06         0.00000E+00
    0.18874E+06         0.59266E+05         0.00000E+00
    0.00000E+00         0.00000E+00         0.00000E+00
 
    0.96235E+05         0.19147E+06         0.00000E+00
    0.19147E+06         0.63204E+05         0.00000E+00
    0.00000E+00         0.00000E+00         0.00000E+00
 
    0.88399E+05         0.19405E+06         0.00000E+00
    0.19405E+06         0.67199E+05         0.00000E+00
    0.00000E+00         0.00000E+00         0.00000E+00
 
    0.80448E+05         0.19646E+06         0.00000E+00
    0.19646E+06         0.71249E+05         0.00000E+00
    0.00000E+00         0.00000E+00         0.00000E+00
 
    0.72385E+05         0.19872E+06         0.00000E+00
    0.19872E+06         0.75350E+05         0.00000E+00
    0.00000E+00         0.00000E+00         0.00000E+00
 
    0.64215E+05         0.20081E+06         0.00000E+00
    0.20081E+06         0.79501E+05         0.00000E+00
    0.00000E+00         0.00000E+00         0.00000E+00
 
    0.55942E+05         0.20274E+06         0.00000E+00
    0.20274E+06         0.83698E+05         0.00000E+00
    0.00000E+00         0.00000E+00         0.00000E+00
 
    0.47572E+05         0.20451E+06         0.00000E+00
    0.20451E+06         0.87937E+05         0.00000E+00
    0.00000E+00         0.00000E+00         0.00000E+00
 
    0.39109E+05         0.20611E+06         0.00000E+00
    0.20611E+06         0.92216E+05         0.00000E+00
    0.00000E+00         0.00000E+00         0.00000E+00
 
    0.30556E+05         0.20754E+06         0.00000E+00
    0.20754E+06         0.96533E+05         0.00000E+00
    0.00000E+00         0.00000E+00         0.00000E+00
 
    0.21920E+05         0.20880E+06         0.00000E+00
    0.20880E+06         0.10088E+06         0.00000E+00
    0.00000E+00         0.00000E+00         0.00000E+00
 
    0.13204E+05         0.20989E+06         0.00000E+00
    0.20989E+06         0.10526E+06         0.00000E+00
    0.00000E+00         0.00000E+00         0.00000E+00
 
    0.44135E+04         0.21080E+06         0.00000E+00
    0.21080E+06         0.10967E+06         0.00000E+00
    0.00000E+00         0.00000E+00         0.00000E+00
 
    0.29875E+06         0.36095E+04         0.00000E+00
    0.36095E+04        -0.27062E+05         0.00000E+00
    0.00000E+00         0.00000E+00         0.00000E+00
 
    0.29798E+06         0.10744E+05         0.00000E+00
    0.10744E+05        -0.26911E+05         0.00000E+00
    0.00000E+00         0.00000E+00         0.00000E+00
 
    0.29695E+06         0.17842E+05         0.00000E+00
    0.17842E+05        -0.26611E+05         0.00000E+00
    0.00000E+00         0.00000E+00         0.00000E+00
 
    0.29565E+06         0.24897E+05         0.00000E+00
    0.24897E+05        -0.26163E+05         0.00000E+00
    0.00000E+00         0.00000E+00         0.00000E+00
 
    0.29408E+06         0.31905E+05         0.00000E+00
    0.31905E+05        -0.25569E+05         0.00000E+00
    0.00000E+00         0.00000E+00         0.00000E+00
 
    0.29224E+06         0.38861E+05         0.00000E+00
    0.38861E+05        -0.24830E+05         0.00000E+00
    0.00000E+00         0.00000E+00         0.00000E+00
 
    0.29015E+06         0.45761E+05         0.00000E+00
    0.45761E+05        -0.23949E+05         0.00000E+00
    0.00000E+00         0.00000E+00         0.00000E+00
 
    0.28780E+06         0.52599E+05         0.00000E+00
    0.52599E+05        -0.22925E+05         0.00000E+00
    0.00000E+00         0.00000E+00         0.00000E+00
 
    0.28520E+06         0.59371E+05         0.00000E+00
    0.59371E+05        -0.21761E+05         0.00000E+00
    0.00000E+00         0.00000E+00         0.00000E+00
 
    0.28234E+06         0.66073E+05         0.00000E+00
    0.66073E+05        -0.20459E+05         0.00000E+00
    0.00000E+00         0.00000E+00         0.00000E+00
 
    0.27923E+06         0.72700E+05         0.00000E+00
    0.72700E+05        -0.19020E+05         0.00000E+00
    0.00000E+00         0.00000E+00         0.00000E+00
 
    0.27588E+06         0.79248E+05         0.00000E+00
    0.79248E+05        -0.17446E+05         0.00000E+00
    0.00000E+00         0.00000E+00         0.00000E+00
 
    0.27229E+06         0.85713E+05         0.00000E+00
    0.85713E+05        -0.15740E+05         0.00000E+00
    0.00000E+00         0.00000E+00         0.00000E+00
 
    0.26846E+06         0.92090E+05         0.00000E+00
    0.92090E+05        -0.13903E+05         0.00000E+00
    0.00000E+00         0.00000E+00         0.00000E+00
 
    0.26439E+06         0.98375E+05         0.00000E+00
    0.98375E+05        -0.11936E+05         0.00000E+00
    0.00000E+00         0.00000E+00         0.00000E+00
 
    0.26010E+06         0.10456E+06         0.00000E+00
    0.10456E+06        -0.98428E+04         0.00000E+00
    0.00000E+00         0.00000E+00         0.00000E+00
 
    0.25557E+06         0.11065E+06         0.00000E+00
    0.11065E+06        -0.76248E+04         0.00000E+00
    0.00000E+00         0.00000E+00         0.00000E+00
 
    0.25082E+06         0.11664E+06         0.00000E+00
    0.11664E+06        -0.52841E+04         0.00000E+00
    0.00000E+00         0.00000E+00         0.00000E+00
 
    0.24585E+06         0.12252E+06         0.00000E+00
    0.12252E+06        -0.28230E+04         0.00000E+00
    0.00000E+00         0.00000E+00         0.00000E+00
 
    0.24066E+06         0.12829E+06         0.00000E+00
    0.12829E+06        -0.24371E+03         0.00000E+00
    0.00000E+00         0.00000E+00         0.00000E+00
 
    0.23526E+06         0.13394E+06         0.00000E+00
    0.13394E+06         0.24513E+04         0.00000E+00
    0.00000E+00         0.00000E+00         0.00000E+00
 
    0.22964E+06         0.13947E+06         0.00000E+00
    0.13947E+06         0.52599E+04         0.00000E+00
    0.00000E+00         0.00000E+00         0.00000E+00
 
    0.22383E+06         0.14489E+06         0.00000E+00
    0.14489E+06         0.81794E+04         0.00000E+00
    0.00000E+00         0.00000E+00         0.00000E+00
 
    0.21781E+06         0.15017E+06         0.00000E+00
    0.15017E+06         0.11208E+05         0.00000E+00
    0.00000E+00         0.00000E+00         0.00000E+00
 
    0.21159E+06         0.15533E+06         0.00000E+00
    0.15533E+06         0.14342E+05         0.00000E+00
    0.00000E+00         0.00000E+00         0.00000E+00
 
    0.20518E+06         0.16035E+06         0.00000E+00
    0.16035E+06         0.17580E+05         0.00000E+00
    0.00000E+00         0.00000E+00         0.00000E+00
 
    0.19859E+06         0.16524E+06         0.00000E+00
    0.16524E+06         0.20918E+05         0.00000E+00
    0.00000E+00         0.00000E+00         0.00000E+00
 
    0.19180E+06         0.17000E+06         0.00000E+00
    0.17000E+06         0.24355E+05         0.00000E+00
    0.00000E+00         0.00000E+00         0.00000E+00
 
    0.18484E+06         0.17461E+06         0.00000E+00
    0.17461E+06         0.27888E+05         0.00000E+00
    0.00000E+00         0.00000E+00         0.00000E+00
 
    0.17770E+06         0.17907E+06         0.00000E+00
    0.17907E+06         0.31514E+05         0.00000E+00
    0.00000E+00         0.00000E+00         0.00000E+00
 
    0.17039E+06         0.18339E+06         0.00000E+00
    0.18339E+06         0.35230E+05         0.00000E+00
    0.00000E+00         0.00000E+00         0.00000E+00
 
    0.16291E+06         0.18756E+06         0.00000E+00
    0.18756E+06         0.39033E+05         0.00000E+00
    0.00000E+00         0.00000E+00         0.00000E+00
 
    0.15526E+06         0.19157E+06         0.00000E+00
    0.19157E+06         0.42921E+05         0.00000E+00
    0.00000E+00         0.00000E+00         0.00000E+00
 
    0.14746E+06         0.19543E+06         0.00000E+00
    0.19543E+06         0.46891E+05         0.00000E+00
    0.00000E+00         0.00000E+00         0.00000E+00
 
    0.13951E+06         0.19913E+06         0.00000E+00
    0.19913E+06         0.50939E+05         0.00000E+00
    0.00000E+00         0.00000E+00         0.00000E+00
 
    0.13140E+06         0.20267E+06         0.00000E+00
    0.20267E+06         0.55064E+05         0.00000E+00
    0.00000E+00         0.00000E+00         0.00000E+00
 
    0.12315E+06         0.20604E+06         0.00000E+00
    0.20604E+06         0.59261E+05         0.00000E+00
    0.00000E+00         0.00000E+00         0.00000E+00
 
    0.11476E+06         0.20925E+06         0.00000E+00
    0.20925E+06         0.63529E+05         0.00000E+00
    0.00000E+00         0.00000E+00         0.00000E+00
 
    0.10624E+06         0.21229E+06         0.00000E+00
    0.21229E+06         0.67863E+05         0.00000E+00
    0.00000E+00         0.00000E+00         0.00000E+00
 
    0.97580E+05         0.21516E+06         0.00000E+00
    0.21516E+06         0.72262E+05         0.00000E+00
    0.00000E+00         0.00000E+00         0.00000E+00
 
    0.88796E+05         0.21786E+06         0.00000E+00
    0.21786E+06         0.76721E+05         0.00000E+00
    0.00000E+00         0.00000E+00         0.00000E+00
 
    0.79892E+05         0.22038E+06         0.00000E+00
    0.22038E+06         0.81238E+05         0.00000E+00
    0.00000E+00         0.00000E+00         0.00000E+00
 
    0.70871E+05         0.22273E+06         0.00000E+00
    0.22273E+06         0.85809E+05         0.00000E+00
    0.00000E+00         0.00000E+00         0.00000E+00
 
    0.61738E+05         0.22490E+06         0.00000E+00
    0.22490E+06         0.90432E+05         0.00000E+00
    0.00000E+00         0.00000E+00         0.00000E+00
 
    0.52499E+05         0.22688E+06         0.00000E+00
    0.22688E+06         0.95104E+05         0.00000E+00
    0.00000E+00         0.00000E+00         0.00000E+00
 
    0.43157E+05         0.22868E+06         0.00000E+00
    0.22868E+06         0.99820E+05         0.00000E+00
    0.00000E+00         0.00000E+00         0.00000E+00
 
    0.33718E+05         0.23030E+06         0.00000E+00
    0.23030E+06         0.10458E+06         0.00000E+00
    0.00000E+00         0.00000E+00         0.00000E+00
 
    0.24188E+05         0.23174E+06         0.00000E+00
    0.23174E+06         0.10937E+06         0.00000E+00
    0.00000E+00         0.00000E+00         0.00000E+00
 
    0.14570E+05         0.23298E+06         0.00000E+00
    0.23298E+06         0.11421E+06         0.00000E+00
    0.00000E+00         0.00000E+00         0.00000E+00
 
    0.48698E+04         0.23404E+06         0.00000E+00
    0.23404E+06         0.11907E+06         0.00000E+00
    0.00000E+00         0.00000E+00         0.00000E+00
 
    0.33177E+06         0.40106E+04         0.00000E+00
    0.40106E+04        -0.31738E+05         0.00000E+00
    0.00000E+00         0.00000E+00         0.00000E+00
 
    0.33082E+06         0.11930E+05         0.00000E+00
    0.11930E+05        -0.31572E+05         0.00000E+00
    0.00000E+00         0.00000E+00         0.00000E+00
 
    0.32956E+06         0.19806E+05         0.00000E+00
    0.19806E+05        -0.31241E+05         0.00000E+00
    0.00000E+00         0.00000E+00         0.00000E+00
 
    0.32802E+06         0.27632E+05         0.00000E+00
    0.27632E+05        -0.30748E+05         0.00000E+00
    0.00000E+00         0.00000E+00         0.00000E+00
 
    0.32618E+06         0.35404E+05         0.00000E+00
    0.35404E+05        -0.30095E+05         0.00000E+00
    0.00000E+00         0.00000E+00         0.00000E+00
 
    0.32406E+06         0.43116E+05         0.00000E+00
    0.43116E+05        -0.29281E+05         0.00000E+00
    0.00000E+00         0.00000E+00         0.00000E+00
 
    0.32165E+06         0.50763E+05         0.00000E+00
    0.50763E+05        -0.28311E+05         0.00000E+00
    0.00000E+00         0.00000E+00         0.00000E+00
 
    0.31896E+06         0.58340E+05         0.00000E+00
    0.58340E+05        -0.27184E+05         0.00000E+00
    0.00000E+00         0.00000E+00         0.00000E+00
 
    0.31600E+06         0.65843E+05         0.00000E+00
    0.65843E+05        -0.25904E+05         0.00000E+00
    0.00000E+00         0.00000E+00         0.00000E+00
 
    0.31275E+06         0.73266E+05         0.00000E+00
    0.73266E+05        -0.24471E+05         0.00000E+00
    0.00000E+00         0.00000E+00         0.00000E+00
 
    0.30924E+06         0.80604E+05         0.00000E+00
    0.80604E+05        -0.22889E+05         0.00000E+00
    0.00000E+00         0.00000E+00         0.00000E+00
 
    0.30546E+06         0.87854E+05         0.00000E+00
    0.87854E+05        -0.21158E+05         0.00000E+00
    0.00000E+00         0.00000E+00         0.00000E+00
 
    0.30141E+06         0.95010E+05         0.00000E+00
    0.95010E+05        -0.19282E+05         0.00000E+00
    0.00000E+00         0.00000E+00         0.00000E+00
 
    0.29711E+06         0.10207E+06         0.00000E+00
    0.10207E+06        -0.17262E+05         0.00000E+00
    0.00000E+00         0.00000E+00         0.00000E+00
 
    0.29254E+06         0.10902E+06         0.00000E+00
    0.10902E+06        -0.15100E+05         0.00000E+00
    0.00000E+00         0.00000E+00         0.00000E+00
 
    0.28773E+06         0.11587E+06         0.00000E+00
    0.11587E+06        -0.12799E+05         0.00000E+00
    0.00000E+00         0.00000E+00         0.00000E+00
 
    0.28267E+06         0.12261E+06         0.00000E+00
    0.12261E+06        -0.10361E+05         0.00000E+00
    0.00000E+00         0.00000E+00         0.00000E+00
 
    0.27736E+06         0.12923E+06         0.00000E+00
    0.12923E+06        -0.77881E+04         0.00000E+00
    0.00000E+00         0.00000E+00         0.00000E+00
 
    0.27181E+06         0.13574E+06         0.00000E+00
    0.13574E+06        -0.50834E+04         0.00000E+00
    0.00000E+00         0.00000E+00         0.00000E+00
 
    0.26603E+06         0.14212E+06         0.00000E+00
    0.14212E+06        -0.22490E+04         0.00000E+00
    0.00000E+00         0.00000E+00         0.00000E+00
 
    0.26001E+06         0.14837E+06         0.00000E+00
    0.14837E+06         0.71245E+03         0.00000E+00
    0.00000E+00         0.00000E+00         0.00000E+00
 
    0.25377E+06         0.15449E+06         0.00000E+00
    0.15449E+06         0.37985E+04         0.00000E+00
    0.00000E+00         0.00000E+00         0.00000E+00
 
    0.24730E+06         0.16048E+06         0.00000E+00
    0.16048E+06         0.70064E+04         0.00000E+00
    0.00000E+00         0.00000E+00         0.00000E+00
 
    0.24061E+06         0.16633E+06         0.00000E+00
    0.16633E+06         0.10334E+05         0.00000E+00
    0.00000E+00         0.00000E+00         0.00000E+00
 
    0.23371E+06         0.17204E+06         0.00000E+00
    0.17204E+06         0.13777E+05         0.00000E+00
    0.00000E+00         0.00000E+00         0.00000E+00
 
    0.22660E+06         0.17760E+06         0.00000E+00
    0.17760E+06         0.17335E+05         0.00000E+00
    0.00000E+00         0.00000E+00         0.00000E+00
 
    0.21928E+06         0.18301E+06         0.00000E+00
    0.18301E+06         0.21003E+05         0.00000E+00
    0.00000E+00         0.00000E+00         0.00000E+00
 
    0.21177E+06         0.18827E+06         0.00000E+00
    0.18827E+06         0.24779E+05         0.00000E+00
    0.00000E+00         0.00000E+00         0.00000E+00
 
    0.20405E+06         0.19338E+06         0.00000E+00
    0.19338E+06         0.28661E+05         0.00000E+00
    0.00000E+00         0.00000E+00         0.00000E+00
 
    0.19615E+06         0.19832E+06         0.00000E+00
    0.19832E+06         0.32645E+05         0.00000E+00
    0.00000E+00         0.00000E+00         0.00000E+00
 
    0.18805E+06         0.20311E+06         0.00000E+00
    0.20311E+06         0.36728E+05         0.00000E+00
    0.00000E+00         0.00000E+00         0.00000E+00
 
    0.17978E+06         0.20773E+06         0.00000E+00
    0.20773E+06         0.40907E+05         0.00000E+00
    0.00000E+00         0.00000E+00         0.00000E+00
 
    0.17133E+06         0.21218E+06         0.00000E+00
    0.21218E+06         0.45180E+05         0.00000E+00
    0.00000E+00         0.00000E+00         0.00000E+00
 
    0.16270E+06         0.21646E+06         0.00000E+00
    0.21646E+06         0.49543E+05         0.00000E+00
    0.00000E+00         0.00000E+00         0.00000E+00
 
    0.15391E+06         0.22056E+06         0.00000E+00
    0.22056E+06         0.53993E+05         0.00000E+00
    0.00000E+00         0.00000E+00         0.00000E+00
 
    0.14496E+06         0.22449E+06         0.00000E+00
    0.22449E+06         0.58526E+05         0.00000E+00
    0.00000E+00         0.00000E+00         0.00000E+00
 
    0.13584E+06         0.22825E+06         0.00000E+00
    0.22825E+06         0.63141E+05         0.00000E+00
    0.00000E+00         0.00000E+00         0.00000E+00
 
    0.12658E+06         0.23182E+06         0.00000E+00
    0.23182E+06         0.67833E+05         0.00000E+00
    0.00000E+00         0.00000E+00         0.00000E+00
 
    0.11717E+06         0.23520E+06         0.00000E+00
    0.23520E+06         0.72599E+05         0.00000E+00
    0.00000E+00         0.00000E+00         0.00000E+00
 
    0.10761E+06         0.23840E+06         0.00000E+00
    0.23840E+06         0.77436E+05         0.00000E+00
    0.00000E+00         0.00000E+00         0.00000E+00
 
    0.97919E+05         0.24141E+06         0.00000E+00
    0.24141E+06         0.82341E+05         0.00000E+00
    0.00000E+00         0.00000E+00         0.00000E+00
 
    0.88095E+05         0.24423E+06         0.00000E+00
    0.24423E+06         0.87310E+05         0.00000E+00
    0.00000E+00         0.00000E+00         0.00000E+00
 
    0.78143E+05         0.24686E+06         0.00000E+00
    0.24686E+06         0.92340E+05         0.00000E+00
    0.00000E+00         0.00000E+00         0.00000E+00
 
    0.68070E+05         0.24929E+06         0.00000E+00
    0.24929E+06         0.97427E+05         0.00000E+00
    0.00000E+00         0.00000E+00         0.00000E+00
 
    0.57880E+05         0.25152E+06         0.00000E+00
    0.25152E+06         0.10257E+06         0.00000E+00
    0.00000E+00         0.00000E+00         0.00000E+00
 
    0.47579E+05         0.25355E+06         0.00000E+00
    0.25355E+06         0.10776E+06         0.00000E+00
    0.00000E+00         0.00000E+00         0.00000E+00
 
    0.37172E+05         0.25539E+06         0.00000E+00
    0.25539E+06         0.11300E+06         0.00000E+00
    0.00000E+00         0.00000E+00         0.00000E+00
 
    0.26664E+05         0.25702E+06         0.00000E+00
    0.25702E+06         0.11828E+06         0.00000E+00
    0.00000E+00         0.00000E+00         0.00000E+00
 
    0.16061E+05         0.25844E+06         0.00000E+00
    0.25844E+06         0.12361E+06         0.00000E+00
    0.00000E+00         0.00000E+00         0.00000E+00
 
    0.53683E+04         0.25966E+06         0.00000E+00
    0.25966E+06         0.12897E+06         0.00000E+00
    0.00000E+00         0.00000E+00         0.00000E+00
 
    0.36815E+06         0.44525E+04         0.00000E+00
    0.44525E+04        -0.37194E+05         0.00000E+00
    0.00000E+00         0.00000E+00         0.00000E+00
 
    0.36697E+06         0.13236E+05         0.00000E+00
    0.13236E+05        -0.37011E+05         0.00000E+00
    0.00000E+00         0.00000E+00         0.00000E+00
 
    0.36547E+06         0.21968E+05         0.00000E+00
    0.21968E+05        -0.36647E+05         0.00000E+00
    0.00000E+00         0.00000E+00         0.00000E+00
 
    0.36364E+06         0.30642E+05         0.00000E+00
    0.30642E+05        -0.36105E+05         0.00000E+00
    0.00000E+00         0.00000E+00         0.00000E+00
 
    0.36150E+06         0.39254E+05         0.00000E+00
    0.39254E+05        -0.35386E+05         0.00000E+00
    0.00000E+00         0.00000E+00         0.00000E+00
 
    0.35904E+06         0.47796E+05         0.00000E+00
    0.47796E+05        -0.34492E+05         0.00000E+00
    0.00000E+00         0.00000E+00         0.00000E+00
 
    0.35627E+06         0.56264E+05         0.00000E+00
    0.56264E+05        -0.33425E+05         0.00000E+00
    0.00000E+00         0.00000E+00         0.00000E+00
 
    0.35320E+06         0.64653E+05         0.00000E+00
    0.64653E+05        -0.32187E+05         0.00000E+00
    0.00000E+00         0.00000E+00         0.00000E+00
 
    0.34982E+06         0.72958E+05         0.00000E+00
    0.72958E+05        -0.30780E+05         0.00000E+00
    0.00000E+00         0.00000E+00         0.00000E+00
 
    0.34614E+06         0.81172E+05         0.00000E+00
    0.81172E+05        -0.29206E+05         0.00000E+00
    0.00000E+00         0.00000E+00         0.00000E+00
 
    0.34217E+06         0.89292E+05         0.00000E+00
    0.89292E+05        -0.27468E+05         0.00000E+00
    0.00000E+00         0.00000E+00         0.00000E+00
 
    0.33790E+06         0.97311E+05         0.00000E+00
    0.97311E+05        -0.25567E+05         0.00000E+00
    0.00000E+00         0.00000E+00         0.00000E+00
 
    0.33335E+06         0.10523E+06         0.00000E+00
    0.10523E+06        -0.23507E+05         0.00000E+00
    0.00000E+00         0.00000E+00         0.00000E+00
 
    0.32852E+06         0.11303E+06         0.00000E+00
    0.11303E+06        -0.21288E+05         0.00000E+00
    0.00000E+00         0.00000E+00         0.00000E+00
 
    0.32340E+06         0.12072E+06         0.00000E+00
    0.12072E+06        -0.18915E+05         0.00000E+00
    0.00000E+00         0.00000E+00         0.00000E+00
 
    0.31801E+06         0.12830E+06         0.00000E+00
    0.12830E+06        -0.16389E+05         0.00000E+00
    0.00000E+00         0.00000E+00         0.00000E+00
 
    0.31235E+06         0.13574E+06         0.00000E+00
    0.13574E+06        -0.13712E+05         0.00000E+00
    0.00000E+00         0.00000E+00         0.00000E+00
 
    0.30643E+06         0.14307E+06         0.00000E+00
    0.14307E+06        -0.10888E+05         0.00000E+00
    0.00000E+00         0.00000E+00         0.00000E+00
 
    0.30024E+06         0.15026E+06         0.00000E+00
    0.15026E+06        -0.79199E+04         0.00000E+00
    0.00000E+00         0.00000E+00         0.00000E+00
 
    0.29380E+06         0.15731E+06         0.00000E+00
    0.15731E+06        -0.48091E+04         0.00000E+00
    0.00000E+00         0.00000E+00         0.00000E+00
 
    0.28710E+06         0.16422E+06         0.00000E+00
    0.16422E+06        -0.15590E+04         0.00000E+00
    0.00000E+00         0.00000E+00         0.00000E+00
 
    0.28016E+06         0.17099E+06         0.00000E+00
    0.17099E+06         0.18276E+04         0.00000E+00
    0.00000E+00         0.00000E+00         0.00000E+00
 
    0.27298E+06         0.17761E+06         0.00000E+00
    0.17761E+06         0.53479E+04         0.00000E+00
    0.00000E+00         0.00000E+00         0.00000E+00
 
    0.26555E+06         0.18407E+06         0.00000E+00
    0.18407E+06         0.89989E+04         0.00000E+00
    0.00000E+00         0.00000E+00         0.00000E+00
 
    0.25790E+06         0.19038E+06         0.00000E+00
    0.19038E+06         0.12778E+05         0.00000E+00
    0.00000E+00         0.00000E+00         0.00000E+00
 
    0.25001E+06         0.19653E+06         0.00000E+00
    0.19653E+06         0.16681E+05         0.00000E+00
    0.00000E+00         0.00000E+00         0.00000E+00
 
    0.24191E+06         0.20252E+06         0.00000E+00
    0.20252E+06         0.20707E+05         0.00000E+00
    0.00000E+00         0.00000E+00         0.00000E+00
 
    0.23358E+06         0.20834E+06         0.00000E+00
    0.20834E+06         0.24851E+05         0.00000E+00
    0.00000E+00         0.00000E+00         0.00000E+00
 
    0.22505E+06         0.21399E+06         0.00000E+00
    0.21399E+06         0.29111E+05         0.00000E+00
    0.00000E+00         0.00000E+00         0.00000E+00
 
    0.21630E+06         0.21946E+06         0.00000E+00
    0.21946E+06         0.33483E+05         0.00000E+00
    0.00000E+00         0.00000E+00         0.00000E+00
 
    0.20735E+06         0.22476E+06         0.00000E+00
    0.22476E+06         0.37964E+05         0.00000E+00
    0.00000E+00         0.00000E+00         0.00000E+00
 
    0.19820E+06         0.22988E+06         0.00000E+00
    0.22988E+06         0.42551E+05         0.00000E+00
    0.00000E+00         0.00000E+00         0.00000E+00
 
    0.18887E+06         0.23481E+06         0.00000E+00
    0.23481E+06         0.47241E+05         0.00000E+00
    0.00000E+00         0.00000E+00         0.00000E+00
 
    0.17934E+06         0.23956E+06         0.00000E+00
    0.23956E+06         0.52030E+05         0.00000E+00
    0.00000E+00         0.00000E+00         0.00000E+00
 
    0.16963E+06         0.24411E+06         0.00000E+00
    0.24411E+06         0.56915E+05         0.00000E+00
    0.00000E+00         0.00000E+00         0.00000E+00
 
    0.15975E+06         0.24847E+06         0.00000E+00
    0.24847E+06         0.61893E+05         0.00000E+00
    0.00000E+00         0.00000E+00         0.00000E+00
 
    0.14969E+06         0.25264E+06         0.00000E+00
    0.25264E+06         0.66960E+05         0.00000E+00
    0.00000E+00         0.00000E+00         0.00000E+00
 
    0.13947E+06         0.25661E+06         0.00000E+00
    0.25661E+06         0.72112E+05         0.00000E+00
    0.00000E+00         0.00000E+00         0.00000E+00
 
    0.12909E+06         0.26038E+06         0.00000E+00
    0.26038E+06         0.77347E+05         0.00000E+00
    0.00000E+00         0.00000E+00         0.00000E+00
 
    0.11856E+06         0.26394E+06         0.00000E+00
    0.26394E+06         0.82661E+05         0.00000E+00
    0.00000E+00         0.00000E+00         0.00000E+00
 
    0.10787E+06         0.26730E+06         0.00000E+00
    0.26730E+06         0.88049E+05         0.00000E+00
    0.00000E+00         0.00000E+00         0.00000E+00
 
    0.97043E+05         0.27045E+06         0.00000E+00
    0.27045E+06         0.93510E+05         0.00000E+00
    0.00000E+00         0.00000E+00         0.00000E+00
 
    0.86076E+05         0.27339E+06         0.00000E+00
    0.27339E+06         0.99038E+05         0.00000E+00
    0.00000E+00         0.00000E+00         0.00000E+00
 
    0.74976E+05         0.27612E+06         0.00000E+00
    0.27612E+06         0.10463E+06         0.00000E+00
    0.00000E+00         0.00000E+00         0.00000E+00
 
    0.63750E+05         0.27863E+06         0.00000E+00
    0.27863E+06         0.11028E+06         0.00000E+00
    0.00000E+00         0.00000E+00         0.00000E+00
 
    0.52402E+05         0.28092E+06         0.00000E+00
    0.28092E+06         0.11599E+06         0.00000E+00
    0.00000E+00         0.00000E+00         0.00000E+00
 
    0.40939E+05         0.28299E+06         0.00000E+00
    0.28299E+06         0.12176E+06         0.00000E+00
    0.00000E+00         0.00000E+00         0.00000E+00
 
    0.29365E+05         0.28485E+06         0.00000E+00
    0.28485E+06         0.12757E+06         0.00000E+00
    0.00000E+00         0.00000E+00         0.00000E+00
 
    0.17688E+05         0.28648E+06         0.00000E+00
    0.28648E+06         0.13343E+06         0.00000E+00
    0.00000E+00         0.00000E+00         0.00000E+00
 
    0.59118E+04         0.28788E+06         0.00000E+00
    0.28788E+06         0.13933E+06         0.00000E+00
    0.00000E+00         0.00000E+00         0.00000E+00
 
    0.40818E+06         0.49389E+04         0.00000E+00
    0.49389E+04        -0.43552E+05         0.00000E+00
    0.00000E+00         0.00000E+00         0.00000E+00
 
    0.40673E+06         0.14672E+05         0.00000E+00
    0.14672E+05        -0.43351E+05         0.00000E+00
    0.00000E+00         0.00000E+00         0.00000E+00
 
    0.40493E+06         0.24345E+05         0.00000E+00
    0.24345E+05        -0.42951E+05         0.00000E+00
    0.00000E+00         0.00000E+00         0.00000E+00
 
    0.40278E+06         0.33950E+05         0.00000E+00
    0.33950E+05        -0.42356E+05         0.00000E+00
    0.00000E+00         0.00000E+00         0.00000E+00
 
    0.40029E+06         0.43483E+05         0.00000E+00
    0.43483E+05        -0.41566E+05         0.00000E+00
    0.00000E+00         0.00000E+00         0.00000E+00
 
    0.39745E+06         0.52937E+05         0.00000E+00
    0.52937E+05        -0.40585E+05         0.00000E+00
    0.00000E+00         0.00000E+00         0.00000E+00
 
    0.39427E+06         0.62307E+05         0.00000E+00
    0.62307E+05        -0.39414E+05         0.00000E+00
    0.00000E+00         0.00000E+00         0.00000E+00
 
    0.39076E+06         0.71586E+05         0.00000E+00
    0.71586E+05        -0.38055E+05         0.00000E+00
    0.00000E+00         0.00000E+00         0.00000E+00
 
    0.38691E+06         0.80770E+05         0.00000E+00
    0.80770E+05        -0.36511E+05         0.00000E+00
    0.00000E+00         0.00000E+00         0.00000E+00
 
    0.38275E+06         0.89852E+05         0.00000E+00
    0.89852E+05        -0.34785E+05         0.00000E+00
    0.00000E+00         0.00000E+00         0.00000E+00
 
    0.37826E+06         0.98827E+05         0.00000E+00
    0.98827E+05        -0.32878E+05         0.00000E+00
    0.00000E+00         0.00000E+00         0.00000E+00
 
    0.37345E+06         0.10769E+06         0.00000E+00
    0.10769E+06        -0.30793E+05         0.00000E+00
    0.00000E+00         0.00000E+00         0.00000E+00
 
    0.36833E+06         0.11644E+06         0.00000E+00
    0.11644E+06        -0.28533E+05         0.00000E+00
    0.00000E+00         0.00000E+00         0.00000E+00
 
    0.36290E+06         0.12506E+06         0.00000E+00
    0.12506E+06        -0.26101E+05         0.00000E+00
    0.00000E+00         0.00000E+00         0.00000E+00
 
    0.35717E+06         0.13356E+06         0.00000E+00
    0.13356E+06        -0.23498E+05         0.00000E+00
    0.00000E+00         0.00000E+00         0.00000E+00
 
    0.35115E+06         0.14192E+06         0.00000E+00
    0.14192E+06        -0.20729E+05         0.00000E+00
    0.00000E+00         0.00000E+00         0.00000E+00
 
    0.34483E+06         0.15015E+06         0.00000E+00
    0.15015E+06        -0.17795E+05         0.00000E+00
    0.00000E+00         0.00000E+00         0.00000E+00
 
    0.33822E+06         0.15824E+06         0.00000E+00
    0.15824E+06        -0.14699E+05         0.00000E+00
    0.00000E+00         0.00000E+00         0.00000E+00
 
    0.33133E+06         0.16618E+06         0.00000E+00
    0.16618E+06        -0.11445E+05         0.00000E+00
    0.00000E+00         0.00000E+00         0.00000E+00
 
    0.32415E+06         0.17397E+06         0.00000E+00
    0.17397E+06        -0.80360E+04         0.00000E+00
    0.00000E+00         0.00000E+00         0.00000E+00
 
    0.31671E+06         0.18160E+06         0.00000E+00
    0.18160E+06        -0.44740E+04         0.00000E+00
    0.00000E+00         0.00000E+00         0.00000E+00
 
    0.30900E+06         0.18908E+06         0.00000E+00
    0.18908E+06        -0.76240E+03         0.00000E+00
    0.00000E+00         0.00000E+00         0.00000E+00
 
    0.30102E+06         0.19639E+06         0.00000E+00
    0.19639E+06         0.30955E+04         0.00000E+00
    0.00000E+00         0.00000E+00         0.00000E+00
 
    0.29279E+06         0.20353E+06         0.00000E+00
    0.20353E+06         0.70967E+04         0.00000E+00
    0.00000E+00         0.00000E+00         0.00000E+00
 
    0.28430E+06         0.21050E+06         0.00000E+00
    0.21050E+06         0.11238E+05         0.00000E+00
    0.00000E+00         0.00000E+00         0.00000E+00
 
    0.27557E+06         0.21730E+06         0.00000E+00
    0.21730E+06         0.15516E+05         0.00000E+00
    0.00000E+00         0.00000E+00         0.00000E+00
 
    0.26660E+06         0.22392E+06         0.00000E+00
    0.22392E+06         0.19927E+05         0.00000E+00
    0.00000E+00         0.00000E+00         0.00000E+00
 
    0.25739E+06         0.23035E+06         0.00000E+00
    0.23035E+06         0.24469E+05         0.00000E+00
    0.00000E+00         0.00000E+00         0.00000E+00
 
    0.24795E+06         0.23659E+06         0.00000E+00
    0.23659E+06         0.29138E+05         0.00000E+00
    0.00000E+00         0.00000E+00         0.00000E+00
 
    0.23828E+06         0.24265E+06         0.00000E+00
    0.24265E+06         0.33929E+05         0.00000E+00
    0.00000E+00         0.00000E+00         0.00000E+00
 
    0.22840E+06         0.24851E+06         0.00000E+00
    0.24851E+06         0.38841E+05         0.00000E+00
    0.00000E+00         0.00000E+00         0.00000E+00
 
    0.21830E+06         0.25417E+06         0.00000E+00
    0.25417E+06         0.43869E+05         0.00000E+00
    0.00000E+00         0.00000E+00         0.00000E+00
 
    0.20799E+06         0.25964E+06         0.00000E+00
    0.25964E+06         0.49011E+05         0.00000E+00
    0.00000E+00         0.00000E+00         0.00000E+00
 
    0.19748E+06         0.26490E+06         0.00000E+00
    0.26490E+06         0.54261E+05         0.00000E+00
    0.00000E+00         0.00000E+00         0.00000E+00
 
    0.18677E+06         0.26995E+06         0.00000E+00
    0.26995E+06         0.59618E+05         0.00000E+00
    0.00000E+00         0.00000E+00         0.00000E+00
 
    0.17587E+06         0.27479E+06         0.00000E+00
    0.27479E+06         0.65076E+05         0.00000E+00
    0.00000E+00         0.00000E+00         0.00000E+00
 
    0.16479E+06         0.27941E+06         0.00000E+00
    0.27941E+06         0.70633E+05         0.00000E+00
    0.00000E+00         0.00000E+00         0.00000E+00
 
    0.15352E+06         0.28383E+06         0.00000E+00
    0.28383E+06         0.76285E+05         0.00000E+00
    0.00000E+00         0.00000E+00         0.00000E+00
 
    0.14209E+06         0.28802E+06         0.00000E+00
    0.28802E+06         0.82028E+05         0.00000E+00
    0.00000E+00         0.00000E+00         0.00000E+00
 
    0.13048E+06         0.29199E+06         0.00000E+00
    0.29199E+06         0.87858E+05         0.00000E+00
    0.00000E+00         0.00000E+00         0.00000E+00
 
    0.11871E+06         0.29573E+06         0.00000E+00
    0.29573E+06         0.93771E+05         0.00000E+00
    0.00000E+00         0.00000E+00         0.00000E+00
 
    0.10679E+06         0.29925E+06         0.00000E+00
    0.29925E+06         0.99764E+05         0.00000E+00
    0.00000E+00         0.00000E+00         0.00000E+00
 
    0.94716E+05         0.30254E+06         0.00000E+00
    0.30254E+06         0.10583E+06         0.00000E+00
    0.00000E+00         0.00000E+00         0.00000E+00
 
    0.82498E+05         0.30560E+06         0.00000E+00
    0.30560E+06         0.11197E+06         0.00000E+00
    0.00000E+00         0.00000E+00         0.00000E+00
 
    0.70142E+05         0.30842E+06         0.00000E+00
    0.30842E+06         0.11818E+06         0.00000E+00
    0.00000E+00         0.00000E+00         0.00000E+00
 
    0.57654E+05         0.31100E+06         0.00000E+00
    0.31100E+06         0.12446E+06         0.00000E+00
    0.00000E+00         0.00000E+00         0.00000E+00
 
    0.45040E+05         0.31335E+06         0.00000E+00
    0.31335E+06         0.13079E+06         0.00000E+00
    0.00000E+00         0.00000E+00         0.00000E+00
 
    0.32306E+05         0.31546E+06         0.00000E+00
    0.31546E+06         0.13718E+06         0.00000E+00
    0.00000E+00         0.00000E+00         0.00000E+00
 
    0.19459E+05         0.31732E+06         0.00000E+00
    0.31732E+06         0.14362E+06         0.00000E+00
    0.00000E+00         0.00000E+00         0.00000E+00
 
    0.65037E+04         0.31894E+06         0.00000E+00
    0.31894E+06         0.15011E+06         0.00000E+00
    0.00000E+00         0.00000E+00         0.00000E+00
 
    0.45216E+06         0.54734E+04         0.00000E+00
    0.54734E+04        -0.50956E+05         0.00000E+00
    0.00000E+00         0.00000E+00         0.00000E+00
 
    0.45041E+06         0.16249E+05         0.00000E+00
    0.16249E+05        -0.50735E+05         0.00000E+00
    0.00000E+00         0.00000E+00         0.00000E+00
 
    0.44826E+06         0.26954E+05         0.00000E+00
    0.26954E+05        -0.50296E+05         0.00000E+00
    0.00000E+00         0.00000E+00         0.00000E+00
 
    0.44573E+06         0.37581E+05         0.00000E+00
    0.37581E+05        -0.49643E+05         0.00000E+00
    0.00000E+00         0.00000E+00         0.00000E+00
 
    0.44283E+06         0.48124E+05         0.00000E+00
    0.48124E+05        -0.48778E+05         0.00000E+00
    0.00000E+00         0.00000E+00         0.00000E+00
 
    0.43955E+06         0.58577E+05         0.00000E+00
    0.58577E+05        -0.47702E+05         0.00000E+00
    0.00000E+00         0.00000E+00         0.00000E+00
 
    0.43591E+06         0.68934E+05         0.00000E+00
    0.68934E+05        -0.46418E+05         0.00000E+00
    0.00000E+00         0.00000E+00         0.00000E+00
 
    0.43190E+06         0.79189E+05         0.00000E+00
    0.79189E+05        -0.44929E+05         0.00000E+00
    0.00000E+00         0.00000E+00         0.00000E+00
 
    0.42754E+06         0.89335E+05         0.00000E+00
    0.89335E+05        -0.43237E+05         0.00000E+00
    0.00000E+00         0.00000E+00         0.00000E+00
 
    0.42282E+06         0.99367E+05         0.00000E+00
    0.99367E+05        -0.41346E+05         0.00000E+00
    0.00000E+00         0.00000E+00         0.00000E+00
 
    0.41775E+06         0.10928E+06         0.00000E+00
    0.10928E+06        -0.39257E+05         0.00000E+00
    0.00000E+00         0.00000E+00         0.00000E+00
 
    0.41233E+06         0.11907E+06         0.00000E+00
    0.11907E+06        -0.36974E+05         0.00000E+00
    0.00000E+00         0.00000E+00         0.00000E+00
 
    0.40658E+06         0.12872E+06         0.00000E+00
    0.12872E+06        -0.34499E+05         0.00000E+00
    0.00000E+00         0.00000E+00         0.00000E+00
 
    0.40050E+06         0.13824E+06         0.00000E+00
    0.13824E+06        -0.31835E+05         0.00000E+00
    0.00000E+00         0.00000E+00         0.00000E+00
 
    0.39409E+06         0.14762E+06         0.00000E+00
    0.14762E+06        -0.28986E+05         0.00000E+00
    0.00000E+00         0.00000E+00         0.00000E+00
 
    0.38735E+06         0.15685E+06         0.00000E+00
    0.15685E+06        -0.25954E+05         0.00000E+00
    0.00000E+00         0.00000E+00         0.00000E+00
 
    0.38029E+06         0.16593E+06         0.00000E+00
    0.16593E+06        -0.22742E+05         0.00000E+00
    0.00000E+00         0.00000E+00         0.00000E+00
 
    0.37293E+06         0.17486E+06         0.00000E+00
    0.17486E+06        -0.19354E+05         0.00000E+00
    0.00000E+00         0.00000E+00         0.00000E+00
 
    0.36526E+06         0.18362E+06         0.00000E+00
    0.18362E+06        -0.15793E+05         0.00000E+00
    0.00000E+00         0.00000E+00         0.00000E+00
 
    0.35728E+06         0.19221E+06         0.00000E+00
    0.19221E+06        -0.12061E+05         0.00000E+00
    0.00000E+00         0.00000E+00         0.00000E+00
 
    0.34901E+06         0.20064E+06         0.00000E+00
    0.20064E+06        -0.81625E+04         0.00000E+00
    0.00000E+00         0.00000E+00         0.00000E+00
 
    0.34045E+06         0.20889E+06         0.00000E+00
    0.20889E+06        -0.41005E+04         0.00000E+00
    0.00000E+00         0.00000E+00         0.00000E+00
 
    0.33161E+06         0.21696E+06         0.00000E+00
    0.21696E+06         0.12157E+03         0.00000E+00
    0.00000E+00         0.00000E+00         0.00000E+00
 
    0.32248E+06         0.22484E+06         0.00000E+00
    0.22484E+06         0.45004E+04         0.00000E+00
    0.00000E+00         0.00000E+00         0.00000E+00
 
    0.31309E+06         0.23254E+06         0.00000E+00
    0.23254E+06         0.90324E+04         0.00000E+00
    0.00000E+00         0.00000E+00         0.00000E+00
 
    0.30343E+06         0.24004E+06         0.00000E+00
    0.24004E+06         0.13714E+05         0.00000E+00
    0.00000E+00         0.00000E+00         0.00000E+00
 
    0.29350E+06         0.24735E+06         0.00000E+00
    0.24735E+06         0.18542E+05         0.00000E+00
    0.00000E+00         0.00000E+00         0.00000E+00
 
    0.28332E+06         0.25445E+06         0.00000E+00
    0.25445E+06         0.23513E+05         0.00000E+00
    0.00000E+00         0.00000E+00         0.00000E+00
 
    0.27289E+06         0.26135E+06         0.00000E+00
    0.26135E+06         0.28622E+05         0.00000E+00
    0.00000E+00         0.00000E+00         0.00000E+00
 
    0.26222E+06         0.26805E+06         0.00000E+00
    0.26805E+06         0.33867E+05         0.00000E+00
    0.00000E+00         0.00000E+00         0.00000E+00
 
    0.25131E+06         0.27453E+06         0.00000E+00
    0.27453E+06         0.39244E+05         0.00000E+00
    0.00000E+00         0.00000E+00         0.00000E+00
 
    0.24017E+06         0.28079E+06         0.00000E+00
    0.28079E+06         0.44749E+05         0.00000E+00
    0.00000E+00         0.00000E+00         0.00000E+00
 
    0.22880E+06         0.28684E+06         0.00000E+00
    0.28684E+06         0.50377E+05         0.00000E+00
    0.00000E+00         0.00000E+00         0.00000E+00
 
    0.21722E+06         0.29266E+06         0.00000E+00
    0.29266E+06         0.56126E+05         0.00000E+00
    0.00000E+00         0.00000E+00         0.00000E+00
 
    0.20542E+06         0.29826E+06         0.00000E+00
    0.29826E+06         0.61992E+05         0.00000E+00
    0.00000E+00         0.00000E+00         0.00000E+00
 
    0.19341E+06         0.30363E+06         0.00000E+00
    0.30363E+06         0.67970E+05         0.00000E+00
    0.00000E+00         0.00000E+00         0.00000E+00
 
    0.18121E+06         0.30876E+06         0.00000E+00
    0.30876E+06         0.74056E+05         0.00000E+00
    0.00000E+00         0.00000E+00         0.00000E+00
 
    0.16881E+06         0.31366E+06         0.00000E+00
    0.31366E+06         0.80248E+05         0.00000E+00
    0.00000E+00         0.00000E+00         0.00000E+00
 
    0.15622E+06         0.31832E+06         0.00000E+00
    0.31832E+06         0.86540E+05         0.00000E+00
    0.00000E+00         0.00000E+00         0.00000E+00
 
    0.14345E+06         0.32274E+06         0.00000E+00
    0.32274E+06         0.92929E+05         0.00000E+00
    0.00000E+00         0.00000E+00         0.00000E+00
 
    0.13050E+06         0.32692E+06         0.00000E+00
    0.32692E+06         0.99410E+05         0.00000E+00
    0.00000E+00         0.00000E+00         0.00000E+00
 
    0.11739E+06         0.33085E+06         0.00000E+00
    0.33085E+06         0.10598E+06         0.00000E+00
    0.00000E+00         0.00000E+00         0.00000E+00
 
    0.10411E+06         0.33452E+06         0.00000E+00
    0.33452E+06         0.11263E+06         0.00000E+00
    0.00000E+00         0.00000E+00         0.00000E+00
 
    0.90676E+05         0.33795E+06         0.00000E+00
    0.33795E+06         0.11937E+06         0.00000E+00
    0.00000E+00         0.00000E+00         0.00000E+00
 
    0.77092E+05         0.34112E+06         0.00000E+00
    0.34112E+06         0.12618E+06         0.00000E+00
    0.00000E+00         0.00000E+00         0.00000E+00
 
    0.63364E+05         0.34404E+06         0.00000E+00
    0.34404E+06         0.13306E+06         0.00000E+00
    0.00000E+00         0.00000E+00         0.00000E+00
 
    0.49499E+05         0.34669E+06         0.00000E+00
    0.34669E+06         0.14001E+06         0.00000E+00
    0.00000E+00         0.00000E+00         0.00000E+00
 
    0.35504E+05         0.34909E+06         0.00000E+00
    0.34909E+06         0.14703E+06         0.00000E+00
    0.00000E+00         0.00000E+00         0.00000E+00
 
    0.21384E+05         0.35122E+06         0.00000E+00
    0.35122E+06         0.15410E+06         0.00000E+00
    0.00000E+00         0.00000E+00         0.00000E+00
 
    0.71471E+04         0.35308E+06         0.00000E+00
    0.35308E+06         0.16123E+06         0.00000E+00
    0.00000E+00         0.00000E+00         0.00000E+00
 
    0.50043E+06         0.60599E+04         0.00000E+00
    0.60599E+04        -0.59567E+05         0.00000E+00
    0.00000E+00         0.00000E+00         0.00000E+00
 
    0.49830E+06         0.17978E+05         0.00000E+00
    0.17978E+05        -0.59325E+05         0.00000E+00
    0.00000E+00         0.00000E+00         0.00000E+00
 
    0.49576E+06         0.29813E+05         0.00000E+00
    0.29813E+05        -0.58845E+05         0.00000E+00
    0.00000E+00         0.00000E+00         0.00000E+00
 
    0.49280E+06         0.41559E+05         0.00000E+00
    0.41559E+05        -0.58130E+05         0.00000E+00
    0.00000E+00         0.00000E+00         0.00000E+00
 
    0.48943E+06         0.53208E+05         0.00000E+00
    0.53208E+05        -0.57182E+05         0.00000E+00
    0.00000E+00         0.00000E+00         0.00000E+00
 
    0.48565E+06         0.64755E+05         0.00000E+00
    0.64755E+05        -0.56004E+05         0.00000E+00
    0.00000E+00         0.00000E+00         0.00000E+00
 
    0.48148E+06         0.76192E+05         0.00000E+00
    0.76192E+05        -0.54599E+05         0.00000E+00
    0.00000E+00         0.00000E+00         0.00000E+00
 
    0.47691E+06         0.87513E+05         0.00000E+00
    0.87513E+05        -0.52970E+05         0.00000E+00
    0.00000E+00         0.00000E+00         0.00000E+00
 
    0.47195E+06         0.98712E+05         0.00000E+00
    0.98712E+05        -0.51119E+05         0.00000E+00
    0.00000E+00         0.00000E+00         0.00000E+00
 
    0.46661E+06         0.10978E+06         0.00000E+00
    0.10978E+06        -0.49050E+05         0.00000E+00
    0.00000E+00         0.00000E+00         0.00000E+00
 
    0.46090E+06         0.12072E+06         0.00000E+00
    0.12072E+06        -0.46766E+05         0.00000E+00
    0.00000E+00         0.00000E+00         0.00000E+00
 
    0.45481E+06         0.13151E+06         0.00000E+00
    0.13151E+06        -0.44269E+05         0.00000E+00
    0.00000E+00         0.00000E+00         0.00000E+00
 
    0.44835E+06         0.14216E+06         0.00000E+00
    0.14216E+06        -0.41563E+05         0.00000E+00
    0.00000E+00         0.00000E+00         0.00000E+00
 
    0.44153E+06         0.15266E+06         0.00000E+00
    0.15266E+06        -0.38651E+05         0.00000E+00
    0.00000E+00         0.00000E+00         0.00000E+00
 
    0.43436E+06         0.16300E+06         0.00000E+00
    0.16300E+06        -0.35536E+05         0.00000E+00
    0.00000E+00         0.00000E+00         0.00000E+00
 
    0.42684E+06         0.17318E+06         0.00000E+00
    0.17318E+06        -0.32221E+05         0.00000E+00
    0.00000E+00         0.00000E+00         0.00000E+00
 
    0.41897E+06         0.18319E+06         0.00000E+00
    0.18319E+06        -0.28711E+05         0.00000E+00
    0.00000E+00         0.00000E+00         0.00000E+00
 
    0.41077E+06         0.19303E+06         0.00000E+00
    0.19303E+06        -0.25008E+05         0.00000E+00
    0.00000E+00         0.00000E+00         0.00000E+00
 
    0.40223E+06         0.20269E+06         0.00000E+00
    0.20269E+06        -0.21115E+05         0.00000E+00
    0.00000E+00         0.00000E+00         0.00000E+00
 
    0.39337E+06         0.21217E+06         0.00000E+00
    0.21217E+06        -0.17037E+05         0.00000E+00
    0.00000E+00         0.00000E+00         0.00000E+00
 
    0.38420E+06         0.22146E+06         0.00000E+00
    0.22146E+06        -0.12777E+05         0.00000E+00
    0.00000E+00         0.00000E+00         0.00000E+00
 
    0.37470E+06         0.23055E+06         0.00000E+00
    0.23055E+06        -0.83378E+04         0.00000E+00
    0.00000E+00         0.00000E+00         0.00000E+00
 
    0.36490E+06         0.23945E+06         0.00000E+00
    0.23945E+06        -0.37240E+04         0.00000E+00
    0.00000E+00         0.00000E+00         0.00000E+00
 
    0.35480E+06         0.24814E+06         0.00000E+00
    0.24814E+06         0.10610E+04         0.00000E+00
    0.00000E+00         0.00000E+00         0.00000E+00
 
    0.34441E+06         0.25663E+06         0.00000E+00
    0.25663E+06         0.60136E+04         0.00000E+00
    0.00000E+00         0.00000E+00         0.00000E+00
 
    0.33373E+06         0.26491E+06         0.00000E+00
    0.26491E+06         0.11130E+05         0.00000E+00
    0.00000E+00         0.00000E+00         0.00000E+00
 
    0.32276E+06         0.27297E+06         0.00000E+00
    0.27297E+06         0.16406E+05         0.00000E+00
    0.00000E+00         0.00000E+00         0.00000E+00
 
    0.31153E+06         0.28081E+06         0.00000E+00
    0.28081E+06         0.21838E+05         0.00000E+00
    0.00000E+00         0.00000E+00         0.00000E+00
 
    0.30002E+06         0.28843E+06         0.00000E+00
    0.28843E+06         0.27423E+05         0.00000E+00
    0.00000E+00         0.00000E+00         0.00000E+00
 
    0.28825E+06         0.29583E+06         0.00000E+00
    0.29583E+06         0.33156E+05         0.00000E+00
    0.00000E+00         0.00000E+00         0.00000E+00
 
    0.27622E+06         0.30299E+06         0.00000E+00
    0.30299E+06         0.39033E+05         0.00000E+00
    0.00000E+00         0.00000E+00         0.00000E+00
 
    0.26394E+06         0.30991E+06         0.00000E+00
    0.30991E+06         0.45050E+05         0.00000E+00
    0.00000E+00         0.00000E+00         0.00000E+00
 
    0.25142E+06         0.31660E+06         0.00000E+00
    0.31660E+06         0.51204E+05         0.00000E+00
    0.00000E+00         0.00000E+00         0.00000E+00
 
    0.23867E+06         0.32304E+06         0.00000E+00
    0.32304E+06         0.57490E+05         0.00000E+00
    0.00000E+00         0.00000E+00         0.00000E+00
 
    0.22568E+06         0.32924E+06         0.00000E+00
    0.32924E+06         0.63904E+05         0.00000E+00
    0.00000E+00         0.00000E+00         0.00000E+00
 
    0.21247E+06         0.33519E+06         0.00000E+00
    0.33519E+06         0.70443E+05         0.00000E+00
    0.00000E+00         0.00000E+00         0.00000E+00
 
    0.19904E+06         0.34088E+06         0.00000E+00
    0.34088E+06         0.77101E+05         0.00000E+00
    0.00000E+00         0.00000E+00         0.00000E+00
 
    0.18541E+06         0.34632E+06         0.00000E+00
    0.34632E+06         0.83874E+05         0.00000E+00
    0.00000E+00         0.00000E+00         0.00000E+00
 
    0.17157E+06         0.35151E+06         0.00000E+00
    0.35151E+06         0.90759E+05         0.00000E+00
    0.00000E+00         0.00000E+00         0.00000E+00
 
    0.15753E+06         0.35642E+06         0.00000E+00
    0.35642E+06         0.97751E+05         0.00000E+00
    0.00000E+00         0.00000E+00         0.00000E+00
 
    0.14330E+06         0.36108E+06         0.00000E+00
    0.36108E+06         0.10485E+06         0.00000E+00
    0.00000E+00         0.00000E+00         0.00000E+00
 
    0.12889E+06         0.36546E+06         0.00000E+00
    0.36546E+06         0.11204E+06         0.00000E+00
    0.00000E+00         0.00000E+00         0.00000E+00
 
    0.11431E+06         0.36958E+06         0.00000E+00
    0.36958E+06         0.11933E+06         0.00000E+00
    0.00000E+00         0.00000E+00         0.00000E+00
 
    0.99553E+05         0.37342E+06         0.00000E+00
    0.37342E+06         0.12670E+06         0.00000E+00
    0.00000E+00         0.00000E+00         0.00000E+00
 
    0.84635E+05         0.37698E+06         0.00000E+00
    0.37698E+06         0.13417E+06         0.00000E+00
    0.00000E+00         0.00000E+00         0.00000E+00
 
    0.69561E+05         0.38027E+06         0.00000E+00
    0.38027E+06         0.14171E+06         0.00000E+00
    0.00000E+00         0.00000E+00         0.00000E+00
 
    0.54338E+05         0.38327E+06         0.00000E+00
    0.38327E+06         0.14933E+06         0.00000E+00
    0.00000E+00         0.00000E+00         0.00000E+00
 
    0.38973E+05         0.38599E+06         0.00000E+00
    0.38599E+06         0.15702E+06         0.00000E+00
    0.00000E+00         0.00000E+00         0.00000E+00
 
    0.23473E+05         0.38843E+06         0.00000E+00
    0.38843E+06         0.16478E+06         0.00000E+00
    0.00000E+00         0.00000E+00         0.00000E+00
 
    0.78453E+04         0.39057E+06         0.00000E+00
    0.39057E+06         0.17260E+06         0.00000E+00
    0.00000E+00         0.00000E+00         0.00000E+00
 
    0.55330E+06         0.67024E+04         0.00000E+00
    0.67024E+04        -0.69574E+05         0.00000E+00
    0.00000E+00         0.00000E+00         0.00000E+00
 
    0.55075E+06         0.19870E+05         0.00000E+00
    0.19870E+05        -0.69309E+05         0.00000E+00
    0.00000E+00         0.00000E+00         0.00000E+00
 
    0.54774E+06         0.32943E+05         0.00000E+00
    0.32943E+05        -0.68784E+05         0.00000E+00
    0.00000E+00         0.00000E+00         0.00000E+00
 
    0.54428E+06         0.45911E+05         0.00000E+00
    0.45911E+05        -0.68002E+05         0.00000E+00
    0.00000E+00         0.00000E+00         0.00000E+00
 
    0.54038E+06         0.58770E+05         0.00000E+00
    0.58770E+05        -0.66966E+05         0.00000E+00
    0.00000E+00         0.00000E+00         0.00000E+00
 
    0.53604E+06         0.71511E+05         0.00000E+00
    0.71511E+05        -0.65679E+05         0.00000E+00
    0.00000E+00         0.00000E+00         0.00000E+00
 
    0.53126E+06         0.84127E+05         0.00000E+00
    0.84127E+05        -0.64144E+05         0.00000E+00
    0.00000E+00         0.00000E+00         0.00000E+00
 
    0.52606E+06         0.96613E+05         0.00000E+00
    0.96613E+05        -0.62364E+05         0.00000E+00
    0.00000E+00         0.00000E+00         0.00000E+00
 
    0.52044E+06         0.10896E+06         0.00000E+00
    0.10896E+06        -0.60343E+05         0.00000E+00
    0.00000E+00         0.00000E+00         0.00000E+00
 
    0.51441E+06         0.12117E+06         0.00000E+00
    0.12117E+06        -0.58083E+05         0.00000E+00
    0.00000E+00         0.00000E+00         0.00000E+00
 
    0.50796E+06         0.13322E+06         0.00000E+00
    0.13322E+06        -0.55588E+05         0.00000E+00
    0.00000E+00         0.00000E+00         0.00000E+00
 
    0.50112E+06         0.14512E+06         0.00000E+00
    0.14512E+06        -0.52862E+05         0.00000E+00
    0.00000E+00         0.00000E+00         0.00000E+00
 
    0.49387E+06         0.15685E+06         0.00000E+00
    0.15685E+06        -0.49908E+05         0.00000E+00
    0.00000E+00         0.00000E+00         0.00000E+00
 
    0.48624E+06         0.16842E+06         0.00000E+00
    0.16842E+06        -0.46729E+05         0.00000E+00
    0.00000E+00         0.00000E+00         0.00000E+00
 
    0.47823E+06         0.17981E+06         0.00000E+00
    0.17981E+06        -0.43329E+05         0.00000E+00
    0.00000E+00         0.00000E+00         0.00000E+00
 
    0.46983E+06         0.19102E+06         0.00000E+00
    0.19102E+06        -0.39712E+05         0.00000E+00
    0.00000E+00         0.00000E+00         0.00000E+00
 
    0.46107E+06         0.20205E+06         0.00000E+00
    0.20205E+06        -0.35881E+05         0.00000E+00
    0.00000E+00         0.00000E+00         0.00000E+00
 
    0.45195E+06         0.21288E+06         0.00000E+00
    0.21288E+06        -0.31840E+05         0.00000E+00
    0.00000E+00         0.00000E+00         0.00000E+00
 
    0.44246E+06         0.22352E+06         0.00000E+00
    0.22352E+06        -0.27592E+05         0.00000E+00
    0.00000E+00         0.00000E+00         0.00000E+00
 
    0.43263E+06         0.23396E+06         0.00000E+00
    0.23396E+06        -0.23142E+05         0.00000E+00
    0.00000E+00         0.00000E+00         0.00000E+00
 
    0.42245E+06         0.24419E+06         0.00000E+00
    0.24419E+06        -0.18494E+05         0.00000E+00
    0.00000E+00         0.00000E+00         0.00000E+00
 
    0.41194E+06         0.25421E+06         0.00000E+00
    0.25421E+06        -0.13651E+05         0.00000E+00
    0.00000E+00         0.00000E+00         0.00000E+00
 
    0.40109E+06         0.26401E+06         0.00000E+00
    0.26401E+06        -0.86167E+04         0.00000E+00
    0.00000E+00         0.00000E+00         0.00000E+00
 
    0.38992E+06         0.27359E+06         0.00000E+00
    0.27359E+06        -0.33957E+04         0.00000E+00
    0.00000E+00         0.00000E+00         0.00000E+00
 
    0.37843E+06         0.28294E+06         0.00000E+00
    0.28294E+06         0.20081E+04         0.00000E+00
    0.00000E+00         0.00000E+00         0.00000E+00
 
    0.36664E+06         0.29207E+06         0.00000E+00
    0.29207E+06         0.75908E+04         0.00000E+00
    0.00000E+00         0.00000E+00         0.00000E+00
 
    0.35454E+06         0.30095E+06         0.00000E+00
    0.30095E+06         0.13348E+05         0.00000E+00
    0.00000E+00         0.00000E+00         0.00000E+00
 
    0.34214E+06         0.30960E+06         0.00000E+00
    0.30960E+06         0.19276E+05         0.00000E+00
    0.00000E+00         0.00000E+00         0.00000E+00
 
    0.32946E+06         0.31801E+06         0.00000E+00
    0.31801E+06         0.25371E+05         0.00000E+00
    0.00000E+00         0.00000E+00         0.00000E+00
 
    0.31649E+06         0.32617E+06         0.00000E+00
    0.32617E+06         0.31628E+05         0.00000E+00
    0.00000E+00         0.00000E+00         0.00000E+00
 
    0.30324E+06         0.33407E+06         0.00000E+00
    0.33407E+06         0.38042E+05         0.00000E+00
    0.00000E+00         0.00000E+00         0.00000E+00
 
    0.28973E+06         0.34172E+06         0.00000E+00
    0.34172E+06         0.44611E+05         0.00000E+00
    0.00000E+00         0.00000E+00         0.00000E+00
 
    0.27595E+06         0.34911E+06         0.00000E+00
    0.34911E+06         0.51329E+05         0.00000E+00
    0.00000E+00         0.00000E+00         0.00000E+00
 
    0.26192E+06         0.35624E+06         0.00000E+00
    0.35624E+06         0.58193E+05         0.00000E+00
    0.00000E+00         0.00000E+00         0.00000E+00
 
    0.24765E+06         0.36310E+06         0.00000E+00
    0.36310E+06         0.65197E+05         0.00000E+00
    0.00000E+00         0.00000E+00         0.00000E+00
 
    0.23313E+06         0.36969E+06         0.00000E+00
    0.36969E+06         0.72338E+05         0.00000E+00
    0.00000E+00         0.00000E+00         0.00000E+00
 
    0.21837E+06         0.37600E+06         0.00000E+00
    0.37600E+06         0.79611E+05         0.00000E+00
    0.00000E+00         0.00000E+00         0.00000E+00
 
    0.20340E+06         0.38204E+06         0.00000E+00
    0.38204E+06         0.87011E+05         0.00000E+00
    0.00000E+00         0.00000E+00         0.00000E+00
 
    0.18820E+06         0.38779E+06         0.00000E+00
    0.38779E+06         0.94534E+05         0.00000E+00
    0.00000E+00         0.00000E+00         0.00000E+00
 
    0.17279E+06         0.39327E+06         0.00000E+00
    0.39327E+06         0.10218E+06         0.00000E+00
    0.00000E+00         0.00000E+00         0.00000E+00
 
    0.15717E+06         0.39845E+06         0.00000E+00
    0.39845E+06         0.10993E+06         0.00000E+00
    0.00000E+00         0.00000E+00         0.00000E+00
 
    0.14136E+06         0.40334E+06         0.00000E+00
    0.40334E+06         0.11780E+06         0.00000E+00
    0.00000E+00         0.00000E+00         0.00000E+00
 
    0.12536E+06         0.40794E+06         0.00000E+00
    0.40794E+06         0.12577E+06         0.00000E+00
    0.00000E+00         0.00000E+00         0.00000E+00
 
    0.10917E+06         0.41225E+06         0.00000E+00
    0.41225E+06         0.13384E+06         0.00000E+00
    0.00000E+00         0.00000E+00         0.00000E+00
 
    0.92807E+05         0.41625E+06         0.00000E+00
    0.41625E+06         0.14201E+06         0.00000E+00
    0.00000E+00         0.00000E+00         0.00000E+00
 
    0.76274E+05         0.41995E+06         0.00000E+00
    0.41995E+06         0.15026E+06         0.00000E+00
    0.00000E+00         0.00000E+00         0.00000E+00
 
    0.59580E+05         0.42335E+06         0.00000E+00
    0.42335E+06         0.15860E+06         0.00000E+00
    0.00000E+00         0.00000E+00         0.00000E+00
 
    0.42732E+05         0.42644E+06         0.00000E+00
    0.42644E+06         0.16703E+06         0.00000E+00
    0.00000E+00         0.00000E+00         0.00000E+00
 
    0.25737E+05         0.42922E+06         0.00000E+00
    0.42922E+06         0.17553E+06         0.00000E+00
    0.00000E+00         0.00000E+00         0.00000E+00
 
    0.86016E+04         0.43169E+06         0.00000E+00
    0.43169E+06         0.18410E+06         0.00000E+00
    0.00000E+00         0.00000E+00         0.00000E+00
 
    0.61114E+06         0.74052E+04         0.00000E+00
    0.74052E+04        -0.81189E+05         0.00000E+00
    0.00000E+00         0.00000E+00         0.00000E+00
 
    0.60809E+06         0.21939E+05         0.00000E+00
    0.21939E+05        -0.80900E+05         0.00000E+00
    0.00000E+00         0.00000E+00         0.00000E+00
 
    0.60455E+06         0.36361E+05         0.00000E+00
    0.36361E+05        -0.80327E+05         0.00000E+00
    0.00000E+00         0.00000E+00         0.00000E+00
 
    0.60051E+06         0.50665E+05         0.00000E+00
    0.50665E+05        -0.79473E+05         0.00000E+00
    0.00000E+00         0.00000E+00         0.00000E+00
 
    0.59600E+06         0.64843E+05         0.00000E+00
    0.64843E+05        -0.78343E+05         0.00000E+00
    0.00000E+00         0.00000E+00         0.00000E+00
 
    0.59102E+06         0.78887E+05         0.00000E+00
    0.78887E+05        -0.76939E+05         0.00000E+00
    0.00000E+00         0.00000E+00         0.00000E+00
 
    0.58556E+06         0.92790E+05         0.00000E+00
    0.92790E+05        -0.75265E+05         0.00000E+00
    0.00000E+00         0.00000E+00         0.00000E+00
 
    0.57965E+06         0.10655E+06         0.00000E+00
    0.10655E+06        -0.73324E+05         0.00000E+00
    0.00000E+00         0.00000E+00         0.00000E+00
 
    0.57328E+06         0.12015E+06         0.00000E+00
    0.12015E+06        -0.71119E+05         0.00000E+00
    0.00000E+00         0.00000E+00         0.00000E+00
 
    0.56647E+06         0.13359E+06         0.00000E+00
    0.13359E+06        -0.68656E+05         0.00000E+00
    0.00000E+00         0.00000E+00         0.00000E+00
 
    0.55921E+06         0.14686E+06         0.00000E+00
    0.14686E+06        -0.65936E+05         0.00000E+00
    0.00000E+00         0.00000E+00         0.00000E+00
 
    0.55152E+06         0.15995E+06         0.00000E+00
    0.15995E+06        -0.62965E+05         0.00000E+00
    0.00000E+00         0.00000E+00         0.00000E+00
 
    0.54341E+06         0.17287E+06         0.00000E+00
    0.17287E+06        -0.59745E+05         0.00000E+00
    0.00000E+00         0.00000E+00         0.00000E+00
 
    0.53487E+06         0.18560E+06         0.00000E+00
    0.18560E+06        -0.56281E+05         0.00000E+00
    0.00000E+00         0.00000E+00         0.00000E+00
 
    0.52592E+06         0.19813E+06         0.00000E+00
    0.19813E+06        -0.52577E+05         0.00000E+00
    0.00000E+00         0.00000E+00         0.00000E+00
 
    0.51657E+06         0.21047E+06         0.00000E+00
    0.21047E+06        -0.48635E+05         0.00000E+00
    0.00000E+00         0.00000E+00         0.00000E+00
 
    0.50682E+06         0.22260E+06         0.00000E+00
    0.22260E+06        -0.44461E+05         0.00000E+00
    0.00000E+00         0.00000E+00         0.00000E+00
 
    0.49668E+06         0.23452E+06         0.00000E+00
    0.23452E+06        -0.40059E+05         0.00000E+00
    0.00000E+00         0.00000E+00         0.00000E+00
 
    0.48615E+06         0.24623E+06         0.00000E+00
    0.24623E+06        -0.35432E+05         0.00000E+00
    0.00000E+00         0.00000E+00         0.00000E+00
 
    0.47524E+06         0.25771E+06         0.00000E+00
    0.25771E+06        -0.30584E+05         0.00000E+00
    0.00000E+00         0.00000E+00         0.00000E+00
 
    0.46397E+06         0.26897E+06         0.00000E+00
    0.26897E+06        -0.25521E+05         0.00000E+00
    0.00000E+00         0.00000E+00         0.00000E+00
 
    0.45233E+06         0.27999E+06         0.00000E+00
    0.27999E+06        -0.20245E+05         0.00000E+00
    0.00000E+00         0.00000E+00         0.00000E+00
 
    0.44034E+06         0.29078E+06         0.00000E+00
    0.29078E+06        -0.14761E+05         0.00000E+00
    0.00000E+00         0.00000E+00         0.00000E+00
 
    0.42800E+06         0.30133E+06         0.00000E+00
    0.30133E+06        -0.90737E+04         0.00000E+00
    0.00000E+00         0.00000E+00         0.00000E+00
 
    0.41532E+06         0.31163E+06         0.00000E+00
    0.31163E+06        -0.31869E+04         0.00000E+00
    0.00000E+00         0.00000E+00         0.00000E+00
 
    0.40231E+06         0.32167E+06         0.00000E+00
    0.32167E+06         0.28949E+04         0.00000E+00
    0.00000E+00         0.00000E+00         0.00000E+00
 
    0.38897E+06         0.33147E+06         0.00000E+00
    0.33147E+06         0.91674E+04         0.00000E+00
    0.00000E+00         0.00000E+00         0.00000E+00
 
    0.37531E+06         0.34100E+06         0.00000E+00
    0.34100E+06         0.15626E+05         0.00000E+00
    0.00000E+00         0.00000E+00         0.00000E+00
 
    0.36135E+06         0.35026E+06         0.00000E+00
    0.35026E+06         0.22267E+05         0.00000E+00
    0.00000E+00         0.00000E+00         0.00000E+00
 
    0.34707E+06         0.35926E+06         0.00000E+00
    0.35926E+06         0.29085E+05         0.00000E+00
    0.00000E+00         0.00000E+00         0.00000E+00
 
    0.33250E+06         0.36798E+06         0.00000E+00
    0.36798E+06         0.36076E+05         0.00000E+00
    0.00000E+00         0.00000E+00         0.00000E+00
 
    0.31765E+06         0.37642E+06         0.00000E+00
    0.37642E+06         0.43235E+05         0.00000E+00
    0.00000E+00         0.00000E+00         0.00000E+00
 
    0.30251E+06         0.38459E+06         0.00000E+00
    0.38459E+06         0.50559E+05         0.00000E+00
    0.00000E+00         0.00000E+00         0.00000E+00
 
    0.28710E+06         0.39246E+06         0.00000E+00
    0.39246E+06         0.58041E+05         0.00000E+00
    0.00000E+00         0.00000E+00         0.00000E+00
 
    0.27142E+06         0.40005E+06         0.00000E+00
    0.40005E+06         0.65679E+05         0.00000E+00
    0.00000E+00         0.00000E+00         0.00000E+00
 
    0.25548E+06         0.40734E+06         0.00000E+00
    0.40734E+06         0.73466E+05         0.00000E+00
    0.00000E+00         0.00000E+00         0.00000E+00
 
    0.23929E+06         0.41434E+06         0.00000E+00
    0.41434E+06         0.81399E+05         0.00000E+00
    0.00000E+00         0.00000E+00         0.00000E+00
 
    0.22286E+06         0.42103E+06         0.00000E+00
    0.42103E+06         0.89472E+05         0.00000E+00
    0.00000E+00         0.00000E+00         0.00000E+00
 
    0.20619E+06         0.42742E+06         0.00000E+00
    0.42742E+06         0.97682E+05         0.00000E+00
    0.00000E+00         0.00000E+00         0.00000E+00
 
    0.18929E+06         0.43351E+06         0.00000E+00
    0.43351E+06         0.10602E+06         0.00000E+00
    0.00000E+00         0.00000E+00         0.00000E+00
 
    0.17217E+06         0.43928E+06         0.00000E+00
    0.43928E+06         0.11449E+06         0.00000E+00
    0.00000E+00         0.00000E+00         0.00000E+00
 
    0.15484E+06         0.44474E+06         0.00000E+00
    0.44474E+06         0.12308E+06         0.00000E+00
    0.00000E+00         0.00000E+00         0.00000E+00
 
    0.13730E+06         0.44988E+06         0.00000E+00
    0.44988E+06         0.13178E+06         0.00000E+00
    0.00000E+00         0.00000E+00         0.00000E+00
 
    0.11957E+06         0.45470E+06         0.00000E+00
    0.45470E+06         0.14060E+06         0.00000E+00
    0.00000E+00         0.00000E+00         0.00000E+00
 
    0.10164E+06         0.45920E+06         0.00000E+00
    0.45920E+06         0.14952E+06         0.00000E+00
    0.00000E+00         0.00000E+00         0.00000E+00
 
    0.83533E+05         0.46337E+06         0.00000E+00
    0.46337E+06         0.15855E+06         0.00000E+00
    0.00000E+00         0.00000E+00         0.00000E+00
 
    0.65248E+05         0.46721E+06         0.00000E+00
    0.46721E+06         0.16767E+06         0.00000E+00
    0.00000E+00         0.00000E+00         0.00000E+00
 
    0.46796E+05         0.47072E+06         0.00000E+00
    0.47072E+06         0.17689E+06         0.00000E+00
    0.00000E+00         0.00000E+00         0.00000E+00
 
    0.28183E+05         0.47390E+06         0.00000E+00
    0.47390E+06         0.18619E+06         0.00000E+00
    0.00000E+00         0.00000E+00         0.00000E+00
 
    0.94192E+04         0.47674E+06         0.00000E+00
    0.47674E+06         0.19557E+06         0.00000E+00
    0.00000E+00         0.00000E+00         0.00000E+00
 
    0.67430E+06         0.81726E+04         0.00000E+00
    0.81726E+04        -0.94659E+05         0.00000E+00
    0.00000E+00         0.00000E+00         0.00000E+00
 
    0.67067E+06         0.24195E+05         0.00000E+00
    0.24195E+05        -0.94343E+05         0.00000E+00
    0.00000E+00         0.00000E+00         0.00000E+00
 
    0.66651E+06         0.40090E+05         0.00000E+00
    0.40090E+05        -0.93719E+05         0.00000E+00
    0.00000E+00         0.00000E+00         0.00000E+00
 
    0.66182E+06         0.55848E+05         0.00000E+00
    0.55848E+05        -0.92789E+05         0.00000E+00
    0.00000E+00         0.00000E+00         0.00000E+00
 
    0.65662E+06         0.71463E+05         0.00000E+00
    0.71463E+05        -0.91557E+05         0.00000E+00
    0.00000E+00         0.00000E+00         0.00000E+00
 
    0.65090E+06         0.86926E+05         0.00000E+00
    0.86926E+05        -0.90028E+05         0.00000E+00
    0.00000E+00         0.00000E+00         0.00000E+00
 
    0.64468E+06         0.10223E+06         0.00000E+00
    0.10223E+06        -0.88205E+05         0.00000E+00
    0.00000E+00         0.00000E+00         0.00000E+00
 
    0.63796E+06         0.11737E+06         0.00000E+00
    0.11737E+06        -0.86092E+05         0.00000E+00
    0.00000E+00         0.00000E+00         0.00000E+00
 
    0.63076E+06         0.13233E+06         0.00000E+00
    0.13233E+06        -0.83693E+05         0.00000E+00
    0.00000E+00         0.00000E+00         0.00000E+00
 
    0.62307E+06         0.14711E+06         0.00000E+00
    0.14711E+06        -0.81012E+05         0.00000E+00
    0.00000E+00         0.00000E+00         0.00000E+00
 
    0.61491E+06         0.16171E+06         0.00000E+00
    0.16171E+06        -0.78053E+05         0.00000E+00
    0.00000E+00         0.00000E+00         0.00000E+00
 
    0.60629E+06         0.17611E+06         0.00000E+00
    0.17611E+06        -0.74820E+05         0.00000E+00
    0.00000E+00         0.00000E+00         0.00000E+00
 
    0.59720E+06         0.19031E+06         0.00000E+00
    0.19031E+06        -0.71317E+05         0.00000E+00
    0.00000E+00         0.00000E+00         0.00000E+00
 
    0.58767E+06         0.20430E+06         0.00000E+00
    0.20430E+06        -0.67549E+05         0.00000E+00
    0.00000E+00         0.00000E+00         0.00000E+00
 
    0.57769E+06         0.21808E+06         0.00000E+00
    0.21808E+06        -0.63519E+05         0.00000E+00
    0.00000E+00         0.00000E+00         0.00000E+00
 
    0.56727E+06         0.23164E+06         0.00000E+00
    0.23164E+06        -0.59233E+05         0.00000E+00
    0.00000E+00         0.00000E+00         0.00000E+00
 
    0.55643E+06         0.24498E+06         0.00000E+00
    0.24498E+06        -0.54693E+05         0.00000E+00
    0.00000E+00         0.00000E+00         0.00000E+00
 
    0.54517E+06         0.25808E+06         0.00000E+00
    0.25808E+06        -0.49906E+05         0.00000E+00
    0.00000E+00         0.00000E+00         0.00000E+00
 
    0.53350E+06         0.27094E+06         0.00000E+00
    0.27094E+06        -0.44874E+05         0.00000E+00
    0.00000E+00         0.00000E+00         0.00000E+00
 
    0.52142E+06         0.28357E+06         0.00000E+00
    0.28357E+06        -0.39602E+05         0.00000E+00
    0.00000E+00         0.00000E+00         0.00000E+00
 
    0.50894E+06         0.29594E+06         0.00000E+00
    0.29594E+06        -0.34096E+05         0.00000E+00
    0.00000E+00         0.00000E+00         0.00000E+00
 
    0.49608E+06         0.30806E+06         0.00000E+00
    0.30806E+06        -0.28358E+05         0.00000E+00
    0.00000E+00         0.00000E+00         0.00000E+00
 
    0.48284E+06         0.31992E+06         0.00000E+00
    0.31992E+06        -0.22395E+05         0.00000E+00
    0.00000E+00         0.00000E+00         0.00000E+00
 
    0.46922E+06         0.33152E+06         0.00000E+00
    0.33152E+06        -0.16210E+05         0.00000E+00
    0.00000E+00         0.00000E+00         0.00000E+00
 
    0.45524E+06         0.34285E+06         0.00000E+00
    0.34285E+06        -0.98080E+04         0.00000E+00
    0.00000E+00         0.00000E+00         0.00000E+00
 
    0.44090E+06         0.35390E+06         0.00000E+00
    0.35390E+06        -0.31936E+04         0.00000E+00
    0.00000E+00         0.00000E+00         0.00000E+00
 
    0.42621E+06         0.36468E+06         0.00000E+00
    0.36468E+06         0.36287E+04         0.00000E+00
    0.00000E+00         0.00000E+00         0.00000E+00
 
    0.41118E+06         0.37517E+06         0.00000E+00
    0.37517E+06         0.10654E+05         0.00000E+00
    0.00000E+00         0.00000E+00         0.00000E+00
 
    0.39582E+06         0.38538E+06         0.00000E+00
    0.38538E+06         0.17878E+05         0.00000E+00
    0.00000E+00         0.00000E+00         0.00000E+00
 
    0.38013E+06         0.39529E+06         0.00000E+00
    0.39529E+06         0.25296E+05         0.00000E+00
    0.00000E+00         0.00000E+00         0.00000E+00
 
    0.36413E+06         0.40490E+06         0.00000E+00
    0.40490E+06         0.32902E+05         0.00000E+00
    0.00000E+00         0.00000E+00         0.00000E+00
 
    0.34781E+06         0.41422E+06         0.00000E+00
    0.41422E+06         0.40693E+05         0.00000E+00
    0.00000E+00         0.00000E+00         0.00000E+00
 
    0.33120E+06         0.42322E+06         0.00000E+00
    0.42322E+06         0.48663E+05         0.00000E+00
    0.00000E+00         0.00000E+00         0.00000E+00
 
    0.31429E+06         0.43192E+06         0.00000E+00
    0.43192E+06         0.56808E+05         0.00000E+00
    0.00000E+00         0.00000E+00         0.00000E+00
 
    0.29709E+06         0.44031E+06         0.00000E+00
    0.44031E+06         0.65123E+05         0.00000E+00
    0.00000E+00         0.00000E+00         0.00000E+00
 
    0.27962E+06         0.44838E+06         0.00000E+00
    0.44838E+06         0.73602E+05         0.00000E+00
    0.00000E+00         0.00000E+00         0.00000E+00
 
    0.26188E+06         0.45612E+06         0.00000E+00
    0.45612E+06         0.82242E+05         0.00000E+00
    0.00000E+00         0.00000E+00         0.00000E+00
 
    0.24387E+06         0.46354E+06         0.00000E+00
    0.46354E+06         0.91036E+05         0.00000E+00
    0.00000E+00         0.00000E+00         0.00000E+00
 
    0.22561E+06         0.47064E+06         0.00000E+00
    0.47064E+06         0.99980E+05         0.00000E+00
    0.00000E+00         0.00000E+00         0.00000E+00
 
    0.20711E+06         0.47740E+06         0.00000E+00
    0.47740E+06         0.10907E+06         0.00000E+00
    0.00000E+00         0.00000E+00         0.00000E+00
 
    0.18836E+06         0.48383E+06         0.00000E+00
    0.48383E+06         0.11830E+06         0.00000E+00
    0.00000E+00         0.00000E+00         0.00000E+00
 
    0.16939E+06         0.48991E+06         0.00000E+00
    0.48991E+06         0.12766E+06         0.00000E+00
    0.00000E+00         0.00000E+00         0.00000E+00
 
    0.15020E+06         0.49566E+06         0.00000E+00
    0.49566E+06         0.13716E+06         0.00000E+00
    0.00000E+00         0.00000E+00         0.00000E+00
 
    0.13079E+06         0.50106E+06         0.00000E+00
    0.50106E+06         0.14678E+06         0.00000E+00
    0.00000E+00         0.00000E+00         0.00000E+00
 
    0.11118E+06         0.50611E+06         0.00000E+00
    0.50611E+06         0.15651E+06         0.00000E+00
    0.00000E+00         0.00000E+00         0.00000E+00
 
    0.91364E+05         0.51080E+06         0.00000E+00
    0.51080E+06         0.16637E+06         0.00000E+00
    0.00000E+00         0.00000E+00         0.00000E+00
 
    0.71363E+05         0.51515E+06         0.00000E+00
    0.51515E+06         0.17633E+06         0.00000E+00
    0.00000E+00         0.00000E+00         0.00000E+00
 
    0.51180E+05         0.51913E+06         0.00000E+00
    0.51913E+06         0.18639E+06         0.00000E+00
    0.00000E+00         0.00000E+00         0.00000E+00
 
    0.30823E+05         0.52276E+06         0.00000E+00
    0.52276E+06         0.19656E+06         0.00000E+00
    0.00000E+00         0.00000E+00         0.00000E+00
 
    0.10301E+05         0.52602E+06         0.00000E+00
    0.52602E+06         0.20682E+06         0.00000E+00
    0.00000E+00         0.00000E+00         0.00000E+00
 
    0.74315E+06         0.90089E+04         0.00000E+00
    0.90089E+04        -0.11026E+06         0.00000E+00
    0.00000E+00         0.00000E+00         0.00000E+00
 
    0.73885E+06         0.26653E+05         0.00000E+00
    0.26653E+05        -0.10992E+06         0.00000E+00
    0.00000E+00         0.00000E+00         0.00000E+00
 
    0.73398E+06         0.44149E+05         0.00000E+00
    0.44149E+05        -0.10924E+06         0.00000E+00
    0.00000E+00         0.00000E+00         0.00000E+00
 
    0.72854E+06         0.61489E+05         0.00000E+00
    0.61489E+05        -0.10823E+06         0.00000E+00
    0.00000E+00         0.00000E+00         0.00000E+00
 
    0.72255E+06         0.78666E+05         0.00000E+00
    0.78666E+05        -0.10689E+06         0.00000E+00
    0.00000E+00         0.00000E+00         0.00000E+00
 
    0.71601E+06         0.95671E+05         0.00000E+00
    0.95671E+05        -0.10523E+06         0.00000E+00
    0.00000E+00         0.00000E+00         0.00000E+00
 
    0.70892E+06         0.11250E+06         0.00000E+00
    0.11250E+06        -0.10324E+06         0.00000E+00
    0.00000E+00         0.00000E+00         0.00000E+00
 
    0.70130E+06         0.12913E+06         0.00000E+00
    0.12913E+06        -0.10095E+06         0.00000E+00
    0.00000E+00         0.00000E+00         0.00000E+00
 
    0.69316E+06         0.14558E+06         0.00000E+00
    0.14558E+06        -0.98342E+05         0.00000E+00
    0.00000E+00         0.00000E+00         0.00000E+00
 
    0.68450E+06         0.16182E+06         0.00000E+00
    0.16182E+06        -0.95430E+05         0.00000E+00
    0.00000E+00         0.00000E+00         0.00000E+00
 
    0.67533E+06         0.17785E+06         0.00000E+00
    0.17785E+06        -0.92216E+05         0.00000E+00
    0.00000E+00         0.00000E+00         0.00000E+00
 
    0.66567E+06         0.19367E+06         0.00000E+00
    0.19367E+06        -0.88705E+05         0.00000E+00
    0.00000E+00         0.00000E+00         0.00000E+00
 
    0.65551E+06         0.20927E+06         0.00000E+00
    0.20927E+06        -0.84902E+05         0.00000E+00
    0.00000E+00         0.00000E+00         0.00000E+00
 
    0.64487E+06         0.22463E+06         0.00000E+00
    0.22463E+06        -0.80810E+05         0.00000E+00
    0.00000E+00         0.00000E+00         0.00000E+00
 
    0.63375E+06         0.23976E+06         0.00000E+00
    0.23976E+06        -0.76435E+05         0.00000E+00
    0.00000E+00         0.00000E+00         0.00000E+00
 
    0.62217E+06         0.25465E+06         0.00000E+00
    0.25465E+06        -0.71782E+05         0.00000E+00
    0.00000E+00         0.00000E+00         0.00000E+00
 
    0.61013E+06         0.26929E+06         0.00000E+00
    0.26929E+06        -0.66854E+05         0.00000E+00
    0.00000E+00         0.00000E+00         0.00000E+00
 
    0.59764E+06         0.28367E+06         0.00000E+00
    0.28367E+06        -0.61657E+05         0.00000E+00
    0.00000E+00         0.00000E+00         0.00000E+00
 
    0.58470E+06         0.29780E+06         0.00000E+00
    0.29780E+06        -0.56195E+05         0.00000E+00
    0.00000E+00         0.00000E+00         0.00000E+00
 
    0.57134E+06         0.31166E+06         0.00000E+00
    0.31166E+06        -0.50473E+05         0.00000E+00
    0.00000E+00         0.00000E+00         0.00000E+00
 
    0.55755E+06         0.32525E+06         0.00000E+00
    0.32525E+06        -0.44495E+05         0.00000E+00
    0.00000E+00         0.00000E+00         0.00000E+00
 
    0.54335E+06         0.33856E+06         0.00000E+00
    0.33856E+06        -0.38268E+05         0.00000E+00
    0.00000E+00         0.00000E+00         0.00000E+00
 
    0.52874E+06         0.35159E+06         0.00000E+00
    0.35159E+06        -0.31794E+05         0.00000E+00
    0.00000E+00         0.00000E+00         0.00000E+00
 
    0.51374E+06         0.36433E+06         0.00000E+00
    0.36433E+06        -0.25080E+05         0.00000E+00
    0.00000E+00         0.00000E+00         0.00000E+00
 
    0.49834E+06         0.37678E+06         0.00000E+00
    0.37678E+06        -0.18130E+05         0.00000E+00
    0.00000E+00         0.00000E+00         0.00000E+00
 
    0.48256E+06         0.38893E+06         0.00000E+00
    0.38893E+06        -0.10949E+05         0.00000E+00
    0.00000E+00         0.00000E+00         0.00000E+00
 
    0.46640E+06         0.40077E+06         0.00000E+00
    0.40077E+06        -0.35418E+04         0.00000E+00
    0.00000E+00         0.00000E+00         0.00000E+00
 
    0.44989E+06         0.41232E+06         0.00000E+00
    0.41232E+06         0.40867E+04         0.00000E+00
    0.00000E+00         0.00000E+00         0.00000E+00
 
    0.43301E+06         0.42354E+06         0.00000E+00
    0.42354E+06         0.11931E+05         0.00000E+00
    0.00000E+00         0.00000E+00         0.00000E+00
 
    0.41579E+06         0.43446E+06         0.00000E+00
    0.43446E+06         0.19988E+05         0.00000E+00
    0.00000E+00         0.00000E+00         0.00000E+00
 
    0.39823E+06         0.44505E+06         0.00000E+00
    0.44505E+06         0.28250E+05         0.00000E+00
    0.00000E+00         0.00000E+00         0.00000E+00
 
    0.38034E+06         0.45531E+06         0.00000E+00
    0.45531E+06         0.36714E+05         0.00000E+00
    0.00000E+00         0.00000E+00         0.00000E+00
 
    0.36212E+06         0.46524E+06         0.00000E+00
    0.46524E+06         0.45373E+05         0.00000E+00
    0.00000E+00         0.00000E+00         0.00000E+00
 
    0.34359E+06         0.47484E+06         0.00000E+00
    0.47484E+06         0.54224E+05         0.00000E+00
    0.00000E+00         0.00000E+00         0.00000E+00
 
    0.32476E+06         0.48411E+06         0.00000E+00
    0.48411E+06         0.63262E+05         0.00000E+00
    0.00000E+00         0.00000E+00         0.00000E+00
 
    0.30563E+06         0.49303E+06         0.00000E+00
    0.49303E+06         0.72480E+05         0.00000E+00
    0.00000E+00         0.00000E+00         0.00000E+00
 
    0.28621E+06         0.50160E+06         0.00000E+00
    0.50160E+06         0.81873E+05         0.00000E+00
    0.00000E+00         0.00000E+00         0.00000E+00
 
    0.26650E+06         0.50982E+06         0.00000E+00
    0.50982E+06         0.91438E+05         0.00000E+00
    0.00000E+00         0.00000E+00         0.00000E+00
 
    0.24653E+06         0.51769E+06         0.00000E+00
    0.51769E+06         0.10117E+06         0.00000E+00
    0.00000E+00         0.00000E+00         0.00000E+00
 
    0.22629E+06         0.52520E+06         0.00000E+00
    0.52520E+06         0.11106E+06         0.00000E+00
    0.00000E+00         0.00000E+00         0.00000E+00
 
    0.20580E+06         0.53235E+06         0.00000E+00
    0.53235E+06         0.12110E+06         0.00000E+00
    0.00000E+00         0.00000E+00         0.00000E+00
 
    0.18506E+06         0.53914E+06         0.00000E+00
    0.53914E+06         0.13130E+06         0.00000E+00
    0.00000E+00         0.00000E+00         0.00000E+00
 
    0.16408E+06         0.54555E+06         0.00000E+00
    0.54555E+06         0.14164E+06         0.00000E+00
    0.00000E+00         0.00000E+00         0.00000E+00
 
    0.14287E+06         0.55160E+06         0.00000E+00
    0.55160E+06         0.15212E+06         0.00000E+00
    0.00000E+00         0.00000E+00         0.00000E+00
 
    0.12144E+06         0.55726E+06         0.00000E+00
    0.55726E+06         0.16273E+06         0.00000E+00
    0.00000E+00         0.00000E+00         0.00000E+00
 
    0.99795E+05         0.56256E+06         0.00000E+00
    0.56256E+06         0.17347E+06         0.00000E+00
    0.00000E+00         0.00000E+00         0.00000E+00
 
    0.77946E+05         0.56746E+06         0.00000E+00
    0.56746E+06         0.18433E+06         0.00000E+00
    0.00000E+00         0.00000E+00         0.00000E+00
 
    0.55899E+05         0.57199E+06         0.00000E+00
    0.57199E+06         0.19531E+06         0.00000E+00
    0.00000E+00         0.00000E+00         0.00000E+00
 
    0.33665E+05         0.57613E+06         0.00000E+00
    0.57613E+06         0.20640E+06         0.00000E+00
    0.00000E+00         0.00000E+00         0.00000E+00
 
    0.11251E+05         0.57987E+06         0.00000E+00
    0.57987E+06         0.21760E+06         0.00000E+00
    0.00000E+00         0.00000E+00         0.00000E+00
 
    0.81805E+06         0.99185E+04         0.00000E+00
    0.99185E+04        -0.12831E+06         0.00000E+00
    0.00000E+00         0.00000E+00         0.00000E+00
 
    0.81298E+06         0.29323E+05         0.00000E+00
    0.29323E+05        -0.12794E+06         0.00000E+00
    0.00000E+00         0.00000E+00         0.00000E+00
 
    0.80730E+06         0.48558E+05         0.00000E+00
    0.48558E+05        -0.12720E+06         0.00000E+00
    0.00000E+00         0.00000E+00         0.00000E+00
 
    0.80101E+06         0.67616E+05         0.00000E+00
    0.67616E+05        -0.12610E+06         0.00000E+00
    0.00000E+00         0.00000E+00         0.00000E+00
 
    0.79412E+06         0.86488E+05         0.00000E+00
    0.86488E+05        -0.12465E+06         0.00000E+00
    0.00000E+00         0.00000E+00         0.00000E+00
 
    0.78665E+06         0.10517E+06         0.00000E+00
    0.10517E+06        -0.12285E+06         0.00000E+00
    0.00000E+00         0.00000E+00         0.00000E+00
 
    0.77859E+06         0.12364E+06         0.00000E+00
    0.12364E+06        -0.12070E+06         0.00000E+00
    0.00000E+00         0.00000E+00         0.00000E+00
 
    0.76996E+06         0.14191E+06         0.00000E+00
    0.14191E+06        -0.11821E+06         0.00000E+00
    0.00000E+00         0.00000E+00         0.00000E+00
 
    0.76077E+06         0.15996E+06         0.00000E+00
    0.15996E+06        -0.11538E+06         0.00000E+00
    0.00000E+00         0.00000E+00         0.00000E+00
 
    0.75102E+06         0.17778E+06         0.00000E+00
    0.17778E+06        -0.11223E+06         0.00000E+00
    0.00000E+00         0.00000E+00         0.00000E+00
 
    0.74074E+06         0.19537E+06         0.00000E+00
    0.19537E+06        -0.10874E+06         0.00000E+00
    0.00000E+00         0.00000E+00         0.00000E+00
 
    0.72992E+06         0.21272E+06         0.00000E+00
    0.21272E+06        -0.10494E+06         0.00000E+00
    0.00000E+00         0.00000E+00         0.00000E+00
 
    0.71857E+06         0.22983E+06         0.00000E+00
    0.22983E+06        -0.10082E+06         0.00000E+00
    0.00000E+00         0.00000E+00         0.00000E+00
 
    0.70670E+06         0.24668E+06         0.00000E+00
    0.24668E+06        -0.96383E+05         0.00000E+00
    0.00000E+00         0.00000E+00         0.00000E+00
 
    0.69433E+06         0.26327E+06         0.00000E+00
    0.26327E+06        -0.91642E+05         0.00000E+00
    0.00000E+00         0.00000E+00         0.00000E+00
 
    0.68147E+06         0.27960E+06         0.00000E+00
    0.27960E+06        -0.86600E+05         0.00000E+00
    0.00000E+00         0.00000E+00         0.00000E+00
 
    0.66811E+06         0.29565E+06         0.00000E+00
    0.29565E+06        -0.81261E+05         0.00000E+00
    0.00000E+00         0.00000E+00         0.00000E+00
 
    0.65427E+06         0.31143E+06         0.00000E+00
    0.31143E+06        -0.75631E+05         0.00000E+00
    0.00000E+00         0.00000E+00         0.00000E+00
 
    0.63997E+06         0.32692E+06         0.00000E+00
    0.32692E+06        -0.69713E+05         0.00000E+00
    0.00000E+00         0.00000E+00         0.00000E+00
 
    0.62520E+06         0.34212E+06         0.00000E+00
    0.34212E+06        -0.63514E+05         0.00000E+00
    0.00000E+00         0.00000E+00         0.00000E+00
 
    0.60998E+06         0.35703E+06         0.00000E+00
    0.35703E+06        -0.57038E+05         0.00000E+00
    0.00000E+00         0.00000E+00         0.00000E+00
 
    0.59432E+06         0.37163E+06         0.00000E+00
    0.37163E+06        -0.50291E+05         0.00000E+00
    0.00000E+00         0.00000E+00         0.00000E+00
 
    0.57822E+06         0.38592E+06         0.00000E+00
    0.38592E+06        -0.43277E+05         0.00000E+00
    0.00000E+00         0.00000E+00         0.00000E+00
 
    0.56170E+06         0.39991E+06         0.00000E+00
    0.39991E+06        -0.36003E+05         0.00000E+00
    0.00000E+00         0.00000E+00         0.00000E+00
 
    0.54477E+06         0.41357E+06         0.00000E+00
    0.41357E+06        -0.28472E+05         0.00000E+00
    0.00000E+00         0.00000E+00         0.00000E+00
 
    0.52742E+06         0.42692E+06         0.00000E+00
    0.42692E+06        -0.20690E+05         0.00000E+00
    0.00000E+00         0.00000E+00         0.00000E+00
 
    0.50968E+06         0.43993E+06         0.00000E+00
    0.43993E+06        -0.12662E+05         0.00000E+00
    0.00000E+00         0.00000E+00         0.00000E+00
 
    0.49155E+06         0.45261E+06         0.00000E+00
    0.45261E+06        -0.43941E+04         0.00000E+00
    0.00000E+00         0.00000E+00         0.00000E+00
 
    0.47304E+06         0.46496E+06         0.00000E+00
    0.46496E+06         0.41095E+04         0.00000E+00
    0.00000E+00         0.00000E+00         0.00000E+00
 
    0.45416E+06         0.47696E+06         0.00000E+00
    0.47696E+06         0.12843E+05         0.00000E+00
    0.00000E+00         0.00000E+00         0.00000E+00
 
    0.43492E+06         0.48861E+06         0.00000E+00
    0.48861E+06         0.21802E+05         0.00000E+00
    0.00000E+00         0.00000E+00         0.00000E+00
 
    0.41532E+06         0.49992E+06         0.00000E+00
    0.49992E+06         0.30980E+05         0.00000E+00
    0.00000E+00         0.00000E+00         0.00000E+00
 
    0.39538E+06         0.51086E+06         0.00000E+00
    0.51086E+06         0.40373E+05         0.00000E+00
    0.00000E+00         0.00000E+00         0.00000E+00
 
    0.37511E+06         0.52145E+06         0.00000E+00
    0.52145E+06         0.49975E+05         0.00000E+00
    0.00000E+00         0.00000E+00         0.00000E+00
 
    0.35451E+06         0.53167E+06         0.00000E+00
    0.53167E+06         0.59780E+05         0.00000E+00
    0.00000E+00         0.00000E+00         0.00000E+00
 
    0.33359E+06         0.54153E+06         0.00000E+00
    0.54153E+06         0.69784E+05         0.00000E+00
    0.00000E+00         0.00000E+00         0.00000E+00
 
    0.31236E+06         0.55101E+06         0.00000E+00
    0.55101E+06         0.79981E+05         0.00000E+00
    0.00000E+00         0.00000E+00         0.00000E+00
 
    0.29083E+06         0.56011E+06         0.00000E+00
    0.56011E+06         0.90366E+05         0.00000E+00
    0.00000E+00         0.00000E+00         0.00000E+00
 
    0.26901E+06         0.56884E+06         0.00000E+00
    0.56884E+06         0.10093E+06         0.00000E+00
    0.00000E+00         0.00000E+00         0.00000E+00
 
    0.24691E+06         0.57718E+06         0.00000E+00
    0.57718E+06         0.11168E+06         0.00000E+00
    0.00000E+00         0.00000E+00         0.00000E+00
 
    0.22453E+06         0.58513E+06         0.00000E+00
    0.58513E+06         0.12259E+06         0.00000E+00
    0.00000E+00         0.00000E+00         0.00000E+00
 
    0.20189E+06         0.59269E+06         0.00000E+00
    0.59269E+06         0.13367E+06         0.00000E+00
    0.00000E+00         0.00000E+00         0.00000E+00
 
    0.17899E+06         0.59985E+06         0.00000E+00
    0.59985E+06         0.14491E+06         0.00000E+00
    0.00000E+00         0.00000E+00         0.00000E+00
 
    0.15585E+06         0.60662E+06         0.00000E+00
    0.60662E+06         0.15631E+06         0.00000E+00
    0.00000E+00         0.00000E+00         0.00000E+00
 
    0.13247E+06         0.61298E+06         0.00000E+00
    0.61298E+06         0.16786E+06         0.00000E+00
    0.00000E+00         0.00000E+00         0.00000E+00
 
    0.10885E+06         0.61893E+06         0.00000E+00
    0.61893E+06         0.17955E+06         0.00000E+00
    0.00000E+00         0.00000E+00         0.00000E+00
 
    0.85016E+05         0.62448E+06         0.00000E+00
    0.62448E+06         0.19137E+06         0.00000E+00
    0.00000E+00         0.00000E+00         0.00000E+00
 
    0.60969E+05         0.62961E+06         0.00000E+00
    0.62961E+06         0.20333E+06         0.00000E+00
    0.00000E+00         0.00000E+00         0.00000E+00
 
    0.36717E+05         0.63433E+06         0.00000E+00
    0.63433E+06         0.21542E+06         0.00000E+00
    0.00000E+00         0.00000E+00         0.00000E+00
 
    0.12271E+05         0.63863E+06         0.00000E+00
    0.63863E+06         0.22763E+06         0.00000E+00
    0.00000E+00         0.00000E+00         0.00000E+00
 
    0.89936E+06         0.10906E+05         0.00000E+00
    0.10906E+05        -0.14917E+06         0.00000E+00
    0.00000E+00         0.00000E+00         0.00000E+00
 
    0.89342E+06         0.32219E+05         0.00000E+00
    0.32219E+05        -0.14877E+06         0.00000E+00
    0.00000E+00         0.00000E+00         0.00000E+00
 
    0.88681E+06         0.53339E+05         0.00000E+00
    0.53339E+05        -0.14797E+06         0.00000E+00
    0.00000E+00         0.00000E+00         0.00000E+00
 
    0.87955E+06         0.74257E+05         0.00000E+00
    0.74257E+05        -0.14678E+06         0.00000E+00
    0.00000E+00         0.00000E+00         0.00000E+00
 
    0.87165E+06         0.94965E+05         0.00000E+00
    0.94965E+05        -0.14521E+06         0.00000E+00
    0.00000E+00         0.00000E+00         0.00000E+00
 
    0.86312E+06         0.11545E+06         0.00000E+00
    0.11545E+06        -0.14326E+06         0.00000E+00
    0.00000E+00         0.00000E+00         0.00000E+00
 
    0.85397E+06         0.13571E+06         0.00000E+00
    0.13571E+06        -0.14093E+06         0.00000E+00
    0.00000E+00         0.00000E+00         0.00000E+00
 
    0.84421E+06         0.15574E+06         0.00000E+00
    0.15574E+06        -0.13824E+06         0.00000E+00
    0.00000E+00         0.00000E+00         0.00000E+00
 
    0.83385E+06         0.17553E+06         0.00000E+00
    0.17553E+06        -0.13518E+06         0.00000E+00
    0.00000E+00         0.00000E+00         0.00000E+00
 
    0.82290E+06         0.19506E+06         0.00000E+00
    0.19506E+06        -0.13176E+06         0.00000E+00
    0.00000E+00         0.00000E+00         0.00000E+00
 
    0.81138E+06         0.21433E+06         0.00000E+00
    0.21433E+06        -0.12800E+06         0.00000E+00
    0.00000E+00         0.00000E+00         0.00000E+00
 
    0.79928E+06         0.23335E+06         0.00000E+00
    0.23335E+06        -0.12388E+06         0.00000E+00
    0.00000E+00         0.00000E+00         0.00000E+00
 
    0.78662E+06         0.25208E+06         0.00000E+00
    0.25208E+06        -0.11942E+06         0.00000E+00
    0.00000E+00         0.00000E+00         0.00000E+00
 
    0.77341E+06         0.27054E+06         0.00000E+00
    0.27054E+06        -0.11463E+06         0.00000E+00
    0.00000E+00         0.00000E+00         0.00000E+00
 
    0.75966E+06         0.28872E+06         0.00000E+00
    0.28872E+06        -0.10950E+06         0.00000E+00
    0.00000E+00         0.00000E+00         0.00000E+00
 
    0.74538E+06         0.30660E+06         0.00000E+00
    0.30660E+06        -0.10405E+06         0.00000E+00
    0.00000E+00         0.00000E+00         0.00000E+00
 
    0.73059E+06         0.32419E+06         0.00000E+00
    0.32419E+06        -0.98280E+05         0.00000E+00
    0.00000E+00         0.00000E+00         0.00000E+00
 
    0.71528E+06         0.34147E+06         0.00000E+00
    0.34147E+06        -0.92192E+05         0.00000E+00
    0.00000E+00         0.00000E+00         0.00000E+00
 
    0.69947E+06         0.35844E+06         0.00000E+00
    0.35844E+06        -0.85794E+05         0.00000E+00
    0.00000E+00         0.00000E+00         0.00000E+00
 
    0.68317E+06         0.37509E+06         0.00000E+00
    0.37509E+06        -0.79091E+05         0.00000E+00
    0.00000E+00         0.00000E+00         0.00000E+00
 
    0.66639E+06         0.39142E+06         0.00000E+00
    0.39142E+06        -0.72090E+05         0.00000E+00
    0.00000E+00         0.00000E+00         0.00000E+00
 
    0.64914E+06         0.40742E+06         0.00000E+00
    0.40742E+06        -0.64795E+05         0.00000E+00
    0.00000E+00         0.00000E+00         0.00000E+00
 
    0.63143E+06         0.42309E+06         0.00000E+00
    0.42309E+06        -0.57211E+05         0.00000E+00
    0.00000E+00         0.00000E+00         0.00000E+00
 
    0.61327E+06         0.43842E+06         0.00000E+00
    0.43842E+06        -0.49344E+05         0.00000E+00
    0.00000E+00         0.00000E+00         0.00000E+00
 
    0.59467E+06         0.45341E+06         0.00000E+00
    0.45341E+06        -0.41200E+05         0.00000E+00
    0.00000E+00         0.00000E+00         0.00000E+00
 
    0.57563E+06         0.46804E+06         0.00000E+00
    0.46804E+06        -0.32784E+05         0.00000E+00
    0.00000E+00         0.00000E+00         0.00000E+00
 
    0.55617E+06         0.48233E+06         0.00000E+00
    0.48233E+06        -0.24101E+05         0.00000E+00
    0.00000E+00         0.00000E+00         0.00000E+00
 
    0.53630E+06         0.49625E+06         0.00000E+00
    0.49625E+06        -0.15156E+05         0.00000E+00
    0.00000E+00         0.00000E+00         0.00000E+00
 
    0.51602E+06         0.50981E+06         0.00000E+00
    0.50981E+06        -0.59563E+04         0.00000E+00
    0.00000E+00         0.00000E+00         0.00000E+00
 
    0.49535E+06         0.52300E+06         0.00000E+00
    0.52300E+06         0.34942E+04         0.00000E+00
    0.00000E+00         0.00000E+00         0.00000E+00
 
    0.47430E+06         0.53581E+06         0.00000E+00
    0.53581E+06         0.13190E+05         0.00000E+00
    0.00000E+00         0.00000E+00         0.00000E+00
 
    0.45287E+06         0.54825E+06         0.00000E+00
    0.54825E+06         0.23124E+05         0.00000E+00
    0.00000E+00         0.00000E+00         0.00000E+00
 
    0.43107E+06         0.56030E+06         0.00000E+00
    0.56030E+06         0.33293E+05         0.00000E+00
    0.00000E+00         0.00000E+00         0.00000E+00
 
    0.40891E+06         0.57197E+06         0.00000E+00
    0.57197E+06         0.43690E+05         0.00000E+00
    0.00000E+00         0.00000E+00         0.00000E+00
 
    0.38641E+06         0.58324E+06         0.00000E+00
    0.58324E+06         0.54310E+05         0.00000E+00
    0.00000E+00         0.00000E+00         0.00000E+00
 
    0.36357E+06         0.59412E+06         0.00000E+00
    0.59412E+06         0.65148E+05         0.00000E+00
    0.00000E+00         0.00000E+00         0.00000E+00
 
    0.34040E+06         0.60460E+06         0.00000E+00
    0.60460E+06         0.76197E+05         0.00000E+00
    0.00000E+00         0.00000E+00         0.00000E+00
 
    0.31691E+06         0.61468E+06         0.00000E+00
    0.61468E+06         0.87453E+05         0.00000E+00
    0.00000E+00         0.00000E+00         0.00000E+00
 
    0.29311E+06         0.62435E+06         0.00000E+00
    0.62435E+06         0.98909E+05         0.00000E+00
    0.00000E+00         0.00000E+00         0.00000E+00
 
    0.26901E+06         0.63360E+06         0.00000E+00
    0.63360E+06         0.11056E+06         0.00000E+00
    0.00000E+00         0.00000E+00         0.00000E+00
 
    0.24461E+06         0.64244E+06         0.00000E+00
    0.64244E+06         0.12240E+06         0.00000E+00
    0.00000E+00         0.00000E+00         0.00000E+00
 
    0.21993E+06         0.65086E+06         0.00000E+00
    0.65086E+06         0.13443E+06         0.00000E+00
    0.00000E+00         0.00000E+00         0.00000E+00
 
    0.19498E+06         0.65885E+06         0.00000E+00
    0.65885E+06         0.14663E+06         0.00000E+00
    0.00000E+00         0.00000E+00         0.00000E+00
 
    0.16976E+06         0.66642E+06         0.00000E+00
    0.66642E+06         0.15900E+06         0.00000E+00
    0.00000E+00         0.00000E+00         0.00000E+00
 
    0.14428E+06         0.67356E+06         0.00000E+00
    0.67356E+06         0.17155E+06         0.00000E+00
    0.00000E+00         0.00000E+00         0.00000E+00
 
    0.11856E+06         0.68026E+06         0.00000E+00
    0.68026E+06         0.18425E+06         0.00000E+00
    0.00000E+00         0.00000E+00         0.00000E+00
 
    0.92593E+05         0.68652E+06         0.00000E+00
    0.68652E+06         0.19711E+06         0.00000E+00
    0.00000E+00         0.00000E+00         0.00000E+00
 
    0.66400E+05         0.69235E+06         0.00000E+00
    0.69235E+06         0.21011E+06         0.00000E+00
    0.00000E+00         0.00000E+00         0.00000E+00
 
    0.39988E+05         0.69772E+06         0.00000E+00
    0.69772E+06         0.22326E+06         0.00000E+00
    0.00000E+00         0.00000E+00         0.00000E+00
 
    0.13364E+05         0.70265E+06         0.00000E+00
    0.70265E+06         0.23655E+06         0.00000E+00
    0.00000E+00         0.00000E+00         0.00000E+00
 
    0.98746E+06         0.11975E+05         0.00000E+00
    0.11975E+05        -0.17325E+06         0.00000E+00
    0.00000E+00         0.00000E+00         0.00000E+00
 
    0.98050E+06         0.35353E+05         0.00000E+00
    0.35353E+05        -0.17281E+06         0.00000E+00
    0.00000E+00         0.00000E+00         0.00000E+00
 
    0.97284E+06         0.58511E+05         0.00000E+00
    0.58511E+05        -0.17195E+06         0.00000E+00
    0.00000E+00         0.00000E+00         0.00000E+00
 
    0.96449E+06         0.81439E+05         0.00000E+00
    0.81439E+05        -0.17066E+06         0.00000E+00
    0.00000E+00         0.00000E+00         0.00000E+00
 
    0.95545E+06         0.10413E+06         0.00000E+00
    0.10413E+06        -0.16897E+06         0.00000E+00
    0.00000E+00         0.00000E+00         0.00000E+00
 
    0.94573E+06         0.12657E+06         0.00000E+00
    0.12657E+06        -0.16686E+06         0.00000E+00
    0.00000E+00         0.00000E+00         0.00000E+00
 
    0.93536E+06         0.14876E+06         0.00000E+00
    0.14876E+06        -0.16435E+06         0.00000E+00
    0.00000E+00         0.00000E+00         0.00000E+00
 
    0.92434E+06         0.17069E+06         0.00000E+00
    0.17069E+06        -0.16144E+06         0.00000E+00
    0.00000E+00         0.00000E+00         0.00000E+00
 
    0.91268E+06         0.19235E+06         0.00000E+00
    0.19235E+06        -0.15814E+06         0.00000E+00
    0.00000E+00         0.00000E+00         0.00000E+00
 
    0.90039E+06         0.21373E+06         0.00000E+00
    0.21373E+06        -0.15445E+06         0.00000E+00
    0.00000E+00         0.00000E+00         0.00000E+00
 
    0.88749E+06         0.23482E+06         0.00000E+00
    0.23482E+06        -0.15039E+06         0.00000E+00
    0.00000E+00         0.00000E+00         0.00000E+00
 
    0.87398E+06         0.25563E+06         0.00000E+00
    0.25563E+06        -0.14595E+06         0.00000E+00
    0.00000E+00         0.00000E+00         0.00000E+00
 
    0.85987E+06         0.27613E+06         0.00000E+00
    0.27613E+06        -0.14114E+06         0.00000E+00
    0.00000E+00         0.00000E+00         0.00000E+00
 
    0.84519E+06         0.29632E+06         0.00000E+00
    0.29632E+06        -0.13596E+06         0.00000E+00
    0.00000E+00         0.00000E+00         0.00000E+00
 
    0.82993E+06         0.31621E+06         0.00000E+00
    0.31621E+06        -0.13043E+06         0.00000E+00
    0.00000E+00         0.00000E+00         0.00000E+00
 
    0.81410E+06         0.33577E+06         0.00000E+00
    0.33577E+06        -0.12455E+06         0.00000E+00
    0.00000E+00         0.00000E+00         0.00000E+00
 
    0.79773E+06         0.35500E+06         0.00000E+00
    0.35500E+06        -0.11832E+06         0.00000E+00
    0.00000E+00         0.00000E+00         0.00000E+00
 
    0.78082E+06         0.37391E+06         0.00000E+00
    0.37391E+06        -0.11176E+06         0.00000E+00
    0.00000E+00         0.00000E+00         0.00000E+00
 
    0.76337E+06         0.39247E+06         0.00000E+00
    0.39247E+06        -0.10485E+06         0.00000E+00
    0.00000E+00         0.00000E+00         0.00000E+00
 
    0.74541E+06         0.41070E+06         0.00000E+00
    0.41070E+06        -0.97624E+05         0.00000E+00
    0.00000E+00         0.00000E+00         0.00000E+00
 
    0.72693E+06         0.42857E+06         0.00000E+00
    0.42857E+06        -0.90070E+05         0.00000E+00
    0.00000E+00         0.00000E+00         0.00000E+00
 
    0.70796E+06         0.44608E+06         0.00000E+00
    0.44608E+06        -0.82199E+05         0.00000E+00
    0.00000E+00         0.00000E+00         0.00000E+00
 
    0.68850E+06         0.46324E+06         0.00000E+00
    0.46324E+06        -0.74016E+05         0.00000E+00
    0.00000E+00         0.00000E+00         0.00000E+00
 
    0.66856E+06         0.48003E+06         0.00000E+00
    0.48003E+06        -0.65527E+05         0.00000E+00
    0.00000E+00         0.00000E+00         0.00000E+00
 
    0.64816E+06         0.49644E+06         0.00000E+00
    0.49644E+06        -0.56738E+05         0.00000E+00
    0.00000E+00         0.00000E+00         0.00000E+00
 
    0.62729E+06         0.51248E+06         0.00000E+00
    0.51248E+06        -0.47654E+05         0.00000E+00
    0.00000E+00         0.00000E+00         0.00000E+00
 
    0.60598E+06         0.52814E+06         0.00000E+00
    0.52814E+06        -0.38281E+05         0.00000E+00
    0.00000E+00         0.00000E+00         0.00000E+00
 
    0.58423E+06         0.54341E+06         0.00000E+00
    0.54341E+06        -0.28625E+05         0.00000E+00
    0.00000E+00         0.00000E+00         0.00000E+00
 
    0.56205E+06         0.55829E+06         0.00000E+00
    0.55829E+06        -0.18692E+05         0.00000E+00
    0.00000E+00         0.00000E+00         0.00000E+00
 
    0.53945E+06         0.57277E+06         0.00000E+00
    0.57277E+06        -0.84859E+04         0.00000E+00
    0.00000E+00         0.00000E+00         0.00000E+00
 
    0.51645E+06         0.58684E+06         0.00000E+00
    0.58684E+06         0.19860E+04         0.00000E+00
    0.00000E+00         0.00000E+00         0.00000E+00
 
    0.49304E+06         0.60052E+06         0.00000E+00
    0.60052E+06         0.12718E+05         0.00000E+00
    0.00000E+00         0.00000E+00         0.00000E+00
 
    0.46925E+06         0.61378E+06         0.00000E+00
    0.61378E+06         0.23706E+05         0.00000E+00
    0.00000E+00         0.00000E+00         0.00000E+00
 
    0.44508E+06         0.62663E+06         0.00000E+00
    0.62663E+06         0.34943E+05         0.00000E+00
    0.00000E+00         0.00000E+00         0.00000E+00
 
    0.42054E+06         0.63905E+06         0.00000E+00
    0.63905E+06         0.46423E+05         0.00000E+00
    0.00000E+00         0.00000E+00         0.00000E+00
 
    0.39564E+06         0.65106E+06         0.00000E+00
    0.65106E+06         0.58142E+05         0.00000E+00
    0.00000E+00         0.00000E+00         0.00000E+00
 
    0.37039E+06         0.66263E+06         0.00000E+00
    0.66263E+06         0.70092E+05         0.00000E+00
    0.00000E+00         0.00000E+00         0.00000E+00
 
    0.34480E+06         0.67377E+06         0.00000E+00
    0.67377E+06         0.82269E+05         0.00000E+00
    0.00000E+00         0.00000E+00         0.00000E+00
 
    0.31887E+06         0.68448E+06         0.00000E+00
    0.68448E+06         0.94667E+05         0.00000E+00
    0.00000E+00         0.00000E+00         0.00000E+00
 
    0.29263E+06         0.69474E+06         0.00000E+00
    0.69474E+06         0.10728E+06         0.00000E+00
    0.00000E+00         0.00000E+00         0.00000E+00
 
    0.26607E+06         0.70456E+06         0.00000E+00
    0.70456E+06         0.12010E+06         0.00000E+00
    0.00000E+00         0.00000E+00         0.00000E+00
 
    0.23921E+06         0.71394E+06         0.00000E+00
    0.71394E+06         0.13313E+06         0.00000E+00
    0.00000E+00         0.00000E+00         0.00000E+00
 
    0.21206E+06         0.72286E+06         0.00000E+00
    0.72286E+06         0.14635E+06         0.00000E+00
    0.00000E+00         0.00000E+00         0.00000E+00
 
    0.18462E+06         0.73132E+06         0.00000E+00
    0.73132E+06         0.15977E+06         0.00000E+00
    0.00000E+00         0.00000E+00         0.00000E+00
 
    0.15690E+06         0.73932E+06         0.00000E+00
    0.73932E+06         0.17337E+06         0.00000E+00
    0.00000E+00         0.00000E+00         0.00000E+00
 
    0.12893E+06         0.74686E+06         0.00000E+00
    0.74686E+06         0.18715E+06         0.00000E+00
    0.00000E+00         0.00000E+00         0.00000E+00
 
    0.10069E+06         0.75393E+06         0.00000E+00
    0.75393E+06         0.20110E+06         0.00000E+00
    0.00000E+00         0.00000E+00         0.00000E+00
 
    0.72205E+05         0.76053E+06         0.00000E+00
    0.76053E+06         0.21523E+06         0.00000E+00
    0.00000E+00         0.00000E+00         0.00000E+00
 
    0.43483E+05         0.76666E+06         0.00000E+00
    0.76666E+06         0.22951E+06         0.00000E+00
    0.00000E+00         0.00000E+00         0.00000E+00
 
    0.14532E+05         0.77230E+06         0.00000E+00
    0.77230E+06         0.24396E+06         0.00000E+00
    0.00000E+00         0.00000E+00         0.00000E+00
 
    0.10827E+07         0.13130E+05         0.00000E+00
    0.13130E+05        -0.20100E+06         0.00000E+00
    0.00000E+00         0.00000E+00         0.00000E+00
 
    0.10746E+07         0.38736E+05         0.00000E+00
    0.38736E+05        -0.20053E+06         0.00000E+00
    0.00000E+00         0.00000E+00         0.00000E+00
 
    0.10657E+07         0.64092E+05         0.00000E+00
    0.64092E+05        -0.19960E+06         0.00000E+00
    0.00000E+00         0.00000E+00         0.00000E+00
 
    0.10561E+07         0.89188E+05         0.00000E+00
    0.89188E+05        -0.19822E+06         0.00000E+00
    0.00000E+00         0.00000E+00         0.00000E+00
 
    0.10458E+07         0.11402E+06         0.00000E+00
    0.11402E+06        -0.19639E+06         0.00000E+00
    0.00000E+00         0.00000E+00         0.00000E+00
 
    0.10348E+07         0.13857E+06         0.00000E+00
    0.13857E+06        -0.19412E+06         0.00000E+00
    0.00000E+00         0.00000E+00         0.00000E+00
 
    0.10230E+07         0.16284E+06         0.00000E+00
    0.16284E+06        -0.19142E+06         0.00000E+00
    0.00000E+00         0.00000E+00         0.00000E+00
 
    0.10106E+07         0.18681E+06         0.00000E+00
    0.18681E+06        -0.18828E+06         0.00000E+00
    0.00000E+00         0.00000E+00         0.00000E+00
 
    0.99748E+06         0.21049E+06         0.00000E+00
    0.21049E+06        -0.18473E+06         0.00000E+00
    0.00000E+00         0.00000E+00         0.00000E+00
 
    0.98371E+06         0.23386E+06         0.00000E+00
    0.23386E+06        -0.18076E+06         0.00000E+00
    0.00000E+00         0.00000E+00         0.00000E+00
 
    0.96929E+06         0.25691E+06         0.00000E+00
    0.25691E+06        -0.17638E+06         0.00000E+00
    0.00000E+00         0.00000E+00         0.00000E+00
 
    0.95422E+06         0.27964E+06         0.00000E+00
    0.27964E+06        -0.17160E+06         0.00000E+00
    0.00000E+00         0.00000E+00         0.00000E+00
 
    0.93853E+06         0.30204E+06         0.00000E+00
    0.30204E+06        -0.16642E+06         0.00000E+00
    0.00000E+00         0.00000E+00         0.00000E+00
 
    0.92222E+06         0.32410E+06         0.00000E+00
    0.32410E+06        -0.16086E+06         0.00000E+00
    0.00000E+00         0.00000E+00         0.00000E+00
 
    0.90531E+06         0.34582E+06         0.00000E+00
    0.34582E+06        -0.15490E+06         0.00000E+00
    0.00000E+00         0.00000E+00         0.00000E+00
 
    0.88780E+06         0.36720E+06         0.00000E+00
    0.36720E+06        -0.14857E+06         0.00000E+00
    0.00000E+00         0.00000E+00         0.00000E+00
 
    0.86970E+06         0.38821E+06         0.00000E+00
    0.38821E+06        -0.14187E+06         0.00000E+00
    0.00000E+00         0.00000E+00         0.00000E+00
 
    0.85104E+06         0.40887E+06         0.00000E+00
    0.40887E+06        -0.13480E+06         0.00000E+00
    0.00000E+00         0.00000E+00         0.00000E+00
 
    0.83182E+06         0.42915E+06         0.00000E+00
    0.42915E+06        -0.12737E+06         0.00000E+00
    0.00000E+00         0.00000E+00         0.00000E+00
 
    0.81204E+06         0.44907E+06         0.00000E+00
    0.44907E+06        -0.11959E+06         0.00000E+00
    0.00000E+00         0.00000E+00         0.00000E+00
 
    0.79173E+06         0.46860E+06         0.00000E+00
    0.46860E+06        -0.11146E+06         0.00000E+00
    0.00000E+00         0.00000E+00         0.00000E+00
 
    0.77090E+06         0.48775E+06         0.00000E+00
    0.48775E+06        -0.10298E+06         0.00000E+00
    0.00000E+00         0.00000E+00         0.00000E+00
 
    0.74954E+06         0.50651E+06         0.00000E+00
    0.50651E+06        -0.94174E+05         0.00000E+00
    0.00000E+00         0.00000E+00         0.00000E+00
 
    0.72769E+06         0.52487E+06         0.00000E+00
    0.52487E+06        -0.85034E+05         0.00000E+00
    0.00000E+00         0.00000E+00         0.00000E+00
 
    0.70534E+06         0.54284E+06         0.00000E+00
    0.54284E+06        -0.75569E+05         0.00000E+00
    0.00000E+00         0.00000E+00         0.00000E+00
 
    0.68250E+06         0.56039E+06         0.00000E+00
    0.56039E+06        -0.65786E+05         0.00000E+00
    0.00000E+00         0.00000E+00         0.00000E+00
 
    0.65919E+06         0.57754E+06         0.00000E+00
    0.57754E+06        -0.55691E+05         0.00000E+00
    0.00000E+00         0.00000E+00         0.00000E+00
 
    0.63542E+06         0.59427E+06         0.00000E+00
    0.59427E+06        -0.45289E+05         0.00000E+00
    0.00000E+00         0.00000E+00         0.00000E+00
 
    0.61120E+06         0.61058E+06         0.00000E+00
    0.61058E+06        -0.34586E+05         0.00000E+00
    0.00000E+00         0.00000E+00         0.00000E+00
 
    0.58653E+06         0.62646E+06         0.00000E+00
    0.62646E+06        -0.23588E+05         0.00000E+00
    0.00000E+00         0.00000E+00         0.00000E+00
 
    0.56144E+06         0.64191E+06         0.00000E+00
    0.64191E+06        -0.12301E+05         0.00000E+00
    0.00000E+00         0.00000E+00         0.00000E+00
 
    0.53592E+06         0.65693E+06         0.00000E+00
    0.65693E+06        -0.73086E+03         0.00000E+00
    0.00000E+00         0.00000E+00         0.00000E+00
 
    0.50999E+06         0.67151E+06         0.00000E+00
    0.67151E+06         0.11117E+05         0.00000E+00
    0.00000E+00         0.00000E+00         0.00000E+00
 
    0.48366E+06         0.68564E+06         0.00000E+00
    0.68564E+06         0.23237E+05         0.00000E+00
    0.00000E+00         0.00000E+00         0.00000E+00
 
    0.45694E+06         0.69933E+06         0.00000E+00
    0.69933E+06         0.35623E+05         0.00000E+00
    0.00000E+00         0.00000E+00         0.00000E+00
 
    0.42984E+06         0.71256E+06         0.00000E+00
    0.71256E+06         0.48268E+05         0.00000E+00
    0.00000E+00         0.00000E+00         0.00000E+00
 
    0.40236E+06         0.72534E+06         0.00000E+00
    0.72534E+06         0.61169E+05         0.00000E+00
    0.00000E+00         0.00000E+00         0.00000E+00
 
    0.37453E+06         0.73765E+06         0.00000E+00
    0.73765E+06         0.74317E+05         0.00000E+00
    0.00000E+00         0.00000E+00         0.00000E+00
 
    0.34634E+06         0.74950E+06         0.00000E+00
    0.74950E+06         0.87709E+05         0.00000E+00
    0.00000E+00         0.00000E+00         0.00000E+00
 
    0.31781E+06         0.76088E+06         0.00000E+00
    0.76088E+06         0.10134E+06         0.00000E+00
    0.00000E+00         0.00000E+00         0.00000E+00
 
    0.28895E+06         0.77179E+06         0.00000E+00
    0.77179E+06         0.11520E+06         0.00000E+00
    0.00000E+00         0.00000E+00         0.00000E+00
 
    0.25976E+06         0.78222E+06         0.00000E+00
    0.78222E+06         0.12928E+06         0.00000E+00
    0.00000E+00         0.00000E+00         0.00000E+00
 
    0.23026E+06         0.79216E+06         0.00000E+00
    0.79216E+06         0.14358E+06         0.00000E+00
    0.00000E+00         0.00000E+00         0.00000E+00
 
    0.20046E+06         0.80162E+06         0.00000E+00
    0.80162E+06         0.15810E+06         0.00000E+00
    0.00000E+00         0.00000E+00         0.00000E+00
 
    0.17036E+06         0.81059E+06         0.00000E+00
    0.81059E+06         0.17282E+06         0.00000E+00
    0.00000E+00         0.00000E+00         0.00000E+00
 
    0.13998E+06         0.81907E+06         0.00000E+00
    0.81907E+06         0.18775E+06         0.00000E+00
    0.00000E+00         0.00000E+00         0.00000E+00
 
    0.10932E+06         0.82705E+06         0.00000E+00
    0.82705E+06         0.20287E+06         0.00000E+00
    0.00000E+00         0.00000E+00         0.00000E+00
 
    0.78390E+05         0.83452E+06         0.00000E+00
    0.83452E+06         0.21818E+06         0.00000E+00
    0.00000E+00         0.00000E+00         0.00000E+00
 
    0.47207E+05         0.84150E+06         0.00000E+00
    0.84150E+06         0.23367E+06         0.00000E+00
    0.00000E+00         0.00000E+00         0.00000E+00
 
    0.15776E+05         0.84796E+06         0.00000E+00
    0.84796E+06         0.24934E+06         0.00000E+00
    0.00000E+00         0.00000E+00         0.00000E+00
 
    0.11853E+07         0.14375E+05         0.00000E+00
    0.14375E+05        -0.23296E+06         0.00000E+00
    0.00000E+00         0.00000E+00         0.00000E+00
 
    0.11759E+07         0.42379E+05         0.00000E+00
    0.42379E+05        -0.23246E+06         0.00000E+00
    0.00000E+00         0.00000E+00         0.00000E+00
 
    0.11657E+07         0.70099E+05         0.00000E+00
    0.70099E+05        -0.23146E+06         0.00000E+00
    0.00000E+00         0.00000E+00         0.00000E+00
 
    0.11547E+07         0.97528E+05         0.00000E+00
    0.97528E+05        -0.22997E+06         0.00000E+00
    0.00000E+00         0.00000E+00         0.00000E+00
 
    0.11429E+07         0.12466E+06         0.00000E+00
    0.12466E+06        -0.22800E+06         0.00000E+00
    0.00000E+00         0.00000E+00         0.00000E+00
 
    0.11304E+07         0.15147E+06         0.00000E+00
    0.15147E+06        -0.22556E+06         0.00000E+00
    0.00000E+00         0.00000E+00         0.00000E+00
 
    0.11172E+07         0.17798E+06         0.00000E+00
    0.17798E+06        -0.22266E+06         0.00000E+00
    0.00000E+00         0.00000E+00         0.00000E+00
 
    0.11032E+07         0.20415E+06         0.00000E+00
    0.20415E+06        -0.21929E+06         0.00000E+00
    0.00000E+00         0.00000E+00         0.00000E+00
 
    0.10885E+07         0.23000E+06         0.00000E+00
    0.23000E+06        -0.21548E+06         0.00000E+00
    0.00000E+00         0.00000E+00         0.00000E+00
 
    0.10731E+07         0.25550E+06         0.00000E+00
    0.25550E+06        -0.21121E+06         0.00000E+00
    0.00000E+00         0.00000E+00         0.00000E+00
 
    0.10570E+07         0.28065E+06         0.00000E+00
    0.28065E+06        -0.20651E+06         0.00000E+00
    0.00000E+00         0.00000E+00         0.00000E+00
 
    0.10402E+07         0.30546E+06         0.00000E+00
    0.30546E+06        -0.20138E+06         0.00000E+00
    0.00000E+00         0.00000E+00         0.00000E+00
 
    0.10228E+07         0.32990E+06         0.00000E+00
    0.32990E+06        -0.19582E+06         0.00000E+00
    0.00000E+00         0.00000E+00         0.00000E+00
 
    0.10047E+07         0.35397E+06         0.00000E+00
    0.35397E+06        -0.18984E+06         0.00000E+00
    0.00000E+00         0.00000E+00         0.00000E+00
 
    0.98595E+06         0.37766E+06         0.00000E+00
    0.37766E+06        -0.18345E+06         0.00000E+00
    0.00000E+00         0.00000E+00         0.00000E+00
 
    0.96660E+06         0.40098E+06         0.00000E+00
    0.40098E+06        -0.17665E+06         0.00000E+00
    0.00000E+00         0.00000E+00         0.00000E+00
 
    0.94663E+06         0.42391E+06         0.00000E+00
    0.42391E+06        -0.16945E+06         0.00000E+00
    0.00000E+00         0.00000E+00         0.00000E+00
 
    0.92607E+06         0.44645E+06         0.00000E+00
    0.44645E+06        -0.16186E+06         0.00000E+00
    0.00000E+00         0.00000E+00         0.00000E+00
 
    0.90492E+06         0.46859E+06         0.00000E+00
    0.46859E+06        -0.15389E+06         0.00000E+00
    0.00000E+00         0.00000E+00         0.00000E+00
 
    0.88319E+06         0.49032E+06         0.00000E+00
    0.49032E+06        -0.14553E+06         0.00000E+00
    0.00000E+00         0.00000E+00         0.00000E+00
 
    0.86089E+06         0.51165E+06         0.00000E+00
    0.51165E+06        -0.13680E+06         0.00000E+00
    0.00000E+00         0.00000E+00         0.00000E+00
 
    0.83804E+06         0.53256E+06         0.00000E+00
    0.53256E+06        -0.12770E+06         0.00000E+00
    0.00000E+00         0.00000E+00         0.00000E+00
 
    0.81465E+06         0.55305E+06         0.00000E+00
    0.55305E+06        -0.11823E+06         0.00000E+00
    0.00000E+00         0.00000E+00         0.00000E+00
 
    0.79072E+06         0.57311E+06         0.00000E+00
    0.57311E+06        -0.10842E+06         0.00000E+00
    0.00000E+00         0.00000E+00         0.00000E+00
 
    0.76628E+06         0.59274E+06         0.00000E+00
    0.59274E+06        -0.98248E+05         0.00000E+00
    0.00000E+00         0.00000E+00         0.00000E+00
 
    0.74133E+06         0.61194E+06         0.00000E+00
    0.61194E+06        -0.87737E+05         0.00000E+00
    0.00000E+00         0.00000E+00         0.00000E+00
 
    0.71588E+06         0.63069E+06         0.00000E+00
    0.63069E+06        -0.76888E+05         0.00000E+00
    0.00000E+00         0.00000E+00         0.00000E+00
 
    0.68994E+06         0.64900E+06         0.00000E+00
    0.64900E+06        -0.65708E+05         0.00000E+00
    0.00000E+00         0.00000E+00         0.00000E+00
 
    0.66353E+06         0.66686E+06         0.00000E+00
    0.66686E+06        -0.54202E+05         0.00000E+00
    0.00000E+00         0.00000E+00         0.00000E+00
 
    0.63665E+06         0.68426E+06         0.00000E+00
    0.68426E+06        -0.42377E+05         0.00000E+00
    0.00000E+00         0.00000E+00         0.00000E+00
 
    0.60932E+06         0.70121E+06         0.00000E+00
    0.70121E+06        -0.30238E+05         0.00000E+00
    0.00000E+00         0.00000E+00         0.00000E+00
 
    0.58154E+06         0.71769E+06         0.00000E+00
    0.71769E+06        -0.17792E+05         0.00000E+00
    0.00000E+00         0.00000E+00         0.00000E+00
 
    0.55333E+06         0.73370E+06         0.00000E+00
    0.73370E+06        -0.50432E+04         0.00000E+00
    0.00000E+00         0.00000E+00         0.00000E+00
 
    0.52470E+06         0.74924E+06         0.00000E+00
    0.74924E+06         0.80011E+04         0.00000E+00
    0.00000E+00         0.00000E+00         0.00000E+00
 
    0.49565E+06         0.76430E+06         0.00000E+00
    0.76430E+06         0.21335E+05         0.00000E+00
    0.00000E+00         0.00000E+00         0.00000E+00
 
    0.46620E+06         0.77888E+06         0.00000E+00
    0.77888E+06         0.34954E+05         0.00000E+00
    0.00000E+00         0.00000E+00         0.00000E+00
 
    0.43636E+06         0.79297E+06         0.00000E+00
    0.79297E+06         0.48850E+05         0.00000E+00
    0.00000E+00         0.00000E+00         0.00000E+00
 
    0.40613E+06         0.80657E+06         0.00000E+00
    0.80657E+06         0.63019E+05         0.00000E+00
    0.00000E+00         0.00000E+00         0.00000E+00
 
    0.37553E+06         0.81968E+06         0.00000E+00
    0.81968E+06         0.77454E+05         0.00000E+00
    0.00000E+00         0.00000E+00         0.00000E+00
 
    0.34457E+06         0.83228E+06         0.00000E+00
    0.83228E+06         0.92150E+05         0.00000E+00
    0.00000E+00         0.00000E+00         0.00000E+00
 
    0.31326E+06         0.84439E+06         0.00000E+00
    0.84439E+06         0.10710E+06         0.00000E+00
    0.00000E+00         0.00000E+00         0.00000E+00
 
    0.28160E+06         0.85598E+06         0.00000E+00
    0.85598E+06         0.12230E+06         0.00000E+00
    0.00000E+00         0.00000E+00         0.00000E+00
 
    0.24960E+06         0.86707E+06         0.00000E+00
    0.86707E+06         0.13774E+06         0.00000E+00
    0.00000E+00         0.00000E+00         0.00000E+00
 
    0.21729E+06         0.87764E+06         0.00000E+00
    0.87764E+06         0.15342E+06         0.00000E+00
    0.00000E+00         0.00000E+00         0.00000E+00
 
    0.18465E+06         0.88769E+06         0.00000E+00
    0.88769E+06         0.16933E+06         0.00000E+00
    0.00000E+00         0.00000E+00         0.00000E+00
 
    0.15172E+06         0.89722E+06         0.00000E+00
    0.89722E+06         0.18547E+06         0.00000E+00
    0.00000E+00         0.00000E+00         0.00000E+00
 
    0.11848E+06         0.90621E+06         0.00000E+00
    0.90621E+06         0.20182E+06         0.00000E+00
    0.00000E+00         0.00000E+00         0.00000E+00
 
    0.84961E+05         0.91468E+06         0.00000E+00
    0.91468E+06         0.21839E+06         0.00000E+00
    0.00000E+00         0.00000E+00         0.00000E+00
 
    0.51163E+05         0.92261E+06         0.00000E+00
    0.92261E+06         0.23516E+06         0.00000E+00
    0.00000E+00         0.00000E+00         0.00000E+00
 
    0.17098E+05         0.93000E+06         0.00000E+00
    0.93000E+06         0.25213E+06         0.00000E+00
    0.00000E+00         0.00000E+00         0.00000E+00
 
    0.12957E+07         0.15712E+05         0.00000E+00
    0.15712E+05        -0.26971E+06         0.00000E+00
    0.00000E+00         0.00000E+00         0.00000E+00
 
    0.12848E+07         0.46291E+05         0.00000E+00
    0.46291E+05        -0.26917E+06         0.00000E+00
    0.00000E+00         0.00000E+00         0.00000E+00
 
    0.12731E+07         0.76550E+05         0.00000E+00
    0.76550E+05        -0.26810E+06         0.00000E+00
    0.00000E+00         0.00000E+00         0.00000E+00
 
    0.12605E+07         0.10648E+06         0.00000E+00
    0.10648E+06        -0.26650E+06         0.00000E+00
    0.00000E+00         0.00000E+00         0.00000E+00
 
    0.12471E+07         0.13607E+06         0.00000E+00
    0.13607E+06        -0.26439E+06         0.00000E+00
    0.00000E+00         0.00000E+00         0.00000E+00
 
    0.12330E+07         0.16532E+06         0.00000E+00
    0.16532E+06        -0.26178E+06         0.00000E+00
    0.00000E+00         0.00000E+00         0.00000E+00
 
    0.12180E+07         0.19422E+06         0.00000E+00
    0.19422E+06        -0.25867E+06         0.00000E+00
    0.00000E+00         0.00000E+00         0.00000E+00
 
    0.12023E+07         0.22275E+06         0.00000E+00
    0.22275E+06        -0.25506E+06         0.00000E+00
    0.00000E+00         0.00000E+00         0.00000E+00
 
    0.11858E+07         0.25092E+06         0.00000E+00
    0.25092E+06        -0.25097E+06         0.00000E+00
    0.00000E+00         0.00000E+00         0.00000E+00
 
    0.11686E+07         0.27871E+06         0.00000E+00
    0.27871E+06        -0.24641E+06         0.00000E+00
    0.00000E+00         0.00000E+00         0.00000E+00
 
    0.11507E+07         0.30612E+06         0.00000E+00
    0.30612E+06        -0.24137E+06         0.00000E+00
    0.00000E+00         0.00000E+00         0.00000E+00
 
    0.11320E+07         0.33314E+06         0.00000E+00
    0.33314E+06        -0.23587E+06         0.00000E+00
    0.00000E+00         0.00000E+00         0.00000E+00
 
    0.11127E+07         0.35977E+06         0.00000E+00
    0.35977E+06        -0.22992E+06         0.00000E+00
    0.00000E+00         0.00000E+00         0.00000E+00
 
    0.10927E+07         0.38599E+06         0.00000E+00
    0.38599E+06        -0.22352E+06         0.00000E+00
    0.00000E+00         0.00000E+00         0.00000E+00
 
    0.10720E+07         0.41181E+06         0.00000E+00
    0.41181E+06        -0.21667E+06         0.00000E+00
    0.00000E+00         0.00000E+00         0.00000E+00
 
    0.10506E+07         0.43721E+06         0.00000E+00
    0.43721E+06        -0.20939E+06         0.00000E+00
    0.00000E+00         0.00000E+00         0.00000E+00
 
    0.10286E+07         0.46219E+06         0.00000E+00
    0.46219E+06        -0.20169E+06         0.00000E+00
    0.00000E+00         0.00000E+00         0.00000E+00
 
    0.10060E+07         0.48675E+06         0.00000E+00
    0.48675E+06        -0.19356E+06         0.00000E+00
    0.00000E+00         0.00000E+00         0.00000E+00
 
    0.98275E+06         0.51088E+06         0.00000E+00
    0.51088E+06        -0.18501E+06         0.00000E+00
    0.00000E+00         0.00000E+00         0.00000E+00
 
    0.95890E+06         0.53457E+06         0.00000E+00
    0.53457E+06        -0.17606E+06         0.00000E+00
    0.00000E+00         0.00000E+00         0.00000E+00
 
    0.93447E+06         0.55782E+06         0.00000E+00
    0.55782E+06        -0.16671E+06         0.00000E+00
    0.00000E+00         0.00000E+00         0.00000E+00
 
    0.90945E+06         0.58062E+06         0.00000E+00
    0.58062E+06        -0.15696E+06         0.00000E+00
    0.00000E+00         0.00000E+00         0.00000E+00
 
    0.88386E+06         0.60297E+06         0.00000E+00
    0.60297E+06        -0.14682E+06         0.00000E+00
    0.00000E+00         0.00000E+00         0.00000E+00
 
    0.85772E+06         0.62486E+06         0.00000E+00
    0.62486E+06        -0.13630E+06         0.00000E+00
    0.00000E+00         0.00000E+00         0.00000E+00
 
    0.83103E+06         0.64629E+06         0.00000E+00
    0.64629E+06        -0.12541E+06         0.00000E+00
    0.00000E+00         0.00000E+00         0.00000E+00
 
    0.80381E+06         0.66725E+06         0.00000E+00
    0.66725E+06        -0.11414E+06         0.00000E+00
    0.00000E+00         0.00000E+00         0.00000E+00
 
    0.77607E+06         0.68775E+06         0.00000E+00
    0.68775E+06        -0.10251E+06         0.00000E+00
    0.00000E+00         0.00000E+00         0.00000E+00
 
    0.74782E+06         0.70776E+06         0.00000E+00
    0.70776E+06        -0.90522E+05         0.00000E+00
    0.00000E+00         0.00000E+00         0.00000E+00
 
    0.71906E+06         0.72730E+06         0.00000E+00
    0.72730E+06        -0.78182E+05         0.00000E+00
    0.00000E+00         0.00000E+00         0.00000E+00
 
    0.68983E+06         0.74635E+06         0.00000E+00
    0.74635E+06        -0.65497E+05         0.00000E+00
    0.00000E+00         0.00000E+00         0.00000E+00
 
    0.66011E+06         0.76491E+06         0.00000E+00
    0.76491E+06        -0.52472E+05         0.00000E+00
    0.00000E+00         0.00000E+00         0.00000E+00
 
    0.62993E+06         0.78298E+06         0.00000E+00
    0.78298E+06        -0.39114E+05         0.00000E+00
    0.00000E+00         0.00000E+00         0.00000E+00
 
    0.59929E+06         0.80055E+06         0.00000E+00
    0.80055E+06        -0.25428E+05         0.00000E+00
    0.00000E+00         0.00000E+00         0.00000E+00
 
    0.56820E+06         0.81761E+06         0.00000E+00
    0.81761E+06        -0.11420E+05         0.00000E+00
    0.00000E+00         0.00000E+00         0.00000E+00
 
    0.53668E+06         0.83417E+06         0.00000E+00
    0.83417E+06         0.29029E+04         0.00000E+00
    0.00000E+00         0.00000E+00         0.00000E+00
 
    0.50474E+06         0.85022E+06         0.00000E+00
    0.85022E+06         0.17536E+05         0.00000E+00
    0.00000E+00         0.00000E+00         0.00000E+00
 
    0.47238E+06         0.86575E+06         0.00000E+00
    0.86575E+06         0.32473E+05         0.00000E+00
    0.00000E+00         0.00000E+00         0.00000E+00
 
    0.43962E+06         0.88077E+06         0.00000E+00
    0.88077E+06         0.47709E+05         0.00000E+00
    0.00000E+00         0.00000E+00         0.00000E+00
 
    0.40646E+06         0.89525E+06         0.00000E+00
    0.89525E+06         0.63236E+05         0.00000E+00
    0.00000E+00         0.00000E+00         0.00000E+00
 
    0.37292E+06         0.90921E+06         0.00000E+00
    0.90921E+06         0.79050E+05         0.00000E+00
    0.00000E+00         0.00000E+00         0.00000E+00
 
    0.33901E+06         0.92264E+06         0.00000E+00
    0.92264E+06         0.95145E+05         0.00000E+00
    0.00000E+00         0.00000E+00         0.00000E+00
 
    0.30472E+06         0.93553E+06         0.00000E+00
    0.93553E+06         0.11151E+06         0.00000E+00
    0.00000E+00         0.00000E+00         0.00000E+00
 
    0.27009E+06         0.94788E+06         0.00000E+00
    0.94788E+06         0.12815E+06         0.00000E+00
    0.00000E+00         0.00000E+00         0.00000E+00
 
    0.23511E+06         0.95968E+06         0.00000E+00
    0.95968E+06         0.14505E+06         0.00000E+00
    0.00000E+00         0.00000E+00         0.00000E+00
 
    0.19979E+06         0.97094E+06         0.00000E+00
    0.97094E+06         0.16221E+06         0.00000E+00
    0.00000E+00         0.00000E+00         0.00000E+00
 
    0.16415E+06         0.98164E+06         0.00000E+00
    0.98164E+06         0.17962E+06         0.00000E+00
    0.00000E+00         0.00000E+00         0.00000E+00
 
    0.12819E+06         0.99178E+06         0.00000E+00
    0.99178E+06         0.19727E+06         0.00000E+00
    0.00000E+00         0.00000E+00         0.00000E+00
 
    0.91919E+05         0.10014E+07         0.00000E+00
    0.10014E+07         0.21517E+06         0.00000E+00
    0.00000E+00         0.00000E+00         0.00000E+00
 
    0.55353E+05         0.10104E+07         0.00000E+00
    0.10104E+07         0.23329E+06         0.00000E+00
    0.00000E+00         0.00000E+00         0.00000E+00
 
    0.18498E+05         0.10188E+07         0.00000E+00
    0.10188E+07         0.25165E+06         0.00000E+00
    0.00000E+00         0.00000E+00         0.00000E+00
 
    0.14141E+07         0.17146E+05         0.00000E+00
    0.17146E+05        -0.31191E+06         0.00000E+00
    0.00000E+00         0.00000E+00         0.00000E+00
 
    0.14015E+07         0.50481E+05         0.00000E+00
    0.50481E+05        -0.31133E+06         0.00000E+00
    0.00000E+00         0.00000E+00         0.00000E+00
 
    0.13881E+07         0.83455E+05         0.00000E+00
    0.83455E+05        -0.31018E+06         0.00000E+00
    0.00000E+00         0.00000E+00         0.00000E+00
 
    0.13737E+07         0.11606E+06         0.00000E+00
    0.11606E+06        -0.30848E+06         0.00000E+00
    0.00000E+00         0.00000E+00         0.00000E+00
 
    0.13585E+07         0.14829E+06         0.00000E+00
    0.14829E+06        -0.30623E+06         0.00000E+00
    0.00000E+00         0.00000E+00         0.00000E+00
 
    0.13425E+07         0.18014E+06         0.00000E+00
    0.18014E+06        -0.30343E+06         0.00000E+00
    0.00000E+00         0.00000E+00         0.00000E+00
 
    0.13257E+07         0.21159E+06         0.00000E+00
    0.21159E+06        -0.30011E+06         0.00000E+00
    0.00000E+00         0.00000E+00         0.00000E+00
 
    0.13081E+07         0.24265E+06         0.00000E+00
    0.24265E+06        -0.29626E+06         0.00000E+00
    0.00000E+00         0.00000E+00         0.00000E+00
 
    0.12896E+07         0.27330E+06         0.00000E+00
    0.27330E+06        -0.29189E+06         0.00000E+00
    0.00000E+00         0.00000E+00         0.00000E+00
 
    0.12704E+07         0.30354E+06         0.00000E+00
    0.30354E+06        -0.28701E+06         0.00000E+00
    0.00000E+00         0.00000E+00         0.00000E+00
 
    0.12505E+07         0.33335E+06         0.00000E+00
    0.33335E+06        -0.28163E+06         0.00000E+00
    0.00000E+00         0.00000E+00         0.00000E+00
 
    0.12298E+07         0.36275E+06         0.00000E+00
    0.36275E+06        -0.27576E+06         0.00000E+00
    0.00000E+00         0.00000E+00         0.00000E+00
 
    0.12084E+07         0.39171E+06         0.00000E+00
    0.39171E+06        -0.26940E+06         0.00000E+00
    0.00000E+00         0.00000E+00         0.00000E+00
 
    0.11862E+07         0.42024E+06         0.00000E+00
    0.42024E+06        -0.26257E+06         0.00000E+00
    0.00000E+00         0.00000E+00         0.00000E+00
 
    0.11634E+07         0.44832E+06         0.00000E+00
    0.44832E+06        -0.25526E+06         0.00000E+00
    0.00000E+00         0.00000E+00         0.00000E+00
 
    0.11399E+07         0.47595E+06         0.00000E+00
    0.47595E+06        -0.24749E+06         0.00000E+00
    0.00000E+00         0.00000E+00         0.00000E+00
 
    0.11157E+07         0.50313E+06         0.00000E+00
    0.50313E+06        -0.23926E+06         0.00000E+00
    0.00000E+00         0.00000E+00         0.00000E+00
 
    0.10908E+07         0.52985E+06         0.00000E+00
    0.52985E+06        -0.23057E+06         0.00000E+00
    0.00000E+00         0.00000E+00         0.00000E+00
 
    0.10653E+07         0.55611E+06         0.00000E+00
    0.55611E+06        -0.22145E+06         0.00000E+00
    0.00000E+00         0.00000E+00         0.00000E+00
 
    0.10392E+07         0.58189E+06         0.00000E+00
    0.58189E+06        -0.21189E+06         0.00000E+00
    0.00000E+00         0.00000E+00         0.00000E+00
 
    0.10125E+07         0.60720E+06         0.00000E+00
    0.60720E+06        -0.20190E+06         0.00000E+00
    0.00000E+00         0.00000E+00         0.00000E+00
 
    0.98513E+06         0.63204E+06         0.00000E+00
    0.63204E+06        -0.19148E+06         0.00000E+00
    0.00000E+00         0.00000E+00         0.00000E+00
 
    0.95719E+06         0.65638E+06         0.00000E+00
    0.65638E+06        -0.18065E+06         0.00000E+00
    0.00000E+00         0.00000E+00         0.00000E+00
 
    0.92868E+06         0.68024E+06         0.00000E+00
    0.68024E+06        -0.16941E+06         0.00000E+00
    0.00000E+00         0.00000E+00         0.00000E+00
 
    0.89959E+06         0.70361E+06         0.00000E+00
    0.70361E+06        -0.15776E+06         0.00000E+00
    0.00000E+00         0.00000E+00         0.00000E+00
 
    0.86995E+06         0.72647E+06         0.00000E+00
    0.72647E+06        -0.14571E+06         0.00000E+00
    0.00000E+00         0.00000E+00         0.00000E+00
 
    0.83976E+06         0.74884E+06         0.00000E+00
    0.74884E+06        -0.13328E+06         0.00000E+00
    0.00000E+00         0.00000E+00         0.00000E+00
 
    0.80904E+06         0.77070E+06         0.00000E+00
    0.77070E+06        -0.12046E+06         0.00000E+00
    0.00000E+00         0.00000E+00         0.00000E+00
 
    0.77780E+06         0.79204E+06         0.00000E+00
    0.79204E+06        -0.10726E+06         0.00000E+00
    0.00000E+00         0.00000E+00         0.00000E+00
 
    0.74605E+06         0.81288E+06         0.00000E+00
    0.81288E+06        -0.93683E+05         0.00000E+00
    0.00000E+00         0.00000E+00         0.00000E+00
 
    0.71379E+06         0.83319E+06         0.00000E+00
    0.83319E+06        -0.79742E+05         0.00000E+00
    0.00000E+00         0.00000E+00         0.00000E+00
 
    0.68106E+06         0.85298E+06         0.00000E+00
    0.85298E+06        -0.65440E+05         0.00000E+00
    0.00000E+00         0.00000E+00         0.00000E+00
 
    0.64784E+06         0.87224E+06         0.00000E+00
    0.87224E+06        -0.50783E+05         0.00000E+00
    0.00000E+00         0.00000E+00         0.00000E+00
 
    0.61416E+06         0.89097E+06         0.00000E+00
    0.89097E+06        -0.35777E+05         0.00000E+00
    0.00000E+00         0.00000E+00         0.00000E+00
 
    0.58002E+06         0.90916E+06         0.00000E+00
    0.90916E+06        -0.20427E+05         0.00000E+00
    0.00000E+00         0.00000E+00         0.00000E+00
 
    0.54543E+06         0.92681E+06         0.00000E+00
    0.92681E+06        -0.47402E+04         0.00000E+00
    0.00000E+00         0.00000E+00         0.00000E+00
 
    0.51041E+06         0.94391E+06         0.00000E+00
    0.94391E+06         0.11279E+05         0.00000E+00
    0.00000E+00         0.00000E+00         0.00000E+00
 
    0.47497E+06         0.96047E+06         0.00000E+00
    0.96047E+06         0.27624E+05         0.00000E+00
    0.00000E+00         0.00000E+00         0.00000E+00
 
    0.43911E+06         0.97648E+06         0.00000E+00
    0.97648E+06         0.44289E+05         0.00000E+00
    0.00000E+00         0.00000E+00         0.00000E+00
 
    0.40284E+06         0.99192E+06         0.00000E+00
    0.99192E+06         0.61269E+05         0.00000E+00
    0.00000E+00         0.00000E+00         0.00000E+00
 
    0.36618E+06         0.10068E+07         0.00000E+00
    0.10068E+07         0.78558E+05         0.00000E+00
    0.00000E+00         0.00000E+00         0.00000E+00
 
    0.32913E+06         0.10211E+07         0.00000E+00
    0.10211E+07         0.96149E+05         0.00000E+00
    0.00000E+00         0.00000E+00         0.00000E+00
 
    0.29171E+06         0.10349E+07         0.00000E+00
    0.10349E+07         0.11404E+06         0.00000E+00
    0.00000E+00         0.00000E+00         0.00000E+00
 
    0.25391E+06         0.10480E+07         0.00000E+00
    0.10480E+07         0.13222E+06         0.00000E+00
    0.00000E+00         0.00000E+00         0.00000E+00
 
    0.21576E+06         0.10606E+07         0.00000E+00
    0.10606E+07         0.15068E+06         0.00000E+00
    0.00000E+00         0.00000E+00         0.00000E+00
 
    0.17727E+06         0.10727E+07         0.00000E+00
    0.10727E+07         0.16943E+06         0.00000E+00
    0.00000E+00         0.00000E+00         0.00000E+00
 
    0.13843E+06         0.10841E+07         0.00000E+00
    0.10841E+07         0.18845E+06         0.00000E+00
    0.00000E+00         0.00000E+00         0.00000E+00
 
    0.99261E+05         0.10949E+07         0.00000E+00
    0.10949E+07         0.20774E+06         0.00000E+00
    0.00000E+00         0.00000E+00         0.00000E+00
 
    0.59774E+05         0.11051E+07         0.00000E+00
    0.11051E+07         0.22729E+06         0.00000E+00
    0.00000E+00         0.00000E+00         0.00000E+00
 
    0.19976E+05         0.11148E+07         0.00000E+00
    0.11148E+07         0.24709E+06         0.00000E+00
    0.00000E+00         0.00000E+00         0.00000E+00
 
    0.15406E+07         0.18678E+05         0.00000E+00
    0.18678E+05        -0.36030E+06         0.00000E+00
    0.00000E+00         0.00000E+00         0.00000E+00
 
    0.15262E+07         0.54953E+05         0.00000E+00
    0.54953E+05        -0.35968E+06         0.00000E+00
    0.00000E+00         0.00000E+00         0.00000E+00
 
    0.15108E+07         0.90825E+05         0.00000E+00
    0.90825E+05        -0.35846E+06         0.00000E+00
    0.00000E+00         0.00000E+00         0.00000E+00
 
    0.14945E+07         0.12629E+06         0.00000E+00
    0.12629E+06        -0.35664E+06         0.00000E+00
    0.00000E+00         0.00000E+00         0.00000E+00
 
    0.14773E+07         0.16133E+06         0.00000E+00
    0.16133E+06        -0.35424E+06         0.00000E+00
    0.00000E+00         0.00000E+00         0.00000E+00
 
    0.14592E+07         0.19594E+06         0.00000E+00
    0.19594E+06        -0.35127E+06         0.00000E+00
    0.00000E+00         0.00000E+00         0.00000E+00
 
    0.14403E+07         0.23012E+06         0.00000E+00
    0.23012E+06        -0.34773E+06         0.00000E+00
    0.00000E+00         0.00000E+00         0.00000E+00
 
    0.14206E+07         0.26387E+06         0.00000E+00
    0.26387E+06        -0.34362E+06         0.00000E+00
    0.00000E+00         0.00000E+00         0.00000E+00
 
    0.14000E+07         0.29716E+06         0.00000E+00
    0.29716E+06        -0.33897E+06         0.00000E+00
    0.00000E+00         0.00000E+00         0.00000E+00
 
    0.13786E+07         0.33001E+06         0.00000E+00
    0.33001E+06        -0.33378E+06         0.00000E+00
    0.00000E+00         0.00000E+00         0.00000E+00
 
    0.13565E+07         0.36239E+06         0.00000E+00
    0.36239E+06        -0.32806E+06         0.00000E+00
    0.00000E+00         0.00000E+00         0.00000E+00
 
    0.13335E+07         0.39432E+06         0.00000E+00
    0.39432E+06        -0.32181E+06         0.00000E+00
    0.00000E+00         0.00000E+00         0.00000E+00
 
    0.13098E+07         0.42577E+06         0.00000E+00
    0.42577E+06        -0.31504E+06         0.00000E+00
    0.00000E+00         0.00000E+00         0.00000E+00
 
    0.12854E+07         0.45675E+06         0.00000E+00
    0.45675E+06        -0.30776E+06         0.00000E+00
    0.00000E+00         0.00000E+00         0.00000E+00
 
    0.12603E+07         0.48725E+06         0.00000E+00
    0.48725E+06        -0.29998E+06         0.00000E+00
    0.00000E+00         0.00000E+00         0.00000E+00
 
    0.12344E+07         0.51726E+06         0.00000E+00
    0.51726E+06        -0.29170E+06         0.00000E+00
    0.00000E+00         0.00000E+00         0.00000E+00
 
    0.12078E+07         0.54679E+06         0.00000E+00
    0.54679E+06        -0.28294E+06         0.00000E+00
    0.00000E+00         0.00000E+00         0.00000E+00
 
    0.11806E+07         0.57582E+06         0.00000E+00
    0.57582E+06        -0.27369E+06         0.00000E+00
    0.00000E+00         0.00000E+00         0.00000E+00
 
    0.11527E+07         0.60435E+06         0.00000E+00
    0.60435E+06        -0.26398E+06         0.00000E+00
    0.00000E+00         0.00000E+00         0.00000E+00
 
    0.11241E+07         0.63237E+06         0.00000E+00
    0.63237E+06        -0.25379E+06         0.00000E+00
    0.00000E+00         0.00000E+00         0.00000E+00
 
    0.10949E+07         0.65989E+06         0.00000E+00
    0.65989E+06        -0.24315E+06         0.00000E+00
    0.00000E+00         0.00000E+00         0.00000E+00
 
    0.10651E+07         0.68689E+06         0.00000E+00
    0.68689E+06        -0.23205E+06         0.00000E+00
    0.00000E+00         0.00000E+00         0.00000E+00
 
    0.10346E+07         0.71338E+06         0.00000E+00
    0.71338E+06        -0.22051E+06         0.00000E+00
    0.00000E+00         0.00000E+00         0.00000E+00
 
    0.10035E+07         0.73935E+06         0.00000E+00
    0.73935E+06        -0.20853E+06         0.00000E+00
    0.00000E+00         0.00000E+00         0.00000E+00
 
    0.97190E+06         0.76479E+06         0.00000E+00
    0.76479E+06        -0.19612E+06         0.00000E+00
    0.00000E+00         0.00000E+00         0.00000E+00
 
    0.93968E+06         0.78970E+06         0.00000E+00
    0.78970E+06        -0.18327E+06         0.00000E+00
    0.00000E+00         0.00000E+00         0.00000E+00
 
    0.90690E+06         0.81408E+06         0.00000E+00
    0.81408E+06        -0.17001E+06         0.00000E+00
    0.00000E+00         0.00000E+00         0.00000E+00
 
    0.87355E+06         0.83792E+06         0.00000E+00
    0.83792E+06        -0.15634E+06         0.00000E+00
    0.00000E+00         0.00000E+00         0.00000E+00
 
    0.83967E+06         0.86122E+06         0.00000E+00
    0.86122E+06        -0.14225E+06         0.00000E+00
    0.00000E+00         0.00000E+00         0.00000E+00
 
    0.80526E+06         0.88398E+06         0.00000E+00
    0.88398E+06        -0.12777E+06         0.00000E+00
    0.00000E+00         0.00000E+00         0.00000E+00
 
    0.77032E+06         0.90618E+06         0.00000E+00
    0.90618E+06        -0.11289E+06         0.00000E+00
    0.00000E+00         0.00000E+00         0.00000E+00
 
    0.73488E+06         0.92783E+06         0.00000E+00
    0.92783E+06        -0.97614E+05         0.00000E+00
    0.00000E+00         0.00000E+00         0.00000E+00
 
    0.69894E+06         0.94893E+06         0.00000E+00
    0.94893E+06        -0.81958E+05         0.00000E+00
    0.00000E+00         0.00000E+00         0.00000E+00
 
    0.66252E+06         0.96946E+06         0.00000E+00
    0.96946E+06        -0.65922E+05         0.00000E+00
    0.00000E+00         0.00000E+00         0.00000E+00
 
    0.62561E+06         0.98943E+06         0.00000E+00
    0.98943E+06        -0.49514E+05         0.00000E+00
    0.00000E+00         0.00000E+00         0.00000E+00
 
    0.58824E+06         0.10088E+07         0.00000E+00
    0.10088E+07        -0.32738E+05         0.00000E+00
    0.00000E+00         0.00000E+00         0.00000E+00
 
    0.55042E+06         0.10277E+07         0.00000E+00
    0.10277E+07        -0.15601E+05         0.00000E+00
    0.00000E+00         0.00000E+00         0.00000E+00
 
    0.51214E+06         0.10459E+07         0.00000E+00
    0.10459E+07         0.18930E+04         0.00000E+00
    0.00000E+00         0.00000E+00         0.00000E+00
 
    0.47344E+06         0.10636E+07         0.00000E+00
    0.10636E+07         0.19737E+05         0.00000E+00
    0.00000E+00         0.00000E+00         0.00000E+00
 
    0.43430E+06         0.10806E+07         0.00000E+00
    0.10806E+07         0.37926E+05         0.00000E+00
    0.00000E+00         0.00000E+00         0.00000E+00
 
    0.39475E+06         0.10971E+07         0.00000E+00
    0.10971E+07         0.56454E+05         0.00000E+00
    0.00000E+00         0.00000E+00         0.00000E+00
 
    0.35479E+06         0.11130E+07         0.00000E+00
    0.11130E+07         0.75317E+05         0.00000E+00
    0.00000E+00         0.00000E+00         0.00000E+00
 
    0.31443E+06         0.11283E+07         0.00000E+00
    0.11283E+07         0.94507E+05         0.00000E+00
    0.00000E+00         0.00000E+00         0.00000E+00
 
    0.27368E+06         0.11430E+07         0.00000E+00
    0.11430E+07         0.11402E+06         0.00000E+00
    0.00000E+00         0.00000E+00         0.00000E+00
 
    0.23255E+06         0.11571E+07         0.00000E+00
    0.11571E+07         0.13385E+06         0.00000E+00
    0.00000E+00         0.00000E+00         0.00000E+00
 
    0.19105E+06         0.11706E+07         0.00000E+00
    0.11706E+07         0.15399E+06         0.00000E+00
    0.00000E+00         0.00000E+00         0.00000E+00
 
    0.14919E+06         0.11834E+07         0.00000E+00
    0.11834E+07         0.17444E+06         0.00000E+00
    0.00000E+00         0.00000E+00         0.00000E+00
 
    0.10698E+06         0.11957E+07         0.00000E+00
    0.11957E+07         0.19519E+06         0.00000E+00
    0.00000E+00         0.00000E+00         0.00000E+00
 
    0.64421E+05         0.12073E+07         0.00000E+00
    0.12073E+07         0.21623E+06         0.00000E+00
    0.00000E+00         0.00000E+00         0.00000E+00
 
    0.21529E+05         0.12183E+07         0.00000E+00
    0.12183E+07         0.23757E+06         0.00000E+00
    0.00000E+00         0.00000E+00         0.00000E+00
 
    0.16754E+07         0.20309E+05         0.00000E+00
    0.20309E+05        -0.41571E+06         0.00000E+00
    0.00000E+00         0.00000E+00         0.00000E+00
 
    0.16588E+07         0.59713E+05         0.00000E+00
    0.59713E+05        -0.41505E+06         0.00000E+00
    0.00000E+00         0.00000E+00         0.00000E+00
 
    0.16413E+07         0.98666E+05         0.00000E+00
    0.98666E+05        -0.41375E+06         0.00000E+00
    0.00000E+00         0.00000E+00         0.00000E+00
 
    0.16228E+07         0.13716E+06         0.00000E+00
    0.13716E+06        -0.41182E+06         0.00000E+00
    0.00000E+00         0.00000E+00         0.00000E+00
 
    0.16034E+07         0.17519E+06         0.00000E+00
    0.17519E+06        -0.40928E+06         0.00000E+00
    0.00000E+00         0.00000E+00         0.00000E+00
 
    0.15831E+07         0.21275E+06         0.00000E+00
    0.21275E+06        -0.40612E+06         0.00000E+00
    0.00000E+00         0.00000E+00         0.00000E+00
 
    0.15619E+07         0.24983E+06         0.00000E+00
    0.24983E+06        -0.40236E+06         0.00000E+00
    0.00000E+00         0.00000E+00         0.00000E+00
 
    0.15398E+07         0.28643E+06         0.00000E+00
    0.28643E+06        -0.39801E+06         0.00000E+00
    0.00000E+00         0.00000E+00         0.00000E+00
 
    0.15169E+07         0.32253E+06         0.00000E+00
    0.32253E+06        -0.39307E+06         0.00000E+00
    0.00000E+00         0.00000E+00         0.00000E+00
 
    0.14931E+07         0.35815E+06         0.00000E+00
    0.35815E+06        -0.38756E+06         0.00000E+00
    0.00000E+00         0.00000E+00         0.00000E+00
 
    0.14686E+07         0.39326E+06         0.00000E+00
    0.39326E+06        -0.38149E+06         0.00000E+00
    0.00000E+00         0.00000E+00         0.00000E+00
 
    0.14432E+07         0.42787E+06         0.00000E+00
    0.42787E+06        -0.37485E+06         0.00000E+00
    0.00000E+00         0.00000E+00         0.00000E+00
 
    0.14171E+07         0.46197E+06         0.00000E+00
    0.46197E+06        -0.36767E+06         0.00000E+00
    0.00000E+00         0.00000E+00         0.00000E+00
 
    0.13901E+07         0.49556E+06         0.00000E+00
    0.49556E+06        -0.35994E+06         0.00000E+00
    0.00000E+00         0.00000E+00         0.00000E+00
 
    0.13625E+07         0.52863E+06         0.00000E+00
    0.52863E+06        -0.35169E+06         0.00000E+00
    0.00000E+00         0.00000E+00         0.00000E+00
 
    0.13341E+07         0.56118E+06         0.00000E+00
    0.56118E+06        -0.34290E+06         0.00000E+00
    0.00000E+00         0.00000E+00         0.00000E+00
 
    0.13050E+07         0.59320E+06         0.00000E+00
    0.59320E+06        -0.33360E+06         0.00000E+00
    0.00000E+00         0.00000E+00         0.00000E+00
 
    0.12751E+07         0.62469E+06         0.00000E+00
    0.62469E+06        -0.32379E+06         0.00000E+00
    0.00000E+00         0.00000E+00         0.00000E+00
 
    0.12446E+07         0.65564E+06         0.00000E+00
    0.65564E+06        -0.31347E+06         0.00000E+00
    0.00000E+00         0.00000E+00         0.00000E+00
 
    0.12135E+07         0.68605E+06         0.00000E+00
    0.68605E+06        -0.30266E+06         0.00000E+00
    0.00000E+00         0.00000E+00         0.00000E+00
 
    0.11816E+07         0.71593E+06         0.00000E+00
    0.71593E+06        -0.29136E+06         0.00000E+00
    0.00000E+00         0.00000E+00         0.00000E+00
 
    0.11491E+07         0.74525E+06         0.00000E+00
    0.74525E+06        -0.27957E+06         0.00000E+00
    0.00000E+00         0.00000E+00         0.00000E+00
 
    0.11160E+07         0.77403E+06         0.00000E+00
    0.77403E+06        -0.26731E+06         0.00000E+00
    0.00000E+00         0.00000E+00         0.00000E+00
 
    0.10822E+07         0.80225E+06         0.00000E+00
    0.80225E+06        -0.25458E+06         0.00000E+00
    0.00000E+00         0.00000E+00         0.00000E+00
 
    0.10479E+07         0.82992E+06         0.00000E+00
    0.82992E+06        -0.24139E+06         0.00000E+00
    0.00000E+00         0.00000E+00         0.00000E+00
 
    0.10129E+07         0.85702E+06         0.00000E+00
    0.85702E+06        -0.22774E+06         0.00000E+00
    0.00000E+00         0.00000E+00         0.00000E+00
 
    0.97738E+06         0.88356E+06         0.00000E+00
    0.88356E+06        -0.21364E+06         0.00000E+00
    0.00000E+00         0.00000E+00         0.00000E+00
 
    0.94126E+06         0.90953E+06         0.00000E+00
    0.90953E+06        -0.19910E+06         0.00000E+00
    0.00000E+00         0.00000E+00         0.00000E+00
 
    0.90459E+06         0.93494E+06         0.00000E+00
    0.93494E+06        -0.18411E+06         0.00000E+00
    0.00000E+00         0.00000E+00         0.00000E+00
 
    0.86736E+06         0.95976E+06         0.00000E+00
    0.95976E+06        -0.16870E+06         0.00000E+00
    0.00000E+00         0.00000E+00         0.00000E+00
 
    0.82960E+06         0.98401E+06         0.00000E+00
    0.98401E+06        -0.15286E+06         0.00000E+00
    0.00000E+00         0.00000E+00         0.00000E+00
 
    0.79131E+06         0.10077E+07         0.00000E+00
    0.10077E+07        -0.13659E+06         0.00000E+00
    0.00000E+00         0.00000E+00         0.00000E+00
 
    0.75250E+06         0.10308E+07         0.00000E+00
    0.10308E+07        -0.11991E+06         0.00000E+00
    0.00000E+00         0.00000E+00         0.00000E+00
 
    0.71319E+06         0.10532E+07         0.00000E+00
    0.10532E+07        -0.10282E+06         0.00000E+00
    0.00000E+00         0.00000E+00         0.00000E+00
 
    0.67338E+06         0.10751E+07         0.00000E+00
    0.10751E+07        -0.85330E+05         0.00000E+00
    0.00000E+00         0.00000E+00         0.00000E+00
 
    0.63308E+06         0.10964E+07         0.00000E+00
    0.10964E+07        -0.67437E+05         0.00000E+00
    0.00000E+00         0.00000E+00         0.00000E+00
 
    0.59231E+06         0.11171E+07         0.00000E+00
    0.11171E+07        -0.49150E+05         0.00000E+00
    0.00000E+00         0.00000E+00         0.00000E+00
 
    0.55107E+06         0.11372E+07         0.00000E+00
    0.11372E+07        -0.30475E+05         0.00000E+00
    0.00000E+00         0.00000E+00         0.00000E+00
 
    0.50938E+06         0.11567E+07         0.00000E+00
    0.11567E+07        -0.11417E+05         0.00000E+00
    0.00000E+00         0.00000E+00         0.00000E+00
 
    0.46723E+06         0.11756E+07         0.00000E+00
    0.11756E+07         0.80192E+04         0.00000E+00
    0.00000E+00         0.00000E+00         0.00000E+00
 
    0.42465E+06         0.11938E+07         0.00000E+00
    0.11938E+07         0.27828E+05         0.00000E+00
    0.00000E+00         0.00000E+00         0.00000E+00
 
    0.38164E+06         0.12115E+07         0.00000E+00
    0.12115E+07         0.48004E+05         0.00000E+00
    0.00000E+00         0.00000E+00         0.00000E+00
 
    0.33821E+06         0.12285E+07         0.00000E+00
    0.12285E+07         0.68543E+05         0.00000E+00
    0.00000E+00         0.00000E+00         0.00000E+00
 
    0.29437E+06         0.12449E+07         0.00000E+00
    0.12449E+07         0.89438E+05         0.00000E+00
    0.00000E+00         0.00000E+00         0.00000E+00
 
    0.25012E+06         0.12606E+07         0.00000E+00
    0.12606E+07         0.11069E+06         0.00000E+00
    0.00000E+00         0.00000E+00         0.00000E+00
 
    0.20548E+06         0.12757E+07         0.00000E+00
    0.12757E+07         0.13228E+06         0.00000E+00
    0.00000E+00         0.00000E+00         0.00000E+00
 
    0.16046E+06         0.12902E+07         0.00000E+00
    0.12902E+07         0.15421E+06         0.00000E+00
    0.00000E+00         0.00000E+00         0.00000E+00
 
    0.11506E+06         0.13040E+07         0.00000E+00
    0.13040E+07         0.17649E+06         0.00000E+00
    0.00000E+00         0.00000E+00         0.00000E+00
 
    0.69286E+05         0.13171E+07         0.00000E+00
    0.13171E+07         0.19909E+06         0.00000E+00
    0.00000E+00         0.00000E+00         0.00000E+00
 
    0.23155E+05         0.13296E+07         0.00000E+00
    0.13296E+07         0.22201E+06         0.00000E+00
    0.00000E+00         0.00000E+00         0.00000E+00
 
    0.18185E+07         0.22040E+05         0.00000E+00
    0.22040E+05        -0.47906E+06         0.00000E+00
    0.00000E+00         0.00000E+00         0.00000E+00
 
    0.17996E+07         0.64760E+05         0.00000E+00
    0.64760E+05        -0.47837E+06         0.00000E+00
    0.00000E+00         0.00000E+00         0.00000E+00
 
    0.17796E+07         0.10698E+06         0.00000E+00
    0.10698E+06        -0.47699E+06         0.00000E+00
    0.00000E+00         0.00000E+00         0.00000E+00
 
    0.17587E+07         0.14869E+06         0.00000E+00
    0.14869E+06        -0.47495E+06         0.00000E+00
    0.00000E+00         0.00000E+00         0.00000E+00
 
    0.17368E+07         0.18988E+06         0.00000E+00
    0.18988E+06        -0.47226E+06         0.00000E+00
    0.00000E+00         0.00000E+00         0.00000E+00
 
    0.17140E+07         0.23055E+06         0.00000E+00
    0.23055E+06        -0.46892E+06         0.00000E+00
    0.00000E+00         0.00000E+00         0.00000E+00
 
    0.16903E+07         0.27070E+06         0.00000E+00
    0.27070E+06        -0.46494E+06         0.00000E+00
    0.00000E+00         0.00000E+00         0.00000E+00
 
    0.16657E+07         0.31032E+06         0.00000E+00
    0.31032E+06        -0.46034E+06         0.00000E+00
    0.00000E+00         0.00000E+00         0.00000E+00
 
    0.16402E+07         0.34941E+06         0.00000E+00
    0.34941E+06        -0.45512E+06         0.00000E+00
    0.00000E+00         0.00000E+00         0.00000E+00
 
    0.16138E+07         0.38796E+06         0.00000E+00
    0.38796E+06        -0.44929E+06         0.00000E+00
    0.00000E+00         0.00000E+00         0.00000E+00
 
    0.15867E+07         0.42596E+06         0.00000E+00
    0.42596E+06        -0.44287E+06         0.00000E+00
    0.00000E+00         0.00000E+00         0.00000E+00
 
    0.15587E+07         0.46342E+06         0.00000E+00
    0.46342E+06        -0.43585E+06         0.00000E+00
    0.00000E+00         0.00000E+00         0.00000E+00
 
    0.15299E+07         0.50033E+06         0.00000E+00
    0.50033E+06        -0.42826E+06         0.00000E+00
    0.00000E+00         0.00000E+00         0.00000E+00
 
    0.15003E+07         0.53668E+06         0.00000E+00
    0.53668E+06        -0.42009E+06         0.00000E+00
    0.00000E+00         0.00000E+00         0.00000E+00
 
    0.14699E+07         0.57247E+06         0.00000E+00
    0.57247E+06        -0.41136E+06         0.00000E+00
    0.00000E+00         0.00000E+00         0.00000E+00
 
    0.14388E+07         0.60771E+06         0.00000E+00
    0.60771E+06        -0.40207E+06         0.00000E+00
    0.00000E+00         0.00000E+00         0.00000E+00
 
    0.14069E+07         0.64237E+06         0.00000E+00
    0.64237E+06        -0.39223E+06         0.00000E+00
    0.00000E+00         0.00000E+00         0.00000E+00
 
    0.13744E+07         0.67648E+06         0.00000E+00
    0.67648E+06        -0.38185E+06         0.00000E+00
    0.00000E+00         0.00000E+00         0.00000E+00
 
    0.13411E+07         0.71001E+06         0.00000E+00
    0.71001E+06        -0.37093E+06         0.00000E+00
    0.00000E+00         0.00000E+00         0.00000E+00
 
    0.13071E+07         0.74296E+06         0.00000E+00
    0.74296E+06        -0.35949E+06         0.00000E+00
    0.00000E+00         0.00000E+00         0.00000E+00
 
    0.12725E+07         0.77534E+06         0.00000E+00
    0.77534E+06        -0.34753E+06         0.00000E+00
    0.00000E+00         0.00000E+00         0.00000E+00
 
    0.12371E+07         0.80714E+06         0.00000E+00
    0.80714E+06        -0.33505E+06         0.00000E+00
    0.00000E+00         0.00000E+00         0.00000E+00
 
    0.12012E+07         0.83836E+06         0.00000E+00
    0.83836E+06        -0.32207E+06         0.00000E+00
    0.00000E+00         0.00000E+00         0.00000E+00
 
    0.11646E+07         0.86899E+06         0.00000E+00
    0.86899E+06        -0.30859E+06         0.00000E+00
    0.00000E+00         0.00000E+00         0.00000E+00
 
    0.11273E+07         0.89903E+06         0.00000E+00
    0.89903E+06        -0.29461E+06         0.00000E+00
    0.00000E+00         0.00000E+00         0.00000E+00
 
    0.10895E+07         0.92848E+06         0.00000E+00
    0.92848E+06        -0.28015E+06         0.00000E+00
    0.00000E+00         0.00000E+00         0.00000E+00
 
    0.10510E+07         0.95733E+06         0.00000E+00
    0.95733E+06        -0.26520E+06         0.00000E+00
    0.00000E+00         0.00000E+00         0.00000E+00
 
    0.10120E+07         0.98559E+06         0.00000E+00
    0.98559E+06        -0.24978E+06         0.00000E+00
    0.00000E+00         0.00000E+00         0.00000E+00
 
    0.97238E+06         0.10132E+07         0.00000E+00
    0.10132E+07        -0.23389E+06         0.00000E+00
    0.00000E+00         0.00000E+00         0.00000E+00
 
    0.93220E+06         0.10403E+07         0.00000E+00
    0.10403E+07        -0.21753E+06         0.00000E+00
    0.00000E+00         0.00000E+00         0.00000E+00
 
    0.89147E+06         0.10667E+07         0.00000E+00
    0.10667E+07        -0.20072E+06         0.00000E+00
    0.00000E+00         0.00000E+00         0.00000E+00
 
    0.85019E+06         0.10926E+07         0.00000E+00
    0.10926E+07        -0.18345E+06         0.00000E+00
    0.00000E+00         0.00000E+00         0.00000E+00
 
    0.80838E+06         0.11178E+07         0.00000E+00
    0.11178E+07        -0.16573E+06         0.00000E+00
    0.00000E+00         0.00000E+00         0.00000E+00
 
    0.76604E+06         0.11424E+07         0.00000E+00
    0.11424E+07        -0.14757E+06         0.00000E+00
    0.00000E+00         0.00000E+00         0.00000E+00
 
    0.72319E+06         0.11664E+07         0.00000E+00
    0.11664E+07        -0.12897E+06         0.00000E+00
    0.00000E+00         0.00000E+00         0.00000E+00
 
    0.67983E+06         0.11898E+07         0.00000E+00
    0.11898E+07        -0.10994E+06         0.00000E+00
    0.00000E+00         0.00000E+00         0.00000E+00
 
    0.63598E+06         0.12125E+07         0.00000E+00
    0.12125E+07        -0.90484E+05         0.00000E+00
    0.00000E+00         0.00000E+00         0.00000E+00
 
    0.59165E+06         0.12346E+07         0.00000E+00
    0.12346E+07        -0.70602E+05         0.00000E+00
    0.00000E+00         0.00000E+00         0.00000E+00
 
    0.54683E+06         0.12561E+07         0.00000E+00
    0.12561E+07        -0.50301E+05         0.00000E+00
    0.00000E+00         0.00000E+00         0.00000E+00
 
    0.50155E+06         0.12769E+07         0.00000E+00
    0.12769E+07        -0.29587E+05         0.00000E+00
    0.00000E+00         0.00000E+00         0.00000E+00
 
    0.45581E+06         0.12971E+07         0.00000E+00
    0.12971E+07        -0.84645E+04         0.00000E+00
    0.00000E+00         0.00000E+00         0.00000E+00
 
    0.40962E+06         0.13167E+07         0.00000E+00
    0.13167E+07         0.13062E+05         0.00000E+00
    0.00000E+00         0.00000E+00         0.00000E+00
 
    0.36299E+06         0.13356E+07         0.00000E+00
    0.13356E+07         0.34988E+05         0.00000E+00
    0.00000E+00         0.00000E+00         0.00000E+00
 
    0.31592E+06         0.13538E+07         0.00000E+00
    0.13538E+07         0.57308E+05         0.00000E+00
    0.00000E+00         0.00000E+00         0.00000E+00
 
    0.26843E+06         0.13714E+07         0.00000E+00
    0.13714E+07         0.80018E+05         0.00000E+00
    0.00000E+00         0.00000E+00         0.00000E+00
 
    0.22052E+06         0.13883E+07         0.00000E+00
    0.13883E+07         0.10311E+06         0.00000E+00
    0.00000E+00         0.00000E+00         0.00000E+00
 
    0.17220E+06         0.14046E+07         0.00000E+00
    0.14046E+07         0.12659E+06         0.00000E+00
    0.00000E+00         0.00000E+00         0.00000E+00
 
    0.12347E+06         0.14201E+07         0.00000E+00
    0.14201E+07         0.15044E+06         0.00000E+00
    0.00000E+00         0.00000E+00         0.00000E+00
 
    0.74354E+05         0.14350E+07         0.00000E+00
    0.14350E+07         0.17466E+06         0.00000E+00
    0.00000E+00         0.00000E+00         0.00000E+00
 
    0.24848E+05         0.14493E+07         0.00000E+00
    0.14493E+07         0.19925E+06         0.00000E+00
    0.00000E+00         0.00000E+00         0.00000E+00
 
    0.19698E+07         0.23869E+05         0.00000E+00
    0.23869E+05        -0.55139E+06         0.00000E+00
    0.00000E+00         0.00000E+00         0.00000E+00
 
    0.19482E+07         0.70091E+05         0.00000E+00
    0.70091E+05        -0.55066E+06         0.00000E+00
    0.00000E+00         0.00000E+00         0.00000E+00
 
    0.19256E+07         0.11575E+06         0.00000E+00
    0.11575E+06        -0.54921E+06         0.00000E+00
    0.00000E+00         0.00000E+00         0.00000E+00
 
    0.19020E+07         0.16086E+06         0.00000E+00
    0.16086E+06        -0.54706E+06         0.00000E+00
    0.00000E+00         0.00000E+00         0.00000E+00
 
    0.18774E+07         0.20539E+06         0.00000E+00
    0.20539E+06        -0.54422E+06         0.00000E+00
    0.00000E+00         0.00000E+00         0.00000E+00
 
    0.18519E+07         0.24935E+06         0.00000E+00
    0.24935E+06        -0.54070E+06         0.00000E+00
    0.00000E+00         0.00000E+00         0.00000E+00
 
    0.18254E+07         0.29274E+06         0.00000E+00
    0.29274E+06        -0.53651E+06         0.00000E+00
    0.00000E+00         0.00000E+00         0.00000E+00
 
    0.17980E+07         0.33555E+06         0.00000E+00
    0.33555E+06        -0.53166E+06         0.00000E+00
    0.00000E+00         0.00000E+00         0.00000E+00
 
    0.17697E+07         0.37778E+06         0.00000E+00
    0.37778E+06        -0.52616E+06         0.00000E+00
    0.00000E+00         0.00000E+00         0.00000E+00
 
    0.17406E+07         0.41942E+06         0.00000E+00
    0.41942E+06        -0.52003E+06         0.00000E+00
    0.00000E+00         0.00000E+00         0.00000E+00
 
    0.17105E+07         0.46047E+06         0.00000E+00
    0.46047E+06        -0.51326E+06         0.00000E+00
    0.00000E+00         0.00000E+00         0.00000E+00
 
    0.16797E+07         0.50094E+06         0.00000E+00
    0.50094E+06        -0.50587E+06         0.00000E+00
    0.00000E+00         0.00000E+00         0.00000E+00
 
    0.16480E+07         0.54081E+06         0.00000E+00
    0.54081E+06        -0.49787E+06         0.00000E+00
    0.00000E+00         0.00000E+00         0.00000E+00
 
    0.16155E+07         0.58008E+06         0.00000E+00
    0.58008E+06        -0.48926E+06         0.00000E+00
    0.00000E+00         0.00000E+00         0.00000E+00
 
    0.15823E+07         0.61875E+06         0.00000E+00
    0.61875E+06        -0.48006E+06         0.00000E+00
    0.00000E+00         0.00000E+00         0.00000E+00
 
    0.15483E+07         0.65683E+06         0.00000E+00
    0.65683E+06        -0.47027E+06         0.00000E+00
    0.00000E+00         0.00000E+00         0.00000E+00
 
    0.15135E+07         0.69430E+06         0.00000E+00
    0.69430E+06        -0.45990E+06         0.00000E+00
    0.00000E+00         0.00000E+00         0.00000E+00
 
    0.14780E+07         0.73117E+06         0.00000E+00
    0.73117E+06        -0.44896E+06         0.00000E+00
    0.00000E+00         0.00000E+00         0.00000E+00
 
    0.14417E+07         0.76743E+06         0.00000E+00
    0.76743E+06        -0.43745E+06         0.00000E+00
    0.00000E+00         0.00000E+00         0.00000E+00
 
    0.14048E+07         0.80308E+06         0.00000E+00
    0.80308E+06        -0.42539E+06         0.00000E+00
    0.00000E+00         0.00000E+00         0.00000E+00
 
    0.13672E+07         0.83812E+06         0.00000E+00
    0.83812E+06        -0.41277E+06         0.00000E+00
    0.00000E+00         0.00000E+00         0.00000E+00
 
    0.13289E+07         0.87255E+06         0.00000E+00
    0.87255E+06        -0.39961E+06         0.00000E+00
    0.00000E+00         0.00000E+00         0.00000E+00
 
    0.12899E+07         0.90636E+06         0.00000E+00
    0.90636E+06        -0.38591E+06         0.00000E+00
    0.00000E+00         0.00000E+00         0.00000E+00
 
    0.12503E+07         0.93955E+06         0.00000E+00
    0.93955E+06        -0.37168E+06         0.00000E+00
    0.00000E+00         0.00000E+00         0.00000E+00
 
    0.12100E+07         0.97213E+06         0.00000E+00
    0.97213E+06        -0.35693E+06         0.00000E+00
    0.00000E+00         0.00000E+00         0.00000E+00
 
    0.11691E+07         0.10041E+07         0.00000E+00
    0.10041E+07        -0.34165E+06         0.00000E+00
    0.00000E+00         0.00000E+00         0.00000E+00
 
    0.11276E+07         0.10354E+07         0.00000E+00
    0.10354E+07        -0.32587E+06         0.00000E+00
    0.00000E+00         0.00000E+00         0.00000E+00
 
    0.10855E+07         0.10661E+07         0.00000E+00
    0.10661E+07        -0.30957E+06         0.00000E+00
    0.00000E+00         0.00000E+00         0.00000E+00
 
    0.10428E+07         0.10962E+07         0.00000E+00
    0.10962E+07        -0.29277E+06         0.00000E+00
    0.00000E+00         0.00000E+00         0.00000E+00
 
    0.99955E+06         0.11256E+07         0.00000E+00
    0.11256E+07        -0.27547E+06         0.00000E+00
    0.00000E+00         0.00000E+00         0.00000E+00
 
    0.95571E+06         0.11544E+07         0.00000E+00
    0.11544E+07        -0.25768E+06         0.00000E+00
    0.00000E+00         0.00000E+00         0.00000E+00
 
    0.91131E+06         0.11826E+07         0.00000E+00
    0.11826E+07        -0.23940E+06         0.00000E+00
    0.00000E+00         0.00000E+00         0.00000E+00
 
    0.86637E+06         0.12102E+07         0.00000E+00
    0.12102E+07        -0.22064E+06         0.00000E+00
    0.00000E+00         0.00000E+00         0.00000E+00
 
    0.82088E+06         0.12371E+07         0.00000E+00
    0.12371E+07        -0.20140E+06         0.00000E+00
    0.00000E+00         0.00000E+00         0.00000E+00
 
    0.77486E+06         0.12633E+07         0.00000E+00
    0.12633E+07        -0.18169E+06         0.00000E+00
    0.00000E+00         0.00000E+00         0.00000E+00
 
    0.72832E+06         0.12889E+07         0.00000E+00
    0.12889E+07        -0.16151E+06         0.00000E+00
    0.00000E+00         0.00000E+00         0.00000E+00
 
    0.68127E+06         0.13139E+07         0.00000E+00
    0.13139E+07        -0.14086E+06         0.00000E+00
    0.00000E+00         0.00000E+00         0.00000E+00
 
    0.63371E+06         0.13382E+07         0.00000E+00
    0.13382E+07        -0.11975E+06         0.00000E+00
    0.00000E+00         0.00000E+00         0.00000E+00
 
    0.58566E+06         0.13618E+07         0.00000E+00
    0.13618E+07        -0.98190E+05         0.00000E+00
    0.00000E+00         0.00000E+00         0.00000E+00
 
    0.53712E+06         0.13848E+07         0.00000E+00
    0.13848E+07        -0.76176E+05         0.00000E+00
    0.00000E+00         0.00000E+00         0.00000E+00
 
    0.48811E+06         0.14071E+07         0.00000E+00
    0.14071E+07        -0.53714E+05         0.00000E+00
    0.00000E+00         0.00000E+00         0.00000E+00
 
    0.43862E+06         0.14288E+07         0.00000E+00
    0.14288E+07        -0.30809E+05         0.00000E+00
    0.00000E+00         0.00000E+00         0.00000E+00
 
    0.38867E+06         0.14498E+07         0.00000E+00
    0.14498E+07        -0.74644E+04         0.00000E+00
    0.00000E+00         0.00000E+00         0.00000E+00
 
    0.33826E+06         0.14701E+07         0.00000E+00
    0.14701E+07         0.16315E+05         0.00000E+00
    0.00000E+00         0.00000E+00         0.00000E+00
 
    0.28740E+06         0.14897E+07         0.00000E+00
    0.14897E+07         0.40526E+05         0.00000E+00
    0.00000E+00         0.00000E+00         0.00000E+00
 
    0.23610E+06         0.15086E+07         0.00000E+00
    0.15086E+07         0.65163E+05         0.00000E+00
    0.00000E+00         0.00000E+00         0.00000E+00
 
    0.18436E+06         0.15269E+07         0.00000E+00
    0.15269E+07         0.90224E+05         0.00000E+00
    0.00000E+00         0.00000E+00         0.00000E+00
 
    0.13219E+06         0.15444E+07         0.00000E+00
    0.15444E+07         0.11570E+06         0.00000E+00
    0.00000E+00         0.00000E+00         0.00000E+00
 
    0.79606E+05         0.15613E+07         0.00000E+00
    0.15613E+07         0.14160E+06         0.00000E+00
    0.00000E+00         0.00000E+00         0.00000E+00
 
    0.26604E+05         0.15774E+07         0.00000E+00
    0.15774E+07         0.16790E+06         0.00000E+00
    0.00000E+00         0.00000E+00         0.00000E+00
 
    0.21291E+07         0.25795E+05         0.00000E+00
    0.25795E+05        -0.63383E+06         0.00000E+00
    0.00000E+00         0.00000E+00         0.00000E+00
 
    0.21046E+07         0.75700E+05         0.00000E+00
    0.75700E+05        -0.63306E+06         0.00000E+00
    0.00000E+00         0.00000E+00         0.00000E+00
 
    0.20791E+07         0.12499E+06         0.00000E+00
    0.12499E+06        -0.63154E+06         0.00000E+00
    0.00000E+00         0.00000E+00         0.00000E+00
 
    0.20525E+07         0.17365E+06         0.00000E+00
    0.17365E+06        -0.62929E+06         0.00000E+00
    0.00000E+00         0.00000E+00         0.00000E+00
 
    0.20249E+07         0.22170E+06         0.00000E+00
    0.22170E+06        -0.62631E+06         0.00000E+00
    0.00000E+00         0.00000E+00         0.00000E+00
 
    0.19964E+07         0.26912E+06         0.00000E+00
    0.26912E+06        -0.62261E+06         0.00000E+00
    0.00000E+00         0.00000E+00         0.00000E+00
 
    0.19669E+07         0.31591E+06         0.00000E+00
    0.31591E+06        -0.61822E+06         0.00000E+00
    0.00000E+00         0.00000E+00         0.00000E+00
 
    0.19365E+07         0.36207E+06         0.00000E+00
    0.36207E+06        -0.61313E+06         0.00000E+00
    0.00000E+00         0.00000E+00         0.00000E+00
 
    0.19051E+07         0.40760E+06         0.00000E+00
    0.40760E+06        -0.60736E+06         0.00000E+00
    0.00000E+00         0.00000E+00         0.00000E+00
 
    0.18729E+07         0.45249E+06         0.00000E+00
    0.45249E+06        -0.60093E+06         0.00000E+00
    0.00000E+00         0.00000E+00         0.00000E+00
 
    0.18398E+07         0.49675E+06         0.00000E+00
    0.49675E+06        -0.59383E+06         0.00000E+00
    0.00000E+00         0.00000E+00         0.00000E+00
 
    0.18059E+07         0.54038E+06         0.00000E+00
    0.54038E+06        -0.58607E+06         0.00000E+00
    0.00000E+00         0.00000E+00         0.00000E+00
 
    0.17712E+07         0.58337E+06         0.00000E+00
    0.58337E+06        -0.57768E+06         0.00000E+00
    0.00000E+00         0.00000E+00         0.00000E+00
 
    0.17356E+07         0.62571E+06         0.00000E+00
    0.62571E+06        -0.56865E+06         0.00000E+00
    0.00000E+00         0.00000E+00         0.00000E+00
 
    0.16992E+07         0.66742E+06         0.00000E+00
    0.66742E+06        -0.55899E+06         0.00000E+00
    0.00000E+00         0.00000E+00         0.00000E+00
 
    0.16621E+07         0.70849E+06         0.00000E+00
    0.70849E+06        -0.54872E+06         0.00000E+00
    0.00000E+00         0.00000E+00         0.00000E+00
 
    0.16242E+07         0.74892E+06         0.00000E+00
    0.74892E+06        -0.53783E+06         0.00000E+00
    0.00000E+00         0.00000E+00         0.00000E+00
 
    0.15856E+07         0.78871E+06         0.00000E+00
    0.78871E+06        -0.52634E+06         0.00000E+00
    0.00000E+00         0.00000E+00         0.00000E+00
 
    0.15462E+07         0.82785E+06         0.00000E+00
    0.82785E+06        -0.51426E+06         0.00000E+00
    0.00000E+00         0.00000E+00         0.00000E+00
 
    0.15061E+07         0.86635E+06         0.00000E+00
    0.86635E+06        -0.50159E+06         0.00000E+00
    0.00000E+00         0.00000E+00         0.00000E+00
 
    0.14654E+07         0.90421E+06         0.00000E+00
    0.90421E+06        -0.48833E+06         0.00000E+00
    0.00000E+00         0.00000E+00         0.00000E+00
 
    0.14239E+07         0.94142E+06         0.00000E+00
    0.94142E+06        -0.47450E+06         0.00000E+00
    0.00000E+00         0.00000E+00         0.00000E+00
 
    0.13818E+07         0.97798E+06         0.00000E+00
    0.97798E+06        -0.46011E+06         0.00000E+00
    0.00000E+00         0.00000E+00         0.00000E+00
 
    0.13390E+07         0.10139E+07         0.00000E+00
    0.10139E+07        -0.44514E+06         0.00000E+00
    0.00000E+00         0.00000E+00         0.00000E+00
 
    0.12956E+07         0.10492E+07         0.00000E+00
    0.10492E+07        -0.42962E+06         0.00000E+00
    0.00000E+00         0.00000E+00         0.00000E+00
 
    0.12515E+07         0.10838E+07         0.00000E+00
    0.10838E+07        -0.41355E+06         0.00000E+00
    0.00000E+00         0.00000E+00         0.00000E+00
 
    0.12068E+07         0.11178E+07         0.00000E+00
    0.11178E+07        -0.39693E+06         0.00000E+00
    0.00000E+00         0.00000E+00         0.00000E+00
 
    0.11615E+07         0.11511E+07         0.00000E+00
    0.11511E+07        -0.37977E+06         0.00000E+00
    0.00000E+00         0.00000E+00         0.00000E+00
 
    0.11156E+07         0.11837E+07         0.00000E+00
    0.11837E+07        -0.36207E+06         0.00000E+00
    0.00000E+00         0.00000E+00         0.00000E+00
 
    0.10691E+07         0.12157E+07         0.00000E+00
    0.12157E+07        -0.34384E+06         0.00000E+00
    0.00000E+00         0.00000E+00         0.00000E+00
 
    0.10220E+07         0.12471E+07         0.00000E+00
    0.12471E+07        -0.32508E+06         0.00000E+00
    0.00000E+00         0.00000E+00         0.00000E+00
 
    0.97441E+06         0.12778E+07         0.00000E+00
    0.12778E+07        -0.30580E+06         0.00000E+00
    0.00000E+00         0.00000E+00         0.00000E+00
 
    0.92621E+06         0.13078E+07         0.00000E+00
    0.13078E+07        -0.28600E+06         0.00000E+00
    0.00000E+00         0.00000E+00         0.00000E+00
 
    0.87745E+06         0.13372E+07         0.00000E+00
    0.13372E+07        -0.26568E+06         0.00000E+00
    0.00000E+00         0.00000E+00         0.00000E+00
 
    0.82815E+06         0.13659E+07         0.00000E+00
    0.13659E+07        -0.24486E+06         0.00000E+00
    0.00000E+00         0.00000E+00         0.00000E+00
 
    0.77832E+06         0.13939E+07         0.00000E+00
    0.13939E+07        -0.22352E+06         0.00000E+00
    0.00000E+00         0.00000E+00         0.00000E+00
 
    0.72796E+06         0.14213E+07         0.00000E+00
    0.14213E+07        -0.20169E+06         0.00000E+00
    0.00000E+00         0.00000E+00         0.00000E+00
 
    0.67708E+06         0.14480E+07         0.00000E+00
    0.14480E+07        -0.17935E+06         0.00000E+00
    0.00000E+00         0.00000E+00         0.00000E+00
 
    0.62568E+06         0.14740E+07         0.00000E+00
    0.14740E+07        -0.15652E+06         0.00000E+00
    0.00000E+00         0.00000E+00         0.00000E+00
 
    0.57378E+06         0.14993E+07         0.00000E+00
    0.14993E+07        -0.13319E+06         0.00000E+00
    0.00000E+00         0.00000E+00         0.00000E+00
 
    0.52139E+06         0.15240E+07         0.00000E+00
    0.15240E+07        -0.10937E+06         0.00000E+00
    0.00000E+00         0.00000E+00         0.00000E+00
 
    0.46850E+06         0.15480E+07         0.00000E+00
    0.15480E+07        -0.85071E+05         0.00000E+00
    0.00000E+00         0.00000E+00         0.00000E+00
 
    0.41512E+06         0.15712E+07         0.00000E+00
    0.15712E+07        -0.60287E+05         0.00000E+00
    0.00000E+00         0.00000E+00         0.00000E+00
 
    0.36127E+06         0.15938E+07         0.00000E+00
    0.15938E+07        -0.35023E+05         0.00000E+00
    0.00000E+00         0.00000E+00         0.00000E+00
 
    0.30694E+06         0.16157E+07         0.00000E+00
    0.16157E+07        -0.92838E+04         0.00000E+00
    0.00000E+00         0.00000E+00         0.00000E+00
 
    0.25215E+06         0.16369E+07         0.00000E+00
    0.16369E+07         0.16929E+05         0.00000E+00
    0.00000E+00         0.00000E+00         0.00000E+00
 
    0.19689E+06         0.16573E+07         0.00000E+00
    0.16573E+07         0.43610E+05         0.00000E+00
    0.00000E+00         0.00000E+00         0.00000E+00
 
    0.14118E+06         0.16771E+07         0.00000E+00
    0.16771E+07         0.70758E+05         0.00000E+00
    0.00000E+00         0.00000E+00         0.00000E+00
 
    0.85019E+05         0.16961E+07         0.00000E+00
    0.16961E+07         0.98369E+05         0.00000E+00
    0.00000E+00         0.00000E+00         0.00000E+00
 
    0.28413E+05         0.17144E+07         0.00000E+00
    0.17144E+07         0.12644E+06         0.00000E+00
    0.00000E+00         0.00000E+00         0.00000E+00
 
    0.22961E+07         0.27813E+05         0.00000E+00
    0.27813E+05        -0.72765E+06         0.00000E+00
    0.00000E+00         0.00000E+00         0.00000E+00
 
    0.22683E+07         0.81573E+05         0.00000E+00
    0.81573E+05        -0.72684E+06         0.00000E+00
    0.00000E+00         0.00000E+00         0.00000E+00
 
    0.22395E+07         0.13465E+06         0.00000E+00
    0.13465E+06        -0.72526E+06         0.00000E+00
    0.00000E+00         0.00000E+00         0.00000E+00
 
    0.22097E+07         0.18705E+06         0.00000E+00
    0.18705E+06        -0.72290E+06         0.00000E+00
    0.00000E+00         0.00000E+00         0.00000E+00
 
    0.21788E+07         0.23877E+06         0.00000E+00
    0.23877E+06        -0.71979E+06         0.00000E+00
    0.00000E+00         0.00000E+00         0.00000E+00
 
    0.21470E+07         0.28980E+06         0.00000E+00
    0.28980E+06        -0.71593E+06         0.00000E+00
    0.00000E+00         0.00000E+00         0.00000E+00
 
    0.21143E+07         0.34015E+06         0.00000E+00
    0.34015E+06        -0.71134E+06         0.00000E+00
    0.00000E+00         0.00000E+00         0.00000E+00
 
    0.20806E+07         0.38982E+06         0.00000E+00
    0.38982E+06        -0.70603E+06         0.00000E+00
    0.00000E+00         0.00000E+00         0.00000E+00
 
    0.20459E+07         0.43881E+06         0.00000E+00
    0.43881E+06        -0.70001E+06         0.00000E+00
    0.00000E+00         0.00000E+00         0.00000E+00
 
    0.20104E+07         0.48711E+06         0.00000E+00
    0.48711E+06        -0.69328E+06         0.00000E+00
    0.00000E+00         0.00000E+00         0.00000E+00
 
    0.19741E+07         0.53473E+06         0.00000E+00
    0.53473E+06        -0.68587E+06         0.00000E+00
    0.00000E+00         0.00000E+00         0.00000E+00
 
    0.19368E+07         0.58167E+06         0.00000E+00
    0.58167E+06        -0.67777E+06         0.00000E+00
    0.00000E+00         0.00000E+00         0.00000E+00
 
    0.18988E+07         0.62792E+06         0.00000E+00
    0.62792E+06        -0.66900E+06         0.00000E+00
    0.00000E+00         0.00000E+00         0.00000E+00
 
    0.18599E+07         0.67350E+06         0.00000E+00
    0.67350E+06        -0.65957E+06         0.00000E+00
    0.00000E+00         0.00000E+00         0.00000E+00
 
    0.18203E+07         0.71839E+06         0.00000E+00
    0.71839E+06        -0.64948E+06         0.00000E+00
    0.00000E+00         0.00000E+00         0.00000E+00
 
    0.17798E+07         0.76261E+06         0.00000E+00
    0.76261E+06        -0.63874E+06         0.00000E+00
    0.00000E+00         0.00000E+00         0.00000E+00
 
    0.17386E+07         0.80614E+06         0.00000E+00
    0.80614E+06        -0.62737E+06         0.00000E+00
    0.00000E+00         0.00000E+00         0.00000E+00
 
    0.16967E+07         0.84900E+06         0.00000E+00
    0.84900E+06        -0.61536E+06         0.00000E+00
    0.00000E+00         0.00000E+00         0.00000E+00
 
    0.16541E+07         0.89118E+06         0.00000E+00
    0.89118E+06        -0.60272E+06         0.00000E+00
    0.00000E+00         0.00000E+00         0.00000E+00
 
    0.16107E+07         0.93268E+06         0.00000E+00
    0.93268E+06        -0.58947E+06         0.00000E+00
    0.00000E+00         0.00000E+00         0.00000E+00
 
    0.15666E+07         0.97351E+06         0.00000E+00
    0.97351E+06        -0.57560E+06         0.00000E+00
    0.00000E+00         0.00000E+00         0.00000E+00
 
    0.15218E+07         0.10137E+07         0.00000E+00
    0.10137E+07        -0.56113E+06         0.00000E+00
    0.00000E+00         0.00000E+00         0.00000E+00
 
    0.14764E+07         0.10531E+07         0.00000E+00
    0.10531E+07        -0.54605E+06         0.00000E+00
    0.00000E+00         0.00000E+00         0.00000E+00
 
    0.14303E+07         0.10919E+07         0.00000E+00
    0.10919E+07        -0.53038E+06         0.00000E+00
    0.00000E+00         0.00000E+00         0.00000E+00
 
    0.13836E+07         0.11301E+07         0.00000E+00
    0.11301E+07        -0.51412E+06         0.00000E+00
    0.00000E+00         0.00000E+00         0.00000E+00
 
    0.13362E+07         0.11675E+07         0.00000E+00
    0.11675E+07        -0.49728E+06         0.00000E+00
    0.00000E+00         0.00000E+00         0.00000E+00
 
    0.12882E+07         0.12043E+07         0.00000E+00
    0.12043E+07        -0.47985E+06         0.00000E+00
    0.00000E+00         0.00000E+00         0.00000E+00
 
    0.12396E+07         0.12404E+07         0.00000E+00
    0.12404E+07        -0.46185E+06         0.00000E+00
    0.00000E+00         0.00000E+00         0.00000E+00
 
    0.11903E+07         0.12758E+07         0.00000E+00
    0.12758E+07        -0.44327E+06         0.00000E+00
    0.00000E+00         0.00000E+00         0.00000E+00
 
    0.11405E+07         0.13106E+07         0.00000E+00
    0.13106E+07        -0.42413E+06         0.00000E+00
    0.00000E+00         0.00000E+00         0.00000E+00
 
    0.10901E+07         0.13446E+07         0.00000E+00
    0.13446E+07        -0.40443E+06         0.00000E+00
    0.00000E+00         0.00000E+00         0.00000E+00
 
    0.10391E+07         0.13780E+07         0.00000E+00
    0.13780E+07        -0.38416E+06         0.00000E+00
    0.00000E+00         0.00000E+00         0.00000E+00
 
    0.98756E+06         0.14107E+07         0.00000E+00
    0.14107E+07        -0.36334E+06         0.00000E+00
    0.00000E+00         0.00000E+00         0.00000E+00
 
    0.93544E+06         0.14428E+07         0.00000E+00
    0.14428E+07        -0.34196E+06         0.00000E+00
    0.00000E+00         0.00000E+00         0.00000E+00
 
    0.88276E+06         0.14741E+07         0.00000E+00
    0.14741E+07        -0.32003E+06         0.00000E+00
    0.00000E+00         0.00000E+00         0.00000E+00
 
    0.82954E+06         0.15048E+07         0.00000E+00
    0.15048E+07        -0.29756E+06         0.00000E+00
    0.00000E+00         0.00000E+00         0.00000E+00
 
    0.77578E+06         0.15348E+07         0.00000E+00
    0.15348E+07        -0.27454E+06         0.00000E+00
    0.00000E+00         0.00000E+00         0.00000E+00
 
    0.72149E+06         0.15640E+07         0.00000E+00
    0.15640E+07        -0.25098E+06         0.00000E+00
    0.00000E+00         0.00000E+00         0.00000E+00
 
    0.66666E+06         0.15926E+07         0.00000E+00
    0.15926E+07        -0.22688E+06         0.00000E+00
    0.00000E+00         0.00000E+00         0.00000E+00
 
    0.61132E+06         0.16205E+07         0.00000E+00
    0.16205E+07        -0.20224E+06         0.00000E+00
    0.00000E+00         0.00000E+00         0.00000E+00
 
    0.55546E+06         0.16477E+07         0.00000E+00
    0.16477E+07        -0.17707E+06         0.00000E+00
    0.00000E+00         0.00000E+00         0.00000E+00
 
    0.49908E+06         0.16742E+07         0.00000E+00
    0.16742E+07        -0.15136E+06         0.00000E+00
    0.00000E+00         0.00000E+00         0.00000E+00
 
    0.44220E+06         0.17000E+07         0.00000E+00
    0.17000E+07        -0.12513E+06         0.00000E+00
    0.00000E+00         0.00000E+00         0.00000E+00
 
    0.38482E+06         0.17251E+07         0.00000E+00
    0.17251E+07        -0.98371E+05         0.00000E+00
    0.00000E+00         0.00000E+00         0.00000E+00
 
    0.32695E+06         0.17495E+07         0.00000E+00
    0.17495E+07        -0.71087E+05         0.00000E+00
    0.00000E+00         0.00000E+00         0.00000E+00
 
    0.26858E+06         0.17732E+07         0.00000E+00
    0.17732E+07        -0.43279E+05         0.00000E+00
    0.00000E+00         0.00000E+00         0.00000E+00
 
    0.20972E+06         0.17961E+07         0.00000E+00
    0.17961E+07        -0.14951E+05         0.00000E+00
    0.00000E+00         0.00000E+00         0.00000E+00
 
    0.15038E+06         0.18183E+07         0.00000E+00
    0.18183E+07         0.13895E+05         0.00000E+00
    0.00000E+00         0.00000E+00         0.00000E+00
 
    0.90561E+05         0.18398E+07         0.00000E+00
    0.18398E+07         0.43256E+05         0.00000E+00
    0.00000E+00         0.00000E+00         0.00000E+00
 
    0.30266E+05         0.18605E+07         0.00000E+00
    0.18605E+07         0.73131E+05         0.00000E+00
    0.00000E+00         0.00000E+00         0.00000E+00
 
    0.24701E+07         0.29917E+05         0.00000E+00
    0.29917E+05        -0.83423E+06         0.00000E+00
    0.00000E+00         0.00000E+00         0.00000E+00
 
    0.24388E+07         0.87695E+05         0.00000E+00
    0.87695E+05        -0.83340E+06         0.00000E+00
    0.00000E+00         0.00000E+00         0.00000E+00
 
    0.24064E+07         0.14473E+06         0.00000E+00
    0.14473E+06        -0.83175E+06         0.00000E+00
    0.00000E+00         0.00000E+00         0.00000E+00
 
    0.23730E+07         0.20101E+06         0.00000E+00
    0.20101E+06        -0.82930E+06         0.00000E+00
    0.00000E+00         0.00000E+00         0.00000E+00
 
    0.23386E+07         0.25655E+06         0.00000E+00
    0.25655E+06        -0.82606E+06         0.00000E+00
    0.00000E+00         0.00000E+00         0.00000E+00
 
    0.23032E+07         0.31135E+06         0.00000E+00
    0.31135E+06        -0.82206E+06         0.00000E+00
    0.00000E+00         0.00000E+00         0.00000E+00
 
    0.22669E+07         0.36541E+06         0.00000E+00
    0.36541E+06        -0.81729E+06         0.00000E+00
    0.00000E+00         0.00000E+00         0.00000E+00
 
    0.22297E+07         0.41873E+06         0.00000E+00
    0.41873E+06        -0.81177E+06         0.00000E+00
    0.00000E+00         0.00000E+00         0.00000E+00
 
    0.21915E+07         0.47132E+06         0.00000E+00
    0.47132E+06        -0.80551E+06         0.00000E+00
    0.00000E+00         0.00000E+00         0.00000E+00
 
    0.21525E+07         0.52317E+06         0.00000E+00
    0.52317E+06        -0.79852E+06         0.00000E+00
    0.00000E+00         0.00000E+00         0.00000E+00
 
    0.21126E+07         0.57429E+06         0.00000E+00
    0.57429E+06        -0.79082E+06         0.00000E+00
    0.00000E+00         0.00000E+00         0.00000E+00
 
    0.20718E+07         0.62469E+06         0.00000E+00
    0.62469E+06        -0.78240E+06         0.00000E+00
    0.00000E+00         0.00000E+00         0.00000E+00
 
    0.20303E+07         0.67435E+06         0.00000E+00
    0.67435E+06        -0.77329E+06         0.00000E+00
    0.00000E+00         0.00000E+00         0.00000E+00
 
    0.19879E+07         0.72330E+06         0.00000E+00
    0.72330E+06        -0.76348E+06         0.00000E+00
    0.00000E+00         0.00000E+00         0.00000E+00
 
    0.19447E+07         0.77152E+06         0.00000E+00
    0.77152E+06        -0.75299E+06         0.00000E+00
    0.00000E+00         0.00000E+00         0.00000E+00
 
    0.19008E+07         0.81903E+06         0.00000E+00
    0.81903E+06        -0.74182E+06         0.00000E+00
    0.00000E+00         0.00000E+00         0.00000E+00
 
    0.18561E+07         0.86582E+06         0.00000E+00
    0.86582E+06        -0.72999E+06         0.00000E+00
    0.00000E+00         0.00000E+00         0.00000E+00
 
    0.18107E+07         0.91189E+06         0.00000E+00
    0.91189E+06        -0.71749E+06         0.00000E+00
    0.00000E+00         0.00000E+00         0.00000E+00
 
    0.17646E+07         0.95726E+06         0.00000E+00
    0.95726E+06        -0.70434E+06         0.00000E+00
    0.00000E+00         0.00000E+00         0.00000E+00
 
    0.17178E+07         0.10019E+07         0.00000E+00
    0.10019E+07        -0.69054E+06         0.00000E+00
    0.00000E+00         0.00000E+00         0.00000E+00
 
    0.16702E+07         0.10459E+07         0.00000E+00
    0.10459E+07        -0.67610E+06         0.00000E+00
    0.00000E+00         0.00000E+00         0.00000E+00
 
    0.16220E+07         0.10891E+07         0.00000E+00
    0.10891E+07        -0.66102E+06         0.00000E+00
    0.00000E+00         0.00000E+00         0.00000E+00
 
    0.15731E+07         0.11317E+07         0.00000E+00
    0.11317E+07        -0.64531E+06         0.00000E+00
    0.00000E+00         0.00000E+00         0.00000E+00
 
    0.15236E+07         0.11735E+07         0.00000E+00
    0.11735E+07        -0.62897E+06         0.00000E+00
    0.00000E+00         0.00000E+00         0.00000E+00
 
    0.14734E+07         0.12146E+07         0.00000E+00
    0.12146E+07        -0.61201E+06         0.00000E+00
    0.00000E+00         0.00000E+00         0.00000E+00
 
    0.14226E+07         0.12551E+07         0.00000E+00
    0.12551E+07        -0.59443E+06         0.00000E+00
    0.00000E+00         0.00000E+00         0.00000E+00
 
    0.13712E+07         0.12948E+07         0.00000E+00
    0.12948E+07        -0.57623E+06         0.00000E+00
    0.00000E+00         0.00000E+00         0.00000E+00
 
    0.13191E+07         0.13339E+07         0.00000E+00
    0.13339E+07        -0.55743E+06         0.00000E+00
    0.00000E+00         0.00000E+00         0.00000E+00
 
    0.12665E+07         0.13723E+07         0.00000E+00
    0.13723E+07        -0.53801E+06         0.00000E+00
    0.00000E+00         0.00000E+00         0.00000E+00
 
    0.12132E+07         0.14099E+07         0.00000E+00
    0.14099E+07        -0.51799E+06         0.00000E+00
    0.00000E+00         0.00000E+00         0.00000E+00
 
    0.11594E+07         0.14469E+07         0.00000E+00
    0.14469E+07        -0.49738E+06         0.00000E+00
    0.00000E+00         0.00000E+00         0.00000E+00
 
    0.11050E+07         0.14832E+07         0.00000E+00
    0.14832E+07        -0.47616E+06         0.00000E+00
    0.00000E+00         0.00000E+00         0.00000E+00
 
    0.10500E+07         0.15188E+07         0.00000E+00
    0.15188E+07        -0.45434E+06         0.00000E+00
    0.00000E+00         0.00000E+00         0.00000E+00
 
    0.99443E+06         0.15537E+07         0.00000E+00
    0.15537E+07        -0.43194E+06         0.00000E+00
    0.00000E+00         0.00000E+00         0.00000E+00
 
    0.93831E+06         0.15879E+07         0.00000E+00
    0.15879E+07        -0.40894E+06         0.00000E+00
    0.00000E+00         0.00000E+00         0.00000E+00
 
    0.88163E+06         0.16214E+07         0.00000E+00
    0.16214E+07        -0.38535E+06         0.00000E+00
    0.00000E+00         0.00000E+00         0.00000E+00
 
    0.82440E+06         0.16542E+07         0.00000E+00
    0.16542E+07        -0.36117E+06         0.00000E+00
    0.00000E+00         0.00000E+00         0.00000E+00
 
    0.76662E+06         0.16863E+07         0.00000E+00
    0.16863E+07        -0.33641E+06         0.00000E+00
    0.00000E+00         0.00000E+00         0.00000E+00
 
    0.70831E+06         0.17177E+07         0.00000E+00
    0.17177E+07        -0.31106E+06         0.00000E+00
    0.00000E+00         0.00000E+00         0.00000E+00
 
    0.64946E+06         0.17484E+07         0.00000E+00
    0.17484E+07        -0.28513E+06         0.00000E+00
    0.00000E+00         0.00000E+00         0.00000E+00
 
    0.59007E+06         0.17784E+07         0.00000E+00
    0.17784E+07        -0.25861E+06         0.00000E+00
    0.00000E+00         0.00000E+00         0.00000E+00
 
    0.53015E+06         0.18076E+07         0.00000E+00
    0.18076E+07        -0.23152E+06         0.00000E+00
    0.00000E+00         0.00000E+00         0.00000E+00
 
    0.46971E+06         0.18362E+07         0.00000E+00
    0.18362E+07        -0.20384E+06         0.00000E+00
    0.00000E+00         0.00000E+00         0.00000E+00
 
    0.40875E+06         0.18641E+07         0.00000E+00
    0.18641E+07        -0.17559E+06         0.00000E+00
    0.00000E+00         0.00000E+00         0.00000E+00
 
    0.34727E+06         0.18912E+07         0.00000E+00
    0.18912E+07        -0.14675E+06         0.00000E+00
    0.00000E+00         0.00000E+00         0.00000E+00
 
    0.28527E+06         0.19176E+07         0.00000E+00
    0.19176E+07        -0.11735E+06         0.00000E+00
    0.00000E+00         0.00000E+00         0.00000E+00
 
    0.22275E+06         0.19432E+07         0.00000E+00
    0.19432E+07        -0.87362E+05         0.00000E+00
    0.00000E+00         0.00000E+00         0.00000E+00
 
    0.15973E+06         0.19682E+07         0.00000E+00
    0.19682E+07        -0.56803E+05         0.00000E+00
    0.00000E+00         0.00000E+00         0.00000E+00
 
    0.96193E+05         0.19923E+07         0.00000E+00
    0.19923E+07        -0.25671E+05         0.00000E+00
    0.00000E+00         0.00000E+00         0.00000E+00
 
    0.32149E+05         0.20158E+07         0.00000E+00
    0.20158E+07         0.60343E+04         0.00000E+00
    0.00000E+00         0.00000E+00         0.00000E+00
 
    0.26505E+07         0.32099E+05         0.00000E+00
    0.32099E+05        -0.95511E+06         0.00000E+00
    0.00000E+00         0.00000E+00         0.00000E+00
 
    0.26153E+07         0.94039E+05         0.00000E+00
    0.94039E+05        -0.95424E+06         0.00000E+00
    0.00000E+00         0.00000E+00         0.00000E+00
 
    0.25790E+07         0.15516E+06         0.00000E+00
    0.15516E+06        -0.95254E+06         0.00000E+00
    0.00000E+00         0.00000E+00         0.00000E+00
 
    0.25417E+07         0.21548E+06         0.00000E+00
    0.21548E+06        -0.95001E+06         0.00000E+00
    0.00000E+00         0.00000E+00         0.00000E+00
 
    0.25034E+07         0.27498E+06         0.00000E+00
    0.27498E+06        -0.94667E+06         0.00000E+00
    0.00000E+00         0.00000E+00         0.00000E+00
 
    0.24642E+07         0.33368E+06         0.00000E+00
    0.33368E+06        -0.94253E+06         0.00000E+00
    0.00000E+00         0.00000E+00         0.00000E+00
 
    0.24240E+07         0.39158E+06         0.00000E+00
    0.39158E+06        -0.93760E+06         0.00000E+00
    0.00000E+00         0.00000E+00         0.00000E+00
 
    0.23830E+07         0.44869E+06         0.00000E+00
    0.44869E+06        -0.93190E+06         0.00000E+00
    0.00000E+00         0.00000E+00         0.00000E+00
 
    0.23410E+07         0.50501E+06         0.00000E+00
    0.50501E+06        -0.92543E+06         0.00000E+00
    0.00000E+00         0.00000E+00         0.00000E+00
 
    0.22982E+07         0.56055E+06         0.00000E+00
    0.56055E+06        -0.91821E+06         0.00000E+00
    0.00000E+00         0.00000E+00         0.00000E+00
 
    0.22545E+07         0.61530E+06         0.00000E+00
    0.61530E+06        -0.91024E+06         0.00000E+00
    0.00000E+00         0.00000E+00         0.00000E+00
 
    0.22100E+07         0.66928E+06         0.00000E+00
    0.66928E+06        -0.90155E+06         0.00000E+00
    0.00000E+00         0.00000E+00         0.00000E+00
 
    0.21647E+07         0.72249E+06         0.00000E+00
    0.72249E+06        -0.89212E+06         0.00000E+00
    0.00000E+00         0.00000E+00         0.00000E+00
 
    0.21187E+07         0.77494E+06         0.00000E+00
    0.77494E+06        -0.88198E+06         0.00000E+00
    0.00000E+00         0.00000E+00         0.00000E+00
 
    0.20718E+07         0.82663E+06         0.00000E+00
    0.82663E+06        -0.87113E+06         0.00000E+00
    0.00000E+00         0.00000E+00         0.00000E+00
 
    0.20242E+07         0.87756E+06         0.00000E+00
    0.87756E+06        -0.85958E+06         0.00000E+00
    0.00000E+00         0.00000E+00         0.00000E+00
 
    0.19759E+07         0.92774E+06         0.00000E+00
    0.92774E+06        -0.84733E+06         0.00000E+00
    0.00000E+00         0.00000E+00         0.00000E+00
 
    0.19268E+07         0.97717E+06         0.00000E+00
    0.97717E+06        -0.83439E+06         0.00000E+00
    0.00000E+00         0.00000E+00         0.00000E+00
 
    0.18771E+07         0.10259E+07         0.00000E+00
    0.10259E+07        -0.82077E+06         0.00000E+00
    0.00000E+00         0.00000E+00         0.00000E+00
 
    0.18266E+07         0.10738E+07         0.00000E+00
    0.10738E+07        -0.80648E+06         0.00000E+00
    0.00000E+00         0.00000E+00         0.00000E+00
 
    0.17755E+07         0.11211E+07         0.00000E+00
    0.11211E+07        -0.79151E+06         0.00000E+00
    0.00000E+00         0.00000E+00         0.00000E+00
 
    0.17237E+07         0.11675E+07         0.00000E+00
    0.11675E+07        -0.77588E+06         0.00000E+00
    0.00000E+00         0.00000E+00         0.00000E+00
 
    0.16713E+07         0.12133E+07         0.00000E+00
    0.12133E+07        -0.75958E+06         0.00000E+00
    0.00000E+00         0.00000E+00         0.00000E+00
 
    0.16182E+07         0.12584E+07         0.00000E+00
    0.12584E+07        -0.74263E+06         0.00000E+00
    0.00000E+00         0.00000E+00         0.00000E+00
 
    0.15645E+07         0.13027E+07         0.00000E+00
    0.13027E+07        -0.72502E+06         0.00000E+00
    0.00000E+00         0.00000E+00         0.00000E+00
 
    0.15101E+07         0.13463E+07         0.00000E+00
    0.13463E+07        -0.70676E+06         0.00000E+00
    0.00000E+00         0.00000E+00         0.00000E+00
 
    0.14552E+07         0.13892E+07         0.00000E+00
    0.13892E+07        -0.68785E+06         0.00000E+00
    0.00000E+00         0.00000E+00         0.00000E+00
 
    0.13996E+07         0.14314E+07         0.00000E+00
    0.14314E+07        -0.66829E+06         0.00000E+00
    0.00000E+00         0.00000E+00         0.00000E+00
 
    0.13435E+07         0.14729E+07         0.00000E+00
    0.14729E+07        -0.64809E+06         0.00000E+00
    0.00000E+00         0.00000E+00         0.00000E+00
 
    0.12867E+07         0.15137E+07         0.00000E+00
    0.15137E+07        -0.62725E+06         0.00000E+00
    0.00000E+00         0.00000E+00         0.00000E+00
 
    0.12294E+07         0.15537E+07         0.00000E+00
    0.15537E+07        -0.60577E+06         0.00000E+00
    0.00000E+00         0.00000E+00         0.00000E+00
 
    0.11715E+07         0.15931E+07         0.00000E+00
    0.15931E+07        -0.58365E+06         0.00000E+00
    0.00000E+00         0.00000E+00         0.00000E+00
 
    0.11130E+07         0.16318E+07         0.00000E+00
    0.16318E+07        -0.56090E+06         0.00000E+00
    0.00000E+00         0.00000E+00         0.00000E+00
 
    0.10539E+07         0.16697E+07         0.00000E+00
    0.16697E+07        -0.53751E+06         0.00000E+00
    0.00000E+00         0.00000E+00         0.00000E+00
 
    0.99432E+06         0.17070E+07         0.00000E+00
    0.17070E+07        -0.51348E+06         0.00000E+00
    0.00000E+00         0.00000E+00         0.00000E+00
 
    0.93414E+06         0.17435E+07         0.00000E+00
    0.17435E+07        -0.48882E+06         0.00000E+00
    0.00000E+00         0.00000E+00         0.00000E+00
 
    0.87340E+06         0.17794E+07         0.00000E+00
    0.17794E+07        -0.46353E+06         0.00000E+00
    0.00000E+00         0.00000E+00         0.00000E+00
 
    0.81211E+06         0.18145E+07         0.00000E+00
    0.18145E+07        -0.43760E+06         0.00000E+00
    0.00000E+00         0.00000E+00         0.00000E+00
 
    0.75027E+06         0.18490E+07         0.00000E+00
    0.18490E+07        -0.41104E+06         0.00000E+00
    0.00000E+00         0.00000E+00         0.00000E+00
 
    0.68787E+06         0.18827E+07         0.00000E+00
    0.18827E+07        -0.38385E+06         0.00000E+00
    0.00000E+00         0.00000E+00         0.00000E+00
 
    0.62493E+06         0.19158E+07         0.00000E+00
    0.19158E+07        -0.35602E+06         0.00000E+00
    0.00000E+00         0.00000E+00         0.00000E+00
 
    0.56145E+06         0.19481E+07         0.00000E+00
    0.19481E+07        -0.32756E+06         0.00000E+00
    0.00000E+00         0.00000E+00         0.00000E+00
 
    0.49742E+06         0.19797E+07         0.00000E+00
    0.19797E+07        -0.29846E+06         0.00000E+00
    0.00000E+00         0.00000E+00         0.00000E+00
 
    0.43285E+06         0.20105E+07         0.00000E+00
    0.20105E+07        -0.26873E+06         0.00000E+00
    0.00000E+00         0.00000E+00         0.00000E+00
 
    0.36774E+06         0.20407E+07         0.00000E+00
    0.20407E+07        -0.23837E+06         0.00000E+00
    0.00000E+00         0.00000E+00         0.00000E+00
 
    0.30208E+06         0.20701E+07         0.00000E+00
    0.20701E+07        -0.20737E+06         0.00000E+00
    0.00000E+00         0.00000E+00         0.00000E+00
 
    0.23588E+06         0.20988E+07         0.00000E+00
    0.20988E+07        -0.17574E+06         0.00000E+00
    0.00000E+00         0.00000E+00         0.00000E+00
 
    0.16915E+06         0.21267E+07         0.00000E+00
    0.21267E+07        -0.14347E+06         0.00000E+00
    0.00000E+00         0.00000E+00         0.00000E+00
 
    0.10187E+06         0.21540E+07         0.00000E+00
    0.21540E+07        -0.11056E+06         0.00000E+00
    0.00000E+00         0.00000E+00         0.00000E+00
 
    0.34046E+05         0.21804E+07         0.00000E+00
    0.21804E+07        -0.77018E+05         0.00000E+00
    0.00000E+00         0.00000E+00         0.00000E+00
 
    0.28362E+07         0.34348E+05         0.00000E+00
    0.34348E+05        -0.10919E+07         0.00000E+00
    0.00000E+00         0.00000E+00         0.00000E+00
 
    0.27967E+07         0.10058E+06         0.00000E+00
    0.10058E+06        -0.10911E+07         0.00000E+00
    0.00000E+00         0.00000E+00         0.00000E+00
 
    0.27562E+07         0.16592E+06         0.00000E+00
    0.16592E+06        -0.10893E+07         0.00000E+00
    0.00000E+00         0.00000E+00         0.00000E+00
 
    0.27147E+07         0.23038E+06         0.00000E+00
    0.23038E+06        -0.10867E+07         0.00000E+00
    0.00000E+00         0.00000E+00         0.00000E+00
 
    0.26723E+07         0.29396E+06         0.00000E+00
    0.29396E+06        -0.10833E+07         0.00000E+00
    0.00000E+00         0.00000E+00         0.00000E+00
 
    0.26289E+07         0.35668E+06         0.00000E+00
    0.35668E+06        -0.10790E+07         0.00000E+00
    0.00000E+00         0.00000E+00         0.00000E+00
 
    0.25846E+07         0.41854E+06         0.00000E+00
    0.41854E+06        -0.10740E+07         0.00000E+00
    0.00000E+00         0.00000E+00         0.00000E+00
 
    0.25394E+07         0.47955E+06         0.00000E+00
    0.47955E+06        -0.10681E+07         0.00000E+00
    0.00000E+00         0.00000E+00         0.00000E+00
 
    0.24934E+07         0.53972E+06         0.00000E+00
    0.53972E+06        -0.10615E+07         0.00000E+00
    0.00000E+00         0.00000E+00         0.00000E+00
 
    0.24465E+07         0.59906E+06         0.00000E+00
    0.59906E+06        -0.10541E+07         0.00000E+00
    0.00000E+00         0.00000E+00         0.00000E+00
 
    0.23989E+07         0.65756E+06         0.00000E+00
    0.65756E+06        -0.10459E+07         0.00000E+00
    0.00000E+00         0.00000E+00         0.00000E+00
 
    0.23504E+07         0.71525E+06         0.00000E+00
    0.71525E+06        -0.10369E+07         0.00000E+00
    0.00000E+00         0.00000E+00         0.00000E+00
 
    0.23012E+07         0.77212E+06         0.00000E+00
    0.77212E+06        -0.10272E+07         0.00000E+00
    0.00000E+00         0.00000E+00         0.00000E+00
 
    0.22512E+07         0.82819E+06         0.00000E+00
    0.82819E+06        -0.10168E+07         0.00000E+00
    0.00000E+00         0.00000E+00         0.00000E+00
 
    0.22005E+07         0.88347E+06         0.00000E+00
    0.88347E+06        -0.10057E+07         0.00000E+00
    0.00000E+00         0.00000E+00         0.00000E+00
 
    0.21490E+07         0.93795E+06         0.00000E+00
    0.93795E+06        -0.99378E+06         0.00000E+00
    0.00000E+00         0.00000E+00         0.00000E+00
 
    0.20969E+07         0.99165E+06         0.00000E+00
    0.99165E+06        -0.98118E+06         0.00000E+00
    0.00000E+00         0.00000E+00         0.00000E+00
 
    0.20440E+07         0.10446E+07         0.00000E+00
    0.10446E+07        -0.96787E+06         0.00000E+00
    0.00000E+00         0.00000E+00         0.00000E+00
 
    0.19905E+07         0.10967E+07         0.00000E+00
    0.10967E+07        -0.95384E+06         0.00000E+00
    0.00000E+00         0.00000E+00         0.00000E+00
 
    0.19363E+07         0.11481E+07         0.00000E+00
    0.11481E+07        -0.93912E+06         0.00000E+00
    0.00000E+00         0.00000E+00         0.00000E+00
 
    0.18815E+07         0.11988E+07         0.00000E+00
    0.11988E+07        -0.92369E+06         0.00000E+00
    0.00000E+00         0.00000E+00         0.00000E+00
 
    0.18260E+07         0.12487E+07         0.00000E+00
    0.12487E+07        -0.90757E+06         0.00000E+00
    0.00000E+00         0.00000E+00         0.00000E+00
 
    0.17699E+07         0.12978E+07         0.00000E+00
    0.12978E+07        -0.89076E+06         0.00000E+00
    0.00000E+00         0.00000E+00         0.00000E+00
 
    0.17132E+07         0.13462E+07         0.00000E+00
    0.13462E+07        -0.87326E+06         0.00000E+00
    0.00000E+00         0.00000E+00         0.00000E+00
 
    0.16559E+07         0.13939E+07         0.00000E+00
    0.13939E+07        -0.85507E+06         0.00000E+00
    0.00000E+00         0.00000E+00         0.00000E+00
 
    0.15979E+07         0.14408E+07         0.00000E+00
    0.14408E+07        -0.83620E+06         0.00000E+00
    0.00000E+00         0.00000E+00         0.00000E+00
 
    0.15394E+07         0.14871E+07         0.00000E+00
    0.14871E+07        -0.81665E+06         0.00000E+00
    0.00000E+00         0.00000E+00         0.00000E+00
 
    0.14803E+07         0.15326E+07         0.00000E+00
    0.15326E+07        -0.79641E+06         0.00000E+00
    0.00000E+00         0.00000E+00         0.00000E+00
 
    0.14205E+07         0.15773E+07         0.00000E+00
    0.15773E+07        -0.77550E+06         0.00000E+00
    0.00000E+00         0.00000E+00         0.00000E+00
 
    0.13603E+07         0.16214E+07         0.00000E+00
    0.16214E+07        -0.75391E+06         0.00000E+00
    0.00000E+00         0.00000E+00         0.00000E+00
 
    0.12994E+07         0.16648E+07         0.00000E+00
    0.16648E+07        -0.73164E+06         0.00000E+00
    0.00000E+00         0.00000E+00         0.00000E+00
 
    0.12380E+07         0.17074E+07         0.00000E+00
    0.17074E+07        -0.70869E+06         0.00000E+00
    0.00000E+00         0.00000E+00         0.00000E+00
 
    0.11759E+07         0.17494E+07         0.00000E+00
    0.17494E+07        -0.68506E+06         0.00000E+00
    0.00000E+00         0.00000E+00         0.00000E+00
 
    0.11134E+07         0.17906E+07         0.00000E+00
    0.17906E+07        -0.66075E+06         0.00000E+00
    0.00000E+00         0.00000E+00         0.00000E+00
 
    0.10502E+07         0.18312E+07         0.00000E+00
    0.18312E+07        -0.63577E+06         0.00000E+00
    0.00000E+00         0.00000E+00         0.00000E+00
 
    0.98655E+06         0.18710E+07         0.00000E+00
    0.18710E+07        -0.61010E+06         0.00000E+00
    0.00000E+00         0.00000E+00         0.00000E+00
 
    0.92229E+06         0.19102E+07         0.00000E+00
    0.19102E+07        -0.58375E+06         0.00000E+00
    0.00000E+00         0.00000E+00         0.00000E+00
 
    0.85748E+06         0.19486E+07         0.00000E+00
    0.19486E+07        -0.55672E+06         0.00000E+00
    0.00000E+00         0.00000E+00         0.00000E+00
 
    0.79211E+06         0.19864E+07         0.00000E+00
    0.19864E+07        -0.52900E+06         0.00000E+00
    0.00000E+00         0.00000E+00         0.00000E+00
 
    0.72618E+06         0.20234E+07         0.00000E+00
    0.20234E+07        -0.50060E+06         0.00000E+00
    0.00000E+00         0.00000E+00         0.00000E+00
 
    0.65969E+06         0.20597E+07         0.00000E+00
    0.20597E+07        -0.47151E+06         0.00000E+00
    0.00000E+00         0.00000E+00         0.00000E+00
 
    0.59265E+06         0.20953E+07         0.00000E+00
    0.20953E+07        -0.44174E+06         0.00000E+00
    0.00000E+00         0.00000E+00         0.00000E+00
 
    0.52504E+06         0.21303E+07         0.00000E+00
    0.21303E+07        -0.41127E+06         0.00000E+00
    0.00000E+00         0.00000E+00         0.00000E+00
 
    0.45687E+06         0.21645E+07         0.00000E+00
    0.21645E+07        -0.38010E+06         0.00000E+00
    0.00000E+00         0.00000E+00         0.00000E+00
 
    0.38814E+06         0.21979E+07         0.00000E+00
    0.21979E+07        -0.34824E+06         0.00000E+00
    0.00000E+00         0.00000E+00         0.00000E+00
 
    0.31884E+06         0.22307E+07         0.00000E+00
    0.22307E+07        -0.31568E+06         0.00000E+00
    0.00000E+00         0.00000E+00         0.00000E+00
 
    0.24897E+06         0.22627E+07         0.00000E+00
    0.22627E+07        -0.28243E+06         0.00000E+00
    0.00000E+00         0.00000E+00         0.00000E+00
 
    0.17854E+06         0.22940E+07         0.00000E+00
    0.22940E+07        -0.24847E+06         0.00000E+00
    0.00000E+00         0.00000E+00         0.00000E+00
 
    0.10752E+06         0.23246E+07         0.00000E+00
    0.23246E+07        -0.21380E+06         0.00000E+00
    0.00000E+00         0.00000E+00         0.00000E+00
 
    0.35938E+05         0.23544E+07         0.00000E+00
    0.23544E+07        -0.17843E+06         0.00000E+00
    0.00000E+00         0.00000E+00         0.00000E+00
 
    0.30261E+07         0.36651E+05         0.00000E+00
    0.36651E+05        -0.12466E+07         0.00000E+00
    0.00000E+00         0.00000E+00         0.00000E+00
 
    0.29820E+07         0.10727E+06         0.00000E+00
    0.10727E+06        -0.12457E+07         0.00000E+00
    0.00000E+00         0.00000E+00         0.00000E+00
 
    0.29368E+07         0.17692E+06         0.00000E+00
    0.17692E+06        -0.12439E+07         0.00000E+00
    0.00000E+00         0.00000E+00         0.00000E+00
 
    0.28908E+07         0.24562E+06         0.00000E+00
    0.24562E+06        -0.12412E+07         0.00000E+00
    0.00000E+00         0.00000E+00         0.00000E+00
 
    0.28438E+07         0.31338E+06         0.00000E+00
    0.31338E+06        -0.12377E+07         0.00000E+00
    0.00000E+00         0.00000E+00         0.00000E+00
 
    0.27960E+07         0.38022E+06         0.00000E+00
    0.38022E+06        -0.12334E+07         0.00000E+00
    0.00000E+00         0.00000E+00         0.00000E+00
 
    0.27473E+07         0.44613E+06         0.00000E+00
    0.44613E+06        -0.12282E+07         0.00000E+00
    0.00000E+00         0.00000E+00         0.00000E+00
 
    0.26977E+07         0.51114E+06         0.00000E+00
    0.51114E+06        -0.12223E+07         0.00000E+00
    0.00000E+00         0.00000E+00         0.00000E+00
 
    0.26474E+07         0.57525E+06         0.00000E+00
    0.57525E+06        -0.12155E+07         0.00000E+00
    0.00000E+00         0.00000E+00         0.00000E+00
 
    0.25962E+07         0.63848E+06         0.00000E+00
    0.63848E+06        -0.12079E+07         0.00000E+00
    0.00000E+00         0.00000E+00         0.00000E+00
 
    0.25443E+07         0.70083E+06         0.00000E+00
    0.70083E+06        -0.11996E+07         0.00000E+00
    0.00000E+00         0.00000E+00         0.00000E+00
 
    0.24917E+07         0.76232E+06         0.00000E+00
    0.76232E+06        -0.11905E+07         0.00000E+00
    0.00000E+00         0.00000E+00         0.00000E+00
 
    0.24383E+07         0.82296E+06         0.00000E+00
    0.82296E+06        -0.11806E+07         0.00000E+00
    0.00000E+00         0.00000E+00         0.00000E+00
 
    0.23842E+07         0.88276E+06         0.00000E+00
    0.88276E+06        -0.11699E+07         0.00000E+00
    0.00000E+00         0.00000E+00         0.00000E+00
 
    0.23295E+07         0.94173E+06         0.00000E+00
    0.94173E+06        -0.11585E+07         0.00000E+00
    0.00000E+00         0.00000E+00         0.00000E+00
 
    0.22740E+07         0.99988E+06         0.00000E+00
    0.99988E+06        -0.11464E+07         0.00000E+00
    0.00000E+00         0.00000E+00         0.00000E+00
 
    0.22179E+07         0.10572E+07         0.00000E+00
    0.10572E+07        -0.11335E+07         0.00000E+00
    0.00000E+00         0.00000E+00         0.00000E+00
 
    0.21612E+07         0.11138E+07         0.00000E+00
    0.11138E+07        -0.11199E+07         0.00000E+00
    0.00000E+00         0.00000E+00         0.00000E+00
 
    0.21038E+07         0.11695E+07         0.00000E+00
    0.11695E+07        -0.11055E+07         0.00000E+00
    0.00000E+00         0.00000E+00         0.00000E+00
 
    0.20457E+07         0.12245E+07         0.00000E+00
    0.12245E+07        -0.10905E+07         0.00000E+00
    0.00000E+00         0.00000E+00         0.00000E+00
 
    0.19871E+07         0.12786E+07         0.00000E+00
    0.12786E+07        -0.10747E+07         0.00000E+00
    0.00000E+00         0.00000E+00         0.00000E+00
 
    0.19279E+07         0.13321E+07         0.00000E+00
    0.13321E+07        -0.10581E+07         0.00000E+00
    0.00000E+00         0.00000E+00         0.00000E+00
 
    0.18680E+07         0.13847E+07         0.00000E+00
    0.13847E+07        -0.10409E+07         0.00000E+00
    0.00000E+00         0.00000E+00         0.00000E+00
 
    0.18076E+07         0.14367E+07         0.00000E+00
    0.14367E+07        -0.10229E+07         0.00000E+00
    0.00000E+00         0.00000E+00         0.00000E+00
 
    0.17466E+07         0.14878E+07         0.00000E+00
    0.14878E+07        -0.10043E+07         0.00000E+00
    0.00000E+00         0.00000E+00         0.00000E+00
 
    0.16850E+07         0.15383E+07         0.00000E+00
    0.15383E+07        -0.98487E+06         0.00000E+00
    0.00000E+00         0.00000E+00         0.00000E+00
 
    0.16228E+07         0.15880E+07         0.00000E+00
    0.15880E+07        -0.96477E+06         0.00000E+00
    0.00000E+00         0.00000E+00         0.00000E+00
 
    0.15601E+07         0.16370E+07         0.00000E+00
    0.16370E+07        -0.94395E+06         0.00000E+00
    0.00000E+00         0.00000E+00         0.00000E+00
 
    0.14968E+07         0.16853E+07         0.00000E+00
    0.16853E+07        -0.92241E+06         0.00000E+00
    0.00000E+00         0.00000E+00         0.00000E+00
 
    0.14330E+07         0.17328E+07         0.00000E+00
    0.17328E+07        -0.90016E+06         0.00000E+00
    0.00000E+00         0.00000E+00         0.00000E+00
 
    0.13686E+07         0.17797E+07         0.00000E+00
    0.17797E+07        -0.87719E+06         0.00000E+00
    0.00000E+00         0.00000E+00         0.00000E+00
 
    0.13036E+07         0.18258E+07         0.00000E+00
    0.18258E+07        -0.85350E+06         0.00000E+00
    0.00000E+00         0.00000E+00         0.00000E+00
 
    0.12381E+07         0.18713E+07         0.00000E+00
    0.18713E+07        -0.82909E+06         0.00000E+00
    0.00000E+00         0.00000E+00         0.00000E+00
 
    0.11720E+07         0.19160E+07         0.00000E+00
    0.19160E+07        -0.80396E+06         0.00000E+00
    0.00000E+00         0.00000E+00         0.00000E+00
 
    0.11054E+07         0.19601E+07         0.00000E+00
    0.19601E+07        -0.77810E+06         0.00000E+00
    0.00000E+00         0.00000E+00         0.00000E+00
 
    0.10382E+07         0.20035E+07         0.00000E+00
    0.20035E+07        -0.75151E+06         0.00000E+00
    0.00000E+00         0.00000E+00         0.00000E+00
 
    0.97049E+06         0.20462E+07         0.00000E+00
    0.20462E+07        -0.72420E+06         0.00000E+00
    0.00000E+00         0.00000E+00         0.00000E+00
 
    0.90219E+06         0.20881E+07         0.00000E+00
    0.20881E+07        -0.69614E+06         0.00000E+00
    0.00000E+00         0.00000E+00         0.00000E+00
 
    0.83334E+06         0.21294E+07         0.00000E+00
    0.21294E+07        -0.66735E+06         0.00000E+00
    0.00000E+00         0.00000E+00         0.00000E+00
 
    0.76392E+06         0.21700E+07         0.00000E+00
    0.21700E+07        -0.63782E+06         0.00000E+00
    0.00000E+00         0.00000E+00         0.00000E+00
 
    0.69393E+06         0.22100E+07         0.00000E+00
    0.22100E+07        -0.60755E+06         0.00000E+00
    0.00000E+00         0.00000E+00         0.00000E+00
 
    0.62337E+06         0.22492E+07         0.00000E+00
    0.22492E+07        -0.57652E+06         0.00000E+00
    0.00000E+00         0.00000E+00         0.00000E+00
 
    0.55224E+06         0.22877E+07         0.00000E+00
    0.22877E+07        -0.54474E+06         0.00000E+00
    0.00000E+00         0.00000E+00         0.00000E+00
 
    0.48053E+06         0.23255E+07         0.00000E+00
    0.23255E+07        -0.51221E+06         0.00000E+00
    0.00000E+00         0.00000E+00         0.00000E+00
 
    0.40823E+06         0.23627E+07         0.00000E+00
    0.23627E+07        -0.47891E+06         0.00000E+00
    0.00000E+00         0.00000E+00         0.00000E+00
 
    0.33534E+06         0.23991E+07         0.00000E+00
    0.23991E+07        -0.44485E+06         0.00000E+00
    0.00000E+00         0.00000E+00         0.00000E+00
 
    0.26186E+06         0.24348E+07         0.00000E+00
    0.24348E+07        -0.41002E+06         0.00000E+00
    0.00000E+00         0.00000E+00         0.00000E+00
 
    0.18779E+06         0.24698E+07         0.00000E+00
    0.24698E+07        -0.37441E+06         0.00000E+00
    0.00000E+00         0.00000E+00         0.00000E+00
 
    0.11310E+06         0.25041E+07         0.00000E+00
    0.25041E+07        -0.33803E+06         0.00000E+00
    0.00000E+00         0.00000E+00         0.00000E+00
 
    0.37802E+05         0.25376E+07         0.00000E+00
    0.25376E+07        -0.30086E+06         0.00000E+00
    0.00000E+00         0.00000E+00         0.00000E+00
 
    0.32185E+07         0.38991E+05         0.00000E+00
    0.38991E+05        -0.14209E+07         0.00000E+00
    0.00000E+00         0.00000E+00         0.00000E+00
 
    0.31694E+07         0.11406E+06         0.00000E+00
    0.11406E+06        -0.14200E+07         0.00000E+00
    0.00000E+00         0.00000E+00         0.00000E+00
 
    0.31193E+07         0.18810E+06         0.00000E+00
    0.18810E+06        -0.14182E+07         0.00000E+00
    0.00000E+00         0.00000E+00         0.00000E+00
 
    0.30683E+07         0.26111E+06         0.00000E+00
    0.26111E+06        -0.14155E+07         0.00000E+00
    0.00000E+00         0.00000E+00         0.00000E+00
 
    0.30165E+07         0.33311E+06         0.00000E+00
    0.33311E+06        -0.14120E+07         0.00000E+00
    0.00000E+00         0.00000E+00         0.00000E+00
 
    0.29639E+07         0.40412E+06         0.00000E+00
    0.40412E+06        -0.14076E+07         0.00000E+00
    0.00000E+00         0.00000E+00         0.00000E+00
 
    0.29105E+07         0.47415E+06         0.00000E+00
    0.47415E+06        -0.14024E+07         0.00000E+00
    0.00000E+00         0.00000E+00         0.00000E+00
 
    0.28563E+07         0.54322E+06         0.00000E+00
    0.54322E+06        -0.13964E+07         0.00000E+00
    0.00000E+00         0.00000E+00         0.00000E+00
 
    0.28014E+07         0.61135E+06         0.00000E+00
    0.61135E+06        -0.13895E+07         0.00000E+00
    0.00000E+00         0.00000E+00         0.00000E+00
 
    0.27457E+07         0.67854E+06         0.00000E+00
    0.67854E+06        -0.13818E+07         0.00000E+00
    0.00000E+00         0.00000E+00         0.00000E+00
 
    0.26894E+07         0.74482E+06         0.00000E+00
    0.74482E+06        -0.13734E+07         0.00000E+00
    0.00000E+00         0.00000E+00         0.00000E+00
 
    0.26324E+07         0.81019E+06         0.00000E+00
    0.81019E+06        -0.13642E+07         0.00000E+00
    0.00000E+00         0.00000E+00         0.00000E+00
 
    0.25747E+07         0.87468E+06         0.00000E+00
    0.87468E+06        -0.13541E+07         0.00000E+00
    0.00000E+00         0.00000E+00         0.00000E+00
 
    0.25163E+07         0.93829E+06         0.00000E+00
    0.93829E+06        -0.13434E+07         0.00000E+00
    0.00000E+00         0.00000E+00         0.00000E+00
 
    0.24574E+07         0.10010E+07         0.00000E+00
    0.10010E+07        -0.13318E+07         0.00000E+00
    0.00000E+00         0.00000E+00         0.00000E+00
 
    0.23978E+07         0.10629E+07         0.00000E+00
    0.10629E+07        -0.13195E+07         0.00000E+00
    0.00000E+00         0.00000E+00         0.00000E+00
 
    0.23376E+07         0.11240E+07         0.00000E+00
    0.11240E+07        -0.13064E+07         0.00000E+00
    0.00000E+00         0.00000E+00         0.00000E+00
 
    0.22768E+07         0.11843E+07         0.00000E+00
    0.11843E+07        -0.12926E+07         0.00000E+00
    0.00000E+00         0.00000E+00         0.00000E+00
 
    0.22154E+07         0.12437E+07         0.00000E+00
    0.12437E+07        -0.12780E+07         0.00000E+00
    0.00000E+00         0.00000E+00         0.00000E+00
 
    0.21535E+07         0.13024E+07         0.00000E+00
    0.13024E+07        -0.12627E+07         0.00000E+00
    0.00000E+00         0.00000E+00         0.00000E+00
 
    0.20910E+07         0.13602E+07         0.00000E+00
    0.13602E+07        -0.12466E+07         0.00000E+00
    0.00000E+00         0.00000E+00         0.00000E+00
 
    0.20279E+07         0.14173E+07         0.00000E+00
    0.14173E+07        -0.12298E+07         0.00000E+00
    0.00000E+00         0.00000E+00         0.00000E+00
 
    0.19643E+07         0.14736E+07         0.00000E+00
    0.14736E+07        -0.12122E+07         0.00000E+00
    0.00000E+00         0.00000E+00         0.00000E+00
 
    0.19001E+07         0.15292E+07         0.00000E+00
    0.15292E+07        -0.11939E+07         0.00000E+00
    0.00000E+00         0.00000E+00         0.00000E+00
 
    0.18354E+07         0.15840E+07         0.00000E+00
    0.15840E+07        -0.11749E+07         0.00000E+00
    0.00000E+00         0.00000E+00         0.00000E+00
 
    0.17702E+07         0.16381E+07         0.00000E+00
    0.16381E+07        -0.11551E+07         0.00000E+00
    0.00000E+00         0.00000E+00         0.00000E+00
 
    0.17044E+07         0.16915E+07         0.00000E+00
    0.16915E+07        -0.11345E+07         0.00000E+00
    0.00000E+00         0.00000E+00         0.00000E+00
 
    0.16381E+07         0.17441E+07         0.00000E+00
    0.17441E+07        -0.11132E+07         0.00000E+00
    0.00000E+00         0.00000E+00         0.00000E+00
 
    0.15713E+07         0.17961E+07         0.00000E+00
    0.17961E+07        -0.10912E+07         0.00000E+00
    0.00000E+00         0.00000E+00         0.00000E+00
 
    0.15039E+07         0.18473E+07         0.00000E+00
    0.18473E+07        -0.10684E+07         0.00000E+00
    0.00000E+00         0.00000E+00         0.00000E+00
 
    0.14360E+07         0.18979E+07         0.00000E+00
    0.18979E+07        -0.10449E+07         0.00000E+00
    0.00000E+00         0.00000E+00         0.00000E+00
 
    0.13676E+07         0.19477E+07         0.00000E+00
    0.19477E+07        -0.10206E+07         0.00000E+00
    0.00000E+00         0.00000E+00         0.00000E+00
 
    0.12986E+07         0.19969E+07         0.00000E+00
    0.19969E+07        -0.99548E+06         0.00000E+00
    0.00000E+00         0.00000E+00         0.00000E+00
 
    0.12291E+07         0.20454E+07         0.00000E+00
    0.20454E+07        -0.96963E+06         0.00000E+00
    0.00000E+00         0.00000E+00         0.00000E+00
 
    0.11590E+07         0.20932E+07         0.00000E+00
    0.20932E+07        -0.94302E+06         0.00000E+00
    0.00000E+00         0.00000E+00         0.00000E+00
 
    0.10884E+07         0.21404E+07         0.00000E+00
    0.21404E+07        -0.91562E+06         0.00000E+00
    0.00000E+00         0.00000E+00         0.00000E+00
 
    0.10173E+07         0.21868E+07         0.00000E+00
    0.21868E+07        -0.88744E+06         0.00000E+00
    0.00000E+00         0.00000E+00         0.00000E+00
 
    0.94561E+06         0.22326E+07         0.00000E+00
    0.22326E+07        -0.85848E+06         0.00000E+00
    0.00000E+00         0.00000E+00         0.00000E+00
 
    0.87336E+06         0.22778E+07         0.00000E+00
    0.22778E+07        -0.82872E+06         0.00000E+00
    0.00000E+00         0.00000E+00         0.00000E+00
 
    0.80054E+06         0.23223E+07         0.00000E+00
    0.23223E+07        -0.79816E+06         0.00000E+00
    0.00000E+00         0.00000E+00         0.00000E+00
 
    0.72715E+06         0.23661E+07         0.00000E+00
    0.23661E+07        -0.76680E+06         0.00000E+00
    0.00000E+00         0.00000E+00         0.00000E+00
 
    0.65318E+06         0.24092E+07         0.00000E+00
    0.24092E+07        -0.73462E+06         0.00000E+00
    0.00000E+00         0.00000E+00         0.00000E+00
 
    0.57863E+06         0.24517E+07         0.00000E+00
    0.24517E+07        -0.70163E+06         0.00000E+00
    0.00000E+00         0.00000E+00         0.00000E+00
 
    0.50348E+06         0.24935E+07         0.00000E+00
    0.24935E+07        -0.66782E+06         0.00000E+00
    0.00000E+00         0.00000E+00         0.00000E+00
 
    0.42772E+06         0.25346E+07         0.00000E+00
    0.25346E+07        -0.63317E+06         0.00000E+00
    0.00000E+00         0.00000E+00         0.00000E+00
 
    0.35136E+06         0.25750E+07         0.00000E+00
    0.25750E+07        -0.59768E+06         0.00000E+00
    0.00000E+00         0.00000E+00         0.00000E+00
 
    0.27438E+06         0.26148E+07         0.00000E+00
    0.26148E+07        -0.56136E+06         0.00000E+00
    0.00000E+00         0.00000E+00         0.00000E+00
 
    0.19676E+06         0.26538E+07         0.00000E+00
    0.26538E+07        -0.52418E+06         0.00000E+00
    0.00000E+00         0.00000E+00         0.00000E+00
 
    0.11851E+06         0.26922E+07         0.00000E+00
    0.26922E+07        -0.48614E+06         0.00000E+00
    0.00000E+00         0.00000E+00         0.00000E+00
 
    0.39613E+05         0.27299E+07         0.00000E+00
    0.27299E+07        -0.44724E+06         0.00000E+00
    0.00000E+00         0.00000E+00         0.00000E+00
 
    0.34117E+07         0.41347E+05         0.00000E+00
    0.41347E+05        -0.16172E+07         0.00000E+00
    0.00000E+00         0.00000E+00         0.00000E+00
 
    0.33571E+07         0.12090E+06         0.00000E+00
    0.12090E+06        -0.16163E+07         0.00000E+00
    0.00000E+00         0.00000E+00         0.00000E+00
 
    0.33016E+07         0.19934E+06         0.00000E+00
    0.19934E+06        -0.16145E+07         0.00000E+00
    0.00000E+00         0.00000E+00         0.00000E+00
 
    0.32454E+07         0.27669E+06         0.00000E+00
    0.27669E+06        -0.16118E+07         0.00000E+00
    0.00000E+00         0.00000E+00         0.00000E+00
 
    0.31885E+07         0.35297E+06         0.00000E+00
    0.35297E+06        -0.16082E+07         0.00000E+00
    0.00000E+00         0.00000E+00         0.00000E+00
 
    0.31308E+07         0.42819E+06         0.00000E+00
    0.42819E+06        -0.16038E+07         0.00000E+00
    0.00000E+00         0.00000E+00         0.00000E+00
 
    0.30724E+07         0.50237E+06         0.00000E+00
    0.50237E+06        -0.15986E+07         0.00000E+00
    0.00000E+00         0.00000E+00         0.00000E+00
 
    0.30133E+07         0.57554E+06         0.00000E+00
    0.57554E+06        -0.15926E+07         0.00000E+00
    0.00000E+00         0.00000E+00         0.00000E+00
 
    0.29536E+07         0.64772E+06         0.00000E+00
    0.64772E+06        -0.15857E+07         0.00000E+00
    0.00000E+00         0.00000E+00         0.00000E+00
 
    0.28932E+07         0.71892E+06         0.00000E+00
    0.71892E+06        -0.15780E+07         0.00000E+00
    0.00000E+00         0.00000E+00         0.00000E+00
 
    0.28322E+07         0.78916E+06         0.00000E+00
    0.78916E+06        -0.15695E+07         0.00000E+00
    0.00000E+00         0.00000E+00         0.00000E+00
 
    0.27706E+07         0.85846E+06         0.00000E+00
    0.85846E+06        -0.15603E+07         0.00000E+00
    0.00000E+00         0.00000E+00         0.00000E+00
 
    0.27084E+07         0.92685E+06         0.00000E+00
    0.92685E+06        -0.15502E+07         0.00000E+00
    0.00000E+00         0.00000E+00         0.00000E+00
 
    0.26457E+07         0.99433E+06         0.00000E+00
    0.99433E+06        -0.15394E+07         0.00000E+00
    0.00000E+00         0.00000E+00         0.00000E+00
 
    0.25824E+07         0.10609E+07         0.00000E+00
    0.10609E+07        -0.15278E+07         0.00000E+00
    0.00000E+00         0.00000E+00         0.00000E+00
 
    0.25186E+07         0.11267E+07         0.00000E+00
    0.11267E+07        -0.15154E+07         0.00000E+00
    0.00000E+00         0.00000E+00         0.00000E+00
 
    0.24542E+07         0.11915E+07         0.00000E+00
    0.11915E+07        -0.15022E+07         0.00000E+00
    0.00000E+00         0.00000E+00         0.00000E+00
 
    0.23893E+07         0.12556E+07         0.00000E+00
    0.12556E+07        -0.14883E+07         0.00000E+00
    0.00000E+00         0.00000E+00         0.00000E+00
 
    0.23239E+07         0.13188E+07         0.00000E+00
    0.13188E+07        -0.14736E+07         0.00000E+00
    0.00000E+00         0.00000E+00         0.00000E+00
 
    0.22580E+07         0.13812E+07         0.00000E+00
    0.13812E+07        -0.14581E+07         0.00000E+00
    0.00000E+00         0.00000E+00         0.00000E+00
 
    0.21916E+07         0.14429E+07         0.00000E+00
    0.14429E+07        -0.14419E+07         0.00000E+00
    0.00000E+00         0.00000E+00         0.00000E+00
 
    0.21247E+07         0.15037E+07         0.00000E+00
    0.15037E+07        -0.14249E+07         0.00000E+00
    0.00000E+00         0.00000E+00         0.00000E+00
 
    0.20573E+07         0.15638E+07         0.00000E+00
    0.15638E+07        -0.14072E+07         0.00000E+00
    0.00000E+00         0.00000E+00         0.00000E+00
 
    0.19894E+07         0.16232E+07         0.00000E+00
    0.16232E+07        -0.13887E+07         0.00000E+00
    0.00000E+00         0.00000E+00         0.00000E+00
 
    0.19210E+07         0.16818E+07         0.00000E+00
    0.16818E+07        -0.13694E+07         0.00000E+00
    0.00000E+00         0.00000E+00         0.00000E+00
 
    0.18522E+07         0.17397E+07         0.00000E+00
    0.17397E+07        -0.13493E+07         0.00000E+00
    0.00000E+00         0.00000E+00         0.00000E+00
 
    0.17828E+07         0.17969E+07         0.00000E+00
    0.17969E+07        -0.13285E+07         0.00000E+00
    0.00000E+00         0.00000E+00         0.00000E+00
 
    0.17130E+07         0.18534E+07         0.00000E+00
    0.18534E+07        -0.13069E+07         0.00000E+00
    0.00000E+00         0.00000E+00         0.00000E+00
 
    0.16427E+07         0.19092E+07         0.00000E+00
    0.19092E+07        -0.12845E+07         0.00000E+00
    0.00000E+00         0.00000E+00         0.00000E+00
 
    0.15718E+07         0.19643E+07         0.00000E+00
    0.19643E+07        -0.12613E+07         0.00000E+00
    0.00000E+00         0.00000E+00         0.00000E+00
 
    0.15005E+07         0.20187E+07         0.00000E+00
    0.20187E+07        -0.12373E+07         0.00000E+00
    0.00000E+00         0.00000E+00         0.00000E+00
 
    0.14287E+07         0.20725E+07         0.00000E+00
    0.20725E+07        -0.12125E+07         0.00000E+00
    0.00000E+00         0.00000E+00         0.00000E+00
 
    0.13564E+07         0.21256E+07         0.00000E+00
    0.21256E+07        -0.11869E+07         0.00000E+00
    0.00000E+00         0.00000E+00         0.00000E+00
 
    0.12836E+07         0.21781E+07         0.00000E+00
    0.21781E+07        -0.11605E+07         0.00000E+00
    0.00000E+00         0.00000E+00         0.00000E+00
 
    0.12102E+07         0.22299E+07         0.00000E+00
    0.22299E+07        -0.11333E+07         0.00000E+00
    0.00000E+00         0.00000E+00         0.00000E+00
 
    0.11364E+07         0.22811E+07         0.00000E+00
    0.22811E+07        -0.11052E+07         0.00000E+00
    0.00000E+00         0.00000E+00         0.00000E+00
 
    0.10619E+07         0.23316E+07         0.00000E+00
    0.23316E+07        -0.10763E+07         0.00000E+00
    0.00000E+00         0.00000E+00         0.00000E+00
 
    0.98699E+06         0.23815E+07         0.00000E+00
    0.23815E+07        -0.10466E+07         0.00000E+00
    0.00000E+00         0.00000E+00         0.00000E+00
 
    0.91149E+06         0.24308E+07         0.00000E+00
    0.24308E+07        -0.10160E+07         0.00000E+00
    0.00000E+00         0.00000E+00         0.00000E+00
 
    0.83543E+06         0.24794E+07         0.00000E+00
    0.24794E+07        -0.98452E+06         0.00000E+00
    0.00000E+00         0.00000E+00         0.00000E+00
 
    0.75879E+06         0.25274E+07         0.00000E+00
    0.25274E+07        -0.95220E+06         0.00000E+00
    0.00000E+00         0.00000E+00         0.00000E+00
 
    0.68157E+06         0.25748E+07         0.00000E+00
    0.25748E+07        -0.91900E+06         0.00000E+00
    0.00000E+00         0.00000E+00         0.00000E+00
 
    0.60375E+06         0.26215E+07         0.00000E+00
    0.26215E+07        -0.88492E+06         0.00000E+00
    0.00000E+00         0.00000E+00         0.00000E+00
 
    0.52533E+06         0.26677E+07         0.00000E+00
    0.26677E+07        -0.84994E+06         0.00000E+00
    0.00000E+00         0.00000E+00         0.00000E+00
 
    0.44629E+06         0.27131E+07         0.00000E+00
    0.27131E+07        -0.81406E+06         0.00000E+00
    0.00000E+00         0.00000E+00         0.00000E+00
 
    0.36661E+06         0.27580E+07         0.00000E+00
    0.27580E+07        -0.77727E+06         0.00000E+00
    0.00000E+00         0.00000E+00         0.00000E+00
 
    0.28629E+06         0.28022E+07         0.00000E+00
    0.28022E+07        -0.73955E+06         0.00000E+00
    0.00000E+00         0.00000E+00         0.00000E+00
 
    0.20532E+06         0.28457E+07         0.00000E+00
    0.28457E+07        -0.70090E+06         0.00000E+00
    0.00000E+00         0.00000E+00         0.00000E+00
 
    0.12367E+06         0.28886E+07         0.00000E+00
    0.28886E+07        -0.66130E+06         0.00000E+00
    0.00000E+00         0.00000E+00         0.00000E+00
 
    0.41339E+05         0.29308E+07         0.00000E+00
    0.29308E+07        -0.62076E+06         0.00000E+00
    0.00000E+00         0.00000E+00         0.00000E+00
 
    0.36032E+07         0.43695E+05         0.00000E+00
    0.43695E+05        -0.18376E+07         0.00000E+00
    0.00000E+00         0.00000E+00         0.00000E+00
 
    0.35428E+07         0.12772E+06         0.00000E+00
    0.12772E+06        -0.18367E+07         0.00000E+00
    0.00000E+00         0.00000E+00         0.00000E+00
 
    0.34817E+07         0.21055E+06         0.00000E+00
    0.21055E+06        -0.18349E+07         0.00000E+00
    0.00000E+00         0.00000E+00         0.00000E+00
 
    0.34199E+07         0.29222E+06         0.00000E+00
    0.29222E+06        -0.18323E+07         0.00000E+00
    0.00000E+00         0.00000E+00         0.00000E+00
 
    0.33574E+07         0.37276E+06         0.00000E+00
    0.37276E+06        -0.18288E+07         0.00000E+00
    0.00000E+00         0.00000E+00         0.00000E+00
 
    0.32944E+07         0.45217E+06         0.00000E+00
    0.45217E+06        -0.18244E+07         0.00000E+00
    0.00000E+00         0.00000E+00         0.00000E+00
 
    0.32307E+07         0.53050E+06         0.00000E+00
    0.53050E+06        -0.18192E+07         0.00000E+00
    0.00000E+00         0.00000E+00         0.00000E+00
 
    0.31665E+07         0.60777E+06         0.00000E+00
    0.60777E+06        -0.18132E+07         0.00000E+00
    0.00000E+00         0.00000E+00         0.00000E+00
 
    0.31017E+07         0.68400E+06         0.00000E+00
    0.68400E+06        -0.18064E+07         0.00000E+00
    0.00000E+00         0.00000E+00         0.00000E+00
 
    0.30364E+07         0.75921E+06         0.00000E+00
    0.75921E+06        -0.17988E+07         0.00000E+00
    0.00000E+00         0.00000E+00         0.00000E+00
 
    0.29706E+07         0.83343E+06         0.00000E+00
    0.83343E+06        -0.17904E+07         0.00000E+00
    0.00000E+00         0.00000E+00         0.00000E+00
 
    0.29043E+07         0.90668E+06         0.00000E+00
    0.90668E+06        -0.17812E+07         0.00000E+00
    0.00000E+00         0.00000E+00         0.00000E+00
 
    0.28375E+07         0.97899E+06         0.00000E+00
    0.97899E+06        -0.17712E+07         0.00000E+00
    0.00000E+00         0.00000E+00         0.00000E+00
 
    0.27703E+07         0.10504E+07         0.00000E+00
    0.10504E+07        -0.17604E+07         0.00000E+00
    0.00000E+00         0.00000E+00         0.00000E+00
 
    0.27026E+07         0.11209E+07         0.00000E+00
    0.11209E+07        -0.17488E+07         0.00000E+00
    0.00000E+00         0.00000E+00         0.00000E+00
 
    0.26344E+07         0.11905E+07         0.00000E+00
    0.11905E+07        -0.17365E+07         0.00000E+00
    0.00000E+00         0.00000E+00         0.00000E+00
 
    0.25658E+07         0.12592E+07         0.00000E+00
    0.12592E+07        -0.17234E+07         0.00000E+00
    0.00000E+00         0.00000E+00         0.00000E+00
 
    0.24968E+07         0.13271E+07         0.00000E+00
    0.13271E+07        -0.17095E+07         0.00000E+00
    0.00000E+00         0.00000E+00         0.00000E+00
 
    0.24273E+07         0.13942E+07         0.00000E+00
    0.13942E+07        -0.16948E+07         0.00000E+00
    0.00000E+00         0.00000E+00         0.00000E+00
 
    0.23574E+07         0.14605E+07         0.00000E+00
    0.14605E+07        -0.16794E+07         0.00000E+00
    0.00000E+00         0.00000E+00         0.00000E+00
 
    0.22871E+07         0.15260E+07         0.00000E+00
    0.15260E+07        -0.16632E+07         0.00000E+00
    0.00000E+00         0.00000E+00         0.00000E+00
 
    0.22164E+07         0.15907E+07         0.00000E+00
    0.15907E+07        -0.16462E+07         0.00000E+00
    0.00000E+00         0.00000E+00         0.00000E+00
 
    0.21453E+07         0.16547E+07         0.00000E+00
    0.16547E+07        -0.16284E+07         0.00000E+00
    0.00000E+00         0.00000E+00         0.00000E+00
 
    0.20737E+07         0.17179E+07         0.00000E+00
    0.17179E+07        -0.16098E+07         0.00000E+00
    0.00000E+00         0.00000E+00         0.00000E+00
 
    0.20018E+07         0.17805E+07         0.00000E+00
    0.17805E+07        -0.15905E+07         0.00000E+00
    0.00000E+00         0.00000E+00         0.00000E+00
 
    0.19294E+07         0.18423E+07         0.00000E+00
    0.18423E+07        -0.15703E+07         0.00000E+00
    0.00000E+00         0.00000E+00         0.00000E+00
 
    0.18566E+07         0.19035E+07         0.00000E+00
    0.19035E+07        -0.15494E+07         0.00000E+00
    0.00000E+00         0.00000E+00         0.00000E+00
 
    0.17833E+07         0.19640E+07         0.00000E+00
    0.19640E+07        -0.15276E+07         0.00000E+00
    0.00000E+00         0.00000E+00         0.00000E+00
 
    0.17096E+07         0.20238E+07         0.00000E+00
    0.20238E+07        -0.15050E+07         0.00000E+00
    0.00000E+00         0.00000E+00         0.00000E+00
 
    0.16355E+07         0.20829E+07         0.00000E+00
    0.20829E+07        -0.14816E+07         0.00000E+00
    0.00000E+00         0.00000E+00         0.00000E+00
 
    0.15609E+07         0.21415E+07         0.00000E+00
    0.21415E+07        -0.14573E+07         0.00000E+00
    0.00000E+00         0.00000E+00         0.00000E+00
 
    0.14859E+07         0.21994E+07         0.00000E+00
    0.21994E+07        -0.14322E+07         0.00000E+00
    0.00000E+00         0.00000E+00         0.00000E+00
 
    0.14104E+07         0.22566E+07         0.00000E+00
    0.22566E+07        -0.14063E+07         0.00000E+00
    0.00000E+00         0.00000E+00         0.00000E+00
 
    0.13344E+07         0.23133E+07         0.00000E+00
    0.23133E+07        -0.13795E+07         0.00000E+00
    0.00000E+00         0.00000E+00         0.00000E+00
 
    0.12580E+07         0.23694E+07         0.00000E+00
    0.23694E+07        -0.13518E+07         0.00000E+00
    0.00000E+00         0.00000E+00         0.00000E+00
 
    0.11810E+07         0.24248E+07         0.00000E+00
    0.24248E+07        -0.13232E+07         0.00000E+00
    0.00000E+00         0.00000E+00         0.00000E+00
 
    0.11035E+07         0.24797E+07         0.00000E+00
    0.24797E+07        -0.12938E+07         0.00000E+00
    0.00000E+00         0.00000E+00         0.00000E+00
 
    0.10255E+07         0.25340E+07         0.00000E+00
    0.25340E+07        -0.12635E+07         0.00000E+00
    0.00000E+00         0.00000E+00         0.00000E+00
 
    0.94696E+06         0.25877E+07         0.00000E+00
    0.25877E+07        -0.12322E+07         0.00000E+00
    0.00000E+00         0.00000E+00         0.00000E+00
 
    0.86787E+06         0.26408E+07         0.00000E+00
    0.26408E+07        -0.12000E+07         0.00000E+00
    0.00000E+00         0.00000E+00         0.00000E+00
 
    0.78820E+06         0.26933E+07         0.00000E+00
    0.26933E+07        -0.11669E+07         0.00000E+00
    0.00000E+00         0.00000E+00         0.00000E+00
 
    0.70795E+06         0.27453E+07         0.00000E+00
    0.27453E+07        -0.11329E+07         0.00000E+00
    0.00000E+00         0.00000E+00         0.00000E+00
 
    0.62710E+06         0.27967E+07         0.00000E+00
    0.27967E+07        -0.10979E+07         0.00000E+00
    0.00000E+00         0.00000E+00         0.00000E+00
 
    0.54563E+06         0.28475E+07         0.00000E+00
    0.28475E+07        -0.10619E+07         0.00000E+00
    0.00000E+00         0.00000E+00         0.00000E+00
 
    0.46354E+06         0.28977E+07         0.00000E+00
    0.28977E+07        -0.10249E+07         0.00000E+00
    0.00000E+00         0.00000E+00         0.00000E+00
 
    0.38079E+06         0.29473E+07         0.00000E+00
    0.29473E+07        -0.98694E+06         0.00000E+00
    0.00000E+00         0.00000E+00         0.00000E+00
 
    0.29737E+06         0.29964E+07         0.00000E+00
    0.29964E+07        -0.94798E+06         0.00000E+00
    0.00000E+00         0.00000E+00         0.00000E+00
 
    0.21327E+06         0.30448E+07         0.00000E+00
    0.30448E+07        -0.90799E+06         0.00000E+00
    0.00000E+00         0.00000E+00         0.00000E+00
 
    0.12847E+06         0.30927E+07         0.00000E+00
    0.30927E+07        -0.86697E+06         0.00000E+00
    0.00000E+00         0.00000E+00         0.00000E+00
 
    0.42946E+05         0.31399E+07         0.00000E+00
    0.31399E+07        -0.82491E+06         0.00000E+00
    0.00000E+00         0.00000E+00         0.00000E+00
 
    0.37906E+07         0.46006E+05         0.00000E+00
    0.46006E+05        -0.20847E+07         0.00000E+00
    0.00000E+00         0.00000E+00         0.00000E+00
 
    0.37239E+07         0.13443E+06         0.00000E+00
    0.13443E+06        -0.20838E+07         0.00000E+00
    0.00000E+00         0.00000E+00         0.00000E+00
 
    0.36567E+07         0.22159E+06         0.00000E+00
    0.22159E+06        -0.20821E+07         0.00000E+00
    0.00000E+00         0.00000E+00         0.00000E+00
 
    0.35890E+07         0.30751E+06         0.00000E+00
    0.30751E+06        -0.20795E+07         0.00000E+00
    0.00000E+00         0.00000E+00         0.00000E+00
 
    0.35208E+07         0.39224E+06         0.00000E+00
    0.39224E+06        -0.20760E+07         0.00000E+00
    0.00000E+00         0.00000E+00         0.00000E+00
 
    0.34521E+07         0.47580E+06         0.00000E+00
    0.47580E+06        -0.20718E+07         0.00000E+00
    0.00000E+00         0.00000E+00         0.00000E+00
 
    0.33830E+07         0.55822E+06         0.00000E+00
    0.55822E+06        -0.20667E+07         0.00000E+00
    0.00000E+00         0.00000E+00         0.00000E+00
 
    0.33134E+07         0.63953E+06         0.00000E+00
    0.63953E+06        -0.20608E+07         0.00000E+00
    0.00000E+00         0.00000E+00         0.00000E+00
 
    0.32434E+07         0.71977E+06         0.00000E+00
    0.71977E+06        -0.20541E+07         0.00000E+00
    0.00000E+00         0.00000E+00         0.00000E+00
 
    0.31730E+07         0.79895E+06         0.00000E+00
    0.79895E+06        -0.20467E+07         0.00000E+00
    0.00000E+00         0.00000E+00         0.00000E+00
 
    0.31022E+07         0.87712E+06         0.00000E+00
    0.87712E+06        -0.20384E+07         0.00000E+00
    0.00000E+00         0.00000E+00         0.00000E+00
 
    0.30311E+07         0.95429E+06         0.00000E+00
    0.95429E+06        -0.20294E+07         0.00000E+00
    0.00000E+00         0.00000E+00         0.00000E+00
 
    0.29596E+07         0.10305E+07         0.00000E+00
    0.10305E+07        -0.20196E+07         0.00000E+00
    0.00000E+00         0.00000E+00         0.00000E+00
 
    0.28877E+07         0.11058E+07         0.00000E+00
    0.11058E+07        -0.20090E+07         0.00000E+00
    0.00000E+00         0.00000E+00         0.00000E+00
 
    0.28155E+07         0.11801E+07         0.00000E+00
    0.11801E+07        -0.19976E+07         0.00000E+00
    0.00000E+00         0.00000E+00         0.00000E+00
 
    0.27430E+07         0.12536E+07         0.00000E+00
    0.12536E+07        -0.19855E+07         0.00000E+00
    0.00000E+00         0.00000E+00         0.00000E+00
 
    0.26702E+07         0.13263E+07         0.00000E+00
    0.13263E+07        -0.19726E+07         0.00000E+00
    0.00000E+00         0.00000E+00         0.00000E+00
 
    0.25970E+07         0.13980E+07         0.00000E+00
    0.13980E+07        -0.19589E+07         0.00000E+00
    0.00000E+00         0.00000E+00         0.00000E+00
 
    0.25235E+07         0.14690E+07         0.00000E+00
    0.14690E+07        -0.19444E+07         0.00000E+00
    0.00000E+00         0.00000E+00         0.00000E+00
 
    0.24497E+07         0.15392E+07         0.00000E+00
    0.15392E+07        -0.19292E+07         0.00000E+00
    0.00000E+00         0.00000E+00         0.00000E+00
 
    0.23756E+07         0.16086E+07         0.00000E+00
    0.16086E+07        -0.19132E+07         0.00000E+00
    0.00000E+00         0.00000E+00         0.00000E+00
 
    0.23012E+07         0.16773E+07         0.00000E+00
    0.16773E+07        -0.18963E+07         0.00000E+00
    0.00000E+00         0.00000E+00         0.00000E+00
 
    0.22264E+07         0.17453E+07         0.00000E+00
    0.17453E+07        -0.18787E+07         0.00000E+00
    0.00000E+00         0.00000E+00         0.00000E+00
 
    0.21513E+07         0.18125E+07         0.00000E+00
    0.18125E+07        -0.18603E+07         0.00000E+00
    0.00000E+00         0.00000E+00         0.00000E+00
 
    0.20759E+07         0.18791E+07         0.00000E+00
    0.18791E+07        -0.18410E+07         0.00000E+00
    0.00000E+00         0.00000E+00         0.00000E+00
 
    0.20001E+07         0.19450E+07         0.00000E+00
    0.19450E+07        -0.18210E+07         0.00000E+00
    0.00000E+00         0.00000E+00         0.00000E+00
 
    0.19240E+07         0.20103E+07         0.00000E+00
    0.20103E+07        -0.18001E+07         0.00000E+00
    0.00000E+00         0.00000E+00         0.00000E+00
 
    0.18475E+07         0.20749E+07         0.00000E+00
    0.20749E+07        -0.17783E+07         0.00000E+00
    0.00000E+00         0.00000E+00         0.00000E+00
 
    0.17706E+07         0.21389E+07         0.00000E+00
    0.21389E+07        -0.17557E+07         0.00000E+00
    0.00000E+00         0.00000E+00         0.00000E+00
 
    0.16934E+07         0.22023E+07         0.00000E+00
    0.22023E+07        -0.17323E+07         0.00000E+00
    0.00000E+00         0.00000E+00         0.00000E+00
 
    0.16158E+07         0.22651E+07         0.00000E+00
    0.22651E+07        -0.17080E+07         0.00000E+00
    0.00000E+00         0.00000E+00         0.00000E+00
 
    0.15377E+07         0.23273E+07         0.00000E+00
    0.23273E+07        -0.16828E+07         0.00000E+00
    0.00000E+00         0.00000E+00         0.00000E+00
 
    0.14593E+07         0.23890E+07         0.00000E+00
    0.23890E+07        -0.16567E+07         0.00000E+00
    0.00000E+00         0.00000E+00         0.00000E+00
 
    0.13804E+07         0.24501E+07         0.00000E+00
    0.24501E+07        -0.16297E+07         0.00000E+00
    0.00000E+00         0.00000E+00         0.00000E+00
 
    0.13011E+07         0.25107E+07         0.00000E+00
    0.25107E+07        -0.16018E+07         0.00000E+00
    0.00000E+00         0.00000E+00         0.00000E+00
 
    0.12213E+07         0.25707E+07         0.00000E+00
    0.25707E+07        -0.15730E+07         0.00000E+00
    0.00000E+00         0.00000E+00         0.00000E+00
 
    0.11410E+07         0.26302E+07         0.00000E+00
    0.26302E+07        -0.15432E+07         0.00000E+00
    0.00000E+00         0.00000E+00         0.00000E+00
 
    0.10602E+07         0.26891E+07         0.00000E+00
    0.26891E+07        -0.15125E+07         0.00000E+00
    0.00000E+00         0.00000E+00         0.00000E+00
 
    0.97889E+06         0.27476E+07         0.00000E+00
    0.27476E+07        -0.14808E+07         0.00000E+00
    0.00000E+00         0.00000E+00         0.00000E+00
 
    0.89705E+06         0.28055E+07         0.00000E+00
    0.28055E+07        -0.14481E+07         0.00000E+00
    0.00000E+00         0.00000E+00         0.00000E+00
 
    0.81465E+06         0.28629E+07         0.00000E+00
    0.28629E+07        -0.14144E+07         0.00000E+00
    0.00000E+00         0.00000E+00         0.00000E+00
 
    0.73167E+06         0.29198E+07         0.00000E+00
    0.29198E+07        -0.13797E+07         0.00000E+00
    0.00000E+00         0.00000E+00         0.00000E+00
 
    0.64809E+06         0.29762E+07         0.00000E+00
    0.29762E+07        -0.13439E+07         0.00000E+00
    0.00000E+00         0.00000E+00         0.00000E+00
 
    0.56389E+06         0.30320E+07         0.00000E+00
    0.30320E+07        -0.13071E+07         0.00000E+00
    0.00000E+00         0.00000E+00         0.00000E+00
 
    0.47905E+06         0.30874E+07         0.00000E+00
    0.30874E+07        -0.12693E+07         0.00000E+00
    0.00000E+00         0.00000E+00         0.00000E+00
 
    0.39354E+06         0.31423E+07         0.00000E+00
    0.31423E+07        -0.12303E+07         0.00000E+00
    0.00000E+00         0.00000E+00         0.00000E+00
 
    0.30734E+06         0.31966E+07         0.00000E+00
    0.31966E+07        -0.11903E+07         0.00000E+00
    0.00000E+00         0.00000E+00         0.00000E+00
 
    0.22044E+06         0.32504E+07         0.00000E+00
    0.32504E+07        -0.11492E+07         0.00000E+00
    0.00000E+00         0.00000E+00         0.00000E+00
 
    0.13279E+06         0.33037E+07         0.00000E+00
    0.33037E+07        -0.11069E+07         0.00000E+00
    0.00000E+00         0.00000E+00         0.00000E+00
 
    0.44393E+05         0.33564E+07         0.00000E+00
    0.33564E+07        -0.10635E+07         0.00000E+00
    0.00000E+00         0.00000E+00         0.00000E+00
 
    0.39705E+07         0.48247E+05         0.00000E+00
    0.48247E+05        -0.23610E+07         0.00000E+00
    0.00000E+00         0.00000E+00         0.00000E+00
 
    0.38973E+07         0.14093E+06         0.00000E+00
    0.14093E+06        -0.23601E+07         0.00000E+00
    0.00000E+00         0.00000E+00         0.00000E+00
 
    0.38237E+07         0.23229E+06         0.00000E+00
    0.23229E+06        -0.23584E+07         0.00000E+00
    0.00000E+00         0.00000E+00         0.00000E+00
 
    0.37498E+07         0.32234E+06         0.00000E+00
    0.32234E+06        -0.23559E+07         0.00000E+00
    0.00000E+00         0.00000E+00         0.00000E+00
 
    0.36755E+07         0.41114E+06         0.00000E+00
    0.41114E+06        -0.23526E+07         0.00000E+00
    0.00000E+00         0.00000E+00         0.00000E+00
 
    0.36009E+07         0.49872E+06         0.00000E+00
    0.49872E+06        -0.23485E+07         0.00000E+00
    0.00000E+00         0.00000E+00         0.00000E+00
 
    0.35261E+07         0.58512E+06         0.00000E+00
    0.58512E+06        -0.23437E+07         0.00000E+00
    0.00000E+00         0.00000E+00         0.00000E+00
 
    0.34509E+07         0.67038E+06         0.00000E+00
    0.67038E+06        -0.23380E+07         0.00000E+00
    0.00000E+00         0.00000E+00         0.00000E+00
 
    0.33755E+07         0.75452E+06         0.00000E+00
    0.75452E+06        -0.23316E+07         0.00000E+00
    0.00000E+00         0.00000E+00         0.00000E+00
 
    0.32999E+07         0.83760E+06         0.00000E+00
    0.83760E+06        -0.23244E+07         0.00000E+00
    0.00000E+00         0.00000E+00         0.00000E+00
 
    0.32241E+07         0.91963E+06         0.00000E+00
    0.91963E+06        -0.23164E+07         0.00000E+00
    0.00000E+00         0.00000E+00         0.00000E+00
 
    0.31480E+07         0.10007E+07         0.00000E+00
    0.10007E+07        -0.23077E+07         0.00000E+00
    0.00000E+00         0.00000E+00         0.00000E+00
 
    0.30717E+07         0.10807E+07         0.00000E+00
    0.10807E+07        -0.22982E+07         0.00000E+00
    0.00000E+00         0.00000E+00         0.00000E+00
 
    0.29953E+07         0.11598E+07         0.00000E+00
    0.11598E+07        -0.22880E+07         0.00000E+00
    0.00000E+00         0.00000E+00         0.00000E+00
 
    0.29186E+07         0.12380E+07         0.00000E+00
    0.12380E+07        -0.22770E+07         0.00000E+00
    0.00000E+00         0.00000E+00         0.00000E+00
 
    0.28418E+07         0.13154E+07         0.00000E+00
    0.13154E+07        -0.22652E+07         0.00000E+00
    0.00000E+00         0.00000E+00         0.00000E+00
 
    0.27647E+07         0.13919E+07         0.00000E+00
    0.13919E+07        -0.22527E+07         0.00000E+00
    0.00000E+00         0.00000E+00         0.00000E+00
 
    0.26875E+07         0.14675E+07         0.00000E+00
    0.14675E+07        -0.22394E+07         0.00000E+00
    0.00000E+00         0.00000E+00         0.00000E+00
 
    0.26101E+07         0.15424E+07         0.00000E+00
    0.15424E+07        -0.22253E+07         0.00000E+00
    0.00000E+00         0.00000E+00         0.00000E+00
 
    0.25325E+07         0.16166E+07         0.00000E+00
    0.16166E+07        -0.22104E+07         0.00000E+00
    0.00000E+00         0.00000E+00         0.00000E+00
 
    0.24547E+07         0.16899E+07         0.00000E+00
    0.16899E+07        -0.21948E+07         0.00000E+00
    0.00000E+00         0.00000E+00         0.00000E+00
 
    0.23766E+07         0.17626E+07         0.00000E+00
    0.17626E+07        -0.21783E+07         0.00000E+00
    0.00000E+00         0.00000E+00         0.00000E+00
 
    0.22984E+07         0.18346E+07         0.00000E+00
    0.18346E+07        -0.21611E+07         0.00000E+00
    0.00000E+00         0.00000E+00         0.00000E+00
 
    0.22199E+07         0.19060E+07         0.00000E+00
    0.19060E+07        -0.21430E+07         0.00000E+00
    0.00000E+00         0.00000E+00         0.00000E+00
 
    0.21412E+07         0.19766E+07         0.00000E+00
    0.19766E+07        -0.21241E+07         0.00000E+00
    0.00000E+00         0.00000E+00         0.00000E+00
 
    0.20623E+07         0.20467E+07         0.00000E+00
    0.20467E+07        -0.21044E+07         0.00000E+00
    0.00000E+00         0.00000E+00         0.00000E+00
 
    0.19831E+07         0.21162E+07         0.00000E+00
    0.21162E+07        -0.20838E+07         0.00000E+00
    0.00000E+00         0.00000E+00         0.00000E+00
 
    0.19036E+07         0.21851E+07         0.00000E+00
    0.21851E+07        -0.20623E+07         0.00000E+00
    0.00000E+00         0.00000E+00         0.00000E+00
 
    0.18238E+07         0.22534E+07         0.00000E+00
    0.22534E+07        -0.20400E+07         0.00000E+00
    0.00000E+00         0.00000E+00         0.00000E+00
 
    0.17438E+07         0.23212E+07         0.00000E+00
    0.23212E+07        -0.20168E+07         0.00000E+00
    0.00000E+00         0.00000E+00         0.00000E+00
 
    0.16634E+07         0.23885E+07         0.00000E+00
    0.23885E+07        -0.19927E+07         0.00000E+00
    0.00000E+00         0.00000E+00         0.00000E+00
 
    0.15826E+07         0.24553E+07         0.00000E+00
    0.24553E+07        -0.19676E+07         0.00000E+00
    0.00000E+00         0.00000E+00         0.00000E+00
 
    0.15016E+07         0.25215E+07         0.00000E+00
    0.25215E+07        -0.19417E+07         0.00000E+00
    0.00000E+00         0.00000E+00         0.00000E+00
 
    0.14201E+07         0.25873E+07         0.00000E+00
    0.25873E+07        -0.19147E+07         0.00000E+00
    0.00000E+00         0.00000E+00         0.00000E+00
 
    0.13382E+07         0.26526E+07         0.00000E+00
    0.26526E+07        -0.18868E+07         0.00000E+00
    0.00000E+00         0.00000E+00         0.00000E+00
 
    0.12559E+07         0.27175E+07         0.00000E+00
    0.27175E+07        -0.18580E+07         0.00000E+00
    0.00000E+00         0.00000E+00         0.00000E+00
 
    0.11732E+07         0.27818E+07         0.00000E+00
    0.27818E+07        -0.18281E+07         0.00000E+00
    0.00000E+00         0.00000E+00         0.00000E+00
 
    0.10900E+07         0.28458E+07         0.00000E+00
    0.28458E+07        -0.17972E+07         0.00000E+00
    0.00000E+00         0.00000E+00         0.00000E+00
 
    0.10063E+07         0.29093E+07         0.00000E+00
    0.29093E+07        -0.17653E+07         0.00000E+00
    0.00000E+00         0.00000E+00         0.00000E+00
 
    0.92207E+06         0.29723E+07         0.00000E+00
    0.29723E+07        -0.17323E+07         0.00000E+00
    0.00000E+00         0.00000E+00         0.00000E+00
 
    0.83731E+06         0.30350E+07         0.00000E+00
    0.30350E+07        -0.16983E+07         0.00000E+00
    0.00000E+00         0.00000E+00         0.00000E+00
 
    0.75199E+06         0.30972E+07         0.00000E+00
    0.30972E+07        -0.16632E+07         0.00000E+00
    0.00000E+00         0.00000E+00         0.00000E+00
 
    0.66607E+06         0.31590E+07         0.00000E+00
    0.31590E+07        -0.16269E+07         0.00000E+00
    0.00000E+00         0.00000E+00         0.00000E+00
 
    0.57952E+06         0.32203E+07         0.00000E+00
    0.32203E+07        -0.15895E+07         0.00000E+00
    0.00000E+00         0.00000E+00         0.00000E+00
 
    0.49233E+06         0.32813E+07         0.00000E+00
    0.32813E+07        -0.15510E+07         0.00000E+00
    0.00000E+00         0.00000E+00         0.00000E+00
 
    0.40446E+06         0.33418E+07         0.00000E+00
    0.33418E+07        -0.15113E+07         0.00000E+00
    0.00000E+00         0.00000E+00         0.00000E+00
 
    0.31589E+06         0.34018E+07         0.00000E+00
    0.34018E+07        -0.14705E+07         0.00000E+00
    0.00000E+00         0.00000E+00         0.00000E+00
 
    0.22658E+06         0.34615E+07         0.00000E+00
    0.34615E+07        -0.14284E+07         0.00000E+00
    0.00000E+00         0.00000E+00         0.00000E+00
 
    0.13650E+06         0.35207E+07         0.00000E+00
    0.35207E+07        -0.13851E+07         0.00000E+00
    0.00000E+00         0.00000E+00         0.00000E+00
 
    0.45636E+05         0.35795E+07         0.00000E+00
    0.35795E+07        -0.13405E+07         0.00000E+00
    0.00000E+00         0.00000E+00         0.00000E+00
 
    0.41396E+07         0.50379E+05         0.00000E+00
    0.50379E+05        -0.26692E+07         0.00000E+00
    0.00000E+00         0.00000E+00         0.00000E+00
 
    0.40594E+07         0.14712E+06         0.00000E+00
    0.14712E+06        -0.26684E+07         0.00000E+00
    0.00000E+00         0.00000E+00         0.00000E+00
 
    0.39791E+07         0.24246E+06         0.00000E+00
    0.24246E+06        -0.26669E+07         0.00000E+00
    0.00000E+00         0.00000E+00         0.00000E+00
 
    0.38986E+07         0.33645E+06         0.00000E+00
    0.33645E+06        -0.26645E+07         0.00000E+00
    0.00000E+00         0.00000E+00         0.00000E+00
 
    0.38181E+07         0.42914E+06         0.00000E+00
    0.42914E+06        -0.26614E+07         0.00000E+00
    0.00000E+00         0.00000E+00         0.00000E+00
 
    0.37374E+07         0.52056E+06         0.00000E+00
    0.52056E+06        -0.26575E+07         0.00000E+00
    0.00000E+00         0.00000E+00         0.00000E+00
 
    0.36566E+07         0.61077E+06         0.00000E+00
    0.61077E+06        -0.26529E+07         0.00000E+00
    0.00000E+00         0.00000E+00         0.00000E+00
 
    0.35758E+07         0.69980E+06         0.00000E+00
    0.69980E+06        -0.26476E+07         0.00000E+00
    0.00000E+00         0.00000E+00         0.00000E+00
 
    0.34949E+07         0.78770E+06         0.00000E+00
    0.78770E+06        -0.26415E+07         0.00000E+00
    0.00000E+00         0.00000E+00         0.00000E+00
 
    0.34139E+07         0.87451E+06         0.00000E+00
    0.87451E+06        -0.26347E+07         0.00000E+00
    0.00000E+00         0.00000E+00         0.00000E+00
 
    0.33330E+07         0.96028E+06         0.00000E+00
    0.96028E+06        -0.26272E+07         0.00000E+00
    0.00000E+00         0.00000E+00         0.00000E+00
 
    0.32520E+07         0.10450E+07         0.00000E+00
    0.10450E+07        -0.26190E+07         0.00000E+00
    0.00000E+00         0.00000E+00         0.00000E+00
 
    0.31710E+07         0.11288E+07         0.00000E+00
    0.11288E+07        -0.26100E+07         0.00000E+00
    0.00000E+00         0.00000E+00         0.00000E+00
 
    0.30899E+07         0.12117E+07         0.00000E+00
    0.12117E+07        -0.26003E+07         0.00000E+00
    0.00000E+00         0.00000E+00         0.00000E+00
 
    0.30088E+07         0.12937E+07         0.00000E+00
    0.12937E+07        -0.25898E+07         0.00000E+00
    0.00000E+00         0.00000E+00         0.00000E+00
 
    0.29277E+07         0.13748E+07         0.00000E+00
    0.13748E+07        -0.25786E+07         0.00000E+00
    0.00000E+00         0.00000E+00         0.00000E+00
 
    0.28466E+07         0.14551E+07         0.00000E+00
    0.14551E+07        -0.25666E+07         0.00000E+00
    0.00000E+00         0.00000E+00         0.00000E+00
 
    0.27654E+07         0.15346E+07         0.00000E+00
    0.15346E+07        -0.25539E+07         0.00000E+00
    0.00000E+00         0.00000E+00         0.00000E+00
 
    0.26842E+07         0.16134E+07         0.00000E+00
    0.16134E+07        -0.25405E+07         0.00000E+00
    0.00000E+00         0.00000E+00         0.00000E+00
 
    0.26030E+07         0.16914E+07         0.00000E+00
    0.16914E+07        -0.25262E+07         0.00000E+00
    0.00000E+00         0.00000E+00         0.00000E+00
 
    0.25217E+07         0.17687E+07         0.00000E+00
    0.17687E+07        -0.25112E+07         0.00000E+00
    0.00000E+00         0.00000E+00         0.00000E+00
 
    0.24403E+07         0.18454E+07         0.00000E+00
    0.18454E+07        -0.24954E+07         0.00000E+00
    0.00000E+00         0.00000E+00         0.00000E+00
 
    0.23588E+07         0.19215E+07         0.00000E+00
    0.19215E+07        -0.24787E+07         0.00000E+00
    0.00000E+00         0.00000E+00         0.00000E+00
 
    0.22773E+07         0.19970E+07         0.00000E+00
    0.19970E+07        -0.24613E+07         0.00000E+00
    0.00000E+00         0.00000E+00         0.00000E+00
 
    0.21956E+07         0.20718E+07         0.00000E+00
    0.20718E+07        -0.24430E+07         0.00000E+00
    0.00000E+00         0.00000E+00         0.00000E+00
 
    0.21138E+07         0.21462E+07         0.00000E+00
    0.21462E+07        -0.24238E+07         0.00000E+00
    0.00000E+00         0.00000E+00         0.00000E+00
 
    0.20318E+07         0.22200E+07         0.00000E+00
    0.22200E+07        -0.24038E+07         0.00000E+00
    0.00000E+00         0.00000E+00         0.00000E+00
 
    0.19496E+07         0.22933E+07         0.00000E+00
    0.22933E+07        -0.23829E+07         0.00000E+00
    0.00000E+00         0.00000E+00         0.00000E+00
 
    0.18673E+07         0.23661E+07         0.00000E+00
    0.23661E+07        -0.23611E+07         0.00000E+00
    0.00000E+00         0.00000E+00         0.00000E+00
 
    0.17848E+07         0.24385E+07         0.00000E+00
    0.24385E+07        -0.23384E+07         0.00000E+00
    0.00000E+00         0.00000E+00         0.00000E+00
 
    0.17020E+07         0.25104E+07         0.00000E+00
    0.25104E+07        -0.23148E+07         0.00000E+00
    0.00000E+00         0.00000E+00         0.00000E+00
 
    0.16189E+07         0.25819E+07         0.00000E+00
    0.25819E+07        -0.22902E+07         0.00000E+00
    0.00000E+00         0.00000E+00         0.00000E+00
 
    0.15356E+07         0.26529E+07         0.00000E+00
    0.26529E+07        -0.22646E+07         0.00000E+00
    0.00000E+00         0.00000E+00         0.00000E+00
 
    0.14520E+07         0.27236E+07         0.00000E+00
    0.27236E+07        -0.22380E+07         0.00000E+00
    0.00000E+00         0.00000E+00         0.00000E+00
 
    0.13680E+07         0.27939E+07         0.00000E+00
    0.27939E+07        -0.22105E+07         0.00000E+00
    0.00000E+00         0.00000E+00         0.00000E+00
 
    0.12836E+07         0.28638E+07         0.00000E+00
    0.28638E+07        -0.21819E+07         0.00000E+00
    0.00000E+00         0.00000E+00         0.00000E+00
 
    0.11989E+07         0.29334E+07         0.00000E+00
    0.29334E+07        -0.21522E+07         0.00000E+00
    0.00000E+00         0.00000E+00         0.00000E+00
 
    0.11137E+07         0.30026E+07         0.00000E+00
    0.30026E+07        -0.21215E+07         0.00000E+00
    0.00000E+00         0.00000E+00         0.00000E+00
 
    0.10280E+07         0.30715E+07         0.00000E+00
    0.30715E+07        -0.20896E+07         0.00000E+00
    0.00000E+00         0.00000E+00         0.00000E+00
 
    0.94193E+06         0.31400E+07         0.00000E+00
    0.31400E+07        -0.20567E+07         0.00000E+00
    0.00000E+00         0.00000E+00         0.00000E+00
 
    0.85528E+06         0.32083E+07         0.00000E+00
    0.32083E+07        -0.20226E+07         0.00000E+00
    0.00000E+00         0.00000E+00         0.00000E+00
 
    0.76809E+06         0.32762E+07         0.00000E+00
    0.32762E+07        -0.19873E+07         0.00000E+00
    0.00000E+00         0.00000E+00         0.00000E+00
 
    0.68031E+06         0.33437E+07         0.00000E+00
    0.33437E+07        -0.19508E+07         0.00000E+00
    0.00000E+00         0.00000E+00         0.00000E+00
 
    0.59191E+06         0.34110E+07         0.00000E+00
    0.34110E+07        -0.19132E+07         0.00000E+00
    0.00000E+00         0.00000E+00         0.00000E+00
 
    0.50286E+06         0.34779E+07         0.00000E+00
    0.34779E+07        -0.18743E+07         0.00000E+00
    0.00000E+00         0.00000E+00         0.00000E+00
 
    0.41313E+06         0.35446E+07         0.00000E+00
    0.35446E+07        -0.18341E+07         0.00000E+00
    0.00000E+00         0.00000E+00         0.00000E+00
 
    0.32267E+06         0.36109E+07         0.00000E+00
    0.36109E+07        -0.17927E+07         0.00000E+00
    0.00000E+00         0.00000E+00         0.00000E+00
 
    0.23146E+06         0.36769E+07         0.00000E+00
    0.36769E+07        -0.17499E+07         0.00000E+00
    0.00000E+00         0.00000E+00         0.00000E+00
 
    0.13946E+06         0.37425E+07         0.00000E+00
    0.37425E+07        -0.17058E+07         0.00000E+00
    0.00000E+00         0.00000E+00         0.00000E+00
 
    0.46627E+05         0.38079E+07         0.00000E+00
    0.38079E+07        -0.16604E+07         0.00000E+00
    0.00000E+00         0.00000E+00         0.00000E+00
 
    0.42935E+07         0.52356E+05         0.00000E+00
    0.52356E+05        -0.30124E+07         0.00000E+00
    0.00000E+00         0.00000E+00         0.00000E+00
 
    0.42061E+07         0.15286E+06         0.00000E+00
    0.15286E+06        -0.30116E+07         0.00000E+00
    0.00000E+00         0.00000E+00         0.00000E+00
 
    0.41188E+07         0.25191E+06         0.00000E+00
    0.25191E+06        -0.30102E+07         0.00000E+00
    0.00000E+00         0.00000E+00         0.00000E+00
 
    0.40315E+07         0.34955E+06         0.00000E+00
    0.34955E+06        -0.30080E+07         0.00000E+00
    0.00000E+00         0.00000E+00         0.00000E+00
 
    0.39444E+07         0.44585E+06         0.00000E+00
    0.44585E+06        -0.30052E+07         0.00000E+00
    0.00000E+00         0.00000E+00         0.00000E+00
 
    0.38575E+07         0.54085E+06         0.00000E+00
    0.54085E+06        -0.30017E+07         0.00000E+00
    0.00000E+00         0.00000E+00         0.00000E+00
 
    0.37707E+07         0.63461E+06         0.00000E+00
    0.63461E+06        -0.29974E+07         0.00000E+00
    0.00000E+00         0.00000E+00         0.00000E+00
 
    0.36841E+07         0.72719E+06         0.00000E+00
    0.72719E+06        -0.29926E+07         0.00000E+00
    0.00000E+00         0.00000E+00         0.00000E+00
 
    0.35976E+07         0.81862E+06         0.00000E+00
    0.81862E+06        -0.29870E+07         0.00000E+00
    0.00000E+00         0.00000E+00         0.00000E+00
 
    0.35113E+07         0.90896E+06         0.00000E+00
    0.90896E+06        -0.29807E+07         0.00000E+00
    0.00000E+00         0.00000E+00         0.00000E+00
 
    0.34252E+07         0.99826E+06         0.00000E+00
    0.99826E+06        -0.29738E+07         0.00000E+00
    0.00000E+00         0.00000E+00         0.00000E+00
 
    0.33393E+07         0.10866E+07         0.00000E+00
    0.10866E+07        -0.29662E+07         0.00000E+00
    0.00000E+00         0.00000E+00         0.00000E+00
 
    0.32536E+07         0.11739E+07         0.00000E+00
    0.11739E+07        -0.29579E+07         0.00000E+00
    0.00000E+00         0.00000E+00         0.00000E+00
 
    0.31681E+07         0.12604E+07         0.00000E+00
    0.12604E+07        -0.29489E+07         0.00000E+00
    0.00000E+00         0.00000E+00         0.00000E+00
 
    0.30827E+07         0.13460E+07         0.00000E+00
    0.13460E+07        -0.29392E+07         0.00000E+00
    0.00000E+00         0.00000E+00         0.00000E+00
 
    0.29975E+07         0.14307E+07         0.00000E+00
    0.14307E+07        -0.29288E+07         0.00000E+00
    0.00000E+00         0.00000E+00         0.00000E+00
 
    0.29125E+07         0.15147E+07         0.00000E+00
    0.15147E+07        -0.29177E+07         0.00000E+00
    0.00000E+00         0.00000E+00         0.00000E+00
 
    0.28276E+07         0.15980E+07         0.00000E+00
    0.15980E+07        -0.29058E+07         0.00000E+00
    0.00000E+00         0.00000E+00         0.00000E+00
 
    0.27429E+07         0.16806E+07         0.00000E+00
    0.16806E+07        -0.28932E+07         0.00000E+00
    0.00000E+00         0.00000E+00         0.00000E+00
 
    0.26583E+07         0.17625E+07         0.00000E+00
    0.17625E+07        -0.28798E+07         0.00000E+00
    0.00000E+00         0.00000E+00         0.00000E+00
 
    0.25737E+07         0.18437E+07         0.00000E+00
    0.18437E+07        -0.28657E+07         0.00000E+00
    0.00000E+00         0.00000E+00         0.00000E+00
 
    0.24893E+07         0.19244E+07         0.00000E+00
    0.19244E+07        -0.28508E+07         0.00000E+00
    0.00000E+00         0.00000E+00         0.00000E+00
 
    0.24049E+07         0.20046E+07         0.00000E+00
    0.20046E+07        -0.28351E+07         0.00000E+00
    0.00000E+00         0.00000E+00         0.00000E+00
 
    0.23206E+07         0.20842E+07         0.00000E+00
    0.20842E+07        -0.28185E+07         0.00000E+00
    0.00000E+00         0.00000E+00         0.00000E+00
 
    0.22363E+07         0.21633E+07         0.00000E+00
    0.21633E+07        -0.28011E+07         0.00000E+00
    0.00000E+00         0.00000E+00         0.00000E+00
 
    0.21520E+07         0.22419E+07         0.00000E+00
    0.22419E+07        -0.27829E+07         0.00000E+00
    0.00000E+00         0.00000E+00         0.00000E+00
 
    0.20677E+07         0.23202E+07         0.00000E+00
    0.23202E+07        -0.27638E+07         0.00000E+00
    0.00000E+00         0.00000E+00         0.00000E+00
 
    0.19833E+07         0.23980E+07         0.00000E+00
    0.23980E+07        -0.27437E+07         0.00000E+00
    0.00000E+00         0.00000E+00         0.00000E+00
 
    0.18989E+07         0.24754E+07         0.00000E+00
    0.24754E+07        -0.27228E+07         0.00000E+00
    0.00000E+00         0.00000E+00         0.00000E+00
 
    0.18143E+07         0.25524E+07         0.00000E+00
    0.25524E+07        -0.27009E+07         0.00000E+00
    0.00000E+00         0.00000E+00         0.00000E+00
 
    0.17296E+07         0.26291E+07         0.00000E+00
    0.26291E+07        -0.26781E+07         0.00000E+00
    0.00000E+00         0.00000E+00         0.00000E+00
 
    0.16447E+07         0.27055E+07         0.00000E+00
    0.27055E+07        -0.26543E+07         0.00000E+00
    0.00000E+00         0.00000E+00         0.00000E+00
 
    0.15596E+07         0.27816E+07         0.00000E+00
    0.27816E+07        -0.26294E+07         0.00000E+00
    0.00000E+00         0.00000E+00         0.00000E+00
 
    0.14743E+07         0.28574E+07         0.00000E+00
    0.28574E+07        -0.26036E+07         0.00000E+00
    0.00000E+00         0.00000E+00         0.00000E+00
 
    0.13887E+07         0.29329E+07         0.00000E+00
    0.29329E+07        -0.25766E+07         0.00000E+00
    0.00000E+00         0.00000E+00         0.00000E+00
 
    0.13028E+07         0.30082E+07         0.00000E+00
    0.30082E+07        -0.25486E+07         0.00000E+00
    0.00000E+00         0.00000E+00         0.00000E+00
 
    0.12166E+07         0.30832E+07         0.00000E+00
    0.30832E+07        -0.25195E+07         0.00000E+00
    0.00000E+00         0.00000E+00         0.00000E+00
 
    0.11300E+07         0.31581E+07         0.00000E+00
    0.31581E+07        -0.24892E+07         0.00000E+00
    0.00000E+00         0.00000E+00         0.00000E+00
 
    0.10430E+07         0.32326E+07         0.00000E+00
    0.32326E+07        -0.24578E+07         0.00000E+00
    0.00000E+00         0.00000E+00         0.00000E+00
 
    0.95552E+06         0.33070E+07         0.00000E+00
    0.33070E+07        -0.24252E+07         0.00000E+00
    0.00000E+00         0.00000E+00         0.00000E+00
 
    0.86756E+06         0.33812E+07         0.00000E+00
    0.33812E+07        -0.23914E+07         0.00000E+00
    0.00000E+00         0.00000E+00         0.00000E+00
 
    0.77908E+06         0.34552E+07         0.00000E+00
    0.34552E+07        -0.23563E+07         0.00000E+00
    0.00000E+00         0.00000E+00         0.00000E+00
 
    0.69003E+06         0.35290E+07         0.00000E+00
    0.35290E+07        -0.23200E+07         0.00000E+00
    0.00000E+00         0.00000E+00         0.00000E+00
 
    0.60036E+06         0.36026E+07         0.00000E+00
    0.36026E+07        -0.22824E+07         0.00000E+00
    0.00000E+00         0.00000E+00         0.00000E+00
 
    0.51005E+06         0.36760E+07         0.00000E+00
    0.36760E+07        -0.22434E+07         0.00000E+00
    0.00000E+00         0.00000E+00         0.00000E+00
 
    0.41905E+06         0.37492E+07         0.00000E+00
    0.37492E+07        -0.22031E+07         0.00000E+00
    0.00000E+00         0.00000E+00         0.00000E+00
 
    0.32732E+06         0.38223E+07         0.00000E+00
    0.38223E+07        -0.21614E+07         0.00000E+00
    0.00000E+00         0.00000E+00         0.00000E+00
 
    0.23482E+06         0.38951E+07         0.00000E+00
    0.38951E+07        -0.21183E+07         0.00000E+00
    0.00000E+00         0.00000E+00         0.00000E+00
 
    0.14149E+06         0.39678E+07         0.00000E+00
    0.39678E+07        -0.20737E+07         0.00000E+00
    0.00000E+00         0.00000E+00         0.00000E+00
 
    0.47311E+05         0.40402E+07         0.00000E+00
    0.40402E+07        -0.20277E+07         0.00000E+00
    0.00000E+00         0.00000E+00         0.00000E+00
 
    0.44277E+07         0.54125E+05         0.00000E+00
    0.54125E+05        -0.33933E+07         0.00000E+00
    0.00000E+00         0.00000E+00         0.00000E+00
 
    0.43327E+07         0.15800E+06         0.00000E+00
    0.15800E+06        -0.33927E+07         0.00000E+00
    0.00000E+00         0.00000E+00         0.00000E+00
 
    0.42381E+07         0.26036E+06         0.00000E+00
    0.26036E+06        -0.33914E+07         0.00000E+00
    0.00000E+00         0.00000E+00         0.00000E+00
 
    0.41439E+07         0.36129E+06         0.00000E+00
    0.36129E+06        -0.33895E+07         0.00000E+00
    0.00000E+00         0.00000E+00         0.00000E+00
 
    0.40501E+07         0.46084E+06         0.00000E+00
    0.46084E+06        -0.33870E+07         0.00000E+00
    0.00000E+00         0.00000E+00         0.00000E+00
 
    0.39568E+07         0.55908E+06         0.00000E+00
    0.55908E+06        -0.33839E+07         0.00000E+00
    0.00000E+00         0.00000E+00         0.00000E+00
 
    0.38639E+07         0.65606E+06         0.00000E+00
    0.65606E+06        -0.33802E+07         0.00000E+00
    0.00000E+00         0.00000E+00         0.00000E+00
 
    0.37714E+07         0.75185E+06         0.00000E+00
    0.75185E+06        -0.33759E+07         0.00000E+00
    0.00000E+00         0.00000E+00         0.00000E+00
 
    0.36794E+07         0.84651E+06         0.00000E+00
    0.84651E+06        -0.33710E+07         0.00000E+00
    0.00000E+00         0.00000E+00         0.00000E+00
 
    0.35879E+07         0.94009E+06         0.00000E+00
    0.94009E+06        -0.33655E+07         0.00000E+00
    0.00000E+00         0.00000E+00         0.00000E+00
 
    0.34967E+07         0.10326E+07         0.00000E+00
    0.10326E+07        -0.33593E+07         0.00000E+00
    0.00000E+00         0.00000E+00         0.00000E+00
 
    0.34061E+07         0.11242E+07         0.00000E+00
    0.11242E+07        -0.33526E+07         0.00000E+00
    0.00000E+00         0.00000E+00         0.00000E+00
 
    0.33158E+07         0.12149E+07         0.00000E+00
    0.12149E+07        -0.33452E+07         0.00000E+00
    0.00000E+00         0.00000E+00         0.00000E+00
 
    0.32260E+07         0.13047E+07         0.00000E+00
    0.13047E+07        -0.33371E+07         0.00000E+00
    0.00000E+00         0.00000E+00         0.00000E+00
 
    0.31365E+07         0.13938E+07         0.00000E+00
    0.13938E+07        -0.33285E+07         0.00000E+00
    0.00000E+00         0.00000E+00         0.00000E+00
 
    0.30475E+07         0.14820E+07         0.00000E+00
    0.14820E+07        -0.33191E+07         0.00000E+00
    0.00000E+00         0.00000E+00         0.00000E+00
 
    0.29589E+07         0.15695E+07         0.00000E+00
    0.15695E+07        -0.33091E+07         0.00000E+00
    0.00000E+00         0.00000E+00         0.00000E+00
 
    0.28706E+07         0.16564E+07         0.00000E+00
    0.16564E+07        -0.32983E+07         0.00000E+00
    0.00000E+00         0.00000E+00         0.00000E+00
 
    0.27826E+07         0.17427E+07         0.00000E+00
    0.17427E+07        -0.32869E+07         0.00000E+00
    0.00000E+00         0.00000E+00         0.00000E+00
 
    0.26950E+07         0.18283E+07         0.00000E+00
    0.18283E+07        -0.32747E+07         0.00000E+00
    0.00000E+00         0.00000E+00         0.00000E+00
 
    0.26077E+07         0.19135E+07         0.00000E+00
    0.19135E+07        -0.32618E+07         0.00000E+00
    0.00000E+00         0.00000E+00         0.00000E+00
 
    0.25206E+07         0.19981E+07         0.00000E+00
    0.19981E+07        -0.32481E+07         0.00000E+00
    0.00000E+00         0.00000E+00         0.00000E+00
 
    0.24337E+07         0.20823E+07         0.00000E+00
    0.20823E+07        -0.32336E+07         0.00000E+00
    0.00000E+00         0.00000E+00         0.00000E+00
 
    0.23471E+07         0.21660E+07         0.00000E+00
    0.21660E+07        -0.32183E+07         0.00000E+00
    0.00000E+00         0.00000E+00         0.00000E+00
 
    0.22607E+07         0.22494E+07         0.00000E+00
    0.22494E+07        -0.32022E+07         0.00000E+00
    0.00000E+00         0.00000E+00         0.00000E+00
 
    0.21744E+07         0.23324E+07         0.00000E+00
    0.23324E+07        -0.31852E+07         0.00000E+00
    0.00000E+00         0.00000E+00         0.00000E+00
 
    0.20882E+07         0.24150E+07         0.00000E+00
    0.24150E+07        -0.31673E+07         0.00000E+00
    0.00000E+00         0.00000E+00         0.00000E+00
 
    0.20021E+07         0.24974E+07         0.00000E+00
    0.24974E+07        -0.31486E+07         0.00000E+00
    0.00000E+00         0.00000E+00         0.00000E+00
 
    0.19161E+07         0.25795E+07         0.00000E+00
    0.25795E+07        -0.31289E+07         0.00000E+00
    0.00000E+00         0.00000E+00         0.00000E+00
 
    0.18301E+07         0.26614E+07         0.00000E+00
    0.26614E+07        -0.31082E+07         0.00000E+00
    0.00000E+00         0.00000E+00         0.00000E+00
 
    0.17440E+07         0.27430E+07         0.00000E+00
    0.27430E+07        -0.30865E+07         0.00000E+00
    0.00000E+00         0.00000E+00         0.00000E+00
 
    0.16579E+07         0.28245E+07         0.00000E+00
    0.28245E+07        -0.30638E+07         0.00000E+00
    0.00000E+00         0.00000E+00         0.00000E+00
 
    0.15717E+07         0.29058E+07         0.00000E+00
    0.29058E+07        -0.30401E+07         0.00000E+00
    0.00000E+00         0.00000E+00         0.00000E+00
 
    0.14853E+07         0.29869E+07         0.00000E+00
    0.29869E+07        -0.30153E+07         0.00000E+00
    0.00000E+00         0.00000E+00         0.00000E+00
 
    0.13988E+07         0.30679E+07         0.00000E+00
    0.30679E+07        -0.29894E+07         0.00000E+00
    0.00000E+00         0.00000E+00         0.00000E+00
 
    0.13120E+07         0.31488E+07         0.00000E+00
    0.31488E+07        -0.29624E+07         0.00000E+00
    0.00000E+00         0.00000E+00         0.00000E+00
 
    0.12249E+07         0.32296E+07         0.00000E+00
    0.32296E+07        -0.29342E+07         0.00000E+00
    0.00000E+00         0.00000E+00         0.00000E+00
 
    0.11375E+07         0.33103E+07         0.00000E+00
    0.33103E+07        -0.29048E+07         0.00000E+00
    0.00000E+00         0.00000E+00         0.00000E+00
 
    0.10498E+07         0.33909E+07         0.00000E+00
    0.33909E+07        -0.28742E+07         0.00000E+00
    0.00000E+00         0.00000E+00         0.00000E+00
 
    0.96167E+06         0.34715E+07         0.00000E+00
    0.34715E+07        -0.28423E+07         0.00000E+00
    0.00000E+00         0.00000E+00         0.00000E+00
 
    0.87308E+06         0.35520E+07         0.00000E+00
    0.35520E+07        -0.28092E+07         0.00000E+00
    0.00000E+00         0.00000E+00         0.00000E+00
 
    0.78399E+06         0.36324E+07         0.00000E+00
    0.36324E+07        -0.27747E+07         0.00000E+00
    0.00000E+00         0.00000E+00         0.00000E+00
 
    0.69436E+06         0.37129E+07         0.00000E+00
    0.37129E+07        -0.27389E+07         0.00000E+00
    0.00000E+00         0.00000E+00         0.00000E+00
 
    0.60414E+06         0.37932E+07         0.00000E+00
    0.37932E+07        -0.27017E+07         0.00000E+00
    0.00000E+00         0.00000E+00         0.00000E+00
 
    0.51328E+06         0.38736E+07         0.00000E+00
    0.38736E+07        -0.26630E+07         0.00000E+00
    0.00000E+00         0.00000E+00         0.00000E+00
 
    0.42172E+06         0.39539E+07         0.00000E+00
    0.39539E+07        -0.26230E+07         0.00000E+00
    0.00000E+00         0.00000E+00         0.00000E+00
 
    0.32943E+06         0.40342E+07         0.00000E+00
    0.40342E+07        -0.25814E+07         0.00000E+00
    0.00000E+00         0.00000E+00         0.00000E+00
 
    0.23635E+06         0.41145E+07         0.00000E+00
    0.41145E+07        -0.25383E+07         0.00000E+00
    0.00000E+00         0.00000E+00         0.00000E+00
 
    0.14244E+06         0.41947E+07         0.00000E+00
    0.41947E+07        -0.24937E+07         0.00000E+00
    0.00000E+00         0.00000E+00         0.00000E+00
 
    0.47631E+05         0.42748E+07         0.00000E+00
    0.42748E+07        -0.24475E+07         0.00000E+00
    0.00000E+00         0.00000E+00         0.00000E+00
 
    0.45366E+07         0.55625E+05         0.00000E+00
    0.55625E+05        -0.38152E+07         0.00000E+00
    0.00000E+00         0.00000E+00         0.00000E+00
 
    0.44339E+07         0.16236E+06         0.00000E+00
    0.16236E+06        -0.38146E+07         0.00000E+00
    0.00000E+00         0.00000E+00         0.00000E+00
 
    0.43318E+07         0.26755E+06         0.00000E+00
    0.26755E+06        -0.38136E+07         0.00000E+00
    0.00000E+00         0.00000E+00         0.00000E+00
 
    0.42305E+07         0.37128E+06         0.00000E+00
    0.37128E+06        -0.38121E+07         0.00000E+00
    0.00000E+00         0.00000E+00         0.00000E+00
 
    0.41300E+07         0.47361E+06         0.00000E+00
    0.47361E+06        -0.38100E+07         0.00000E+00
    0.00000E+00         0.00000E+00         0.00000E+00
 
    0.40302E+07         0.57463E+06         0.00000E+00
    0.57463E+06        -0.38075E+07         0.00000E+00
    0.00000E+00         0.00000E+00         0.00000E+00
 
    0.39313E+07         0.67440E+06         0.00000E+00
    0.67440E+06        -0.38044E+07         0.00000E+00
    0.00000E+00         0.00000E+00         0.00000E+00
 
    0.38330E+07         0.77299E+06         0.00000E+00
    0.77299E+06        -0.38009E+07         0.00000E+00
    0.00000E+00         0.00000E+00         0.00000E+00
 
    0.37355E+07         0.87047E+06         0.00000E+00
    0.87047E+06        -0.37968E+07         0.00000E+00
    0.00000E+00         0.00000E+00         0.00000E+00
 
    0.36388E+07         0.96691E+06         0.00000E+00
    0.96691E+06        -0.37922E+07         0.00000E+00
    0.00000E+00         0.00000E+00         0.00000E+00
 
    0.35428E+07         0.10624E+07         0.00000E+00
    0.10624E+07        -0.37871E+07         0.00000E+00
    0.00000E+00         0.00000E+00         0.00000E+00
 
    0.34476E+07         0.11569E+07         0.00000E+00
    0.11569E+07        -0.37814E+07         0.00000E+00
    0.00000E+00         0.00000E+00         0.00000E+00
 
    0.33531E+07         0.12506E+07         0.00000E+00
    0.12506E+07        -0.37752E+07         0.00000E+00
    0.00000E+00         0.00000E+00         0.00000E+00
 
    0.32592E+07         0.13435E+07         0.00000E+00
    0.13435E+07        -0.37684E+07         0.00000E+00
    0.00000E+00         0.00000E+00         0.00000E+00
 
    0.31661E+07         0.14357E+07         0.00000E+00
    0.14357E+07        -0.37610E+07         0.00000E+00
    0.00000E+00         0.00000E+00         0.00000E+00
 
    0.30736E+07         0.15271E+07         0.00000E+00
    0.15271E+07        -0.37530E+07         0.00000E+00
    0.00000E+00         0.00000E+00         0.00000E+00
 
    0.29817E+07         0.16180E+07         0.00000E+00
    0.16180E+07        -0.37443E+07         0.00000E+00
    0.00000E+00         0.00000E+00         0.00000E+00
 
    0.28904E+07         0.17083E+07         0.00000E+00
    0.17083E+07        -0.37351E+07         0.00000E+00
    0.00000E+00         0.00000E+00         0.00000E+00
 
    0.27997E+07         0.17980E+07         0.00000E+00
    0.17980E+07        -0.37251E+07         0.00000E+00
    0.00000E+00         0.00000E+00         0.00000E+00
 
    0.27095E+07         0.18873E+07         0.00000E+00
    0.18873E+07        -0.37145E+07         0.00000E+00
    0.00000E+00         0.00000E+00         0.00000E+00
 
    0.26198E+07         0.19762E+07         0.00000E+00
    0.19762E+07        -0.37031E+07         0.00000E+00
    0.00000E+00         0.00000E+00         0.00000E+00
 
    0.25307E+07         0.20646E+07         0.00000E+00
    0.20646E+07        -0.36910E+07         0.00000E+00
    0.00000E+00         0.00000E+00         0.00000E+00
 
    0.24419E+07         0.21528E+07         0.00000E+00
    0.21528E+07        -0.36782E+07         0.00000E+00
    0.00000E+00         0.00000E+00         0.00000E+00
 
    0.23536E+07         0.22406E+07         0.00000E+00
    0.22406E+07        -0.36645E+07         0.00000E+00
    0.00000E+00         0.00000E+00         0.00000E+00
 
    0.22656E+07         0.23282E+07         0.00000E+00
    0.23282E+07        -0.36500E+07         0.00000E+00
    0.00000E+00         0.00000E+00         0.00000E+00
 
    0.21779E+07         0.24155E+07         0.00000E+00
    0.24155E+07        -0.36347E+07         0.00000E+00
    0.00000E+00         0.00000E+00         0.00000E+00
 
    0.20905E+07         0.25027E+07         0.00000E+00
    0.25027E+07        -0.36185E+07         0.00000E+00
    0.00000E+00         0.00000E+00         0.00000E+00
 
    0.20034E+07         0.25897E+07         0.00000E+00
    0.25897E+07        -0.36014E+07         0.00000E+00
    0.00000E+00         0.00000E+00         0.00000E+00
 
    0.19164E+07         0.26765E+07         0.00000E+00
    0.26765E+07        -0.35833E+07         0.00000E+00
    0.00000E+00         0.00000E+00         0.00000E+00
 
    0.18296E+07         0.27633E+07         0.00000E+00
    0.27633E+07        -0.35642E+07         0.00000E+00
    0.00000E+00         0.00000E+00         0.00000E+00
 
    0.17429E+07         0.28501E+07         0.00000E+00
    0.28501E+07        -0.35442E+07         0.00000E+00
    0.00000E+00         0.00000E+00         0.00000E+00
 
    0.16563E+07         0.29367E+07         0.00000E+00
    0.29367E+07        -0.35231E+07         0.00000E+00
    0.00000E+00         0.00000E+00         0.00000E+00
 
    0.15696E+07         0.30234E+07         0.00000E+00
    0.30234E+07        -0.35009E+07         0.00000E+00
    0.00000E+00         0.00000E+00         0.00000E+00
 
    0.14829E+07         0.31101E+07         0.00000E+00
    0.31101E+07        -0.34776E+07         0.00000E+00
    0.00000E+00         0.00000E+00         0.00000E+00
 
    0.13962E+07         0.31968E+07         0.00000E+00
    0.31968E+07        -0.34532E+07         0.00000E+00
    0.00000E+00         0.00000E+00         0.00000E+00
 
    0.13092E+07         0.32835E+07         0.00000E+00
    0.32835E+07        -0.34276E+07         0.00000E+00
    0.00000E+00         0.00000E+00         0.00000E+00
 
    0.12221E+07         0.33703E+07         0.00000E+00
    0.33703E+07        -0.34007E+07         0.00000E+00
    0.00000E+00         0.00000E+00         0.00000E+00
 
    0.11348E+07         0.34572E+07         0.00000E+00
    0.34572E+07        -0.33727E+07         0.00000E+00
    0.00000E+00         0.00000E+00         0.00000E+00
 
    0.10471E+07         0.35442E+07         0.00000E+00
    0.35442E+07        -0.33433E+07         0.00000E+00
    0.00000E+00         0.00000E+00         0.00000E+00
 
    0.95910E+06         0.36313E+07         0.00000E+00
    0.36313E+07        -0.33126E+07         0.00000E+00
    0.00000E+00         0.00000E+00         0.00000E+00
 
    0.87068E+06         0.37185E+07         0.00000E+00
    0.37185E+07        -0.32806E+07         0.00000E+00
    0.00000E+00         0.00000E+00         0.00000E+00
 
    0.78180E+06         0.38059E+07         0.00000E+00
    0.38059E+07        -0.32471E+07         0.00000E+00
    0.00000E+00         0.00000E+00         0.00000E+00
 
    0.69241E+06         0.38934E+07         0.00000E+00
    0.38934E+07        -0.32122E+07         0.00000E+00
    0.00000E+00         0.00000E+00         0.00000E+00
 
    0.60245E+06         0.39810E+07         0.00000E+00
    0.39810E+07        -0.31759E+07         0.00000E+00
    0.00000E+00         0.00000E+00         0.00000E+00
 
    0.51186E+06         0.40687E+07         0.00000E+00
    0.40687E+07        -0.31380E+07         0.00000E+00
    0.00000E+00         0.00000E+00         0.00000E+00
 
    0.42059E+06         0.41566E+07         0.00000E+00
    0.41566E+07        -0.30986E+07         0.00000E+00
    0.00000E+00         0.00000E+00         0.00000E+00
 
    0.32858E+06         0.42447E+07         0.00000E+00
    0.42447E+07        -0.30576E+07         0.00000E+00
    0.00000E+00         0.00000E+00         0.00000E+00
 
    0.23577E+06         0.43329E+07         0.00000E+00
    0.43329E+07        -0.30150E+07         0.00000E+00
    0.00000E+00         0.00000E+00         0.00000E+00
 
    0.14210E+06         0.44212E+07         0.00000E+00
    0.44212E+07        -0.29707E+07         0.00000E+00
    0.00000E+00         0.00000E+00         0.00000E+00
 
    0.47525E+05         0.45097E+07         0.00000E+00
    0.45097E+07        -0.29247E+07         0.00000E+00
    0.00000E+00         0.00000E+00         0.00000E+00
 
    0.46144E+07         0.56785E+05         0.00000E+00
    0.56785E+05        -0.42811E+07         0.00000E+00
    0.00000E+00         0.00000E+00         0.00000E+00
 
    0.45037E+07         0.16574E+06         0.00000E+00
    0.16574E+06        -0.42807E+07         0.00000E+00
    0.00000E+00         0.00000E+00         0.00000E+00
 
    0.43941E+07         0.27313E+06         0.00000E+00
    0.27313E+06        -0.42800E+07         0.00000E+00
    0.00000E+00         0.00000E+00         0.00000E+00
 
    0.42856E+07         0.37905E+06         0.00000E+00
    0.37905E+06        -0.42789E+07         0.00000E+00
    0.00000E+00         0.00000E+00         0.00000E+00
 
    0.41783E+07         0.48358E+06         0.00000E+00
    0.48358E+06        -0.42774E+07         0.00000E+00
    0.00000E+00         0.00000E+00         0.00000E+00
 
    0.40722E+07         0.58681E+06         0.00000E+00
    0.58681E+06        -0.42755E+07         0.00000E+00
    0.00000E+00         0.00000E+00         0.00000E+00
 
    0.39672E+07         0.68881E+06         0.00000E+00
    0.68881E+06        -0.42733E+07         0.00000E+00
    0.00000E+00         0.00000E+00         0.00000E+00
 
    0.38634E+07         0.78968E+06         0.00000E+00
    0.78968E+06        -0.42707E+07         0.00000E+00
    0.00000E+00         0.00000E+00         0.00000E+00
 
    0.37606E+07         0.88948E+06         0.00000E+00
    0.88948E+06        -0.42677E+07         0.00000E+00
    0.00000E+00         0.00000E+00         0.00000E+00
 
    0.36590E+07         0.98830E+06         0.00000E+00
    0.98830E+06        -0.42642E+07         0.00000E+00
    0.00000E+00         0.00000E+00         0.00000E+00
 
    0.35585E+07         0.10862E+07         0.00000E+00
    0.10862E+07        -0.42604E+07         0.00000E+00
    0.00000E+00         0.00000E+00         0.00000E+00
 
    0.34590E+07         0.11833E+07         0.00000E+00
    0.11833E+07        -0.42560E+07         0.00000E+00
    0.00000E+00         0.00000E+00         0.00000E+00
 
    0.33605E+07         0.12796E+07         0.00000E+00
    0.12796E+07        -0.42513E+07         0.00000E+00
    0.00000E+00         0.00000E+00         0.00000E+00
 
    0.32631E+07         0.13752E+07         0.00000E+00
    0.13752E+07        -0.42460E+07         0.00000E+00
    0.00000E+00         0.00000E+00         0.00000E+00
 
    0.31667E+07         0.14701E+07         0.00000E+00
    0.14701E+07        -0.42402E+07         0.00000E+00
    0.00000E+00         0.00000E+00         0.00000E+00
 
    0.30711E+07         0.15645E+07         0.00000E+00
    0.15645E+07        -0.42339E+07         0.00000E+00
    0.00000E+00         0.00000E+00         0.00000E+00
 
    0.29765E+07         0.16584E+07         0.00000E+00
    0.16584E+07        -0.42271E+07         0.00000E+00
    0.00000E+00         0.00000E+00         0.00000E+00
 
    0.28828E+07         0.17518E+07         0.00000E+00
    0.17518E+07        -0.42196E+07         0.00000E+00
    0.00000E+00         0.00000E+00         0.00000E+00
 
    0.27899E+07         0.18448E+07         0.00000E+00
    0.18448E+07        -0.42115E+07         0.00000E+00
    0.00000E+00         0.00000E+00         0.00000E+00
 
    0.26978E+07         0.19375E+07         0.00000E+00
    0.19375E+07        -0.42028E+07         0.00000E+00
    0.00000E+00         0.00000E+00         0.00000E+00
 
    0.26065E+07         0.20299E+07         0.00000E+00
    0.20299E+07        -0.41935E+07         0.00000E+00
    0.00000E+00         0.00000E+00         0.00000E+00
 
    0.25159E+07         0.21221E+07         0.00000E+00
    0.21221E+07        -0.41834E+07         0.00000E+00
    0.00000E+00         0.00000E+00         0.00000E+00
 
    0.24259E+07         0.22141E+07         0.00000E+00
    0.22141E+07        -0.41726E+07         0.00000E+00
    0.00000E+00         0.00000E+00         0.00000E+00
 
    0.23365E+07         0.23059E+07         0.00000E+00
    0.23059E+07        -0.41610E+07         0.00000E+00
    0.00000E+00         0.00000E+00         0.00000E+00
 
    0.22477E+07         0.23976E+07         0.00000E+00
    0.23976E+07        -0.41486E+07         0.00000E+00
    0.00000E+00         0.00000E+00         0.00000E+00
 
    0.21594E+07         0.24893E+07         0.00000E+00
    0.24893E+07        -0.41354E+07         0.00000E+00
    0.00000E+00         0.00000E+00         0.00000E+00
 
    0.20716E+07         0.25809E+07         0.00000E+00
    0.25809E+07        -0.41213E+07         0.00000E+00
    0.00000E+00         0.00000E+00         0.00000E+00
 
    0.19842E+07         0.26726E+07         0.00000E+00
    0.26726E+07        -0.41063E+07         0.00000E+00
    0.00000E+00         0.00000E+00         0.00000E+00
 
    0.18971E+07         0.27643E+07         0.00000E+00
    0.27643E+07        -0.40903E+07         0.00000E+00
    0.00000E+00         0.00000E+00         0.00000E+00
 
    0.18103E+07         0.28561E+07         0.00000E+00
    0.28561E+07        -0.40733E+07         0.00000E+00
    0.00000E+00         0.00000E+00         0.00000E+00
 
    0.17238E+07         0.29480E+07         0.00000E+00
    0.29480E+07        -0.40554E+07         0.00000E+00
    0.00000E+00         0.00000E+00         0.00000E+00
 
    0.16375E+07         0.30400E+07         0.00000E+00
    0.30400E+07        -0.40363E+07         0.00000E+00
    0.00000E+00         0.00000E+00         0.00000E+00
 
    0.15513E+07         0.31322E+07         0.00000E+00
    0.31322E+07        -0.40162E+07         0.00000E+00
    0.00000E+00         0.00000E+00         0.00000E+00
 
    0.14651E+07         0.32246E+07         0.00000E+00
    0.32246E+07        -0.39949E+07         0.00000E+00
    0.00000E+00         0.00000E+00         0.00000E+00
 
    0.13790E+07         0.33172E+07         0.00000E+00
    0.33172E+07        -0.39724E+07         0.00000E+00
    0.00000E+00         0.00000E+00         0.00000E+00
 
    0.12928E+07         0.34101E+07         0.00000E+00
    0.34101E+07        -0.39487E+07         0.00000E+00
    0.00000E+00         0.00000E+00         0.00000E+00
 
    0.12066E+07         0.35032E+07         0.00000E+00
    0.35032E+07        -0.39237E+07         0.00000E+00
    0.00000E+00         0.00000E+00         0.00000E+00
 
    0.11201E+07         0.35966E+07         0.00000E+00
    0.35966E+07        -0.38974E+07         0.00000E+00
    0.00000E+00         0.00000E+00         0.00000E+00
 
    0.10334E+07         0.36903E+07         0.00000E+00
    0.36903E+07        -0.38698E+07         0.00000E+00
    0.00000E+00         0.00000E+00         0.00000E+00
 
    0.94648E+06         0.37842E+07         0.00000E+00
    0.37842E+07        -0.38408E+07         0.00000E+00
    0.00000E+00         0.00000E+00         0.00000E+00
 
    0.85916E+06         0.38785E+07         0.00000E+00
    0.38785E+07        -0.38104E+07         0.00000E+00
    0.00000E+00         0.00000E+00         0.00000E+00
 
    0.77143E+06         0.39732E+07         0.00000E+00
    0.39732E+07        -0.37784E+07         0.00000E+00
    0.00000E+00         0.00000E+00         0.00000E+00
 
    0.68322E+06         0.40681E+07         0.00000E+00
    0.40681E+07        -0.37450E+07         0.00000E+00
    0.00000E+00         0.00000E+00         0.00000E+00
 
    0.59446E+06         0.41634E+07         0.00000E+00
    0.41634E+07        -0.37100E+07         0.00000E+00
    0.00000E+00         0.00000E+00         0.00000E+00
 
    0.50510E+06         0.42591E+07         0.00000E+00
    0.42591E+07        -0.36734E+07         0.00000E+00
    0.00000E+00         0.00000E+00         0.00000E+00
 
    0.41507E+06         0.43551E+07         0.00000E+00
    0.43551E+07        -0.36352E+07         0.00000E+00
    0.00000E+00         0.00000E+00         0.00000E+00
 
    0.32430E+06         0.44514E+07         0.00000E+00
    0.44514E+07        -0.35952E+07         0.00000E+00
    0.00000E+00         0.00000E+00         0.00000E+00
 
    0.23274E+06         0.45481E+07         0.00000E+00
    0.45481E+07        -0.35536E+07         0.00000E+00
    0.00000E+00         0.00000E+00         0.00000E+00
 
    0.14030E+06         0.46452E+07         0.00000E+00
    0.46452E+07        -0.35101E+07         0.00000E+00
    0.00000E+00         0.00000E+00         0.00000E+00
 
    0.46927E+05         0.47426E+07         0.00000E+00
    0.47426E+07        -0.34648E+07         0.00000E+00
    0.00000E+00         0.00000E+00         0.00000E+00
 
    0.46541E+07         0.57521E+05         0.00000E+00
    0.57521E+05        -0.47943E+07         0.00000E+00
    0.00000E+00         0.00000E+00         0.00000E+00
 
    0.45353E+07         0.16789E+06         0.00000E+00
    0.16789E+06        -0.47941E+07         0.00000E+00
    0.00000E+00         0.00000E+00         0.00000E+00
 
    0.44182E+07         0.27671E+06         0.00000E+00
    0.27671E+06        -0.47937E+07         0.00000E+00
    0.00000E+00         0.00000E+00         0.00000E+00
 
    0.43026E+07         0.38406E+06         0.00000E+00
    0.38406E+06        -0.47931E+07         0.00000E+00
    0.00000E+00         0.00000E+00         0.00000E+00
 
    0.41887E+07         0.49005E+06         0.00000E+00
    0.49005E+06        -0.47924E+07         0.00000E+00
    0.00000E+00         0.00000E+00         0.00000E+00
 
    0.40764E+07         0.59478E+06         0.00000E+00
    0.59478E+06        -0.47914E+07         0.00000E+00
    0.00000E+00         0.00000E+00         0.00000E+00
 
    0.39656E+07         0.69835E+06         0.00000E+00
    0.69835E+06        -0.47901E+07         0.00000E+00
    0.00000E+00         0.00000E+00         0.00000E+00
 
    0.38564E+07         0.80084E+06         0.00000E+00
    0.80084E+06        -0.47886E+07         0.00000E+00
    0.00000E+00         0.00000E+00         0.00000E+00
 
    0.37487E+07         0.90234E+06         0.00000E+00
    0.90234E+06        -0.47869E+07         0.00000E+00
    0.00000E+00         0.00000E+00         0.00000E+00
 
    0.36426E+07         0.10029E+07         0.00000E+00
    0.10029E+07        -0.47849E+07         0.00000E+00
    0.00000E+00         0.00000E+00         0.00000E+00
 
    0.35379E+07         0.11027E+07         0.00000E+00
    0.11027E+07        -0.47826E+07         0.00000E+00
    0.00000E+00         0.00000E+00         0.00000E+00
 
    0.34347E+07         0.12018E+07         0.00000E+00
    0.12018E+07        -0.47800E+07         0.00000E+00
    0.00000E+00         0.00000E+00         0.00000E+00
 
    0.33329E+07         0.13002E+07         0.00000E+00
    0.13002E+07        -0.47770E+07         0.00000E+00
    0.00000E+00         0.00000E+00         0.00000E+00
 
    0.32324E+07         0.13980E+07         0.00000E+00
    0.13980E+07        -0.47736E+07         0.00000E+00
    0.00000E+00         0.00000E+00         0.00000E+00
 
    0.31333E+07         0.14954E+07         0.00000E+00
    0.14954E+07        -0.47698E+07         0.00000E+00
    0.00000E+00         0.00000E+00         0.00000E+00
 
    0.30354E+07         0.15923E+07         0.00000E+00
    0.15923E+07        -0.47656E+07         0.00000E+00
    0.00000E+00         0.00000E+00         0.00000E+00
 
    0.29388E+07         0.16888E+07         0.00000E+00
    0.16888E+07        -0.47609E+07         0.00000E+00
    0.00000E+00         0.00000E+00         0.00000E+00
 
    0.28433E+07         0.17850E+07         0.00000E+00
    0.17850E+07        -0.47557E+07         0.00000E+00
    0.00000E+00         0.00000E+00         0.00000E+00
 
    0.27490E+07         0.18810E+07         0.00000E+00
    0.18810E+07        -0.47500E+07         0.00000E+00
    0.00000E+00         0.00000E+00         0.00000E+00
 
    0.26557E+07         0.19769E+07         0.00000E+00
    0.19769E+07        -0.47437E+07         0.00000E+00
    0.00000E+00         0.00000E+00         0.00000E+00
 
    0.25635E+07         0.20726E+07         0.00000E+00
    0.20726E+07        -0.47367E+07         0.00000E+00
    0.00000E+00         0.00000E+00         0.00000E+00
 
    0.24722E+07         0.21682E+07         0.00000E+00
    0.21682E+07        -0.47291E+07         0.00000E+00
    0.00000E+00         0.00000E+00         0.00000E+00
 
    0.23819E+07         0.22639E+07         0.00000E+00
    0.22639E+07        -0.47209E+07         0.00000E+00
    0.00000E+00         0.00000E+00         0.00000E+00
 
    0.22923E+07         0.23596E+07         0.00000E+00
    0.23596E+07        -0.47118E+07         0.00000E+00
    0.00000E+00         0.00000E+00         0.00000E+00
 
    0.22036E+07         0.24553E+07         0.00000E+00
    0.24553E+07        -0.47020E+07         0.00000E+00
    0.00000E+00         0.00000E+00         0.00000E+00
 
    0.21156E+07         0.25513E+07         0.00000E+00
    0.25513E+07        -0.46914E+07         0.00000E+00
    0.00000E+00         0.00000E+00         0.00000E+00
 
    0.20282E+07         0.26473E+07         0.00000E+00
    0.26473E+07        -0.46799E+07         0.00000E+00
    0.00000E+00         0.00000E+00         0.00000E+00
 
    0.19415E+07         0.27436E+07         0.00000E+00
    0.27436E+07        -0.46675E+07         0.00000E+00
    0.00000E+00         0.00000E+00         0.00000E+00
 
    0.18552E+07         0.28402E+07         0.00000E+00
    0.28402E+07        -0.46542E+07         0.00000E+00
    0.00000E+00         0.00000E+00         0.00000E+00
 
    0.17694E+07         0.29370E+07         0.00000E+00
    0.29370E+07        -0.46399E+07         0.00000E+00
    0.00000E+00         0.00000E+00         0.00000E+00
 
    0.16841E+07         0.30342E+07         0.00000E+00
    0.30342E+07        -0.46245E+07         0.00000E+00
    0.00000E+00         0.00000E+00         0.00000E+00
 
    0.15990E+07         0.31317E+07         0.00000E+00
    0.31317E+07        -0.46080E+07         0.00000E+00
    0.00000E+00         0.00000E+00         0.00000E+00
 
    0.15143E+07         0.32296E+07         0.00000E+00
    0.32296E+07        -0.45904E+07         0.00000E+00
    0.00000E+00         0.00000E+00         0.00000E+00
 
    0.14297E+07         0.33279E+07         0.00000E+00
    0.33279E+07        -0.45717E+07         0.00000E+00
    0.00000E+00         0.00000E+00         0.00000E+00
 
    0.13452E+07         0.34267E+07         0.00000E+00
    0.34267E+07        -0.45517E+07         0.00000E+00
    0.00000E+00         0.00000E+00         0.00000E+00
 
    0.12608E+07         0.35259E+07         0.00000E+00
    0.35259E+07        -0.45304E+07         0.00000E+00
    0.00000E+00         0.00000E+00         0.00000E+00
 
    0.11764E+07         0.36255E+07         0.00000E+00
    0.36255E+07        -0.45079E+07         0.00000E+00
    0.00000E+00         0.00000E+00         0.00000E+00
 
    0.10919E+07         0.37257E+07         0.00000E+00
    0.37257E+07        -0.44840E+07         0.00000E+00
    0.00000E+00         0.00000E+00         0.00000E+00
 
    0.10073E+07         0.38264E+07         0.00000E+00
    0.38264E+07        -0.44586E+07         0.00000E+00
    0.00000E+00         0.00000E+00         0.00000E+00
 
    0.92242E+06         0.39276E+07         0.00000E+00
    0.39276E+07        -0.44318E+07         0.00000E+00
    0.00000E+00         0.00000E+00         0.00000E+00
 
    0.83727E+06         0.40293E+07         0.00000E+00
    0.40293E+07        -0.44035E+07         0.00000E+00
    0.00000E+00         0.00000E+00         0.00000E+00
 
    0.75175E+06         0.41316E+07         0.00000E+00
    0.41316E+07        -0.43737E+07         0.00000E+00
    0.00000E+00         0.00000E+00         0.00000E+00
 
    0.66579E+06         0.42345E+07         0.00000E+00
    0.42345E+07        -0.43423E+07         0.00000E+00
    0.00000E+00         0.00000E+00         0.00000E+00
 
    0.57933E+06         0.43379E+07         0.00000E+00
    0.43379E+07        -0.43092E+07         0.00000E+00
    0.00000E+00         0.00000E+00         0.00000E+00
 
    0.49228E+06         0.44420E+07         0.00000E+00
    0.44420E+07        -0.42744E+07         0.00000E+00
    0.00000E+00         0.00000E+00         0.00000E+00
 
    0.40458E+06         0.45465E+07         0.00000E+00
    0.45465E+07        -0.42379E+07         0.00000E+00
    0.00000E+00         0.00000E+00         0.00000E+00
 
    0.31616E+06         0.46517E+07         0.00000E+00
    0.46517E+07        -0.41995E+07         0.00000E+00
    0.00000E+00         0.00000E+00         0.00000E+00
 
    0.22693E+06         0.47575E+07         0.00000E+00
    0.47575E+07        -0.41594E+07         0.00000E+00
    0.00000E+00         0.00000E+00         0.00000E+00
 
    0.13683E+06         0.48638E+07         0.00000E+00
    0.48638E+07        -0.41173E+07         0.00000E+00
    0.00000E+00         0.00000E+00         0.00000E+00
 
    0.45773E+05         0.49708E+07         0.00000E+00
    0.49708E+07        -0.40733E+07         0.00000E+00
    0.00000E+00         0.00000E+00         0.00000E+00
 
    0.46482E+07         0.57733E+05         0.00000E+00
    0.57733E+05        -0.53579E+07         0.00000E+00
    0.00000E+00         0.00000E+00         0.00000E+00
 
    0.45214E+07         0.16854E+06         0.00000E+00
    0.16854E+06        -0.53579E+07         0.00000E+00
    0.00000E+00         0.00000E+00         0.00000E+00
 
    0.43967E+07         0.27782E+06         0.00000E+00
    0.27782E+06        -0.53580E+07         0.00000E+00
    0.00000E+00         0.00000E+00         0.00000E+00
 
    0.42743E+07         0.38568E+06         0.00000E+00
    0.38568E+06        -0.53581E+07         0.00000E+00
    0.00000E+00         0.00000E+00         0.00000E+00
 
    0.41539E+07         0.49224E+06         0.00000E+00
    0.49224E+06        -0.53581E+07         0.00000E+00
    0.00000E+00         0.00000E+00         0.00000E+00
 
    0.40357E+07         0.59761E+06         0.00000E+00
    0.59761E+06        -0.53582E+07         0.00000E+00
    0.00000E+00         0.00000E+00         0.00000E+00
 
    0.39196E+07         0.70190E+06         0.00000E+00
    0.70190E+06        -0.53582E+07         0.00000E+00
    0.00000E+00         0.00000E+00         0.00000E+00
 
    0.38055E+07         0.80521E+06         0.00000E+00
    0.80521E+06        -0.53581E+07         0.00000E+00
    0.00000E+00         0.00000E+00         0.00000E+00
 
    0.36934E+07         0.90765E+06         0.00000E+00
    0.90765E+06        -0.53579E+07         0.00000E+00
    0.00000E+00         0.00000E+00         0.00000E+00
 
    0.35833E+07         0.10093E+07         0.00000E+00
    0.10093E+07        -0.53577E+07         0.00000E+00
    0.00000E+00         0.00000E+00         0.00000E+00
 
    0.34751E+07         0.11103E+07         0.00000E+00
    0.11103E+07        -0.53572E+07         0.00000E+00
    0.00000E+00         0.00000E+00         0.00000E+00
 
    0.33687E+07         0.12107E+07         0.00000E+00
    0.12107E+07        -0.53567E+07         0.00000E+00
    0.00000E+00         0.00000E+00         0.00000E+00
 
    0.32642E+07         0.13106E+07         0.00000E+00
    0.13106E+07        -0.53558E+07         0.00000E+00
    0.00000E+00         0.00000E+00         0.00000E+00
 
    0.31615E+07         0.14101E+07         0.00000E+00
    0.14101E+07        -0.53548E+07         0.00000E+00
    0.00000E+00         0.00000E+00         0.00000E+00
 
    0.30604E+07         0.15093E+07         0.00000E+00
    0.15093E+07        -0.53534E+07         0.00000E+00
    0.00000E+00         0.00000E+00         0.00000E+00
 
    0.29610E+07         0.16082E+07         0.00000E+00
    0.16082E+07        -0.53517E+07         0.00000E+00
    0.00000E+00         0.00000E+00         0.00000E+00
 
    0.28632E+07         0.17070E+07         0.00000E+00
    0.17070E+07        -0.53497E+07         0.00000E+00
    0.00000E+00         0.00000E+00         0.00000E+00
 
    0.27669E+07         0.18056E+07         0.00000E+00
    0.18056E+07        -0.53472E+07         0.00000E+00
    0.00000E+00         0.00000E+00         0.00000E+00
 
    0.26721E+07         0.19042E+07         0.00000E+00
    0.19042E+07        -0.53443E+07         0.00000E+00
    0.00000E+00         0.00000E+00         0.00000E+00
 
    0.25786E+07         0.20029E+07         0.00000E+00
    0.20029E+07        -0.53409E+07         0.00000E+00
    0.00000E+00         0.00000E+00         0.00000E+00
 
    0.24865E+07         0.21016E+07         0.00000E+00
    0.21016E+07        -0.53369E+07         0.00000E+00
    0.00000E+00         0.00000E+00         0.00000E+00
 
    0.23956E+07         0.22005E+07         0.00000E+00
    0.22005E+07        -0.53323E+07         0.00000E+00
    0.00000E+00         0.00000E+00         0.00000E+00
 
    0.23058E+07         0.22996E+07         0.00000E+00
    0.22996E+07        -0.53271E+07         0.00000E+00
    0.00000E+00         0.00000E+00         0.00000E+00
 
    0.22172E+07         0.23990E+07         0.00000E+00
    0.23990E+07        -0.53212E+07         0.00000E+00
    0.00000E+00         0.00000E+00         0.00000E+00
 
    0.21296E+07         0.24987E+07         0.00000E+00
    0.24987E+07        -0.53145E+07         0.00000E+00
    0.00000E+00         0.00000E+00         0.00000E+00
 
    0.20429E+07         0.25988E+07         0.00000E+00
    0.25988E+07        -0.53071E+07         0.00000E+00
    0.00000E+00         0.00000E+00         0.00000E+00
 
    0.19571E+07         0.26992E+07         0.00000E+00
    0.26992E+07        -0.52988E+07         0.00000E+00
    0.00000E+00         0.00000E+00         0.00000E+00
 
    0.18721E+07         0.28002E+07         0.00000E+00
    0.28002E+07        -0.52896E+07         0.00000E+00
    0.00000E+00         0.00000E+00         0.00000E+00
 
    0.17878E+07         0.29016E+07         0.00000E+00
    0.29016E+07        -0.52794E+07         0.00000E+00
    0.00000E+00         0.00000E+00         0.00000E+00
 
    0.17041E+07         0.30035E+07         0.00000E+00
    0.30035E+07        -0.52683E+07         0.00000E+00
    0.00000E+00         0.00000E+00         0.00000E+00
 
    0.16210E+07         0.31060E+07         0.00000E+00
    0.31060E+07        -0.52561E+07         0.00000E+00
    0.00000E+00         0.00000E+00         0.00000E+00
 
    0.15384E+07         0.32091E+07         0.00000E+00
    0.32091E+07        -0.52428E+07         0.00000E+00
    0.00000E+00         0.00000E+00         0.00000E+00
 
    0.14562E+07         0.33129E+07         0.00000E+00
    0.33129E+07        -0.52284E+07         0.00000E+00
    0.00000E+00         0.00000E+00         0.00000E+00
 
    0.13743E+07         0.34172E+07         0.00000E+00
    0.34172E+07        -0.52128E+07         0.00000E+00
    0.00000E+00         0.00000E+00         0.00000E+00
 
    0.12927E+07         0.35223E+07         0.00000E+00
    0.35223E+07        -0.51959E+07         0.00000E+00
    0.00000E+00         0.00000E+00         0.00000E+00
 
    0.12113E+07         0.36280E+07         0.00000E+00
    0.36280E+07        -0.51777E+07         0.00000E+00
    0.00000E+00         0.00000E+00         0.00000E+00
 
    0.11299E+07         0.37345E+07         0.00000E+00
    0.37345E+07        -0.51581E+07         0.00000E+00
    0.00000E+00         0.00000E+00         0.00000E+00
 
    0.10485E+07         0.38418E+07         0.00000E+00
    0.38418E+07        -0.51371E+07         0.00000E+00
    0.00000E+00         0.00000E+00         0.00000E+00
 
    0.96712E+06         0.39498E+07         0.00000E+00
    0.39498E+07        -0.51147E+07         0.00000E+00
    0.00000E+00         0.00000E+00         0.00000E+00
 
    0.88555E+06         0.40585E+07         0.00000E+00
    0.40585E+07        -0.50907E+07         0.00000E+00
    0.00000E+00         0.00000E+00         0.00000E+00
 
    0.80375E+06         0.41681E+07         0.00000E+00
    0.41681E+07        -0.50652E+07         0.00000E+00
    0.00000E+00         0.00000E+00         0.00000E+00
 
    0.72164E+06         0.42785E+07         0.00000E+00
    0.42785E+07        -0.50380E+07         0.00000E+00
    0.00000E+00         0.00000E+00         0.00000E+00
 
    0.63915E+06         0.43896E+07         0.00000E+00
    0.43896E+07        -0.50092E+07         0.00000E+00
    0.00000E+00         0.00000E+00         0.00000E+00
 
    0.55618E+06         0.45016E+07         0.00000E+00
    0.45016E+07        -0.49786E+07         0.00000E+00
    0.00000E+00         0.00000E+00         0.00000E+00
 
    0.47267E+06         0.46145E+07         0.00000E+00
    0.46145E+07        -0.49463E+07         0.00000E+00
    0.00000E+00         0.00000E+00         0.00000E+00
 
    0.38852E+06         0.47282E+07         0.00000E+00
    0.47282E+07        -0.49121E+07         0.00000E+00
    0.00000E+00         0.00000E+00         0.00000E+00
 
    0.30367E+06         0.48427E+07         0.00000E+00
    0.48427E+07        -0.48760E+07         0.00000E+00
    0.00000E+00         0.00000E+00         0.00000E+00
 
    0.21801E+06         0.49581E+07         0.00000E+00
    0.49581E+07        -0.48379E+07         0.00000E+00
    0.00000E+00         0.00000E+00         0.00000E+00
 
    0.13148E+06         0.50743E+07         0.00000E+00
    0.50743E+07        -0.47979E+07         0.00000E+00
    0.00000E+00         0.00000E+00         0.00000E+00
 
    0.43994E+05         0.51913E+07         0.00000E+00
    0.51913E+07        -0.47558E+07         0.00000E+00
    0.00000E+00         0.00000E+00         0.00000E+00
 
    0.45879E+07         0.57302E+05         0.00000E+00
    0.57302E+05        -0.59750E+07         0.00000E+00
    0.00000E+00         0.00000E+00         0.00000E+00
 
    0.44533E+07         0.16735E+06         0.00000E+00
    0.16735E+06        -0.59753E+07         0.00000E+00
    0.00000E+00         0.00000E+00         0.00000E+00
 
    0.43214E+07         0.27592E+06         0.00000E+00
    0.27592E+06        -0.59759E+07         0.00000E+00
    0.00000E+00         0.00000E+00         0.00000E+00
 
    0.41924E+07         0.38316E+06         0.00000E+00
    0.38316E+06        -0.59768E+07         0.00000E+00
    0.00000E+00         0.00000E+00         0.00000E+00
 
    0.40661E+07         0.48919E+06         0.00000E+00
    0.48919E+06        -0.59779E+07         0.00000E+00
    0.00000E+00         0.00000E+00         0.00000E+00
 
    0.39424E+07         0.59415E+06         0.00000E+00
    0.59415E+06        -0.59792E+07         0.00000E+00
    0.00000E+00         0.00000E+00         0.00000E+00
 
    0.38215E+07         0.69816E+06         0.00000E+00
    0.69816E+06        -0.59806E+07         0.00000E+00
    0.00000E+00         0.00000E+00         0.00000E+00
 
    0.37031E+07         0.80134E+06         0.00000E+00
    0.80134E+06        -0.59823E+07         0.00000E+00
    0.00000E+00         0.00000E+00         0.00000E+00
 
    0.35873E+07         0.90381E+06         0.00000E+00
    0.90381E+06        -0.59840E+07         0.00000E+00
    0.00000E+00         0.00000E+00         0.00000E+00
 
    0.34740E+07         0.10057E+07         0.00000E+00
    0.10057E+07        -0.59859E+07         0.00000E+00
    0.00000E+00         0.00000E+00         0.00000E+00
 
    0.33631E+07         0.11070E+07         0.00000E+00
    0.11070E+07        -0.59877E+07         0.00000E+00
    0.00000E+00         0.00000E+00         0.00000E+00
 
    0.32546E+07         0.12080E+07         0.00000E+00
    0.12080E+07        -0.59896E+07         0.00000E+00
    0.00000E+00         0.00000E+00         0.00000E+00
 
    0.31483E+07         0.13087E+07         0.00000E+00
    0.13087E+07        -0.59914E+07         0.00000E+00
    0.00000E+00         0.00000E+00         0.00000E+00
 
    0.30443E+07         0.14092E+07         0.00000E+00
    0.14092E+07        -0.59931E+07         0.00000E+00
    0.00000E+00         0.00000E+00         0.00000E+00
 
    0.29423E+07         0.15096E+07         0.00000E+00
    0.15096E+07        -0.59947E+07         0.00000E+00
    0.00000E+00         0.00000E+00         0.00000E+00
 
    0.28424E+07         0.16100E+07         0.00000E+00
    0.16100E+07        -0.59961E+07         0.00000E+00
    0.00000E+00         0.00000E+00         0.00000E+00
 
    0.27445E+07         0.17104E+07         0.00000E+00
    0.17104E+07        -0.59972E+07         0.00000E+00
    0.00000E+00         0.00000E+00         0.00000E+00
 
    0.26485E+07         0.18110E+07         0.00000E+00
    0.18110E+07        -0.59980E+07         0.00000E+00
    0.00000E+00         0.00000E+00         0.00000E+00
 
    0.25543E+07         0.19118E+07         0.00000E+00
    0.19118E+07        -0.59984E+07         0.00000E+00
    0.00000E+00         0.00000E+00         0.00000E+00
 
    0.24618E+07         0.20128E+07         0.00000E+00
    0.20128E+07        -0.59985E+07         0.00000E+00
    0.00000E+00         0.00000E+00         0.00000E+00
 
    0.23709E+07         0.21143E+07         0.00000E+00
    0.21143E+07        -0.59980E+07         0.00000E+00
    0.00000E+00         0.00000E+00         0.00000E+00
 
    0.22815E+07         0.22161E+07         0.00000E+00
    0.22161E+07        -0.59970E+07         0.00000E+00
    0.00000E+00         0.00000E+00         0.00000E+00
 
    0.21937E+07         0.23185E+07         0.00000E+00
    0.23185E+07        -0.59955E+07         0.00000E+00
    0.00000E+00         0.00000E+00         0.00000E+00
 
    0.21071E+07         0.24213E+07         0.00000E+00
    0.24213E+07        -0.59933E+07         0.00000E+00
    0.00000E+00         0.00000E+00         0.00000E+00
 
    0.20219E+07         0.25248E+07         0.00000E+00
    0.25248E+07        -0.59904E+07         0.00000E+00
    0.00000E+00         0.00000E+00         0.00000E+00
 
    0.19378E+07         0.26289E+07         0.00000E+00
    0.26289E+07        -0.59867E+07         0.00000E+00
    0.00000E+00         0.00000E+00         0.00000E+00
 
    0.18548E+07         0.27336E+07         0.00000E+00
    0.27336E+07        -0.59822E+07         0.00000E+00
    0.00000E+00         0.00000E+00         0.00000E+00
 
    0.17728E+07         0.28391E+07         0.00000E+00
    0.28391E+07        -0.59769E+07         0.00000E+00
    0.00000E+00         0.00000E+00         0.00000E+00
 
    0.16918E+07         0.29454E+07         0.00000E+00
    0.29454E+07        -0.59705E+07         0.00000E+00
    0.00000E+00         0.00000E+00         0.00000E+00
 
    0.16115E+07         0.30525E+07         0.00000E+00
    0.30525E+07        -0.59632E+07         0.00000E+00
    0.00000E+00         0.00000E+00         0.00000E+00
 
    0.15320E+07         0.31604E+07         0.00000E+00
    0.31604E+07        -0.59549E+07         0.00000E+00
    0.00000E+00         0.00000E+00         0.00000E+00
 
    0.14531E+07         0.32691E+07         0.00000E+00
    0.32691E+07        -0.59454E+07         0.00000E+00
    0.00000E+00         0.00000E+00         0.00000E+00
 
    0.13748E+07         0.33788E+07         0.00000E+00
    0.33788E+07        -0.59348E+07         0.00000E+00
    0.00000E+00         0.00000E+00         0.00000E+00
 
    0.12969E+07         0.34894E+07         0.00000E+00
    0.34894E+07        -0.59229E+07         0.00000E+00
    0.00000E+00         0.00000E+00         0.00000E+00
 
    0.12194E+07         0.36010E+07         0.00000E+00
    0.36010E+07        -0.59097E+07         0.00000E+00
    0.00000E+00         0.00000E+00         0.00000E+00
 
    0.11422E+07         0.37135E+07         0.00000E+00
    0.37135E+07        -0.58952E+07         0.00000E+00
    0.00000E+00         0.00000E+00         0.00000E+00
 
    0.10652E+07         0.38271E+07         0.00000E+00
    0.38271E+07        -0.58793E+07         0.00000E+00
    0.00000E+00         0.00000E+00         0.00000E+00
 
    0.98832E+06         0.39416E+07         0.00000E+00
    0.39416E+07        -0.58619E+07         0.00000E+00
    0.00000E+00         0.00000E+00         0.00000E+00
 
    0.91143E+06         0.40572E+07         0.00000E+00
    0.40572E+07        -0.58430E+07         0.00000E+00
    0.00000E+00         0.00000E+00         0.00000E+00
 
    0.83448E+06         0.41739E+07         0.00000E+00
    0.41739E+07        -0.58225E+07         0.00000E+00
    0.00000E+00         0.00000E+00         0.00000E+00
 
    0.75736E+06         0.42916E+07         0.00000E+00
    0.42916E+07        -0.58004E+07         0.00000E+00
    0.00000E+00         0.00000E+00         0.00000E+00
 
    0.68000E+06         0.44104E+07         0.00000E+00
    0.44104E+07        -0.57765E+07         0.00000E+00
    0.00000E+00         0.00000E+00         0.00000E+00
 
    0.60230E+06         0.45303E+07         0.00000E+00
    0.45303E+07        -0.57510E+07         0.00000E+00
    0.00000E+00         0.00000E+00         0.00000E+00
 
    0.52418E+06         0.46513E+07         0.00000E+00
    0.46513E+07        -0.57236E+07         0.00000E+00
    0.00000E+00         0.00000E+00         0.00000E+00
 
    0.44554E+06         0.47735E+07         0.00000E+00
    0.47735E+07        -0.56943E+07         0.00000E+00
    0.00000E+00         0.00000E+00         0.00000E+00
 
    0.36630E+06         0.48967E+07         0.00000E+00
    0.48967E+07        -0.56631E+07         0.00000E+00
    0.00000E+00         0.00000E+00         0.00000E+00
 
    0.28637E+06         0.50211E+07         0.00000E+00
    0.50211E+07        -0.56299E+07         0.00000E+00
    0.00000E+00         0.00000E+00         0.00000E+00
 
    0.20566E+06         0.51466E+07         0.00000E+00
    0.51466E+07        -0.55947E+07         0.00000E+00
    0.00000E+00         0.00000E+00         0.00000E+00
 
    0.12407E+06         0.52732E+07         0.00000E+00
    0.52732E+07        -0.55574E+07         0.00000E+00
    0.00000E+00         0.00000E+00         0.00000E+00
 
    0.41525E+05         0.54010E+07         0.00000E+00
    0.54010E+07        -0.55178E+07         0.00000E+00
    0.00000E+00         0.00000E+00         0.00000E+00
 
    0.44637E+07         0.56083E+05         0.00000E+00
    0.56083E+05        -0.66486E+07         0.00000E+00
    0.00000E+00         0.00000E+00         0.00000E+00
 
    0.43216E+07         0.16390E+06         0.00000E+00
    0.16390E+06        -0.66492E+07         0.00000E+00
    0.00000E+00         0.00000E+00         0.00000E+00
 
    0.41830E+07         0.27036E+06         0.00000E+00
    0.27036E+06        -0.66505E+07         0.00000E+00
    0.00000E+00         0.00000E+00         0.00000E+00
 
    0.40479E+07         0.37561E+06         0.00000E+00
    0.37561E+06        -0.66523E+07         0.00000E+00
    0.00000E+00         0.00000E+00         0.00000E+00
 
    0.39163E+07         0.47981E+06         0.00000E+00
    0.47981E+06        -0.66546E+07         0.00000E+00
    0.00000E+00         0.00000E+00         0.00000E+00
 
    0.37880E+07         0.58311E+06         0.00000E+00
    0.58311E+06        -0.66575E+07         0.00000E+00
    0.00000E+00         0.00000E+00         0.00000E+00
 
    0.36631E+07         0.68563E+06         0.00000E+00
    0.68563E+06        -0.66607E+07         0.00000E+00
    0.00000E+00         0.00000E+00         0.00000E+00
 
    0.35414E+07         0.78753E+06         0.00000E+00
    0.78753E+06        -0.66644E+07         0.00000E+00
    0.00000E+00         0.00000E+00         0.00000E+00
 
    0.34228E+07         0.88894E+06         0.00000E+00
    0.88894E+06        -0.66685E+07         0.00000E+00
    0.00000E+00         0.00000E+00         0.00000E+00
 
    0.33073E+07         0.98997E+06         0.00000E+00
    0.98997E+06        -0.66728E+07         0.00000E+00
    0.00000E+00         0.00000E+00         0.00000E+00
 
    0.31948E+07         0.10907E+07         0.00000E+00
    0.10907E+07        -0.66774E+07         0.00000E+00
    0.00000E+00         0.00000E+00         0.00000E+00
 
    0.30852E+07         0.11914E+07         0.00000E+00
    0.11914E+07        -0.66823E+07         0.00000E+00
    0.00000E+00         0.00000E+00         0.00000E+00
 
    0.29784E+07         0.12920E+07         0.00000E+00
    0.12920E+07        -0.66872E+07         0.00000E+00
    0.00000E+00         0.00000E+00         0.00000E+00
 
    0.28742E+07         0.13927E+07         0.00000E+00
    0.13927E+07        -0.66922E+07         0.00000E+00
    0.00000E+00         0.00000E+00         0.00000E+00
 
    0.27727E+07         0.14936E+07         0.00000E+00
    0.14936E+07        -0.66973E+07         0.00000E+00
    0.00000E+00         0.00000E+00         0.00000E+00
 
    0.26736E+07         0.15947E+07         0.00000E+00
    0.15947E+07        -0.67022E+07         0.00000E+00
    0.00000E+00         0.00000E+00         0.00000E+00
 
    0.25770E+07         0.16962E+07         0.00000E+00
    0.16962E+07        -0.67071E+07         0.00000E+00
    0.00000E+00         0.00000E+00         0.00000E+00
 
    0.24826E+07         0.17982E+07         0.00000E+00
    0.17982E+07        -0.67118E+07         0.00000E+00
    0.00000E+00         0.00000E+00         0.00000E+00
 
    0.23904E+07         0.19007E+07         0.00000E+00
    0.19007E+07        -0.67162E+07         0.00000E+00
    0.00000E+00         0.00000E+00         0.00000E+00
 
    0.23002E+07         0.20037E+07         0.00000E+00
    0.20037E+07        -0.67204E+07         0.00000E+00
    0.00000E+00         0.00000E+00         0.00000E+00
 
    0.22120E+07         0.21075E+07         0.00000E+00
    0.21075E+07        -0.67241E+07         0.00000E+00
    0.00000E+00         0.00000E+00         0.00000E+00
 
    0.21257E+07         0.22119E+07         0.00000E+00
    0.22119E+07        -0.67274E+07         0.00000E+00
    0.00000E+00         0.00000E+00         0.00000E+00
 
    0.20411E+07         0.23172E+07         0.00000E+00
    0.23172E+07        -0.67302E+07         0.00000E+00
    0.00000E+00         0.00000E+00         0.00000E+00
 
    0.19582E+07         0.24233E+07         0.00000E+00
    0.24233E+07        -0.67324E+07         0.00000E+00
    0.00000E+00         0.00000E+00         0.00000E+00
 
    0.18767E+07         0.25303E+07         0.00000E+00
    0.25303E+07        -0.67339E+07         0.00000E+00
    0.00000E+00         0.00000E+00         0.00000E+00
 
    0.17967E+07         0.26383E+07         0.00000E+00
    0.26383E+07        -0.67347E+07         0.00000E+00
    0.00000E+00         0.00000E+00         0.00000E+00
 
    0.17181E+07         0.27473E+07         0.00000E+00
    0.27473E+07        -0.67347E+07         0.00000E+00
    0.00000E+00         0.00000E+00         0.00000E+00
 
    0.16406E+07         0.28573E+07         0.00000E+00
    0.28573E+07        -0.67338E+07         0.00000E+00
    0.00000E+00         0.00000E+00         0.00000E+00
 
    0.15642E+07         0.29684E+07         0.00000E+00
    0.29684E+07        -0.67320E+07         0.00000E+00
    0.00000E+00         0.00000E+00         0.00000E+00
 
    0.14888E+07         0.30806E+07         0.00000E+00
    0.30806E+07        -0.67292E+07         0.00000E+00
    0.00000E+00         0.00000E+00         0.00000E+00
 
    0.14144E+07         0.31939E+07         0.00000E+00
    0.31939E+07        -0.67254E+07         0.00000E+00
    0.00000E+00         0.00000E+00         0.00000E+00
 
    0.13407E+07         0.33085E+07         0.00000E+00
    0.33085E+07        -0.67204E+07         0.00000E+00
    0.00000E+00         0.00000E+00         0.00000E+00
 
    0.12677E+07         0.34242E+07         0.00000E+00
    0.34242E+07        -0.67142E+07         0.00000E+00
    0.00000E+00         0.00000E+00         0.00000E+00
 
    0.11953E+07         0.35412E+07         0.00000E+00
    0.35412E+07        -0.67068E+07         0.00000E+00
    0.00000E+00         0.00000E+00         0.00000E+00
 
    0.11234E+07         0.36594E+07         0.00000E+00
    0.36594E+07        -0.66980E+07         0.00000E+00
    0.00000E+00         0.00000E+00         0.00000E+00
 
    0.10519E+07         0.37790E+07         0.00000E+00
    0.37790E+07        -0.66879E+07         0.00000E+00
    0.00000E+00         0.00000E+00         0.00000E+00
 
    0.98068E+06         0.38998E+07         0.00000E+00
    0.38998E+07        -0.66763E+07         0.00000E+00
    0.00000E+00         0.00000E+00         0.00000E+00
 
    0.90968E+06         0.40220E+07         0.00000E+00
    0.40220E+07        -0.66632E+07         0.00000E+00
    0.00000E+00         0.00000E+00         0.00000E+00
 
    0.83878E+06         0.41455E+07         0.00000E+00
    0.41455E+07        -0.66485E+07         0.00000E+00
    0.00000E+00         0.00000E+00         0.00000E+00
 
    0.76789E+06         0.42703E+07         0.00000E+00
    0.42703E+07        -0.66322E+07         0.00000E+00
    0.00000E+00         0.00000E+00         0.00000E+00
 
    0.69691E+06         0.43965E+07         0.00000E+00
    0.43965E+07        -0.66142E+07         0.00000E+00
    0.00000E+00         0.00000E+00         0.00000E+00
 
    0.62574E+06         0.45242E+07         0.00000E+00
    0.45242E+07        -0.65944E+07         0.00000E+00
    0.00000E+00         0.00000E+00         0.00000E+00
 
    0.55430E+06         0.46532E+07         0.00000E+00
    0.46532E+07        -0.65728E+07         0.00000E+00
    0.00000E+00         0.00000E+00         0.00000E+00
 
    0.48248E+06         0.47836E+07         0.00000E+00
    0.47836E+07        -0.65493E+07         0.00000E+00
    0.00000E+00         0.00000E+00         0.00000E+00
 
    0.41019E+06         0.49154E+07         0.00000E+00
    0.49154E+07        -0.65238E+07         0.00000E+00
    0.00000E+00         0.00000E+00         0.00000E+00
 
    0.33733E+06         0.50487E+07         0.00000E+00
    0.50487E+07        -0.64963E+07         0.00000E+00
    0.00000E+00         0.00000E+00         0.00000E+00
 
    0.26381E+06         0.51834E+07         0.00000E+00
    0.51834E+07        -0.64668E+07         0.00000E+00
    0.00000E+00         0.00000E+00         0.00000E+00
 
    0.18953E+06         0.53196E+07         0.00000E+00
    0.53196E+07        -0.64351E+07         0.00000E+00
    0.00000E+00         0.00000E+00         0.00000E+00
 
    0.11439E+06         0.54572E+07         0.00000E+00
    0.54572E+07        -0.64012E+07         0.00000E+00
    0.00000E+00         0.00000E+00         0.00000E+00
 
    0.38299E+05         0.55962E+07         0.00000E+00
    0.55962E+07        -0.63650E+07         0.00000E+00
    0.00000E+00         0.00000E+00         0.00000E+00
 
    0.42645E+07         0.53903E+05         0.00000E+00
    0.53903E+05        -0.73815E+07         0.00000E+00
    0.00000E+00         0.00000E+00         0.00000E+00
 
    0.41155E+07         0.15774E+06         0.00000E+00
    0.15774E+06        -0.73825E+07         0.00000E+00
    0.00000E+00         0.00000E+00         0.00000E+00
 
    0.39709E+07         0.26038E+06         0.00000E+00
    0.26038E+06        -0.73845E+07         0.00000E+00
    0.00000E+00         0.00000E+00         0.00000E+00
 
    0.38307E+07         0.36201E+06         0.00000E+00
    0.36201E+06        -0.73875E+07         0.00000E+00
    0.00000E+00         0.00000E+00         0.00000E+00
 
    0.36947E+07         0.46280E+06         0.00000E+00
    0.46280E+06        -0.73913E+07         0.00000E+00
    0.00000E+00         0.00000E+00         0.00000E+00
 
    0.35629E+07         0.56293E+06         0.00000E+00
    0.56293E+06        -0.73960E+07         0.00000E+00
    0.00000E+00         0.00000E+00         0.00000E+00
 
    0.34351E+07         0.66255E+06         0.00000E+00
    0.66255E+06        -0.74014E+07         0.00000E+00
    0.00000E+00         0.00000E+00         0.00000E+00
 
    0.33113E+07         0.76182E+06         0.00000E+00
    0.76182E+06        -0.74075E+07         0.00000E+00
    0.00000E+00         0.00000E+00         0.00000E+00
 
    0.31913E+07         0.86088E+06         0.00000E+00
    0.86088E+06        -0.74143E+07         0.00000E+00
    0.00000E+00         0.00000E+00         0.00000E+00
 
    0.30750E+07         0.95987E+06         0.00000E+00
    0.95987E+06        -0.74217E+07         0.00000E+00
    0.00000E+00         0.00000E+00         0.00000E+00
 
    0.29623E+07         0.10589E+07         0.00000E+00
    0.10589E+07        -0.74295E+07         0.00000E+00
    0.00000E+00         0.00000E+00         0.00000E+00
 
    0.28530E+07         0.11582E+07         0.00000E+00
    0.11582E+07        -0.74378E+07         0.00000E+00
    0.00000E+00         0.00000E+00         0.00000E+00
 
    0.27472E+07         0.12578E+07         0.00000E+00
    0.12578E+07        -0.74465E+07         0.00000E+00
    0.00000E+00         0.00000E+00         0.00000E+00
 
    0.26445E+07         0.13577E+07         0.00000E+00
    0.13577E+07        -0.74554E+07         0.00000E+00
    0.00000E+00         0.00000E+00         0.00000E+00
 
    0.25450E+07         0.14583E+07         0.00000E+00
    0.14583E+07        -0.74646E+07         0.00000E+00
    0.00000E+00         0.00000E+00         0.00000E+00
 
    0.24484E+07         0.15594E+07         0.00000E+00
    0.15594E+07        -0.74738E+07         0.00000E+00
    0.00000E+00         0.00000E+00         0.00000E+00
 
    0.23546E+07         0.16613E+07         0.00000E+00
    0.16613E+07        -0.74831E+07         0.00000E+00
    0.00000E+00         0.00000E+00         0.00000E+00
 
    0.22636E+07         0.17640E+07         0.00000E+00
    0.17640E+07        -0.74924E+07         0.00000E+00
    0.00000E+00         0.00000E+00         0.00000E+00
 
    0.21751E+07         0.18676E+07         0.00000E+00
    0.18676E+07        -0.75015E+07         0.00000E+00
    0.00000E+00         0.00000E+00         0.00000E+00
 
    0.20890E+07         0.19721E+07         0.00000E+00
    0.19721E+07        -0.75104E+07         0.00000E+00
    0.00000E+00         0.00000E+00         0.00000E+00
 
    0.20052E+07         0.20777E+07         0.00000E+00
    0.20777E+07        -0.75191E+07         0.00000E+00
    0.00000E+00         0.00000E+00         0.00000E+00
 
    0.19236E+07         0.21844E+07         0.00000E+00
    0.21844E+07        -0.75274E+07         0.00000E+00
    0.00000E+00         0.00000E+00         0.00000E+00
 
    0.18441E+07         0.22923E+07         0.00000E+00
    0.22923E+07        -0.75352E+07         0.00000E+00
    0.00000E+00         0.00000E+00         0.00000E+00
 
    0.17664E+07         0.24014E+07         0.00000E+00
    0.24014E+07        -0.75425E+07         0.00000E+00
    0.00000E+00         0.00000E+00         0.00000E+00
 
    0.16905E+07         0.25118E+07         0.00000E+00
    0.25118E+07        -0.75492E+07         0.00000E+00
    0.00000E+00         0.00000E+00         0.00000E+00
 
    0.16163E+07         0.26235E+07         0.00000E+00
    0.26235E+07        -0.75552E+07         0.00000E+00
    0.00000E+00         0.00000E+00         0.00000E+00
 
    0.15436E+07         0.27365E+07         0.00000E+00
    0.27365E+07        -0.75604E+07         0.00000E+00
    0.00000E+00         0.00000E+00         0.00000E+00
 
    0.14723E+07         0.28510E+07         0.00000E+00
    0.28510E+07        -0.75648E+07         0.00000E+00
    0.00000E+00         0.00000E+00         0.00000E+00
 
    0.14023E+07         0.29669E+07         0.00000E+00
    0.29669E+07        -0.75683E+07         0.00000E+00
    0.00000E+00         0.00000E+00         0.00000E+00
 
    0.13335E+07         0.30843E+07         0.00000E+00
    0.30843E+07        -0.75707E+07         0.00000E+00
    0.00000E+00         0.00000E+00         0.00000E+00
 
    0.12657E+07         0.32031E+07         0.00000E+00
    0.32031E+07        -0.75721E+07         0.00000E+00
    0.00000E+00         0.00000E+00         0.00000E+00
 
    0.11988E+07         0.33235E+07         0.00000E+00
    0.33235E+07        -0.75724E+07         0.00000E+00
    0.00000E+00         0.00000E+00         0.00000E+00
 
    0.11328E+07         0.34455E+07         0.00000E+00
    0.34455E+07        -0.75714E+07         0.00000E+00
    0.00000E+00         0.00000E+00         0.00000E+00
 
    0.10675E+07         0.35690E+07         0.00000E+00
    0.35690E+07        -0.75692E+07         0.00000E+00
    0.00000E+00         0.00000E+00         0.00000E+00
 
    0.10028E+07         0.36941E+07         0.00000E+00
    0.36941E+07        -0.75655E+07         0.00000E+00
    0.00000E+00         0.00000E+00         0.00000E+00
 
    0.93855E+06         0.38209E+07         0.00000E+00
    0.38209E+07        -0.75605E+07         0.00000E+00
    0.00000E+00         0.00000E+00         0.00000E+00
 
    0.87472E+06         0.39492E+07         0.00000E+00
    0.39492E+07        -0.75540E+07         0.00000E+00
    0.00000E+00         0.00000E+00         0.00000E+00
 
    0.81118E+06         0.40792E+07         0.00000E+00
    0.40792E+07        -0.75459E+07         0.00000E+00
    0.00000E+00         0.00000E+00         0.00000E+00
 
    0.74783E+06         0.42109E+07         0.00000E+00
    0.42109E+07        -0.75361E+07         0.00000E+00
    0.00000E+00         0.00000E+00         0.00000E+00
 
    0.68456E+06         0.43442E+07         0.00000E+00
    0.43442E+07        -0.75247E+07         0.00000E+00
    0.00000E+00         0.00000E+00         0.00000E+00
 
    0.62127E+06         0.44793E+07         0.00000E+00
    0.44793E+07        -0.75115E+07         0.00000E+00
    0.00000E+00         0.00000E+00         0.00000E+00
 
    0.55787E+06         0.46160E+07         0.00000E+00
    0.46160E+07        -0.74965E+07         0.00000E+00
    0.00000E+00         0.00000E+00         0.00000E+00
 
    0.49425E+06         0.47545E+07         0.00000E+00
    0.47545E+07        -0.74796E+07         0.00000E+00
    0.00000E+00         0.00000E+00         0.00000E+00
 
    0.43031E+06         0.48947E+07         0.00000E+00
    0.48947E+07        -0.74607E+07         0.00000E+00
    0.00000E+00         0.00000E+00         0.00000E+00
 
    0.36595E+06         0.50367E+07         0.00000E+00
    0.50367E+07        -0.74399E+07         0.00000E+00
    0.00000E+00         0.00000E+00         0.00000E+00
 
    0.30106E+06         0.51804E+07         0.00000E+00
    0.51804E+07        -0.74169E+07         0.00000E+00
    0.00000E+00         0.00000E+00         0.00000E+00
 
    0.23556E+06         0.53258E+07         0.00000E+00
    0.53258E+07        -0.73918E+07         0.00000E+00
    0.00000E+00         0.00000E+00         0.00000E+00
 
    0.16932E+06         0.54731E+07         0.00000E+00
    0.54731E+07        -0.73644E+07         0.00000E+00
    0.00000E+00         0.00000E+00         0.00000E+00
 
    0.10225E+06         0.56221E+07         0.00000E+00
    0.56221E+07        -0.73348E+07         0.00000E+00
    0.00000E+00         0.00000E+00         0.00000E+00
 
    0.34251E+05         0.57729E+07         0.00000E+00
    0.57729E+07        -0.73028E+07         0.00000E+00
    0.00000E+00         0.00000E+00         0.00000E+00
 
    0.39779E+07         0.50551E+05         0.00000E+00
    0.50551E+05        -0.81761E+07         0.00000E+00
    0.00000E+00         0.00000E+00         0.00000E+00
 
    0.38231E+07         0.14828E+06         0.00000E+00
    0.14828E+06        -0.81776E+07         0.00000E+00
    0.00000E+00         0.00000E+00         0.00000E+00
 
    0.36737E+07         0.24507E+06         0.00000E+00
    0.24507E+06        -0.81806E+07         0.00000E+00
    0.00000E+00         0.00000E+00         0.00000E+00
 
    0.35295E+07         0.34114E+06         0.00000E+00
    0.34114E+06        -0.81849E+07         0.00000E+00
    0.00000E+00         0.00000E+00         0.00000E+00
 
    0.33905E+07         0.43668E+06         0.00000E+00
    0.43668E+06        -0.81905E+07         0.00000E+00
    0.00000E+00         0.00000E+00         0.00000E+00
 
    0.32566E+07         0.53188E+06         0.00000E+00
    0.53188E+06        -0.81974E+07         0.00000E+00
    0.00000E+00         0.00000E+00         0.00000E+00
 
    0.31275E+07         0.62692E+06         0.00000E+00
    0.62692E+06        -0.82054E+07         0.00000E+00
    0.00000E+00         0.00000E+00         0.00000E+00
 
    0.30032E+07         0.72198E+06         0.00000E+00
    0.72198E+06        -0.82144E+07         0.00000E+00
    0.00000E+00         0.00000E+00         0.00000E+00
 
    0.28834E+07         0.81721E+06         0.00000E+00
    0.81721E+06        -0.82244E+07         0.00000E+00
    0.00000E+00         0.00000E+00         0.00000E+00
 
    0.27681E+07         0.91277E+06         0.00000E+00
    0.91277E+06        -0.82353E+07         0.00000E+00
    0.00000E+00         0.00000E+00         0.00000E+00
 
    0.26571E+07         0.10088E+07         0.00000E+00
    0.10088E+07        -0.82470E+07         0.00000E+00
    0.00000E+00         0.00000E+00         0.00000E+00
 
    0.25501E+07         0.11055E+07         0.00000E+00
    0.11055E+07        -0.82594E+07         0.00000E+00
    0.00000E+00         0.00000E+00         0.00000E+00
 
    0.24471E+07         0.12028E+07         0.00000E+00
    0.12028E+07        -0.82723E+07         0.00000E+00
    0.00000E+00         0.00000E+00         0.00000E+00
 
    0.23479E+07         0.13011E+07         0.00000E+00
    0.13011E+07        -0.82858E+07         0.00000E+00
    0.00000E+00         0.00000E+00         0.00000E+00
 
    0.22524E+07         0.14003E+07         0.00000E+00
    0.14003E+07        -0.82998E+07         0.00000E+00
    0.00000E+00         0.00000E+00         0.00000E+00
 
    0.21603E+07         0.15006E+07         0.00000E+00
    0.15006E+07        -0.83140E+07         0.00000E+00
    0.00000E+00         0.00000E+00         0.00000E+00
 
    0.20714E+07         0.16021E+07         0.00000E+00
    0.16021E+07        -0.83284E+07         0.00000E+00
    0.00000E+00         0.00000E+00         0.00000E+00
 
    0.19857E+07         0.17048E+07         0.00000E+00
    0.17048E+07        -0.83430E+07         0.00000E+00
    0.00000E+00         0.00000E+00         0.00000E+00
 
    0.19030E+07         0.18088E+07         0.00000E+00
    0.18088E+07        -0.83576E+07         0.00000E+00
    0.00000E+00         0.00000E+00         0.00000E+00
 
    0.18230E+07         0.19143E+07         0.00000E+00
    0.19143E+07        -0.83721E+07         0.00000E+00
    0.00000E+00         0.00000E+00         0.00000E+00
 
    0.17457E+07         0.20213E+07         0.00000E+00
    0.20213E+07        -0.83865E+07         0.00000E+00
    0.00000E+00         0.00000E+00         0.00000E+00
 
    0.16709E+07         0.21298E+07         0.00000E+00
    0.21298E+07        -0.84005E+07         0.00000E+00
    0.00000E+00         0.00000E+00         0.00000E+00
 
    0.15984E+07         0.22400E+07         0.00000E+00
    0.22400E+07        -0.84142E+07         0.00000E+00
    0.00000E+00         0.00000E+00         0.00000E+00
 
    0.15281E+07         0.23518E+07         0.00000E+00
    0.23518E+07        -0.84275E+07         0.00000E+00
    0.00000E+00         0.00000E+00         0.00000E+00
 
    0.14597E+07         0.24653E+07         0.00000E+00
    0.24653E+07        -0.84401E+07         0.00000E+00
    0.00000E+00         0.00000E+00         0.00000E+00
 
    0.13933E+07         0.25806E+07         0.00000E+00
    0.25806E+07        -0.84522E+07         0.00000E+00
    0.00000E+00         0.00000E+00         0.00000E+00
 
    0.13285E+07         0.26976E+07         0.00000E+00
    0.26976E+07        -0.84634E+07         0.00000E+00
    0.00000E+00         0.00000E+00         0.00000E+00
 
    0.12653E+07         0.28165E+07         0.00000E+00
    0.28165E+07        -0.84739E+07         0.00000E+00
    0.00000E+00         0.00000E+00         0.00000E+00
 
    0.12036E+07         0.29372E+07         0.00000E+00
    0.29372E+07        -0.84834E+07         0.00000E+00
    0.00000E+00         0.00000E+00         0.00000E+00
 
    0.11432E+07         0.30597E+07         0.00000E+00
    0.30597E+07        -0.84920E+07         0.00000E+00
    0.00000E+00         0.00000E+00         0.00000E+00
 
    0.10839E+07         0.31842E+07         0.00000E+00
    0.31842E+07        -0.84994E+07         0.00000E+00
    0.00000E+00         0.00000E+00         0.00000E+00
 
    0.10257E+07         0.33106E+07         0.00000E+00
    0.33106E+07        -0.85057E+07         0.00000E+00
    0.00000E+00         0.00000E+00         0.00000E+00
 
    0.96837E+06         0.34389E+07         0.00000E+00
    0.34389E+07        -0.85107E+07         0.00000E+00
    0.00000E+00         0.00000E+00         0.00000E+00
 
    0.91187E+06         0.35691E+07         0.00000E+00
    0.35691E+07        -0.85144E+07         0.00000E+00
    0.00000E+00         0.00000E+00         0.00000E+00
 
    0.85605E+06         0.37013E+07         0.00000E+00
    0.37013E+07        -0.85167E+07         0.00000E+00
    0.00000E+00         0.00000E+00         0.00000E+00
 
    0.80081E+06         0.38354E+07         0.00000E+00
    0.38354E+07        -0.85175E+07         0.00000E+00
    0.00000E+00         0.00000E+00         0.00000E+00
 
    0.74603E+06         0.39716E+07         0.00000E+00
    0.39716E+07        -0.85168E+07         0.00000E+00
    0.00000E+00         0.00000E+00         0.00000E+00
 
    0.69161E+06         0.41097E+07         0.00000E+00
    0.41097E+07        -0.85145E+07         0.00000E+00
    0.00000E+00         0.00000E+00         0.00000E+00
 
    0.63745E+06         0.42498E+07         0.00000E+00
    0.42498E+07        -0.85105E+07         0.00000E+00
    0.00000E+00         0.00000E+00         0.00000E+00
 
    0.58344E+06         0.43919E+07         0.00000E+00
    0.43919E+07        -0.85047E+07         0.00000E+00
    0.00000E+00         0.00000E+00         0.00000E+00
 
    0.52948E+06         0.45361E+07         0.00000E+00
    0.45361E+07        -0.84972E+07         0.00000E+00
    0.00000E+00         0.00000E+00         0.00000E+00
 
    0.47547E+06         0.46822E+07         0.00000E+00
    0.46822E+07        -0.84877E+07         0.00000E+00
    0.00000E+00         0.00000E+00         0.00000E+00
 
    0.42131E+06         0.48305E+07         0.00000E+00
    0.48305E+07        -0.84763E+07         0.00000E+00
    0.00000E+00         0.00000E+00         0.00000E+00
 
    0.36690E+06         0.49808E+07         0.00000E+00
    0.49808E+07        -0.84629E+07         0.00000E+00
    0.00000E+00         0.00000E+00         0.00000E+00
 
    0.31213E+06         0.51332E+07         0.00000E+00
    0.51332E+07        -0.84474E+07         0.00000E+00
    0.00000E+00         0.00000E+00         0.00000E+00
 
    0.25691E+06         0.52877E+07         0.00000E+00
    0.52877E+07        -0.84297E+07         0.00000E+00
    0.00000E+00         0.00000E+00         0.00000E+00
 
    0.20114E+06         0.54442E+07         0.00000E+00
    0.54442E+07        -0.84099E+07         0.00000E+00
    0.00000E+00         0.00000E+00         0.00000E+00
 
    0.14468E+06         0.56030E+07         0.00000E+00
    0.56030E+07        -0.83877E+07         0.00000E+00
    0.00000E+00         0.00000E+00         0.00000E+00
 
    0.87439E+05         0.57639E+07         0.00000E+00
    0.57639E+07        -0.83632E+07         0.00000E+00
    0.00000E+00         0.00000E+00         0.00000E+00
 
    0.29301E+05         0.59269E+07         0.00000E+00
    0.59269E+07        -0.83362E+07         0.00000E+00
    0.00000E+00         0.00000E+00         0.00000E+00
 
    0.35900E+07         0.45786E+05         0.00000E+00
    0.45786E+05        -0.90347E+07         0.00000E+00
    0.00000E+00         0.00000E+00         0.00000E+00
 
    0.34308E+07         0.13489E+06         0.00000E+00
    0.13489E+06        -0.90369E+07         0.00000E+00
    0.00000E+00         0.00000E+00         0.00000E+00
 
    0.32782E+07         0.22344E+06         0.00000E+00
    0.22344E+06        -0.90409E+07         0.00000E+00
    0.00000E+00         0.00000E+00         0.00000E+00
 
    0.31319E+07         0.31167E+06         0.00000E+00
    0.31167E+06        -0.90469E+07         0.00000E+00
    0.00000E+00         0.00000E+00         0.00000E+00
 
    0.29918E+07         0.39979E+06         0.00000E+00
    0.39979E+06        -0.90546E+07         0.00000E+00
    0.00000E+00         0.00000E+00         0.00000E+00
 
    0.28577E+07         0.48802E+06         0.00000E+00
    0.48802E+06        -0.90640E+07         0.00000E+00
    0.00000E+00         0.00000E+00         0.00000E+00
 
    0.27294E+07         0.57655E+06         0.00000E+00
    0.57655E+06        -0.90749E+07         0.00000E+00
    0.00000E+00         0.00000E+00         0.00000E+00
 
    0.26067E+07         0.66558E+06         0.00000E+00
    0.66558E+06        -0.90873E+07         0.00000E+00
    0.00000E+00         0.00000E+00         0.00000E+00
 
    0.24894E+07         0.75528E+06         0.00000E+00
    0.75528E+06        -0.91010E+07         0.00000E+00
    0.00000E+00         0.00000E+00         0.00000E+00
 
    0.23773E+07         0.84581E+06         0.00000E+00
    0.84581E+06        -0.91160E+07         0.00000E+00
    0.00000E+00         0.00000E+00         0.00000E+00
 
    0.22703E+07         0.93734E+06         0.00000E+00
    0.93734E+06        -0.91321E+07         0.00000E+00
    0.00000E+00         0.00000E+00         0.00000E+00
 
    0.21680E+07         0.10300E+07         0.00000E+00
    0.10300E+07        -0.91492E+07         0.00000E+00
    0.00000E+00         0.00000E+00         0.00000E+00
 
    0.20703E+07         0.11239E+07         0.00000E+00
    0.11239E+07        -0.91672E+07         0.00000E+00
    0.00000E+00         0.00000E+00         0.00000E+00
 
    0.19770E+07         0.12192E+07         0.00000E+00
    0.12192E+07        -0.91860E+07         0.00000E+00
    0.00000E+00         0.00000E+00         0.00000E+00
 
    0.18878E+07         0.13161E+07         0.00000E+00
    0.13161E+07        -0.92054E+07         0.00000E+00
    0.00000E+00         0.00000E+00         0.00000E+00
 
    0.18026E+07         0.14145E+07         0.00000E+00
    0.14145E+07        -0.92254E+07         0.00000E+00
    0.00000E+00         0.00000E+00         0.00000E+00
 
    0.17212E+07         0.15147E+07         0.00000E+00
    0.15147E+07        -0.92458E+07         0.00000E+00
    0.00000E+00         0.00000E+00         0.00000E+00
 
    0.16433E+07         0.16166E+07         0.00000E+00
    0.16166E+07        -0.92664E+07         0.00000E+00
    0.00000E+00         0.00000E+00         0.00000E+00
 
    0.15688E+07         0.17205E+07         0.00000E+00
    0.17205E+07        -0.92873E+07         0.00000E+00
    0.00000E+00         0.00000E+00         0.00000E+00
 
    0.14974E+07         0.18263E+07         0.00000E+00
    0.18263E+07        -0.93082E+07         0.00000E+00
    0.00000E+00         0.00000E+00         0.00000E+00
 
    0.14290E+07         0.19341E+07         0.00000E+00
    0.19341E+07        -0.93291E+07         0.00000E+00
    0.00000E+00         0.00000E+00         0.00000E+00
 
    0.13634E+07         0.20440E+07         0.00000E+00
    0.20440E+07        -0.93498E+07         0.00000E+00
    0.00000E+00         0.00000E+00         0.00000E+00
 
    0.13003E+07         0.21560E+07         0.00000E+00
    0.21560E+07        -0.93703E+07         0.00000E+00
    0.00000E+00         0.00000E+00         0.00000E+00
 
    0.12396E+07         0.22702E+07         0.00000E+00
    0.22702E+07        -0.93903E+07         0.00000E+00
    0.00000E+00         0.00000E+00         0.00000E+00
 
    0.11812E+07         0.23866E+07         0.00000E+00
    0.23866E+07        -0.94099E+07         0.00000E+00
    0.00000E+00         0.00000E+00         0.00000E+00
 
    0.11247E+07         0.25052E+07         0.00000E+00
    0.25052E+07        -0.94288E+07         0.00000E+00
    0.00000E+00         0.00000E+00         0.00000E+00
 
    0.10702E+07         0.26261E+07         0.00000E+00
    0.26261E+07        -0.94471E+07         0.00000E+00
    0.00000E+00         0.00000E+00         0.00000E+00
 
    0.10173E+07         0.27493E+07         0.00000E+00
    0.27493E+07        -0.94645E+07         0.00000E+00
    0.00000E+00         0.00000E+00         0.00000E+00
 
    0.96597E+06         0.28749E+07         0.00000E+00
    0.28749E+07        -0.94810E+07         0.00000E+00
    0.00000E+00         0.00000E+00         0.00000E+00
 
    0.91603E+06         0.30027E+07         0.00000E+00
    0.30027E+07        -0.94965E+07         0.00000E+00
    0.00000E+00         0.00000E+00         0.00000E+00
 
    0.86733E+06         0.31329E+07         0.00000E+00
    0.31329E+07        -0.95109E+07         0.00000E+00
    0.00000E+00         0.00000E+00         0.00000E+00
 
    0.81972E+06         0.32653E+07         0.00000E+00
    0.32653E+07        -0.95241E+07         0.00000E+00
    0.00000E+00         0.00000E+00         0.00000E+00
 
    0.77308E+06         0.34002E+07         0.00000E+00
    0.34002E+07        -0.95360E+07         0.00000E+00
    0.00000E+00         0.00000E+00         0.00000E+00
 
    0.72728E+06         0.35374E+07         0.00000E+00
    0.35374E+07        -0.95466E+07         0.00000E+00
    0.00000E+00         0.00000E+00         0.00000E+00
 
    0.68219E+06         0.36769E+07         0.00000E+00
    0.36769E+07        -0.95557E+07         0.00000E+00
    0.00000E+00         0.00000E+00         0.00000E+00
 
    0.63771E+06         0.38187E+07         0.00000E+00
    0.38187E+07        -0.95632E+07         0.00000E+00
    0.00000E+00         0.00000E+00         0.00000E+00
 
    0.59372E+06         0.39629E+07         0.00000E+00
    0.39629E+07        -0.95692E+07         0.00000E+00
    0.00000E+00         0.00000E+00         0.00000E+00
 
    0.55012E+06         0.41094E+07         0.00000E+00
    0.41094E+07        -0.95735E+07         0.00000E+00
    0.00000E+00         0.00000E+00         0.00000E+00
 
    0.50682E+06         0.42582E+07         0.00000E+00
    0.42582E+07        -0.95760E+07         0.00000E+00
    0.00000E+00         0.00000E+00         0.00000E+00
 
    0.46372E+06         0.44094E+07         0.00000E+00
    0.44094E+07        -0.95768E+07         0.00000E+00
    0.00000E+00         0.00000E+00         0.00000E+00
 
    0.42073E+06         0.45629E+07         0.00000E+00
    0.45629E+07        -0.95756E+07         0.00000E+00
    0.00000E+00         0.00000E+00         0.00000E+00
 
    0.37776E+06         0.47188E+07         0.00000E+00
    0.47188E+07        -0.95725E+07         0.00000E+00
    0.00000E+00         0.00000E+00         0.00000E+00
 
    0.33473E+06         0.48770E+07         0.00000E+00
    0.48770E+07        -0.95675E+07         0.00000E+00
    0.00000E+00         0.00000E+00         0.00000E+00
 
    0.29154E+06         0.50377E+07         0.00000E+00
    0.50377E+07        -0.95604E+07         0.00000E+00
    0.00000E+00         0.00000E+00         0.00000E+00
 
    0.24809E+06         0.52008E+07         0.00000E+00
    0.52008E+07        -0.95511E+07         0.00000E+00
    0.00000E+00         0.00000E+00         0.00000E+00
 
    0.20428E+06         0.53663E+07         0.00000E+00
    0.53663E+07        -0.95397E+07         0.00000E+00
    0.00000E+00         0.00000E+00         0.00000E+00
 
    0.15999E+06         0.55343E+07         0.00000E+00
    0.55343E+07        -0.95260E+07         0.00000E+00
    0.00000E+00         0.00000E+00         0.00000E+00
 
    0.11516E+06         0.57048E+07         0.00000E+00
    0.57048E+07        -0.95099E+07         0.00000E+00
    0.00000E+00         0.00000E+00         0.00000E+00
 
    0.69686E+05         0.58777E+07         0.00000E+00
    0.58777E+07        -0.94914E+07         0.00000E+00
    0.00000E+00         0.00000E+00         0.00000E+00
 
    0.23390E+05         0.60534E+07         0.00000E+00
    0.60534E+07        -0.94706E+07         0.00000E+00
    0.00000E+00         0.00000E+00         0.00000E+00
 
    0.30851E+07         0.39341E+05         0.00000E+00
    0.39341E+05        -0.99592E+07         0.00000E+00
    0.00000E+00         0.00000E+00         0.00000E+00
 
    0.29237E+07         0.11691E+06         0.00000E+00
    0.11691E+06        -0.99619E+07         0.00000E+00
    0.00000E+00         0.00000E+00         0.00000E+00
 
    0.27701E+07         0.19444E+06         0.00000E+00
    0.19444E+06        -0.99673E+07         0.00000E+00
    0.00000E+00         0.00000E+00         0.00000E+00
 
    0.26241E+07         0.27220E+06         0.00000E+00
    0.27220E+06        -0.99751E+07         0.00000E+00
    0.00000E+00         0.00000E+00         0.00000E+00
 
    0.24854E+07         0.35044E+06         0.00000E+00
    0.35044E+06        -0.99852E+07         0.00000E+00
    0.00000E+00         0.00000E+00         0.00000E+00
 
    0.23537E+07         0.42937E+06         0.00000E+00
    0.42937E+06        -0.99975E+07         0.00000E+00
    0.00000E+00         0.00000E+00         0.00000E+00
 
    0.22289E+07         0.50921E+06         0.00000E+00
    0.50921E+06        -0.10012E+08         0.00000E+00
    0.00000E+00         0.00000E+00         0.00000E+00
 
    0.21106E+07         0.59016E+06         0.00000E+00
    0.59016E+06        -0.10028E+08         0.00000E+00
    0.00000E+00         0.00000E+00         0.00000E+00
 
    0.19986E+07         0.67241E+06         0.00000E+00
    0.67241E+06        -0.10046E+08         0.00000E+00
    0.00000E+00         0.00000E+00         0.00000E+00
 
    0.18927E+07         0.75613E+06         0.00000E+00
    0.75613E+06        -0.10066E+08         0.00000E+00
    0.00000E+00         0.00000E+00         0.00000E+00
 
    0.17924E+07         0.84147E+06         0.00000E+00
    0.84147E+06        -0.10087E+08         0.00000E+00
    0.00000E+00         0.00000E+00         0.00000E+00
 
    0.16977E+07         0.92859E+06         0.00000E+00
    0.92859E+06        -0.10109E+08         0.00000E+00
    0.00000E+00         0.00000E+00         0.00000E+00
 
    0.16083E+07         0.10176E+07         0.00000E+00
    0.10176E+07        -0.10133E+08         0.00000E+00
    0.00000E+00         0.00000E+00         0.00000E+00
 
    0.15238E+07         0.11087E+07         0.00000E+00
    0.11087E+07        -0.10158E+08         0.00000E+00
    0.00000E+00         0.00000E+00         0.00000E+00
 
    0.14440E+07         0.12019E+07         0.00000E+00
    0.12019E+07        -0.10183E+08         0.00000E+00
    0.00000E+00         0.00000E+00         0.00000E+00
 
    0.13687E+07         0.12974E+07         0.00000E+00
    0.12974E+07        -0.10210E+08         0.00000E+00
    0.00000E+00         0.00000E+00         0.00000E+00
 
    0.12976E+07         0.13952E+07         0.00000E+00
    0.13952E+07        -0.10237E+08         0.00000E+00
    0.00000E+00         0.00000E+00         0.00000E+00
 
    0.12305E+07         0.14955E+07         0.00000E+00
    0.14955E+07        -0.10264E+08         0.00000E+00
    0.00000E+00         0.00000E+00         0.00000E+00
 
    0.11671E+07         0.15983E+07         0.00000E+00
    0.15983E+07        -0.10292E+08         0.00000E+00
    0.00000E+00         0.00000E+00         0.00000E+00
 
    0.11072E+07         0.17036E+07         0.00000E+00
    0.17036E+07        -0.10320E+08         0.00000E+00
    0.00000E+00         0.00000E+00         0.00000E+00
 
    0.10505E+07         0.18116E+07         0.00000E+00
    0.18116E+07        -0.10349E+08         0.00000E+00
    0.00000E+00         0.00000E+00         0.00000E+00
 
    0.99686E+06         0.19223E+07         0.00000E+00
    0.19223E+07        -0.10377E+08         0.00000E+00
    0.00000E+00         0.00000E+00         0.00000E+00
 
    0.94601E+06         0.20357E+07         0.00000E+00
    0.20357E+07        -0.10405E+08         0.00000E+00
    0.00000E+00         0.00000E+00         0.00000E+00
 
    0.89773E+06         0.21519E+07         0.00000E+00
    0.21519E+07        -0.10433E+08         0.00000E+00
    0.00000E+00         0.00000E+00         0.00000E+00
 
    0.85182E+06         0.22709E+07         0.00000E+00
    0.22709E+07        -0.10460E+08         0.00000E+00
    0.00000E+00         0.00000E+00         0.00000E+00
 
    0.80806E+06         0.23927E+07         0.00000E+00
    0.23927E+07        -0.10487E+08         0.00000E+00
    0.00000E+00         0.00000E+00         0.00000E+00
 
    0.76626E+06         0.25173E+07         0.00000E+00
    0.25173E+07        -0.10513E+08         0.00000E+00
    0.00000E+00         0.00000E+00         0.00000E+00
 
    0.72621E+06         0.26448E+07         0.00000E+00
    0.26448E+07        -0.10539E+08         0.00000E+00
    0.00000E+00         0.00000E+00         0.00000E+00
 
    0.68775E+06         0.27751E+07         0.00000E+00
    0.27751E+07        -0.10563E+08         0.00000E+00
    0.00000E+00         0.00000E+00         0.00000E+00
 
    0.65068E+06         0.29082E+07         0.00000E+00
    0.29082E+07        -0.10587E+08         0.00000E+00
    0.00000E+00         0.00000E+00         0.00000E+00
 
    0.61485E+06         0.30442E+07         0.00000E+00
    0.30442E+07        -0.10609E+08         0.00000E+00
    0.00000E+00         0.00000E+00         0.00000E+00
 
    0.58009E+06         0.31829E+07         0.00000E+00
    0.31829E+07        -0.10630E+08         0.00000E+00
    0.00000E+00         0.00000E+00         0.00000E+00
 
    0.54626E+06         0.33245E+07         0.00000E+00
    0.33245E+07        -0.10650E+08         0.00000E+00
    0.00000E+00         0.00000E+00         0.00000E+00
 
    0.51321E+06         0.34689E+07         0.00000E+00
    0.34689E+07        -0.10669E+08         0.00000E+00
    0.00000E+00         0.00000E+00         0.00000E+00
 
    0.48083E+06         0.36160E+07         0.00000E+00
    0.36160E+07        -0.10686E+08         0.00000E+00
    0.00000E+00         0.00000E+00         0.00000E+00
 
    0.44898E+06         0.37659E+07         0.00000E+00
    0.37659E+07        -0.10701E+08         0.00000E+00
    0.00000E+00         0.00000E+00         0.00000E+00
 
    0.41757E+06         0.39185E+07         0.00000E+00
    0.39185E+07        -0.10715E+08         0.00000E+00
    0.00000E+00         0.00000E+00         0.00000E+00
 
    0.38651E+06         0.40737E+07         0.00000E+00
    0.40737E+07        -0.10727E+08         0.00000E+00
    0.00000E+00         0.00000E+00         0.00000E+00
 
    0.35570E+06         0.42317E+07         0.00000E+00
    0.42317E+07        -0.10737E+08         0.00000E+00
    0.00000E+00         0.00000E+00         0.00000E+00
 
    0.32509E+06         0.43922E+07         0.00000E+00
    0.43922E+07        -0.10745E+08         0.00000E+00
    0.00000E+00         0.00000E+00         0.00000E+00
 
    0.29461E+06         0.45554E+07         0.00000E+00
    0.45554E+07        -0.10751E+08         0.00000E+00
    0.00000E+00         0.00000E+00         0.00000E+00
 
    0.26421E+06         0.47213E+07         0.00000E+00
    0.47213E+07        -0.10756E+08         0.00000E+00
    0.00000E+00         0.00000E+00         0.00000E+00
 
    0.23384E+06         0.48898E+07         0.00000E+00
    0.48898E+07        -0.10758E+08         0.00000E+00
    0.00000E+00         0.00000E+00         0.00000E+00
 
    0.20343E+06         0.50609E+07         0.00000E+00
    0.50609E+07        -0.10758E+08         0.00000E+00
    0.00000E+00         0.00000E+00         0.00000E+00
 
    0.17295E+06         0.52348E+07         0.00000E+00
    0.52348E+07        -0.10756E+08         0.00000E+00
    0.00000E+00         0.00000E+00         0.00000E+00
 
    0.14236E+06         0.54114E+07         0.00000E+00
    0.54114E+07        -0.10752E+08         0.00000E+00
    0.00000E+00         0.00000E+00         0.00000E+00
 
    0.11158E+06         0.55909E+07         0.00000E+00
    0.55909E+07        -0.10745E+08         0.00000E+00
    0.00000E+00         0.00000E+00         0.00000E+00
 
    0.80375E+05         0.57735E+07         0.00000E+00
    0.57735E+07        -0.10737E+08         0.00000E+00
    0.00000E+00         0.00000E+00         0.00000E+00
 
    0.48537E+05         0.59590E+07         0.00000E+00
    0.59590E+07        -0.10725E+08         0.00000E+00
    0.00000E+00         0.00000E+00         0.00000E+00
 
    0.16226E+05         0.61471E+07         0.00000E+00
    0.61471E+07        -0.10711E+08         0.00000E+00
    0.00000E+00         0.00000E+00         0.00000E+00
 
    0.24457E+07         0.30956E+05         0.00000E+00
    0.30956E+05        -0.10951E+08         0.00000E+00
    0.00000E+00         0.00000E+00         0.00000E+00
 
    0.22851E+07         0.93673E+05         0.00000E+00
    0.93673E+05        -0.10954E+08         0.00000E+00
    0.00000E+00         0.00000E+00         0.00000E+00
 
    0.21338E+07         0.15709E+06         0.00000E+00
    0.15709E+06        -0.10961E+08         0.00000E+00
    0.00000E+00         0.00000E+00         0.00000E+00
 
    0.19914E+07         0.22147E+06         0.00000E+00
    0.22147E+06        -0.10971E+08         0.00000E+00
    0.00000E+00         0.00000E+00         0.00000E+00
 
    0.18574E+07         0.28708E+06         0.00000E+00
    0.28708E+06        -0.10984E+08         0.00000E+00
    0.00000E+00         0.00000E+00         0.00000E+00
 
    0.17316E+07         0.35415E+06         0.00000E+00
    0.35415E+06        -0.10999E+08         0.00000E+00
    0.00000E+00         0.00000E+00         0.00000E+00
 
    0.16137E+07         0.42289E+06         0.00000E+00
    0.42289E+06        -0.11017E+08         0.00000E+00
    0.00000E+00         0.00000E+00         0.00000E+00
 
    0.15033E+07         0.49352E+06         0.00000E+00
    0.49352E+06        -0.11037E+08         0.00000E+00
    0.00000E+00         0.00000E+00         0.00000E+00
 
    0.14001E+07         0.56622E+06         0.00000E+00
    0.56622E+06        -0.11060E+08         0.00000E+00
    0.00000E+00         0.00000E+00         0.00000E+00
 
    0.13037E+07         0.64115E+06         0.00000E+00
    0.64115E+06        -0.11085E+08         0.00000E+00
    0.00000E+00         0.00000E+00         0.00000E+00
 
    0.12139E+07         0.71849E+06         0.00000E+00
    0.71849E+06        -0.11111E+08         0.00000E+00
    0.00000E+00         0.00000E+00         0.00000E+00
 
    0.11303E+07         0.79837E+06         0.00000E+00
    0.79837E+06        -0.11140E+08         0.00000E+00
    0.00000E+00         0.00000E+00         0.00000E+00
 
    0.10525E+07         0.88092E+06         0.00000E+00
    0.88092E+06        -0.11169E+08         0.00000E+00
    0.00000E+00         0.00000E+00         0.00000E+00
 
    0.98034E+06         0.96627E+06         0.00000E+00
    0.96627E+06        -0.11201E+08         0.00000E+00
    0.00000E+00         0.00000E+00         0.00000E+00
 
    0.91341E+06         0.10545E+07         0.00000E+00
    0.10545E+07        -0.11233E+08         0.00000E+00
    0.00000E+00         0.00000E+00         0.00000E+00
 
    0.85143E+06         0.11458E+07         0.00000E+00
    0.11458E+07        -0.11266E+08         0.00000E+00
    0.00000E+00         0.00000E+00         0.00000E+00
 
    0.79410E+06         0.12401E+07         0.00000E+00
    0.12401E+07        -0.11301E+08         0.00000E+00
    0.00000E+00         0.00000E+00         0.00000E+00
 
    0.74113E+06         0.13376E+07         0.00000E+00
    0.13376E+07        -0.11336E+08         0.00000E+00
    0.00000E+00         0.00000E+00         0.00000E+00
 
    0.69221E+06         0.14384E+07         0.00000E+00
    0.14384E+07        -0.11372E+08         0.00000E+00
    0.00000E+00         0.00000E+00         0.00000E+00
 
    0.64707E+06         0.15424E+07         0.00000E+00
    0.15424E+07        -0.11408E+08         0.00000E+00
    0.00000E+00         0.00000E+00         0.00000E+00
 
    0.60542E+06         0.16498E+07         0.00000E+00
    0.16498E+07        -0.11444E+08         0.00000E+00
    0.00000E+00         0.00000E+00         0.00000E+00
 
    0.56701E+06         0.17605E+07         0.00000E+00
    0.17605E+07        -0.11481E+08         0.00000E+00
    0.00000E+00         0.00000E+00         0.00000E+00
 
    0.53156E+06         0.18747E+07         0.00000E+00
    0.18747E+07        -0.11518E+08         0.00000E+00
    0.00000E+00         0.00000E+00         0.00000E+00
 
    0.49881E+06         0.19923E+07         0.00000E+00
    0.19923E+07        -0.11554E+08         0.00000E+00
    0.00000E+00         0.00000E+00         0.00000E+00
 
    0.46852E+06         0.21133E+07         0.00000E+00
    0.21133E+07        -0.11590E+08         0.00000E+00
    0.00000E+00         0.00000E+00         0.00000E+00
 
    0.44044E+06         0.22378E+07         0.00000E+00
    0.22378E+07        -0.11626E+08         0.00000E+00
    0.00000E+00         0.00000E+00         0.00000E+00
 
    0.41434E+06         0.23658E+07         0.00000E+00
    0.23658E+07        -0.11661E+08         0.00000E+00
    0.00000E+00         0.00000E+00         0.00000E+00
 
    0.39000E+06         0.24972E+07         0.00000E+00
    0.24972E+07        -0.11696E+08         0.00000E+00
    0.00000E+00         0.00000E+00         0.00000E+00
 
    0.36721E+06         0.26321E+07         0.00000E+00
    0.26321E+07        -0.11730E+08         0.00000E+00
    0.00000E+00         0.00000E+00         0.00000E+00
 
    0.34575E+06         0.27704E+07         0.00000E+00
    0.27704E+07        -0.11762E+08         0.00000E+00
    0.00000E+00         0.00000E+00         0.00000E+00
 
    0.32544E+06         0.29121E+07         0.00000E+00
    0.29121E+07        -0.11794E+08         0.00000E+00
    0.00000E+00         0.00000E+00         0.00000E+00
 
    0.30608E+06         0.30572E+07         0.00000E+00
    0.30572E+07        -0.11825E+08         0.00000E+00
    0.00000E+00         0.00000E+00         0.00000E+00
 
    0.28752E+06         0.32056E+07         0.00000E+00
    0.32056E+07        -0.11854E+08         0.00000E+00
    0.00000E+00         0.00000E+00         0.00000E+00
 
    0.26959E+06         0.33573E+07         0.00000E+00
    0.33573E+07        -0.11882E+08         0.00000E+00
    0.00000E+00         0.00000E+00         0.00000E+00
 
    0.25215E+06         0.35123E+07         0.00000E+00
    0.35123E+07        -0.11908E+08         0.00000E+00
    0.00000E+00         0.00000E+00         0.00000E+00
 
    0.23507E+06         0.36705E+07         0.00000E+00
    0.36705E+07        -0.11933E+08         0.00000E+00
    0.00000E+00         0.00000E+00         0.00000E+00
 
    0.21825E+06         0.38319E+07         0.00000E+00
    0.38319E+07        -0.11956E+08         0.00000E+00
    0.00000E+00         0.00000E+00         0.00000E+00
 
    0.20158E+06         0.39964E+07         0.00000E+00
    0.39964E+07        -0.11977E+08         0.00000E+00
    0.00000E+00         0.00000E+00         0.00000E+00
 
    0.18498E+06         0.41639E+07         0.00000E+00
    0.41639E+07        -0.11997E+08         0.00000E+00
    0.00000E+00         0.00000E+00         0.00000E+00
 
    0.16839E+06         0.43345E+07         0.00000E+00
    0.43345E+07        -0.12014E+08         0.00000E+00
    0.00000E+00         0.00000E+00         0.00000E+00
 
    0.15179E+06         0.45079E+07         0.00000E+00
    0.45079E+07        -0.12029E+08         0.00000E+00
    0.00000E+00         0.00000E+00         0.00000E+00
 
    0.13521E+06         0.46842E+07         0.00000E+00
    0.46842E+07        -0.12042E+08         0.00000E+00
    0.00000E+00         0.00000E+00         0.00000E+00
 
    0.11869E+06         0.48633E+07         0.00000E+00
    0.48633E+07        -0.12053E+08         0.00000E+00
    0.00000E+00         0.00000E+00         0.00000E+00
 
    0.10230E+06         0.50453E+07         0.00000E+00
    0.50453E+07        -0.12061E+08         0.00000E+00
    0.00000E+00         0.00000E+00         0.00000E+00
 
    0.86003E+05         0.52303E+07         0.00000E+00
    0.52303E+07        -0.12068E+08         0.00000E+00
    0.00000E+00         0.00000E+00         0.00000E+00
 
    0.69755E+05         0.54182E+07         0.00000E+00
    0.54182E+07        -0.12072E+08         0.00000E+00
    0.00000E+00         0.00000E+00         0.00000E+00
 
    0.53643E+05         0.56089E+07         0.00000E+00
    0.56089E+07        -0.12073E+08         0.00000E+00
    0.00000E+00         0.00000E+00         0.00000E+00
 
    0.38158E+05         0.58020E+07         0.00000E+00
    0.58020E+07        -0.12072E+08         0.00000E+00
    0.00000E+00         0.00000E+00         0.00000E+00
 
    0.23372E+05         0.59990E+07         0.00000E+00
    0.59990E+07        -0.12070E+08         0.00000E+00
    0.00000E+00         0.00000E+00         0.00000E+00
 
    0.80329E+04         0.62014E+07         0.00000E+00
    0.62014E+07        -0.12068E+08         0.00000E+00
    0.00000E+00         0.00000E+00         0.00000E+00
 
    0.16533E+07         0.20418E+05         0.00000E+00
    0.20418E+05        -0.12010E+08         0.00000E+00
    0.00000E+00         0.00000E+00         0.00000E+00
 
    0.14979E+07         0.64705E+05         0.00000E+00
    0.64705E+05        -0.12014E+08         0.00000E+00
    0.00000E+00         0.00000E+00         0.00000E+00
 
    0.13530E+07         0.11066E+06         0.00000E+00
    0.11066E+06        -0.12022E+08         0.00000E+00
    0.00000E+00         0.00000E+00         0.00000E+00
 
    0.12184E+07         0.15855E+06         0.00000E+00
    0.15855E+06        -0.12035E+08         0.00000E+00
    0.00000E+00         0.00000E+00         0.00000E+00
 
    0.10935E+07         0.20862E+06         0.00000E+00
    0.20862E+06        -0.12050E+08         0.00000E+00
    0.00000E+00         0.00000E+00         0.00000E+00
 
    0.97785E+06         0.26111E+06         0.00000E+00
    0.26111E+06        -0.12069E+08         0.00000E+00
    0.00000E+00         0.00000E+00         0.00000E+00
 
    0.87112E+06         0.31623E+06         0.00000E+00
    0.31623E+06        -0.12091E+08         0.00000E+00
    0.00000E+00         0.00000E+00         0.00000E+00
 
    0.77286E+06         0.37417E+06         0.00000E+00
    0.37417E+06        -0.12116E+08         0.00000E+00
    0.00000E+00         0.00000E+00         0.00000E+00
 
    0.68266E+06         0.43511E+06         0.00000E+00
    0.43511E+06        -0.12143E+08         0.00000E+00
    0.00000E+00         0.00000E+00         0.00000E+00
 
    0.60011E+06         0.49921E+06         0.00000E+00
    0.49921E+06        -0.12173E+08         0.00000E+00
    0.00000E+00         0.00000E+00         0.00000E+00
 
    0.52481E+06         0.56660E+06         0.00000E+00
    0.56660E+06        -0.12205E+08         0.00000E+00
    0.00000E+00         0.00000E+00         0.00000E+00
 
    0.45638E+06         0.63744E+06         0.00000E+00
    0.63744E+06        -0.12240E+08         0.00000E+00
    0.00000E+00         0.00000E+00         0.00000E+00
 
    0.39443E+06         0.71182E+06         0.00000E+00
    0.71182E+06        -0.12276E+08         0.00000E+00
    0.00000E+00         0.00000E+00         0.00000E+00
 
    0.33859E+06         0.78987E+06         0.00000E+00
    0.78987E+06        -0.12314E+08         0.00000E+00
    0.00000E+00         0.00000E+00         0.00000E+00
 
    0.28849E+06         0.87167E+06         0.00000E+00
    0.87167E+06        -0.12353E+08         0.00000E+00
    0.00000E+00         0.00000E+00         0.00000E+00
 
    0.24376E+06         0.95730E+06         0.00000E+00
    0.95730E+06        -0.12394E+08         0.00000E+00
    0.00000E+00         0.00000E+00         0.00000E+00
 
    0.20405E+06         0.10468E+07         0.00000E+00
    0.10468E+07        -0.12436E+08         0.00000E+00
    0.00000E+00         0.00000E+00         0.00000E+00
 
    0.16902E+06         0.11404E+07         0.00000E+00
    0.11404E+07        -0.12479E+08         0.00000E+00
    0.00000E+00         0.00000E+00         0.00000E+00
 
    0.13832E+06         0.12379E+07         0.00000E+00
    0.12379E+07        -0.12523E+08         0.00000E+00
    0.00000E+00         0.00000E+00         0.00000E+00
 
    0.11164E+06         0.13395E+07         0.00000E+00
    0.13395E+07        -0.12567E+08         0.00000E+00
    0.00000E+00         0.00000E+00         0.00000E+00
 
    0.88639E+05         0.14452E+07         0.00000E+00
    0.14452E+07        -0.12612E+08         0.00000E+00
    0.00000E+00         0.00000E+00         0.00000E+00
 
    0.69014E+05         0.15550E+07         0.00000E+00
    0.15550E+07        -0.12658E+08         0.00000E+00
    0.00000E+00         0.00000E+00         0.00000E+00
 
    0.52457E+05         0.16690E+07         0.00000E+00
    0.16690E+07        -0.12704E+08         0.00000E+00
    0.00000E+00         0.00000E+00         0.00000E+00
 
    0.38673E+05         0.17871E+07         0.00000E+00
    0.17871E+07        -0.12749E+08         0.00000E+00
    0.00000E+00         0.00000E+00         0.00000E+00
 
    0.27375E+05         0.19094E+07         0.00000E+00
    0.19094E+07        -0.12795E+08         0.00000E+00
    0.00000E+00         0.00000E+00         0.00000E+00
 
    0.18286E+05         0.20359E+07         0.00000E+00
    0.20359E+07        -0.12840E+08         0.00000E+00
    0.00000E+00         0.00000E+00         0.00000E+00
 
    0.11138E+05         0.21664E+07         0.00000E+00
    0.21664E+07        -0.12886E+08         0.00000E+00
    0.00000E+00         0.00000E+00         0.00000E+00
 
    0.56747E+04         0.23011E+07         0.00000E+00
    0.23011E+07        -0.12930E+08         0.00000E+00
    0.00000E+00         0.00000E+00         0.00000E+00
 
    0.16490E+04         0.24399E+07         0.00000E+00
    0.24399E+07        -0.12974E+08         0.00000E+00
    0.00000E+00         0.00000E+00         0.00000E+00
 
   -0.11743E+04         0.25828E+07         0.00000E+00
    0.25828E+07        -0.13018E+08         0.00000E+00
    0.00000E+00         0.00000E+00         0.00000E+00
 
   -0.30173E+04         0.27297E+07         0.00000E+00
    0.27297E+07        -0.13060E+08         0.00000E+00
    0.00000E+00         0.00000E+00         0.00000E+00
 
   -0.40881E+04         0.28805E+07         0.00000E+00
    0.28805E+07        -0.13102E+08         0.00000E+00
    0.00000E+00         0.00000E+00         0.00000E+00
 
   -0.45806E+04         0.30353E+07         0.00000E+00
    0.30353E+07        -0.13142E+08         0.00000E+00
    0.00000E+00         0.00000E+00         0.00000E+00
 
   -0.46768E+04         0.31940E+07         0.00000E+00
    0.31940E+07        -0.13181E+08         0.00000E+00
    0.00000E+00         0.00000E+00         0.00000E+00
 
   -0.45474E+04         0.33566E+07         0.00000E+00
    0.33566E+07        -0.13219E+08         0.00000E+00
    0.00000E+00         0.00000E+00         0.00000E+00
 
   -0.43473E+04         0.35229E+07         0.00000E+00
    0.35229E+07        -0.13255E+08         0.00000E+00
    0.00000E+00         0.00000E+00         0.00000E+00
 
   -0.42006E+04         0.36929E+07         0.00000E+00
    0.36929E+07        -0.13290E+08         0.00000E+00
    0.00000E+00         0.00000E+00         0.00000E+00
 
   -0.41955E+04         0.38665E+07         0.00000E+00
    0.38665E+07        -0.13323E+08         0.00000E+00
    0.00000E+00         0.00000E+00         0.00000E+00
 
   -0.43890E+04         0.40436E+07         0.00000E+00
    0.40436E+07        -0.13354E+08         0.00000E+00
    0.00000E+00         0.00000E+00         0.00000E+00
 
   -0.48178E+04         0.42242E+07         0.00000E+00
    0.42242E+07        -0.13384E+08         0.00000E+00
    0.00000E+00         0.00000E+00         0.00000E+00
 
   -0.55917E+04         0.44085E+07         0.00000E+00
    0.44085E+07        -0.13412E+08         0.00000E+00
    0.00000E+00         0.00000E+00         0.00000E+00
 
   -0.68137E+04         0.45961E+07         0.00000E+00
    0.45961E+07        -0.13437E+08         0.00000E+00
    0.00000E+00         0.00000E+00         0.00000E+00
 
   -0.85051E+04         0.47870E+07         0.00000E+00
    0.47870E+07        -0.13460E+08         0.00000E+00
    0.00000E+00         0.00000E+00         0.00000E+00
 
   -0.10449E+05         0.49807E+07         0.00000E+00
    0.49807E+07        -0.13481E+08         0.00000E+00
    0.00000E+00         0.00000E+00         0.00000E+00
 
   -0.11927E+05         0.51767E+07         0.00000E+00
    0.51767E+07        -0.13499E+08         0.00000E+00
    0.00000E+00         0.00000E+00         0.00000E+00
 
   -0.12207E+05         0.53758E+07         0.00000E+00
    0.53758E+07        -0.13516E+08         0.00000E+00
    0.00000E+00         0.00000E+00         0.00000E+00
 
   -0.11118E+05         0.55789E+07         0.00000E+00
    0.55789E+07        -0.13531E+08         0.00000E+00
    0.00000E+00         0.00000E+00         0.00000E+00
 
   -0.99974E+04         0.57878E+07         0.00000E+00
    0.57878E+07        -0.13544E+08         0.00000E+00
    0.00000E+00         0.00000E+00         0.00000E+00
 
   -0.86458E+04         0.59977E+07         0.00000E+00
    0.59977E+07        -0.13545E+08         0.00000E+00
    0.00000E+00         0.00000E+00         0.00000E+00
 
   -0.37732E+04         0.62072E+07         0.00000E+00
    0.62072E+07        -0.13538E+08         0.00000E+00
    0.00000E+00         0.00000E+00         0.00000E+00
 
    0.68909E+06         0.76279E+04         0.00000E+00
    0.76279E+04        -0.13137E+08         0.00000E+00
    0.00000E+00         0.00000E+00         0.00000E+00
 
    0.54427E+06         0.29825E+05         0.00000E+00
    0.29825E+05        -0.13142E+08         0.00000E+00
    0.00000E+00         0.00000E+00         0.00000E+00
 
    0.41142E+06         0.54929E+05         0.00000E+00
    0.54929E+05        -0.13152E+08         0.00000E+00
    0.00000E+00         0.00000E+00         0.00000E+00
 
    0.28998E+06         0.83186E+05         0.00000E+00
    0.83186E+05        -0.13166E+08         0.00000E+00
    0.00000E+00         0.00000E+00         0.00000E+00
 
    0.17943E+06         0.11482E+06         0.00000E+00
    0.11482E+06        -0.13184E+08         0.00000E+00
    0.00000E+00         0.00000E+00         0.00000E+00
 
    0.79222E+05         0.15004E+06         0.00000E+00
    0.15004E+06        -0.13206E+08         0.00000E+00
    0.00000E+00         0.00000E+00         0.00000E+00
 
   -0.11150E+05         0.18902E+06         0.00000E+00
    0.18902E+06        -0.13232E+08         0.00000E+00
    0.00000E+00         0.00000E+00         0.00000E+00
 
   -0.92192E+05         0.23194E+06         0.00000E+00
    0.23194E+06        -0.13261E+08         0.00000E+00
    0.00000E+00         0.00000E+00         0.00000E+00
 
   -0.16440E+06         0.27894E+06         0.00000E+00
    0.27894E+06        -0.13293E+08         0.00000E+00
    0.00000E+00         0.00000E+00         0.00000E+00
 
   -0.22825E+06         0.33016E+06         0.00000E+00
    0.33016E+06        -0.13328E+08         0.00000E+00
    0.00000E+00         0.00000E+00         0.00000E+00
 
   -0.28421E+06         0.38570E+06         0.00000E+00
    0.38570E+06        -0.13366E+08         0.00000E+00
    0.00000E+00         0.00000E+00         0.00000E+00
 
   -0.33275E+06         0.44569E+06         0.00000E+00
    0.44569E+06        -0.13406E+08         0.00000E+00
    0.00000E+00         0.00000E+00         0.00000E+00
 
   -0.37430E+06         0.51021E+06         0.00000E+00
    0.51021E+06        -0.13448E+08         0.00000E+00
    0.00000E+00         0.00000E+00         0.00000E+00
 
   -0.40931E+06         0.57934E+06         0.00000E+00
    0.57934E+06        -0.13493E+08         0.00000E+00
    0.00000E+00         0.00000E+00         0.00000E+00
 
   -0.43820E+06         0.65316E+06         0.00000E+00
    0.65316E+06        -0.13539E+08         0.00000E+00
    0.00000E+00         0.00000E+00         0.00000E+00
 
   -0.46139E+06         0.73171E+06         0.00000E+00
    0.73171E+06        -0.13587E+08         0.00000E+00
    0.00000E+00         0.00000E+00         0.00000E+00
 
   -0.47927E+06         0.81505E+06         0.00000E+00
    0.81505E+06        -0.13636E+08         0.00000E+00
    0.00000E+00         0.00000E+00         0.00000E+00
 
   -0.49225E+06         0.90322E+06         0.00000E+00
    0.90322E+06        -0.13687E+08         0.00000E+00
    0.00000E+00         0.00000E+00         0.00000E+00
 
   -0.50070E+06         0.99624E+06         0.00000E+00
    0.99624E+06        -0.13739E+08         0.00000E+00
    0.00000E+00         0.00000E+00         0.00000E+00
 
   -0.50500E+06         0.10941E+07         0.00000E+00
    0.10941E+07        -0.13792E+08         0.00000E+00
    0.00000E+00         0.00000E+00         0.00000E+00
 
   -0.50552E+06         0.11969E+07         0.00000E+00
    0.11969E+07        -0.13845E+08         0.00000E+00
    0.00000E+00         0.00000E+00         0.00000E+00
 
   -0.50261E+06         0.13046E+07         0.00000E+00
    0.13046E+07        -0.13899E+08         0.00000E+00
    0.00000E+00         0.00000E+00         0.00000E+00
 
   -0.49661E+06         0.14172E+07         0.00000E+00
    0.14172E+07        -0.13954E+08         0.00000E+00
    0.00000E+00         0.00000E+00         0.00000E+00
 
   -0.48786E+06         0.15347E+07         0.00000E+00
    0.15347E+07        -0.14009E+08         0.00000E+00
    0.00000E+00         0.00000E+00         0.00000E+00
 
   -0.47667E+06         0.16570E+07         0.00000E+00
    0.16570E+07        -0.14064E+08         0.00000E+00
    0.00000E+00         0.00000E+00         0.00000E+00
 
   -0.46338E+06         0.17841E+07         0.00000E+00
    0.17841E+07        -0.14120E+08         0.00000E+00
    0.00000E+00         0.00000E+00         0.00000E+00
 
   -0.44826E+06         0.19161E+07         0.00000E+00
    0.19161E+07        -0.14175E+08         0.00000E+00
    0.00000E+00         0.00000E+00         0.00000E+00
 
   -0.43163E+06         0.20528E+07         0.00000E+00
    0.20528E+07        -0.14230E+08         0.00000E+00
    0.00000E+00         0.00000E+00         0.00000E+00
 
   -0.41374E+06         0.21943E+07         0.00000E+00
    0.21943E+07        -0.14285E+08         0.00000E+00
    0.00000E+00         0.00000E+00         0.00000E+00
 
   -0.39488E+06         0.23404E+07         0.00000E+00
    0.23404E+07        -0.14339E+08         0.00000E+00
    0.00000E+00         0.00000E+00         0.00000E+00
 
   -0.37529E+06         0.24911E+07         0.00000E+00
    0.24911E+07        -0.14393E+08         0.00000E+00
    0.00000E+00         0.00000E+00         0.00000E+00
 
   -0.35522E+06         0.26464E+07         0.00000E+00
    0.26464E+07        -0.14446E+08         0.00000E+00
    0.00000E+00         0.00000E+00         0.00000E+00
 
   -0.33490E+06         0.28062E+07         0.00000E+00
    0.28062E+07        -0.14498E+08         0.00000E+00
    0.00000E+00         0.00000E+00         0.00000E+00
 
   -0.31452E+06         0.29703E+07         0.00000E+00
    0.29703E+07        -0.14550E+08         0.00000E+00
    0.00000E+00         0.00000E+00         0.00000E+00
 
   -0.29423E+06         0.31387E+07         0.00000E+00
    0.31387E+07        -0.14600E+08         0.00000E+00
    0.00000E+00         0.00000E+00         0.00000E+00
 
   -0.27418E+06         0.33113E+07         0.00000E+00
    0.33113E+07        -0.14650E+08         0.00000E+00
    0.00000E+00         0.00000E+00         0.00000E+00
 
   -0.25456E+06         0.34882E+07         0.00000E+00
    0.34882E+07        -0.14699E+08         0.00000E+00
    0.00000E+00         0.00000E+00         0.00000E+00
 
   -0.23557E+06         0.36691E+07         0.00000E+00
    0.36691E+07        -0.14746E+08         0.00000E+00
    0.00000E+00         0.00000E+00         0.00000E+00
 
   -0.21740E+06         0.38541E+07         0.00000E+00
    0.38541E+07        -0.14793E+08         0.00000E+00
    0.00000E+00         0.00000E+00         0.00000E+00
 
   -0.20008E+06         0.40428E+07         0.00000E+00
    0.40428E+07        -0.14838E+08         0.00000E+00
    0.00000E+00         0.00000E+00         0.00000E+00
 
   -0.18321E+06         0.42345E+07         0.00000E+00
    0.42345E+07        -0.14881E+08         0.00000E+00
    0.00000E+00         0.00000E+00         0.00000E+00
 
   -0.16638E+06         0.44299E+07         0.00000E+00
    0.44299E+07        -0.14925E+08         0.00000E+00
    0.00000E+00         0.00000E+00         0.00000E+00
 
   -0.14942E+06         0.46293E+07         0.00000E+00
    0.46293E+07        -0.14969E+08         0.00000E+00
    0.00000E+00         0.00000E+00         0.00000E+00
 
   -0.13299E+06         0.48342E+07         0.00000E+00
    0.48342E+07        -0.15012E+08         0.00000E+00
    0.00000E+00         0.00000E+00         0.00000E+00
 
   -0.11910E+06         0.50450E+07         0.00000E+00
    0.50450E+07        -0.15053E+08         0.00000E+00
    0.00000E+00         0.00000E+00         0.00000E+00
 
   -0.10868E+06         0.52579E+07         0.00000E+00
    0.52579E+07        -0.15084E+08         0.00000E+00
    0.00000E+00         0.00000E+00         0.00000E+00
 
   -0.99459E+05         0.54688E+07         0.00000E+00
    0.54688E+07        -0.15112E+08         0.00000E+00
    0.00000E+00         0.00000E+00         0.00000E+00
 
   -0.82855E+05         0.56715E+07         0.00000E+00
    0.56715E+07        -0.15144E+08         0.00000E+00
    0.00000E+00         0.00000E+00         0.00000E+00
 
   -0.54872E+05         0.58853E+07         0.00000E+00
    0.58853E+07        -0.15215E+08         0.00000E+00
    0.00000E+00         0.00000E+00         0.00000E+00
 
   -0.56317E+05         0.60895E+07         0.00000E+00
    0.60895E+07        -0.15295E+08         0.00000E+00
    0.00000E+00         0.00000E+00        -0.37072E+05
 
   -0.46492E+06        -0.73339E+04         0.00000E+00
   -0.73339E+04        -0.14331E+08         0.00000E+00
    0.00000E+00         0.00000E+00         0.00000E+00
 
   -0.59212E+06        -0.10664E+05         0.00000E+00
   -0.10664E+05        -0.14337E+08         0.00000E+00
    0.00000E+00         0.00000E+00         0.00000E+00
 
   -0.70617E+06        -0.95608E+04         0.00000E+00
   -0.95608E+04        -0.14348E+08         0.00000E+00
    0.00000E+00         0.00000E+00         0.00000E+00
 
   -0.80775E+06        -0.38291E+04         0.00000E+00
   -0.38291E+04        -0.14364E+08         0.00000E+00
    0.00000E+00         0.00000E+00         0.00000E+00
 
   -0.89749E+06         0.67043E+04         0.00000E+00
    0.67043E+04        -0.14385E+08         0.00000E+00
    0.00000E+00         0.00000E+00         0.00000E+00
 
   -0.97603E+06         0.22193E+05         0.00000E+00
    0.22193E+05        -0.14410E+08         0.00000E+00
    0.00000E+00         0.00000E+00         0.00000E+00
 
   -0.10440E+07         0.42773E+05         0.00000E+00
    0.42773E+05        -0.14439E+08         0.00000E+00
    0.00000E+00         0.00000E+00         0.00000E+00
 
   -0.11019E+07         0.68562E+05         0.00000E+00
    0.68562E+05        -0.14471E+08         0.00000E+00
    0.00000E+00         0.00000E+00         0.00000E+00
 
   -0.11504E+07         0.99664E+05         0.00000E+00
    0.99664E+05        -0.14508E+08         0.00000E+00
    0.00000E+00         0.00000E+00         0.00000E+00
 
   -0.11900E+07         0.13617E+06         0.00000E+00
    0.13617E+06        -0.14547E+08         0.00000E+00
    0.00000E+00         0.00000E+00         0.00000E+00
 
   -0.12213E+07         0.17815E+06         0.00000E+00
    0.17815E+06        -0.14589E+08         0.00000E+00
    0.00000E+00         0.00000E+00         0.00000E+00
 
   -0.12448E+07         0.22567E+06         0.00000E+00
    0.22567E+06        -0.14635E+08         0.00000E+00
    0.00000E+00         0.00000E+00         0.00000E+00
 
   -0.12609E+07         0.27878E+06         0.00000E+00
    0.27878E+06        -0.14682E+08         0.00000E+00
    0.00000E+00         0.00000E+00         0.00000E+00
 
   -0.12703E+07         0.33752E+06         0.00000E+00
    0.33752E+06        -0.14732E+08         0.00000E+00
    0.00000E+00         0.00000E+00         0.00000E+00
 
   -0.12732E+07         0.40192E+06         0.00000E+00
    0.40192E+06        -0.14784E+08         0.00000E+00
    0.00000E+00         0.00000E+00         0.00000E+00
 
   -0.12703E+07         0.47201E+06         0.00000E+00
    0.47201E+06        -0.14838E+08         0.00000E+00
    0.00000E+00         0.00000E+00         0.00000E+00
 
   -0.12620E+07         0.54780E+06         0.00000E+00
    0.54780E+06        -0.14894E+08         0.00000E+00
    0.00000E+00         0.00000E+00         0.00000E+00
 
   -0.12486E+07         0.62928E+06         0.00000E+00
    0.62928E+06        -0.14952E+08         0.00000E+00
    0.00000E+00         0.00000E+00         0.00000E+00
 
   -0.12307E+07         0.71647E+06         0.00000E+00
    0.71647E+06        -0.15010E+08         0.00000E+00
    0.00000E+00         0.00000E+00         0.00000E+00
 
   -0.12086E+07         0.80935E+06         0.00000E+00
    0.80935E+06        -0.15070E+08         0.00000E+00
    0.00000E+00         0.00000E+00         0.00000E+00
 
   -0.11828E+07         0.90791E+06         0.00000E+00
    0.90791E+06        -0.15131E+08         0.00000E+00
    0.00000E+00         0.00000E+00         0.00000E+00
 
   -0.11536E+07         0.10121E+07         0.00000E+00
    0.10121E+07        -0.15193E+08         0.00000E+00
    0.00000E+00         0.00000E+00         0.00000E+00
 
   -0.11214E+07         0.11219E+07         0.00000E+00
    0.11219E+07        -0.15255E+08         0.00000E+00
    0.00000E+00         0.00000E+00         0.00000E+00
 
   -0.10866E+07         0.12373E+07         0.00000E+00
    0.12373E+07        -0.15319E+08         0.00000E+00
    0.00000E+00         0.00000E+00         0.00000E+00
 
   -0.10496E+07         0.13583E+07         0.00000E+00
    0.13583E+07        -0.15382E+08         0.00000E+00
    0.00000E+00         0.00000E+00         0.00000E+00
 
   -0.10106E+07         0.14847E+07         0.00000E+00
    0.14847E+07        -0.15446E+08         0.00000E+00
    0.00000E+00         0.00000E+00         0.00000E+00
 
   -0.97012E+06         0.16165E+07         0.00000E+00
    0.16165E+07        -0.15511E+08         0.00000E+00
    0.00000E+00         0.00000E+00         0.00000E+00
 
   -0.92838E+06         0.17537E+07         0.00000E+00
    0.17537E+07        -0.15575E+08         0.00000E+00
    0.00000E+00         0.00000E+00         0.00000E+00
 
   -0.88575E+06         0.18962E+07         0.00000E+00
    0.18962E+07        -0.15639E+08         0.00000E+00
    0.00000E+00         0.00000E+00         0.00000E+00
 
   -0.84251E+06         0.20438E+07         0.00000E+00
    0.20438E+07        -0.15704E+08         0.00000E+00
    0.00000E+00         0.00000E+00         0.00000E+00
 
   -0.79895E+06         0.21965E+07         0.00000E+00
    0.21965E+07        -0.15768E+08         0.00000E+00
    0.00000E+00         0.00000E+00         0.00000E+00
 
   -0.75533E+06         0.23542E+07         0.00000E+00
    0.23542E+07        -0.15832E+08         0.00000E+00
    0.00000E+00         0.00000E+00         0.00000E+00
 
   -0.71192E+06         0.25167E+07         0.00000E+00
    0.25167E+07        -0.15895E+08         0.00000E+00
    0.00000E+00         0.00000E+00         0.00000E+00
 
   -0.66904E+06         0.26841E+07         0.00000E+00
    0.26841E+07        -0.15959E+08         0.00000E+00
    0.00000E+00         0.00000E+00         0.00000E+00
 
   -0.62703E+06         0.28561E+07         0.00000E+00
    0.28561E+07        -0.16021E+08         0.00000E+00
    0.00000E+00         0.00000E+00         0.00000E+00
 
   -0.58612E+06         0.30325E+07         0.00000E+00
    0.30325E+07        -0.16083E+08         0.00000E+00
    0.00000E+00         0.00000E+00         0.00000E+00
 
   -0.54624E+06         0.32125E+07         0.00000E+00
    0.32125E+07        -0.16145E+08         0.00000E+00
    0.00000E+00         0.00000E+00         0.00000E+00
 
   -0.50716E+06         0.33964E+07         0.00000E+00
    0.33964E+07        -0.16206E+08         0.00000E+00
    0.00000E+00         0.00000E+00         0.00000E+00
 
   -0.46874E+06         0.35842E+07         0.00000E+00
    0.35842E+07        -0.16268E+08         0.00000E+00
    0.00000E+00         0.00000E+00         0.00000E+00
 
   -0.43149E+06         0.37769E+07         0.00000E+00
    0.37769E+07        -0.16331E+08         0.00000E+00
    0.00000E+00         0.00000E+00         0.00000E+00
 
   -0.39723E+06         0.39755E+07         0.00000E+00
    0.39755E+07        -0.16393E+08         0.00000E+00
    0.00000E+00         0.00000E+00         0.00000E+00
 
   -0.36728E+06         0.41765E+07         0.00000E+00
    0.41765E+07        -0.16447E+08         0.00000E+00
    0.00000E+00         0.00000E+00         0.00000E+00
 
   -0.34152E+06         0.43780E+07         0.00000E+00
    0.43780E+07        -0.16499E+08         0.00000E+00
    0.00000E+00         0.00000E+00         0.00000E+00
 
   -0.31602E+06         0.45734E+07         0.00000E+00
    0.45734E+07        -0.16551E+08         0.00000E+00
    0.00000E+00         0.00000E+00         0.00000E+00
 
   -0.28249E+06         0.47635E+07         0.00000E+00
    0.47635E+07        -0.16615E+08         0.00000E+00
    0.00000E+00         0.00000E+00         0.00000E+00
 
   -0.24604E+06         0.49598E+07         0.00000E+00
    0.49598E+07        -0.16720E+08         0.00000E+00
    0.00000E+00         0.00000E+00        -0.83569E+04
 
   -0.25826E+06         0.51411E+07         0.00000E+00
    0.51411E+07        -0.16818E+08         0.00000E+00
    0.00000E+00         0.00000E+00        -0.72589E+05
 
   -0.28673E+06         0.53161E+07         0.00000E+00
    0.53161E+07        -0.16917E+08         0.00000E+00
    0.00000E+00         0.00000E+00        -0.15360E+06
 
   -0.38136E+06         0.54647E+07         0.00000E+00
    0.54647E+07        -0.16993E+08         0.00000E+00
    0.00000E+00         0.00000E+00        -0.30232E+06
 
   -0.50943E+06         0.55979E+07         0.00000E+00
    0.55979E+07        -0.17083E+08         0.00000E+00
    0.00000E+00         0.00000E+00        -0.48378E+06
 
   -0.18239E+07        -0.24156E+05         0.00000E+00
   -0.24156E+05        -0.15590E+08         0.00000E+00
    0.00000E+00         0.00000E+00         0.00000E+00
 
   -0.19249E+07        -0.55866E+05         0.00000E+00
   -0.55866E+05        -0.15597E+08         0.00000E+00
    0.00000E+00         0.00000E+00         0.00000E+00
 
   -0.20120E+07        -0.81343E+05         0.00000E+00
   -0.81343E+05        -0.15609E+08         0.00000E+00
    0.00000E+00         0.00000E+00         0.00000E+00
 
   -0.20859E+07        -0.10047E+06         0.00000E+00
   -0.10047E+06        -0.15626E+08         0.00000E+00
    0.00000E+00         0.00000E+00         0.00000E+00
 
   -0.21473E+07        -0.11317E+06         0.00000E+00
   -0.11317E+06        -0.15649E+08         0.00000E+00
    0.00000E+00         0.00000E+00         0.00000E+00
 
   -0.21970E+07        -0.11934E+06         0.00000E+00
   -0.11934E+06        -0.15676E+08         0.00000E+00
    0.00000E+00         0.00000E+00         0.00000E+00
 
   -0.22356E+07        -0.11892E+06         0.00000E+00
   -0.11892E+06        -0.15707E+08         0.00000E+00
    0.00000E+00         0.00000E+00         0.00000E+00
 
   -0.22638E+07        -0.11188E+06         0.00000E+00
   -0.11188E+06        -0.15743E+08         0.00000E+00
    0.00000E+00         0.00000E+00         0.00000E+00
 
   -0.22823E+07        -0.98161E+05         0.00000E+00
   -0.98161E+05        -0.15782E+08         0.00000E+00
    0.00000E+00         0.00000E+00         0.00000E+00
 
   -0.22916E+07        -0.77750E+05         0.00000E+00
   -0.77750E+05        -0.15825E+08         0.00000E+00
    0.00000E+00         0.00000E+00         0.00000E+00
 
   -0.22924E+07        -0.50631E+05         0.00000E+00
   -0.50631E+05        -0.15870E+08         0.00000E+00
    0.00000E+00         0.00000E+00         0.00000E+00
 
   -0.22852E+07        -0.16800E+05         0.00000E+00
   -0.16800E+05        -0.15919E+08         0.00000E+00
    0.00000E+00         0.00000E+00         0.00000E+00
 
   -0.22706E+07         0.23739E+05         0.00000E+00
    0.23739E+05        -0.15971E+08         0.00000E+00
    0.00000E+00         0.00000E+00         0.00000E+00
 
   -0.22492E+07         0.70971E+05         0.00000E+00
    0.70971E+05        -0.16025E+08         0.00000E+00
    0.00000E+00         0.00000E+00         0.00000E+00
 
   -0.22213E+07         0.12488E+06         0.00000E+00
    0.12488E+06        -0.16081E+08         0.00000E+00
    0.00000E+00         0.00000E+00         0.00000E+00
 
   -0.21877E+07         0.18543E+06         0.00000E+00
    0.18543E+06        -0.16139E+08         0.00000E+00
    0.00000E+00         0.00000E+00         0.00000E+00
 
   -0.21486E+07         0.25259E+06         0.00000E+00
    0.25259E+06        -0.16199E+08         0.00000E+00
    0.00000E+00         0.00000E+00         0.00000E+00
 
   -0.21047E+07         0.32632E+06         0.00000E+00
    0.32632E+06        -0.16261E+08         0.00000E+00
    0.00000E+00         0.00000E+00         0.00000E+00
 
   -0.20563E+07         0.40659E+06         0.00000E+00
    0.40659E+06        -0.16325E+08         0.00000E+00
    0.00000E+00         0.00000E+00         0.00000E+00
 
   -0.20039E+07         0.49333E+06         0.00000E+00
    0.49333E+06        -0.16390E+08         0.00000E+00
    0.00000E+00         0.00000E+00         0.00000E+00
 
   -0.19480E+07         0.58649E+06         0.00000E+00
    0.58649E+06        -0.16456E+08         0.00000E+00
    0.00000E+00         0.00000E+00         0.00000E+00
 
   -0.18889E+07         0.68601E+06         0.00000E+00
    0.68601E+06        -0.16523E+08         0.00000E+00
    0.00000E+00         0.00000E+00         0.00000E+00
 
   -0.18270E+07         0.79184E+06         0.00000E+00
    0.79184E+06        -0.16591E+08         0.00000E+00
    0.00000E+00         0.00000E+00         0.00000E+00
 
   -0.17629E+07         0.90391E+06         0.00000E+00
    0.90391E+06        -0.16660E+08         0.00000E+00
    0.00000E+00         0.00000E+00         0.00000E+00
 
   -0.16968E+07         0.10221E+07         0.00000E+00
    0.10221E+07        -0.16730E+08         0.00000E+00
    0.00000E+00         0.00000E+00         0.00000E+00
 
   -0.16292E+07         0.11464E+07         0.00000E+00
    0.11464E+07        -0.16800E+08         0.00000E+00
    0.00000E+00         0.00000E+00         0.00000E+00
 
   -0.15605E+07         0.12767E+07         0.00000E+00
    0.12767E+07        -0.16871E+08         0.00000E+00
    0.00000E+00         0.00000E+00         0.00000E+00
 
   -0.14909E+07         0.14128E+07         0.00000E+00
    0.14128E+07        -0.16942E+08         0.00000E+00
    0.00000E+00         0.00000E+00         0.00000E+00
 
   -0.14209E+07         0.15547E+07         0.00000E+00
    0.15547E+07        -0.17013E+08         0.00000E+00
    0.00000E+00         0.00000E+00         0.00000E+00
 
   -0.13509E+07         0.17024E+07         0.00000E+00
    0.17024E+07        -0.17085E+08         0.00000E+00
    0.00000E+00         0.00000E+00         0.00000E+00
 
   -0.12812E+07         0.18556E+07         0.00000E+00
    0.18556E+07        -0.17157E+08         0.00000E+00
    0.00000E+00         0.00000E+00         0.00000E+00
 
   -0.12124E+07         0.20142E+07         0.00000E+00
    0.20142E+07        -0.17228E+08         0.00000E+00
    0.00000E+00         0.00000E+00         0.00000E+00
 
   -0.11447E+07         0.21777E+07         0.00000E+00
    0.21777E+07        -0.17299E+08         0.00000E+00
    0.00000E+00         0.00000E+00         0.00000E+00
 
   -0.10780E+07         0.23458E+07         0.00000E+00
    0.23458E+07        -0.17371E+08         0.00000E+00
    0.00000E+00         0.00000E+00         0.00000E+00
 
   -0.10123E+07         0.25187E+07         0.00000E+00
    0.25187E+07        -0.17443E+08         0.00000E+00
    0.00000E+00         0.00000E+00         0.00000E+00
 
   -0.94816E+06         0.26969E+07         0.00000E+00
    0.26969E+07        -0.17515E+08         0.00000E+00
    0.00000E+00         0.00000E+00         0.00000E+00
 
   -0.88699E+06         0.28814E+07         0.00000E+00
    0.28814E+07        -0.17588E+08         0.00000E+00
    0.00000E+00         0.00000E+00         0.00000E+00
 
   -0.83058E+06         0.30706E+07         0.00000E+00
    0.30706E+07        -0.17655E+08         0.00000E+00
    0.00000E+00         0.00000E+00         0.00000E+00
 
   -0.77990E+06         0.32620E+07         0.00000E+00
    0.32620E+07        -0.17717E+08         0.00000E+00
    0.00000E+00         0.00000E+00         0.00000E+00
 
   -0.73293E+06         0.34503E+07         0.00000E+00
    0.34503E+07        -0.17779E+08         0.00000E+00
    0.00000E+00         0.00000E+00         0.00000E+00
 
   -0.68276E+06         0.36326E+07         0.00000E+00
    0.36326E+07        -0.17842E+08         0.00000E+00
    0.00000E+00         0.00000E+00         0.00000E+00
 
   -0.62800E+06         0.38207E+07         0.00000E+00
    0.38207E+07        -0.17945E+08         0.00000E+00
    0.00000E+00         0.00000E+00        -0.27367E+04
 
   -0.59588E+06         0.40029E+07         0.00000E+00
    0.40029E+07        -0.18051E+08         0.00000E+00
    0.00000E+00         0.00000E+00        -0.38801E+05
 
   -0.59618E+06         0.41800E+07         0.00000E+00
    0.41800E+07        -0.18149E+08         0.00000E+00
    0.00000E+00         0.00000E+00        -0.11746E+06
 
   -0.60985E+06         0.43537E+07         0.00000E+00
    0.43537E+07        -0.18241E+08         0.00000E+00
    0.00000E+00         0.00000E+00        -0.21483E+06
 
   -0.69314E+06         0.45054E+07         0.00000E+00
    0.45054E+07        -0.18309E+08         0.00000E+00
    0.00000E+00         0.00000E+00        -0.38820E+06
 
   -0.79151E+06         0.46538E+07         0.00000E+00
    0.46538E+07        -0.18401E+08         0.00000E+00
    0.00000E+00         0.00000E+00        -0.57930E+06
 
   -0.89656E+06         0.47919E+07         0.00000E+00
    0.47919E+07        -0.18505E+08         0.00000E+00
    0.00000E+00         0.00000E+00        -0.77064E+06
 
   -0.10132E+07         0.49215E+07         0.00000E+00
    0.49215E+07        -0.18616E+08         0.00000E+00
    0.00000E+00         0.00000E+00        -0.95404E+06
 
   -0.11411E+07         0.50505E+07         0.00000E+00
    0.50505E+07        -0.18724E+08         0.00000E+00
    0.00000E+00         0.00000E+00        -0.11253E+07
 
   -0.33980E+07        -0.42287E+05         0.00000E+00
   -0.42287E+05        -0.16913E+08         0.00000E+00
    0.00000E+00         0.00000E+00         0.00000E+00
 
   -0.34631E+07        -0.10426E+06         0.00000E+00
   -0.10426E+06        -0.16919E+08         0.00000E+00
    0.00000E+00         0.00000E+00         0.00000E+00
 
   -0.35139E+07        -0.15799E+06         0.00000E+00
   -0.15799E+06        -0.16932E+08         0.00000E+00
    0.00000E+00         0.00000E+00         0.00000E+00
 
   -0.35512E+07        -0.20344E+06         0.00000E+00
   -0.20344E+06        -0.16950E+08         0.00000E+00
    0.00000E+00         0.00000E+00         0.00000E+00
 
   -0.35758E+07        -0.24063E+06         0.00000E+00
   -0.24063E+06        -0.16974E+08         0.00000E+00
    0.00000E+00         0.00000E+00         0.00000E+00
 
   -0.35886E+07        -0.26957E+06         0.00000E+00
   -0.26957E+06        -0.17002E+08         0.00000E+00
    0.00000E+00         0.00000E+00         0.00000E+00
 
   -0.35903E+07        -0.29029E+06         0.00000E+00
   -0.29029E+06        -0.17035E+08         0.00000E+00
    0.00000E+00         0.00000E+00         0.00000E+00
 
   -0.35815E+07        -0.30284E+06         0.00000E+00
   -0.30284E+06        -0.17071E+08         0.00000E+00
    0.00000E+00         0.00000E+00         0.00000E+00
 
   -0.35630E+07        -0.30725E+06         0.00000E+00
   -0.30725E+06        -0.17112E+08         0.00000E+00
    0.00000E+00         0.00000E+00         0.00000E+00
 
   -0.35355E+07        -0.30359E+06         0.00000E+00
   -0.30359E+06        -0.17156E+08         0.00000E+00
    0.00000E+00         0.00000E+00         0.00000E+00
 
   -0.34997E+07        -0.29191E+06         0.00000E+00
   -0.29191E+06        -0.17203E+08         0.00000E+00
    0.00000E+00         0.00000E+00         0.00000E+00
 
   -0.34560E+07        -0.27231E+06         0.00000E+00
   -0.27231E+06        -0.17253E+08         0.00000E+00
    0.00000E+00         0.00000E+00         0.00000E+00
 
   -0.34051E+07        -0.24484E+06         0.00000E+00
   -0.24484E+06        -0.17306E+08         0.00000E+00
    0.00000E+00         0.00000E+00         0.00000E+00
 
   -0.33477E+07        -0.20960E+06         0.00000E+00
   -0.20960E+06        -0.17362E+08         0.00000E+00
    0.00000E+00         0.00000E+00         0.00000E+00
 
   -0.32841E+07        -0.16667E+06         0.00000E+00
   -0.16667E+06        -0.17419E+08         0.00000E+00
    0.00000E+00         0.00000E+00         0.00000E+00
 
   -0.32150E+07        -0.11616E+06         0.00000E+00
   -0.11616E+06        -0.17479E+08         0.00000E+00
    0.00000E+00         0.00000E+00         0.00000E+00
 
   -0.31409E+07        -0.58136E+05         0.00000E+00
   -0.58136E+05        -0.17541E+08         0.00000E+00
    0.00000E+00         0.00000E+00         0.00000E+00
 
   -0.30621E+07         0.72894E+04         0.00000E+00
    0.72894E+04        -0.17604E+08         0.00000E+00
    0.00000E+00         0.00000E+00         0.00000E+00
 
   -0.29794E+07         0.80031E+05         0.00000E+00
    0.80031E+05        -0.17669E+08         0.00000E+00
    0.00000E+00         0.00000E+00         0.00000E+00
 
   -0.28930E+07         0.16000E+06         0.00000E+00
    0.16000E+06        -0.17736E+08         0.00000E+00
    0.00000E+00         0.00000E+00         0.00000E+00
 
   -0.28034E+07         0.24707E+06         0.00000E+00
    0.24707E+06        -0.17804E+08         0.00000E+00
    0.00000E+00         0.00000E+00         0.00000E+00
 
   -0.27111E+07         0.34115E+06         0.00000E+00
    0.34115E+06        -0.17873E+08         0.00000E+00
    0.00000E+00         0.00000E+00         0.00000E+00
 
   -0.26164E+07         0.44215E+06         0.00000E+00
    0.44215E+06        -0.17943E+08         0.00000E+00
    0.00000E+00         0.00000E+00         0.00000E+00
 
   -0.25199E+07         0.54994E+06         0.00000E+00
    0.54994E+06        -0.18014E+08         0.00000E+00
    0.00000E+00         0.00000E+00         0.00000E+00
 
   -0.24218E+07         0.66443E+06         0.00000E+00
    0.66443E+06        -0.18085E+08         0.00000E+00
    0.00000E+00         0.00000E+00         0.00000E+00
 
   -0.23227E+07         0.78562E+06         0.00000E+00
    0.78562E+06        -0.18158E+08         0.00000E+00
    0.00000E+00         0.00000E+00         0.00000E+00
 
   -0.22230E+07         0.91344E+06         0.00000E+00
    0.91344E+06        -0.18231E+08         0.00000E+00
    0.00000E+00         0.00000E+00         0.00000E+00
 
   -0.21232E+07         0.10477E+07         0.00000E+00
    0.10477E+07        -0.18305E+08         0.00000E+00
    0.00000E+00         0.00000E+00         0.00000E+00
 
   -0.20237E+07         0.11881E+07         0.00000E+00
    0.11881E+07        -0.18379E+08         0.00000E+00
    0.00000E+00         0.00000E+00         0.00000E+00
 
   -0.19247E+07         0.13342E+07         0.00000E+00
    0.13342E+07        -0.18453E+08         0.00000E+00
    0.00000E+00         0.00000E+00         0.00000E+00
 
   -0.18262E+07         0.14861E+07         0.00000E+00
    0.14861E+07        -0.18529E+08         0.00000E+00
    0.00000E+00         0.00000E+00         0.00000E+00
 
   -0.17287E+07         0.16443E+07         0.00000E+00
    0.16443E+07        -0.18604E+08         0.00000E+00
    0.00000E+00         0.00000E+00         0.00000E+00
 
   -0.16333E+07         0.18096E+07         0.00000E+00
    0.18096E+07        -0.18681E+08         0.00000E+00
    0.00000E+00         0.00000E+00         0.00000E+00
 
   -0.15419E+07         0.19818E+07         0.00000E+00
    0.19818E+07        -0.18756E+08         0.00000E+00
    0.00000E+00         0.00000E+00         0.00000E+00
 
   -0.14562E+07         0.21588E+07         0.00000E+00
    0.21588E+07        -0.18823E+08         0.00000E+00
    0.00000E+00         0.00000E+00         0.00000E+00
 
   -0.13754E+07         0.23359E+07         0.00000E+00
    0.23359E+07        -0.18890E+08         0.00000E+00
    0.00000E+00         0.00000E+00         0.00000E+00
 
   -0.12948E+07         0.25101E+07         0.00000E+00
    0.25101E+07        -0.18957E+08         0.00000E+00
    0.00000E+00         0.00000E+00         0.00000E+00
 
   -0.12090E+07         0.26871E+07         0.00000E+00
    0.26871E+07        -0.19051E+08         0.00000E+00
    0.00000E+00         0.00000E+00         0.00000E+00
 
   -0.11386E+07         0.28647E+07         0.00000E+00
    0.28647E+07        -0.19158E+08         0.00000E+00
    0.00000E+00         0.00000E+00        -0.27498E+05
 
   -0.10939E+07         0.30420E+07         0.00000E+00
    0.30420E+07        -0.19256E+08         0.00000E+00
    0.00000E+00         0.00000E+00        -0.96056E+05
 
   -0.10532E+07         0.32230E+07         0.00000E+00
    0.32230E+07        -0.19350E+08         0.00000E+00
    0.00000E+00         0.00000E+00        -0.17923E+06
 
   -0.10730E+07         0.33929E+07         0.00000E+00
    0.33929E+07        -0.19415E+08         0.00000E+00
    0.00000E+00         0.00000E+00        -0.33875E+06
 
   -0.11135E+07         0.35569E+07         0.00000E+00
    0.35569E+07        -0.19488E+08         0.00000E+00
    0.00000E+00         0.00000E+00        -0.52557E+06
 
   -0.11689E+07         0.37160E+07         0.00000E+00
    0.37160E+07        -0.19579E+08         0.00000E+00
    0.00000E+00         0.00000E+00        -0.72500E+06
 
   -0.12339E+07         0.38638E+07         0.00000E+00
    0.38638E+07        -0.19676E+08         0.00000E+00
    0.00000E+00         0.00000E+00        -0.91845E+06
 
   -0.13168E+07         0.40075E+07         0.00000E+00
    0.40075E+07        -0.19777E+08         0.00000E+00
    0.00000E+00         0.00000E+00        -0.11050E+07
 
   -0.14091E+07         0.41512E+07         0.00000E+00
    0.41512E+07        -0.19874E+08         0.00000E+00
    0.00000E+00         0.00000E+00        -0.12759E+07
 
   -0.15148E+07         0.42965E+07         0.00000E+00
    0.42965E+07        -0.19967E+08         0.00000E+00
    0.00000E+00         0.00000E+00        -0.14389E+07
 
   -0.16295E+07         0.44458E+07         0.00000E+00
    0.44458E+07        -0.20054E+08         0.00000E+00
    0.00000E+00         0.00000E+00        -0.15949E+07
 
   -0.17537E+07         0.45977E+07         0.00000E+00
    0.45977E+07        -0.20136E+08         0.00000E+00
    0.00000E+00         0.00000E+00        -0.17449E+07
 
   -0.51909E+07        -0.60980E+05         0.00000E+00
   -0.60980E+05        -0.18295E+08         0.00000E+00
    0.00000E+00         0.00000E+00         0.00000E+00
 
   -0.52092E+07        -0.15387E+06         0.00000E+00
   -0.15387E+06        -0.18302E+08         0.00000E+00
    0.00000E+00         0.00000E+00         0.00000E+00
 
   -0.52134E+07        -0.23628E+06         0.00000E+00
   -0.23628E+06        -0.18314E+08         0.00000E+00
    0.00000E+00         0.00000E+00         0.00000E+00
 
   -0.52044E+07        -0.30835E+06         0.00000E+00
   -0.30835E+06        -0.18333E+08         0.00000E+00
    0.00000E+00         0.00000E+00         0.00000E+00
 
   -0.51830E+07        -0.37020E+06         0.00000E+00
   -0.37020E+06        -0.18356E+08         0.00000E+00
    0.00000E+00         0.00000E+00         0.00000E+00
 
   -0.51501E+07        -0.42195E+06         0.00000E+00
   -0.42195E+06        -0.18384E+08         0.00000E+00
    0.00000E+00         0.00000E+00         0.00000E+00
 
   -0.51066E+07        -0.46372E+06         0.00000E+00
   -0.46372E+06        -0.18416E+08         0.00000E+00
    0.00000E+00         0.00000E+00         0.00000E+00
 
   -0.50531E+07        -0.49567E+06         0.00000E+00
   -0.49567E+06        -0.18452E+08         0.00000E+00
    0.00000E+00         0.00000E+00         0.00000E+00
 
   -0.49904E+07        -0.51793E+06         0.00000E+00
   -0.51793E+06        -0.18492E+08         0.00000E+00
    0.00000E+00         0.00000E+00         0.00000E+00
 
   -0.49192E+07        -0.53068E+06         0.00000E+00
   -0.53068E+06        -0.18535E+08         0.00000E+00
    0.00000E+00         0.00000E+00         0.00000E+00
 
   -0.48402E+07        -0.53406E+06         0.00000E+00
   -0.53406E+06        -0.18581E+08         0.00000E+00
    0.00000E+00         0.00000E+00         0.00000E+00
 
   -0.47541E+07        -0.52825E+06         0.00000E+00
   -0.52825E+06        -0.18630E+08         0.00000E+00
    0.00000E+00         0.00000E+00         0.00000E+00
 
   -0.46613E+07        -0.51340E+06         0.00000E+00
   -0.51340E+06        -0.18682E+08         0.00000E+00
    0.00000E+00         0.00000E+00         0.00000E+00
 
   -0.45626E+07        -0.48970E+06         0.00000E+00
   -0.48970E+06        -0.18736E+08         0.00000E+00
    0.00000E+00         0.00000E+00         0.00000E+00
 
   -0.44584E+07        -0.45730E+06         0.00000E+00
   -0.45730E+06        -0.18791E+08         0.00000E+00
    0.00000E+00         0.00000E+00         0.00000E+00
 
   -0.43494E+07        -0.41640E+06         0.00000E+00
   -0.41640E+06        -0.18849E+08         0.00000E+00
    0.00000E+00         0.00000E+00         0.00000E+00
 
   -0.42360E+07        -0.36716E+06         0.00000E+00
   -0.36716E+06        -0.18909E+08         0.00000E+00
    0.00000E+00         0.00000E+00         0.00000E+00
 
   -0.41187E+07        -0.30978E+06         0.00000E+00
   -0.30978E+06        -0.18970E+08         0.00000E+00
    0.00000E+00         0.00000E+00         0.00000E+00
 
   -0.39980E+07        -0.24441E+06         0.00000E+00
   -0.24441E+06        -0.19032E+08         0.00000E+00
    0.00000E+00         0.00000E+00         0.00000E+00
 
   -0.38742E+07        -0.17121E+06         0.00000E+00
   -0.17121E+06        -0.19096E+08         0.00000E+00
    0.00000E+00         0.00000E+00         0.00000E+00
 
   -0.37477E+07        -0.90259E+05         0.00000E+00
   -0.90259E+05        -0.19161E+08         0.00000E+00
    0.00000E+00         0.00000E+00         0.00000E+00
 
   -0.36192E+07        -0.16826E+04         0.00000E+00
   -0.16826E+04        -0.19227E+08         0.00000E+00
    0.00000E+00         0.00000E+00         0.00000E+00
 
   -0.34890E+07         0.94338E+05         0.00000E+00
    0.94338E+05        -0.19294E+08         0.00000E+00
    0.00000E+00         0.00000E+00         0.00000E+00
 
   -0.33575E+07         0.19772E+06         0.00000E+00
    0.19772E+06        -0.19363E+08         0.00000E+00
    0.00000E+00         0.00000E+00         0.00000E+00
 
   -0.32251E+07         0.30826E+06         0.00000E+00
    0.30826E+06        -0.19431E+08         0.00000E+00
    0.00000E+00         0.00000E+00         0.00000E+00
 
   -0.30922E+07         0.42551E+06         0.00000E+00
    0.42551E+06        -0.19501E+08         0.00000E+00
    0.00000E+00         0.00000E+00         0.00000E+00
 
   -0.29588E+07         0.54937E+06         0.00000E+00
    0.54937E+06        -0.19571E+08         0.00000E+00
    0.00000E+00         0.00000E+00         0.00000E+00
 
   -0.28250E+07         0.68048E+06         0.00000E+00
    0.68048E+06        -0.19643E+08         0.00000E+00
    0.00000E+00         0.00000E+00         0.00000E+00
 
   -0.26920E+07         0.81925E+06         0.00000E+00
    0.81925E+06        -0.19715E+08         0.00000E+00
    0.00000E+00         0.00000E+00         0.00000E+00
 
   -0.25612E+07         0.96617E+06         0.00000E+00
    0.96617E+06        -0.19789E+08         0.00000E+00
    0.00000E+00         0.00000E+00         0.00000E+00
 
   -0.24344E+07         0.11202E+07         0.00000E+00
    0.11202E+07        -0.19857E+08         0.00000E+00
    0.00000E+00         0.00000E+00         0.00000E+00
 
   -0.23118E+07         0.12775E+07         0.00000E+00
    0.12775E+07        -0.19924E+08         0.00000E+00
    0.00000E+00         0.00000E+00         0.00000E+00
 
   -0.21901E+07         0.14351E+07         0.00000E+00
    0.14351E+07        -0.19991E+08         0.00000E+00
    0.00000E+00         0.00000E+00         0.00000E+00
 
   -0.20645E+07         0.15947E+07         0.00000E+00
    0.15947E+07        -0.20069E+08         0.00000E+00
    0.00000E+00         0.00000E+00         0.00000E+00
 
   -0.19452E+07         0.17591E+07         0.00000E+00
    0.17591E+07        -0.20172E+08         0.00000E+00
    0.00000E+00         0.00000E+00        -0.18817E+05
 
   -0.18489E+07         0.19275E+07         0.00000E+00
    0.19275E+07        -0.20265E+08         0.00000E+00
    0.00000E+00         0.00000E+00        -0.80218E+05
 
   -0.17560E+07         0.21033E+07         0.00000E+00
    0.21033E+07        -0.20354E+08         0.00000E+00
    0.00000E+00         0.00000E+00        -0.16051E+06
 
   -0.16992E+07         0.22796E+07         0.00000E+00
    0.22796E+07        -0.20420E+08         0.00000E+00
    0.00000E+00         0.00000E+00        -0.29788E+06
 
   -0.16764E+07         0.24527E+07         0.00000E+00
    0.24527E+07        -0.20483E+08         0.00000E+00
    0.00000E+00         0.00000E+00        -0.48356E+06
 
   -0.16669E+07         0.26227E+07         0.00000E+00
    0.26227E+07        -0.20561E+08         0.00000E+00
    0.00000E+00         0.00000E+00        -0.68352E+06
 
   -0.16704E+07         0.27840E+07         0.00000E+00
    0.27840E+07        -0.20647E+08         0.00000E+00
    0.00000E+00         0.00000E+00        -0.88486E+06
 
   -0.16932E+07         0.29392E+07         0.00000E+00
    0.29392E+07        -0.20739E+08         0.00000E+00
    0.00000E+00         0.00000E+00        -0.10825E+07
 
   -0.17308E+07         0.30936E+07         0.00000E+00
    0.30936E+07        -0.20833E+08         0.00000E+00
    0.00000E+00         0.00000E+00        -0.12687E+07
 
   -0.17838E+07         0.32485E+07         0.00000E+00
    0.32485E+07        -0.20922E+08         0.00000E+00
    0.00000E+00         0.00000E+00        -0.14447E+07
 
   -0.18509E+07         0.34063E+07         0.00000E+00
    0.34063E+07        -0.21009E+08         0.00000E+00
    0.00000E+00         0.00000E+00        -0.16128E+07
 
   -0.19282E+07         0.35676E+07         0.00000E+00
    0.35676E+07        -0.21091E+08         0.00000E+00
    0.00000E+00         0.00000E+00        -0.17732E+07
 
   -0.20183E+07         0.37294E+07         0.00000E+00
    0.37294E+07        -0.21170E+08         0.00000E+00
    0.00000E+00         0.00000E+00        -0.19263E+07
 
   -0.21191E+07         0.38917E+07         0.00000E+00
    0.38917E+07        -0.21247E+08         0.00000E+00
    0.00000E+00         0.00000E+00        -0.20713E+07
 
   -0.22302E+07         0.40526E+07         0.00000E+00
    0.40526E+07        -0.21323E+08         0.00000E+00
    0.00000E+00         0.00000E+00        -0.22094E+07
 
   -0.23483E+07         0.42146E+07         0.00000E+00
    0.42146E+07        -0.21395E+08         0.00000E+00
    0.00000E+00         0.00000E+00        -0.23429E+07
 
   -0.71985E+07        -0.79481E+05         0.00000E+00
   -0.79481E+05        -0.19733E+08         0.00000E+00
    0.00000E+00         0.00000E+00         0.00000E+00
 
   -0.71584E+07        -0.20242E+06         0.00000E+00
   -0.20242E+06        -0.19739E+08         0.00000E+00
    0.00000E+00         0.00000E+00         0.00000E+00
 
   -0.71050E+07        -0.31271E+06         0.00000E+00
   -0.31271E+06        -0.19751E+08         0.00000E+00
    0.00000E+00         0.00000E+00         0.00000E+00
 
   -0.70392E+07        -0.41042E+06         0.00000E+00
   -0.41042E+06        -0.19769E+08         0.00000E+00
    0.00000E+00         0.00000E+00         0.00000E+00
 
   -0.69619E+07        -0.49578E+06         0.00000E+00
   -0.49578E+06        -0.19791E+08         0.00000E+00
    0.00000E+00         0.00000E+00         0.00000E+00
 
   -0.68741E+07        -0.56906E+06         0.00000E+00
   -0.56906E+06        -0.19817E+08         0.00000E+00
    0.00000E+00         0.00000E+00         0.00000E+00
 
   -0.67766E+07        -0.63051E+06         0.00000E+00
   -0.63051E+06        -0.19847E+08         0.00000E+00
    0.00000E+00         0.00000E+00         0.00000E+00
 
   -0.66701E+07        -0.68040E+06         0.00000E+00
   -0.68040E+06        -0.19881E+08         0.00000E+00
    0.00000E+00         0.00000E+00         0.00000E+00
 
   -0.65556E+07        -0.71898E+06         0.00000E+00
   -0.71898E+06        -0.19918E+08         0.00000E+00
    0.00000E+00         0.00000E+00         0.00000E+00
 
   -0.64336E+07        -0.74654E+06         0.00000E+00
   -0.74654E+06        -0.19958E+08         0.00000E+00
    0.00000E+00         0.00000E+00         0.00000E+00
 
   -0.63048E+07        -0.76334E+06         0.00000E+00
   -0.76334E+06        -0.20000E+08         0.00000E+00
    0.00000E+00         0.00000E+00         0.00000E+00
 
   -0.61700E+07        -0.76966E+06         0.00000E+00
   -0.76966E+06        -0.20045E+08         0.00000E+00
    0.00000E+00         0.00000E+00         0.00000E+00
 
   -0.60298E+07        -0.76579E+06         0.00000E+00
   -0.76579E+06        -0.20092E+08         0.00000E+00
    0.00000E+00         0.00000E+00         0.00000E+00
 
   -0.58846E+07        -0.75199E+06         0.00000E+00
   -0.75199E+06        -0.20140E+08         0.00000E+00
    0.00000E+00         0.00000E+00         0.00000E+00
 
   -0.57352E+07        -0.72854E+06         0.00000E+00
   -0.72854E+06        -0.20190E+08         0.00000E+00
    0.00000E+00         0.00000E+00         0.00000E+00
 
   -0.55819E+07        -0.69568E+06         0.00000E+00
   -0.69568E+06        -0.20242E+08         0.00000E+00
    0.00000E+00         0.00000E+00         0.00000E+00
 
   -0.54253E+07        -0.65365E+06         0.00000E+00
   -0.65365E+06        -0.20295E+08         0.00000E+00
    0.00000E+00         0.00000E+00         0.00000E+00
 
   -0.52660E+07        -0.60273E+06         0.00000E+00
   -0.60273E+06        -0.20349E+08         0.00000E+00
    0.00000E+00         0.00000E+00         0.00000E+00
 
   -0.51043E+07        -0.54320E+06         0.00000E+00
   -0.54320E+06        -0.20404E+08         0.00000E+00
    0.00000E+00         0.00000E+00         0.00000E+00
 
   -0.49408E+07        -0.47539E+06         0.00000E+00
   -0.47539E+06        -0.20460E+08         0.00000E+00
    0.00000E+00         0.00000E+00         0.00000E+00
 
   -0.47755E+07        -0.39980E+06         0.00000E+00
   -0.39980E+06        -0.20516E+08         0.00000E+00
    0.00000E+00         0.00000E+00         0.00000E+00
 
   -0.46086E+07        -0.31659E+06         0.00000E+00
   -0.31659E+06        -0.20574E+08         0.00000E+00
    0.00000E+00         0.00000E+00         0.00000E+00
 
   -0.44404E+07        -0.22553E+06         0.00000E+00
   -0.22553E+06        -0.20633E+08         0.00000E+00
    0.00000E+00         0.00000E+00         0.00000E+00
 
   -0.42712E+07        -0.12668E+06         0.00000E+00
   -0.12668E+06        -0.20692E+08         0.00000E+00
    0.00000E+00         0.00000E+00         0.00000E+00
 
   -0.41015E+07        -0.19883E+05         0.00000E+00
   -0.19883E+05        -0.20753E+08         0.00000E+00
    0.00000E+00         0.00000E+00         0.00000E+00
 
   -0.39326E+07         0.95518E+05         0.00000E+00
    0.95518E+05        -0.20816E+08         0.00000E+00
    0.00000E+00         0.00000E+00         0.00000E+00
 
   -0.37658E+07         0.21887E+06         0.00000E+00
    0.21887E+06        -0.20875E+08         0.00000E+00
    0.00000E+00         0.00000E+00         0.00000E+00
 
   -0.36012E+07         0.34675E+06         0.00000E+00
    0.34675E+06        -0.20934E+08         0.00000E+00
    0.00000E+00         0.00000E+00         0.00000E+00
 
   -0.34360E+07         0.47749E+06         0.00000E+00
    0.47749E+06        -0.20993E+08         0.00000E+00
    0.00000E+00         0.00000E+00         0.00000E+00
 
   -0.32667E+07         0.61171E+06         0.00000E+00
    0.61171E+06        -0.21053E+08         0.00000E+00
    0.00000E+00         0.00000E+00         0.00000E+00
 
   -0.30981E+07         0.75196E+06         0.00000E+00
    0.75196E+06        -0.21138E+08         0.00000E+00
    0.00000E+00         0.00000E+00        -0.12498E+05
 
   -0.29470E+07         0.89966E+06         0.00000E+00
    0.89966E+06        -0.21217E+08         0.00000E+00
    0.00000E+00         0.00000E+00        -0.66013E+05
 
   -0.27985E+07         0.10577E+07         0.00000E+00
    0.10577E+07        -0.21293E+08         0.00000E+00
    0.00000E+00         0.00000E+00        -0.14027E+06
 
   -0.26585E+07         0.12242E+07         0.00000E+00
    0.12242E+07        -0.21358E+08         0.00000E+00
    0.00000E+00         0.00000E+00        -0.24385E+06
 
   -0.25624E+07         0.13919E+07         0.00000E+00
    0.13919E+07        -0.21407E+08         0.00000E+00
    0.00000E+00         0.00000E+00        -0.41925E+06
 
   -0.24782E+07         0.15595E+07         0.00000E+00
    0.15595E+07        -0.21471E+08         0.00000E+00
    0.00000E+00         0.00000E+00        -0.61301E+06
 
   -0.24078E+07         0.17219E+07         0.00000E+00
    0.17219E+07        -0.21545E+08         0.00000E+00
    0.00000E+00         0.00000E+00        -0.81436E+06
 
   -0.23551E+07         0.18783E+07         0.00000E+00
    0.18783E+07        -0.21626E+08         0.00000E+00
    0.00000E+00         0.00000E+00        -0.10160E+07
 
   -0.23231E+07         0.20338E+07         0.00000E+00
    0.20338E+07        -0.21710E+08         0.00000E+00
    0.00000E+00         0.00000E+00        -0.12138E+07
 
   -0.23078E+07         0.21908E+07         0.00000E+00
    0.21908E+07        -0.21795E+08         0.00000E+00
    0.00000E+00         0.00000E+00        -0.14019E+07
 
   -0.23108E+07         0.23502E+07         0.00000E+00
    0.23502E+07        -0.21879E+08         0.00000E+00
    0.00000E+00         0.00000E+00        -0.15837E+07
 
   -0.23274E+07         0.25133E+07         0.00000E+00
    0.25133E+07        -0.21960E+08         0.00000E+00
    0.00000E+00         0.00000E+00        -0.17579E+07
 
   -0.23585E+07         0.26792E+07         0.00000E+00
    0.26792E+07        -0.22038E+08         0.00000E+00
    0.00000E+00         0.00000E+00        -0.19253E+07
 
   -0.24039E+07         0.28474E+07         0.00000E+00
    0.28474E+07        -0.22116E+08         0.00000E+00
    0.00000E+00         0.00000E+00        -0.20853E+07
 
   -0.24630E+07         0.30161E+07         0.00000E+00
    0.30161E+07        -0.22192E+08         0.00000E+00
    0.00000E+00         0.00000E+00        -0.22377E+07
 
   -0.25342E+07         0.31855E+07         0.00000E+00
    0.31855E+07        -0.22267E+08         0.00000E+00
    0.00000E+00         0.00000E+00        -0.23842E+07
 
   -0.26150E+07         0.33595E+07         0.00000E+00
    0.33595E+07        -0.22337E+08         0.00000E+00
    0.00000E+00         0.00000E+00        -0.25259E+07
 
   -0.27059E+07         0.35379E+07         0.00000E+00
    0.35379E+07        -0.22404E+08         0.00000E+00
    0.00000E+00         0.00000E+00        -0.26635E+07
 
   -0.28084E+07         0.37166E+07         0.00000E+00
    0.37166E+07        -0.22469E+08         0.00000E+00
    0.00000E+00         0.00000E+00        -0.27951E+07
 
   -0.29231E+07         0.38961E+07         0.00000E+00
    0.38961E+07        -0.22533E+08         0.00000E+00
    0.00000E+00         0.00000E+00        -0.29215E+07
 
   -0.94086E+07        -0.96822E+05         0.00000E+00
   -0.96822E+05        -0.21220E+08         0.00000E+00
    0.00000E+00         0.00000E+00         0.00000E+00
 
   -0.92980E+07        -0.24812E+06         0.00000E+00
   -0.24812E+06        -0.21227E+08         0.00000E+00
    0.00000E+00         0.00000E+00         0.00000E+00
 
   -0.91753E+07        -0.38377E+06         0.00000E+00
   -0.38377E+06        -0.21238E+08         0.00000E+00
    0.00000E+00         0.00000E+00         0.00000E+00
 
   -0.90418E+07        -0.50467E+06         0.00000E+00
   -0.50467E+06        -0.21253E+08         0.00000E+00
    0.00000E+00         0.00000E+00         0.00000E+00
 
   -0.88984E+07        -0.61119E+06         0.00000E+00
   -0.61119E+06        -0.21273E+08         0.00000E+00
    0.00000E+00         0.00000E+00         0.00000E+00
 
   -0.87458E+07        -0.70363E+06         0.00000E+00
   -0.70363E+06        -0.21296E+08         0.00000E+00
    0.00000E+00         0.00000E+00         0.00000E+00
 
   -0.85850E+07        -0.78224E+06         0.00000E+00
   -0.78224E+06        -0.21323E+08         0.00000E+00
    0.00000E+00         0.00000E+00         0.00000E+00
 
   -0.84167E+07        -0.84736E+06         0.00000E+00
   -0.84736E+06        -0.21353E+08         0.00000E+00
    0.00000E+00         0.00000E+00         0.00000E+00
 
   -0.82419E+07        -0.89931E+06         0.00000E+00
   -0.89931E+06        -0.21385E+08         0.00000E+00
    0.00000E+00         0.00000E+00         0.00000E+00
 
   -0.80614E+07        -0.93850E+06         0.00000E+00
   -0.93850E+06        -0.21419E+08         0.00000E+00
    0.00000E+00         0.00000E+00         0.00000E+00
 
   -0.78759E+07        -0.96537E+06         0.00000E+00
   -0.96537E+06        -0.21455E+08         0.00000E+00
    0.00000E+00         0.00000E+00         0.00000E+00
 
   -0.76863E+07        -0.98038E+06         0.00000E+00
   -0.98038E+06        -0.21493E+08         0.00000E+00
    0.00000E+00         0.00000E+00         0.00000E+00
 
   -0.74930E+07        -0.98405E+06         0.00000E+00
   -0.98405E+06        -0.21531E+08         0.00000E+00
    0.00000E+00         0.00000E+00         0.00000E+00
 
   -0.72966E+07        -0.97678E+06         0.00000E+00
   -0.97678E+06        -0.21571E+08         0.00000E+00
    0.00000E+00         0.00000E+00         0.00000E+00
 
   -0.70977E+07        -0.95904E+06         0.00000E+00
   -0.95904E+06        -0.21611E+08         0.00000E+00
    0.00000E+00         0.00000E+00         0.00000E+00
 
   -0.68967E+07        -0.93138E+06         0.00000E+00
   -0.93138E+06        -0.21651E+08         0.00000E+00
    0.00000E+00         0.00000E+00         0.00000E+00
 
   -0.66939E+07        -0.89418E+06         0.00000E+00
   -0.89418E+06        -0.21693E+08         0.00000E+00
    0.00000E+00         0.00000E+00         0.00000E+00
 
   -0.64895E+07        -0.84771E+06         0.00000E+00
   -0.84771E+06        -0.21735E+08         0.00000E+00
    0.00000E+00         0.00000E+00         0.00000E+00
 
   -0.62840E+07        -0.79210E+06         0.00000E+00
   -0.79210E+06        -0.21777E+08         0.00000E+00
    0.00000E+00         0.00000E+00         0.00000E+00
 
   -0.60778E+07        -0.72729E+06         0.00000E+00
   -0.72729E+06        -0.21821E+08         0.00000E+00
    0.00000E+00         0.00000E+00         0.00000E+00
 
   -0.58720E+07        -0.65309E+06         0.00000E+00
   -0.65309E+06        -0.21866E+08         0.00000E+00
    0.00000E+00         0.00000E+00         0.00000E+00
 
   -0.56676E+07        -0.57056E+06         0.00000E+00
   -0.57056E+06        -0.21908E+08         0.00000E+00
    0.00000E+00         0.00000E+00         0.00000E+00
 
   -0.54641E+07        -0.48225E+06         0.00000E+00
   -0.48225E+06        -0.21951E+08         0.00000E+00
    0.00000E+00         0.00000E+00         0.00000E+00
 
   -0.52600E+07        -0.38871E+06         0.00000E+00
   -0.38871E+06        -0.21994E+08         0.00000E+00
    0.00000E+00         0.00000E+00         0.00000E+00
 
   -0.50536E+07        -0.28976E+06         0.00000E+00
   -0.28976E+06        -0.22036E+08         0.00000E+00
    0.00000E+00         0.00000E+00         0.00000E+00
 
   -0.48430E+07        -0.18532E+06         0.00000E+00
   -0.18532E+06        -0.22078E+08         0.00000E+00
    0.00000E+00         0.00000E+00         0.00000E+00
 
   -0.46352E+07        -0.74216E+05         0.00000E+00
   -0.74216E+05        -0.22134E+08         0.00000E+00
    0.00000E+00         0.00000E+00        -0.17070E+05
 
   -0.44380E+07         0.46318E+05         0.00000E+00
    0.46318E+05        -0.22187E+08         0.00000E+00
    0.00000E+00         0.00000E+00        -0.68096E+05
 
   -0.42374E+07         0.17803E+06         0.00000E+00
    0.17803E+06        -0.22237E+08         0.00000E+00
    0.00000E+00         0.00000E+00        -0.12992E+06
 
   -0.40308E+07         0.32049E+06         0.00000E+00
    0.32049E+06        -0.22287E+08         0.00000E+00
    0.00000E+00         0.00000E+00        -0.20085E+06
 
   -0.38581E+07         0.46858E+06         0.00000E+00
    0.46858E+06        -0.22319E+08         0.00000E+00
    0.00000E+00         0.00000E+00        -0.34290E+06
 
   -0.36987E+07         0.61850E+06         0.00000E+00
    0.61850E+06        -0.22362E+08         0.00000E+00
    0.00000E+00         0.00000E+00        -0.51432E+06
 
   -0.35501E+07         0.76608E+06         0.00000E+00
    0.76608E+06        -0.22415E+08         0.00000E+00
    0.00000E+00         0.00000E+00        -0.69844E+06
 
   -0.34166E+07         0.90842E+06         0.00000E+00
    0.90842E+06        -0.22475E+08         0.00000E+00
    0.00000E+00         0.00000E+00        -0.88772E+06
 
   -0.33028E+07         0.10495E+07         0.00000E+00
    0.10495E+07        -0.22541E+08         0.00000E+00
    0.00000E+00         0.00000E+00        -0.10802E+07
 
   -0.32062E+07         0.11926E+07         0.00000E+00
    0.11926E+07        -0.22610E+08         0.00000E+00
    0.00000E+00         0.00000E+00        -0.12682E+07
 
   -0.31287E+07         0.13393E+07         0.00000E+00
    0.13393E+07        -0.22682E+08         0.00000E+00
    0.00000E+00         0.00000E+00        -0.14545E+07
 
   -0.30682E+07         0.14899E+07         0.00000E+00
    0.14899E+07        -0.22755E+08         0.00000E+00
    0.00000E+00         0.00000E+00        -0.16373E+07
 
   -0.30228E+07         0.16445E+07         0.00000E+00
    0.16445E+07        -0.22829E+08         0.00000E+00
    0.00000E+00         0.00000E+00        -0.18166E+07
 
   -0.29932E+07         0.18035E+07         0.00000E+00
    0.18035E+07        -0.22902E+08         0.00000E+00
    0.00000E+00         0.00000E+00        -0.19920E+07
 
   -0.29792E+07         0.19668E+07         0.00000E+00
    0.19668E+07        -0.22976E+08         0.00000E+00
    0.00000E+00         0.00000E+00        -0.21623E+07
 
   -0.29816E+07         0.21333E+07         0.00000E+00
    0.21333E+07        -0.23050E+08         0.00000E+00
    0.00000E+00         0.00000E+00        -0.23275E+07
 
   -0.29987E+07         0.23036E+07         0.00000E+00
    0.23036E+07        -0.23125E+08         0.00000E+00
    0.00000E+00         0.00000E+00        -0.24879E+07
 
   -0.30286E+07         0.24777E+07         0.00000E+00
    0.24777E+07        -0.23197E+08         0.00000E+00
    0.00000E+00         0.00000E+00        -0.26440E+07
 
   -0.30714E+07         0.26583E+07         0.00000E+00
    0.26583E+07        -0.23268E+08         0.00000E+00
    0.00000E+00         0.00000E+00        -0.27953E+07
 
   -0.31290E+07         0.28411E+07         0.00000E+00
    0.28411E+07        -0.23337E+08         0.00000E+00
    0.00000E+00         0.00000E+00        -0.29401E+07
 
   -0.32013E+07         0.30245E+07         0.00000E+00
    0.30245E+07        -0.23406E+08         0.00000E+00
    0.00000E+00         0.00000E+00        -0.30787E+07
 
   -0.32860E+07         0.32075E+07         0.00000E+00
    0.32075E+07        -0.23475E+08         0.00000E+00
    0.00000E+00         0.00000E+00        -0.32123E+07
 
   -0.33810E+07         0.33947E+07         0.00000E+00
    0.33947E+07        -0.23541E+08         0.00000E+00
    0.00000E+00         0.00000E+00        -0.33431E+07
 
   -0.34837E+07         0.35844E+07         0.00000E+00
    0.35844E+07        -0.23604E+08         0.00000E+00
    0.00000E+00         0.00000E+00        -0.34723E+07
 
   -0.11800E+08        -0.11295E+06         0.00000E+00
   -0.11295E+06        -0.22754E+08         0.00000E+00
    0.00000E+00         0.00000E+00         0.00000E+00
 
   -0.11607E+08        -0.28669E+06         0.00000E+00
   -0.28669E+06        -0.22757E+08         0.00000E+00
    0.00000E+00         0.00000E+00         0.00000E+00
 
   -0.11405E+08        -0.44509E+06         0.00000E+00
   -0.44509E+06        -0.22766E+08         0.00000E+00
    0.00000E+00         0.00000E+00         0.00000E+00
 
   -0.11193E+08        -0.58681E+06         0.00000E+00
   -0.58681E+06        -0.22780E+08         0.00000E+00
    0.00000E+00         0.00000E+00         0.00000E+00
 
   -0.10973E+08        -0.71176E+06         0.00000E+00
   -0.71176E+06        -0.22797E+08         0.00000E+00
    0.00000E+00         0.00000E+00         0.00000E+00
 
   -0.10745E+08        -0.82015E+06         0.00000E+00
   -0.82015E+06        -0.22817E+08         0.00000E+00
    0.00000E+00         0.00000E+00         0.00000E+00
 
   -0.10510E+08        -0.91239E+06         0.00000E+00
   -0.91239E+06        -0.22839E+08         0.00000E+00
    0.00000E+00         0.00000E+00         0.00000E+00
 
   -0.10269E+08        -0.98887E+06         0.00000E+00
   -0.98887E+06        -0.22863E+08         0.00000E+00
    0.00000E+00         0.00000E+00         0.00000E+00
 
   -0.10024E+08        -0.10500E+07         0.00000E+00
   -0.10500E+07        -0.22889E+08         0.00000E+00
    0.00000E+00         0.00000E+00         0.00000E+00
 
   -0.97761E+07        -0.10961E+07         0.00000E+00
   -0.10961E+07        -0.22916E+08         0.00000E+00
    0.00000E+00         0.00000E+00         0.00000E+00
 
   -0.95253E+07        -0.11278E+07         0.00000E+00
   -0.11278E+07        -0.22944E+08         0.00000E+00
    0.00000E+00         0.00000E+00         0.00000E+00
 
   -0.92733E+07        -0.11455E+07         0.00000E+00
   -0.11455E+07        -0.22971E+08         0.00000E+00
    0.00000E+00         0.00000E+00         0.00000E+00
 
   -0.90211E+07        -0.11501E+07         0.00000E+00
   -0.11501E+07        -0.22999E+08         0.00000E+00
    0.00000E+00         0.00000E+00         0.00000E+00
 
   -0.87697E+07        -0.11429E+07         0.00000E+00
   -0.11429E+07        -0.23025E+08         0.00000E+00
    0.00000E+00         0.00000E+00         0.00000E+00
 
   -0.85189E+07        -0.11251E+07         0.00000E+00
   -0.11251E+07        -0.23051E+08         0.00000E+00
    0.00000E+00         0.00000E+00         0.00000E+00
 
   -0.82687E+07        -0.10973E+07         0.00000E+00
   -0.10973E+07        -0.23077E+08         0.00000E+00
    0.00000E+00         0.00000E+00         0.00000E+00
 
   -0.80189E+07        -0.10598E+07         0.00000E+00
   -0.10598E+07        -0.23101E+08         0.00000E+00
    0.00000E+00         0.00000E+00         0.00000E+00
 
   -0.77697E+07        -0.10134E+07         0.00000E+00
   -0.10134E+07        -0.23124E+08         0.00000E+00
    0.00000E+00         0.00000E+00         0.00000E+00
 
   -0.75207E+07        -0.95884E+06         0.00000E+00
   -0.95884E+06        -0.23146E+08         0.00000E+00
    0.00000E+00         0.00000E+00         0.00000E+00
 
   -0.72716E+07        -0.89678E+06         0.00000E+00
   -0.89678E+06        -0.23165E+08         0.00000E+00
    0.00000E+00         0.00000E+00         0.00000E+00
 
   -0.70215E+07        -0.82779E+06         0.00000E+00
   -0.82779E+06        -0.23184E+08         0.00000E+00
    0.00000E+00         0.00000E+00        -0.56390E+03
 
   -0.67781E+07        -0.75098E+06         0.00000E+00
   -0.75098E+06        -0.23208E+08         0.00000E+00
    0.00000E+00         0.00000E+00        -0.23155E+05
 
   -0.65391E+07        -0.66426E+06         0.00000E+00
   -0.66426E+06        -0.23227E+08         0.00000E+00
    0.00000E+00         0.00000E+00        -0.64545E+05
 
   -0.62969E+07        -0.56755E+06         0.00000E+00
   -0.56755E+06        -0.23246E+08         0.00000E+00
    0.00000E+00         0.00000E+00        -0.10738E+06
 
   -0.60512E+07        -0.46125E+06         0.00000E+00
   -0.46125E+06        -0.23265E+08         0.00000E+00
    0.00000E+00         0.00000E+00        -0.15282E+06
 
   -0.58017E+07        -0.34579E+06         0.00000E+00
   -0.34579E+06        -0.23283E+08         0.00000E+00
    0.00000E+00         0.00000E+00        -0.20489E+06
 
   -0.55729E+07        -0.22410E+06         0.00000E+00
   -0.22410E+06        -0.23291E+08         0.00000E+00
    0.00000E+00         0.00000E+00        -0.31336E+06
 
   -0.53534E+07        -0.10047E+06         0.00000E+00
   -0.10047E+06        -0.23308E+08         0.00000E+00
    0.00000E+00         0.00000E+00        -0.44907E+06
 
   -0.51399E+07         0.22144E+05         0.00000E+00
    0.22144E+05        -0.23332E+08         0.00000E+00
    0.00000E+00         0.00000E+00        -0.59599E+06
 
   -0.49369E+07         0.14085E+06         0.00000E+00
    0.14085E+06        -0.23361E+08         0.00000E+00
    0.00000E+00         0.00000E+00        -0.75092E+06
 
   -0.47499E+07         0.25687E+06         0.00000E+00
    0.25687E+06        -0.23397E+08         0.00000E+00
    0.00000E+00         0.00000E+00        -0.91377E+06
 
   -0.45772E+07         0.37402E+06         0.00000E+00
    0.37402E+06        -0.23439E+08         0.00000E+00
    0.00000E+00         0.00000E+00        -0.10777E+07
 
   -0.44210E+07         0.49371E+06         0.00000E+00
    0.49371E+06        -0.23485E+08         0.00000E+00
    0.00000E+00         0.00000E+00        -0.12450E+07
 
   -0.42798E+07         0.61699E+06         0.00000E+00
    0.61699E+06        -0.23535E+08         0.00000E+00
    0.00000E+00         0.00000E+00        -0.14145E+07
 
   -0.41527E+07         0.74373E+06         0.00000E+00
    0.74373E+06        -0.23588E+08         0.00000E+00
    0.00000E+00         0.00000E+00        -0.15848E+07
 
   -0.40395E+07         0.87438E+06         0.00000E+00
    0.87438E+06        -0.23644E+08         0.00000E+00
    0.00000E+00         0.00000E+00        -0.17569E+07
 
   -0.39404E+07         0.10096E+07         0.00000E+00
    0.10096E+07        -0.23703E+08         0.00000E+00
    0.00000E+00         0.00000E+00        -0.19291E+07
 
   -0.38561E+07         0.11503E+07         0.00000E+00
    0.11503E+07        -0.23765E+08         0.00000E+00
    0.00000E+00         0.00000E+00        -0.21014E+07
 
   -0.37871E+07         0.12968E+07         0.00000E+00
    0.12968E+07        -0.23830E+08         0.00000E+00
    0.00000E+00         0.00000E+00        -0.22736E+07
 
   -0.37330E+07         0.14489E+07         0.00000E+00
    0.14489E+07        -0.23898E+08         0.00000E+00
    0.00000E+00         0.00000E+00        -0.24452E+07
 
   -0.36941E+07         0.16070E+07         0.00000E+00
    0.16070E+07        -0.23968E+08         0.00000E+00
    0.00000E+00         0.00000E+00        -0.26157E+07
 
   -0.36698E+07         0.17717E+07         0.00000E+00
    0.17717E+07        -0.24039E+08         0.00000E+00
    0.00000E+00         0.00000E+00        -0.27844E+07
 
   -0.36607E+07         0.19429E+07         0.00000E+00
    0.19429E+07        -0.24111E+08         0.00000E+00
    0.00000E+00         0.00000E+00        -0.29506E+07
 
   -0.36689E+07         0.21203E+07         0.00000E+00
    0.21203E+07        -0.24185E+08         0.00000E+00
    0.00000E+00         0.00000E+00        -0.31129E+07
 
   -0.36947E+07         0.23001E+07         0.00000E+00
    0.23001E+07        -0.24260E+08         0.00000E+00
    0.00000E+00         0.00000E+00        -0.32699E+07
 
   -0.37358E+07         0.24863E+07         0.00000E+00
    0.24863E+07        -0.24335E+08         0.00000E+00
    0.00000E+00         0.00000E+00        -0.34231E+07
 
   -0.37901E+07         0.26783E+07         0.00000E+00
    0.26783E+07        -0.24409E+08         0.00000E+00
    0.00000E+00         0.00000E+00        -0.35728E+07
 
   -0.38568E+07         0.28758E+07         0.00000E+00
    0.28758E+07        -0.24480E+08         0.00000E+00
    0.00000E+00         0.00000E+00        -0.37192E+07
 
   -0.39340E+07         0.30762E+07         0.00000E+00
    0.30762E+07        -0.24547E+08         0.00000E+00
    0.00000E+00         0.00000E+00        -0.38624E+07
 
   -0.40223E+07         0.32858E+07         0.00000E+00
    0.32858E+07        -0.24609E+08         0.00000E+00
    0.00000E+00         0.00000E+00        -0.40015E+07
 
   -0.14348E+08        -0.11937E+06         0.00000E+00
   -0.11937E+06        -0.24317E+08         0.00000E+00
    0.00000E+00         0.00000E+00         0.00000E+00
 
   -0.14068E+08        -0.32373E+06         0.00000E+00
   -0.32373E+06        -0.24328E+08         0.00000E+00
    0.00000E+00         0.00000E+00         0.00000E+00
 
   -0.13773E+08        -0.50371E+06         0.00000E+00
   -0.50371E+06        -0.24340E+08         0.00000E+00
    0.00000E+00         0.00000E+00         0.00000E+00
 
   -0.13468E+08        -0.66233E+06         0.00000E+00
   -0.66233E+06        -0.24354E+08         0.00000E+00
    0.00000E+00         0.00000E+00         0.00000E+00
 
   -0.13155E+08        -0.80025E+06         0.00000E+00
   -0.80025E+06        -0.24370E+08         0.00000E+00
    0.00000E+00         0.00000E+00         0.00000E+00
 
   -0.12836E+08        -0.91782E+06         0.00000E+00
   -0.91782E+06        -0.24388E+08         0.00000E+00
    0.00000E+00         0.00000E+00         0.00000E+00
 
   -0.12513E+08        -0.10153E+07         0.00000E+00
   -0.10153E+07        -0.24406E+08         0.00000E+00
    0.00000E+00         0.00000E+00         0.00000E+00
 
   -0.12188E+08        -0.10935E+07         0.00000E+00
   -0.10935E+07        -0.24422E+08         0.00000E+00
    0.00000E+00         0.00000E+00         0.00000E+00
 
   -0.11862E+08        -0.11536E+07         0.00000E+00
   -0.11536E+07        -0.24437E+08         0.00000E+00
    0.00000E+00         0.00000E+00         0.00000E+00
 
   -0.11537E+08        -0.11971E+07         0.00000E+00
   -0.11971E+07        -0.24448E+08         0.00000E+00
    0.00000E+00         0.00000E+00         0.00000E+00
 
   -0.11214E+08        -0.12254E+07         0.00000E+00
   -0.12254E+07        -0.24457E+08         0.00000E+00
    0.00000E+00         0.00000E+00         0.00000E+00
 
   -0.10893E+08        -0.12398E+07         0.00000E+00
   -0.12398E+07        -0.24465E+08         0.00000E+00
    0.00000E+00         0.00000E+00         0.00000E+00
 
   -0.10576E+08        -0.12412E+07         0.00000E+00
   -0.12412E+07        -0.24472E+08         0.00000E+00
    0.00000E+00         0.00000E+00        -0.26794E+04
 
   -0.10266E+08        -0.12286E+07         0.00000E+00
   -0.12286E+07        -0.24471E+08         0.00000E+00
    0.00000E+00         0.00000E+00        -0.28465E+05
 
   -0.99596E+07        -0.12031E+07         0.00000E+00
   -0.12031E+07        -0.24467E+08         0.00000E+00
    0.00000E+00         0.00000E+00        -0.54856E+05
 
   -0.96566E+07        -0.11660E+07         0.00000E+00
   -0.11660E+07        -0.24460E+08         0.00000E+00
    0.00000E+00         0.00000E+00        -0.80584E+05
 
   -0.93575E+07        -0.11182E+07         0.00000E+00
   -0.11182E+07        -0.24451E+08         0.00000E+00
    0.00000E+00         0.00000E+00        -0.10606E+06
 
   -0.90621E+07        -0.10606E+07         0.00000E+00
   -0.10606E+07        -0.24440E+08         0.00000E+00
    0.00000E+00         0.00000E+00        -0.13173E+06
 
   -0.87696E+07        -0.99365E+06         0.00000E+00
   -0.99365E+06        -0.24427E+08         0.00000E+00
    0.00000E+00         0.00000E+00        -0.15819E+06
 
   -0.84791E+07        -0.91789E+06         0.00000E+00
   -0.91789E+06        -0.24413E+08         0.00000E+00
    0.00000E+00         0.00000E+00        -0.18622E+06
 
   -0.81902E+07        -0.83373E+06         0.00000E+00
   -0.83373E+06        -0.24397E+08         0.00000E+00
    0.00000E+00         0.00000E+00        -0.22169E+06
 
   -0.79139E+07        -0.74357E+06         0.00000E+00
   -0.74357E+06        -0.24378E+08         0.00000E+00
    0.00000E+00         0.00000E+00        -0.29561E+06
 
   -0.76433E+07        -0.65032E+06         0.00000E+00
   -0.65032E+06        -0.24365E+08         0.00000E+00
    0.00000E+00         0.00000E+00        -0.38379E+06
 
   -0.73768E+07        -0.55528E+06         0.00000E+00
   -0.55528E+06        -0.24353E+08         0.00000E+00
    0.00000E+00         0.00000E+00        -0.47856E+06
 
   -0.71159E+07        -0.46008E+06         0.00000E+00
   -0.46008E+06        -0.24345E+08         0.00000E+00
    0.00000E+00         0.00000E+00        -0.58072E+06
 
   -0.68640E+07        -0.36699E+06         0.00000E+00
   -0.36699E+06        -0.24341E+08         0.00000E+00
    0.00000E+00         0.00000E+00        -0.69060E+06
 
   -0.66242E+07        -0.27585E+06         0.00000E+00
   -0.27585E+06        -0.24344E+08         0.00000E+00
    0.00000E+00         0.00000E+00        -0.80803E+06
 
   -0.63958E+07        -0.18406E+06         0.00000E+00
   -0.18406E+06        -0.24351E+08         0.00000E+00
    0.00000E+00         0.00000E+00        -0.92991E+06
 
   -0.61802E+07        -0.91249E+05         0.00000E+00
   -0.91249E+05        -0.24363E+08         0.00000E+00
    0.00000E+00         0.00000E+00        -0.10579E+07
 
   -0.59769E+07         0.27019E+04         0.00000E+00
    0.27019E+04        -0.24381E+08         0.00000E+00
    0.00000E+00         0.00000E+00        -0.11910E+07
 
   -0.57845E+07         0.98153E+05         0.00000E+00
    0.98153E+05        -0.24403E+08         0.00000E+00
    0.00000E+00         0.00000E+00        -0.13281E+07
 
   -0.56035E+07         0.19515E+06         0.00000E+00
    0.19515E+06        -0.24428E+08         0.00000E+00
    0.00000E+00         0.00000E+00        -0.14692E+07
 
   -0.54331E+07         0.29429E+06         0.00000E+00
    0.29429E+06        -0.24458E+08         0.00000E+00
    0.00000E+00         0.00000E+00        -0.16146E+07
 
   -0.52738E+07         0.39646E+06         0.00000E+00
    0.39646E+06        -0.24492E+08         0.00000E+00
    0.00000E+00         0.00000E+00        -0.17639E+07
 
   -0.51263E+07         0.50267E+06         0.00000E+00
    0.50267E+06        -0.24531E+08         0.00000E+00
    0.00000E+00         0.00000E+00        -0.19174E+07
 
   -0.49901E+07         0.61336E+06         0.00000E+00
    0.61336E+06        -0.24575E+08         0.00000E+00
    0.00000E+00         0.00000E+00        -0.20749E+07
 
   -0.48655E+07         0.72905E+06         0.00000E+00
    0.72905E+06        -0.24623E+08         0.00000E+00
    0.00000E+00         0.00000E+00        -0.22365E+07
 
   -0.47519E+07         0.85060E+06         0.00000E+00
    0.85060E+06        -0.24677E+08         0.00000E+00
    0.00000E+00         0.00000E+00        -0.24028E+07
 
   -0.46502E+07         0.97868E+06         0.00000E+00
    0.97868E+06        -0.24735E+08         0.00000E+00
    0.00000E+00         0.00000E+00        -0.25731E+07
 
   -0.45616E+07         0.11143E+07         0.00000E+00
    0.11143E+07        -0.24797E+08         0.00000E+00
    0.00000E+00         0.00000E+00        -0.27466E+07
 
   -0.44866E+07         0.12580E+07         0.00000E+00
    0.12580E+07        -0.24864E+08         0.00000E+00
    0.00000E+00         0.00000E+00        -0.29232E+07
 
   -0.44263E+07         0.14091E+07         0.00000E+00
    0.14091E+07        -0.24936E+08         0.00000E+00
    0.00000E+00         0.00000E+00        -0.31022E+07
 
   -0.43818E+07         0.15696E+07         0.00000E+00
    0.15696E+07        -0.25011E+08         0.00000E+00
    0.00000E+00         0.00000E+00        -0.32829E+07
 
   -0.43536E+07         0.17391E+07         0.00000E+00
    0.17391E+07        -0.25090E+08         0.00000E+00
    0.00000E+00         0.00000E+00        -0.34639E+07
 
   -0.43417E+07         0.19191E+07         0.00000E+00
    0.19191E+07        -0.25170E+08         0.00000E+00
    0.00000E+00         0.00000E+00        -0.36444E+07
 
   -0.43457E+07         0.21084E+07         0.00000E+00
    0.21084E+07        -0.25252E+08         0.00000E+00
    0.00000E+00         0.00000E+00        -0.38240E+07
 
   -0.43656E+07         0.23062E+07         0.00000E+00
    0.23062E+07        -0.25334E+08         0.00000E+00
    0.00000E+00         0.00000E+00        -0.40024E+07
 
   -0.44015E+07         0.25125E+07         0.00000E+00
    0.25125E+07        -0.25415E+08         0.00000E+00
    0.00000E+00         0.00000E+00        -0.41784E+07
 
   -0.44592E+07         0.27238E+07         0.00000E+00
    0.27238E+07        -0.25496E+08         0.00000E+00
    0.00000E+00         0.00000E+00        -0.43459E+07
 
   -0.45403E+07         0.29334E+07         0.00000E+00
    0.29334E+07        -0.25582E+08         0.00000E+00
    0.00000E+00         0.00000E+00        -0.45061E+07
 
   -0.17077E+08        -0.16840E+06         0.00000E+00
   -0.16840E+06        -0.25934E+08         0.00000E+00
    0.00000E+00         0.00000E+00        -0.10371E+06
 
   -0.16665E+08        -0.38207E+06         0.00000E+00
   -0.38207E+06        -0.25931E+08         0.00000E+00
    0.00000E+00         0.00000E+00        -0.10438E+06
 
   -0.16245E+08        -0.57456E+06         0.00000E+00
   -0.57456E+06        -0.25939E+08         0.00000E+00
    0.00000E+00         0.00000E+00        -0.11560E+06
 
   -0.15816E+08        -0.73805E+06         0.00000E+00
   -0.73805E+06        -0.25950E+08         0.00000E+00
    0.00000E+00         0.00000E+00        -0.13236E+06
 
   -0.15382E+08        -0.87183E+06         0.00000E+00
   -0.87183E+06        -0.25956E+08         0.00000E+00
    0.00000E+00         0.00000E+00        -0.14981E+06
 
   -0.14947E+08        -0.97710E+06         0.00000E+00
   -0.97710E+06        -0.25957E+08         0.00000E+00
    0.00000E+00         0.00000E+00        -0.16683E+06
 
   -0.14516E+08        -0.10572E+07         0.00000E+00
   -0.10572E+07        -0.25949E+08         0.00000E+00
    0.00000E+00         0.00000E+00        -0.18186E+06
 
   -0.14090E+08        -0.11150E+07         0.00000E+00
   -0.11150E+07        -0.25935E+08         0.00000E+00
    0.00000E+00         0.00000E+00        -0.19662E+06
 
   -0.13673E+08        -0.11528E+07         0.00000E+00
   -0.11528E+07        -0.25916E+08         0.00000E+00
    0.00000E+00         0.00000E+00        -0.21077E+06
 
   -0.13263E+08        -0.11722E+07         0.00000E+00
   -0.11722E+07        -0.25892E+08         0.00000E+00
    0.00000E+00         0.00000E+00        -0.22486E+06
 
   -0.12863E+08        -0.11751E+07         0.00000E+00
   -0.11751E+07        -0.25863E+08         0.00000E+00
    0.00000E+00         0.00000E+00        -0.23823E+06
 
   -0.12473E+08        -0.11632E+07         0.00000E+00
   -0.11632E+07        -0.25826E+08         0.00000E+00
    0.00000E+00         0.00000E+00        -0.26059E+06
 
   -0.12093E+08        -0.11386E+07         0.00000E+00
   -0.11386E+07        -0.25783E+08         0.00000E+00
    0.00000E+00         0.00000E+00        -0.29454E+06
 
   -0.11725E+08        -0.11045E+07         0.00000E+00
   -0.11045E+07        -0.25744E+08         0.00000E+00
    0.00000E+00         0.00000E+00        -0.33358E+06
 
   -0.11366E+08        -0.10619E+07         0.00000E+00
   -0.10619E+07        -0.25702E+08         0.00000E+00
    0.00000E+00         0.00000E+00        -0.37375E+06
 
   -0.11018E+08        -0.10119E+07         0.00000E+00
   -0.10119E+07        -0.25657E+08         0.00000E+00
    0.00000E+00         0.00000E+00        -0.41533E+06
 
   -0.10678E+08        -0.95558E+06         0.00000E+00
   -0.95558E+06        -0.25612E+08         0.00000E+00
    0.00000E+00         0.00000E+00        -0.45900E+06
 
   -0.10348E+08        -0.89400E+06         0.00000E+00
   -0.89400E+06        -0.25567E+08         0.00000E+00
    0.00000E+00         0.00000E+00        -0.50562E+06
 
   -0.10026E+08        -0.82843E+06         0.00000E+00
   -0.82843E+06        -0.25523E+08         0.00000E+00
    0.00000E+00         0.00000E+00        -0.55612E+06
 
   -0.97131E+07        -0.76034E+06         0.00000E+00
   -0.76034E+06        -0.25481E+08         0.00000E+00
    0.00000E+00         0.00000E+00        -0.61142E+06
 
   -0.94105E+07        -0.69159E+06         0.00000E+00
   -0.69159E+06        -0.25443E+08         0.00000E+00
    0.00000E+00         0.00000E+00        -0.67258E+06
 
   -0.91183E+07        -0.62208E+06         0.00000E+00
   -0.62208E+06        -0.25409E+08         0.00000E+00
    0.00000E+00         0.00000E+00        -0.73844E+06
 
   -0.88372E+07        -0.55103E+06         0.00000E+00
   -0.55103E+06        -0.25378E+08         0.00000E+00
    0.00000E+00         0.00000E+00        -0.80957E+06
 
   -0.85667E+07        -0.47935E+06         0.00000E+00
   -0.47935E+06        -0.25352E+08         0.00000E+00
    0.00000E+00         0.00000E+00        -0.88707E+06
 
   -0.83070E+07        -0.40799E+06         0.00000E+00
   -0.40799E+06        -0.25332E+08         0.00000E+00
    0.00000E+00         0.00000E+00        -0.97065E+06
 
   -0.80580E+07        -0.33703E+06         0.00000E+00
   -0.33703E+06        -0.25317E+08         0.00000E+00
    0.00000E+00         0.00000E+00        -0.10596E+07
 
   -0.78190E+07        -0.26633E+06         0.00000E+00
   -0.26633E+06        -0.25305E+08         0.00000E+00
    0.00000E+00         0.00000E+00        -0.11532E+07
 
   -0.75901E+07        -0.19607E+06         0.00000E+00
   -0.19607E+06        -0.25298E+08         0.00000E+00
    0.00000E+00         0.00000E+00        -0.12516E+07
 
   -0.73713E+07        -0.12587E+06         0.00000E+00
   -0.12587E+06        -0.25295E+08         0.00000E+00
    0.00000E+00         0.00000E+00        -0.13544E+07
 
   -0.71621E+07        -0.55033E+05         0.00000E+00
   -0.55033E+05        -0.25296E+08         0.00000E+00
    0.00000E+00         0.00000E+00        -0.14620E+07
 
   -0.69616E+07         0.16913E+05         0.00000E+00
    0.16913E+05        -0.25302E+08         0.00000E+00
    0.00000E+00         0.00000E+00        -0.15753E+07
 
   -0.67705E+07         0.90393E+05         0.00000E+00
    0.90393E+05        -0.25314E+08         0.00000E+00
    0.00000E+00         0.00000E+00        -0.16935E+07
 
   -0.65883E+07         0.16578E+06         0.00000E+00
    0.16578E+06        -0.25330E+08         0.00000E+00
    0.00000E+00         0.00000E+00        -0.18172E+07
 
   -0.64144E+07         0.24329E+06         0.00000E+00
    0.24329E+06        -0.25352E+08         0.00000E+00
    0.00000E+00         0.00000E+00        -0.19466E+07
 
   -0.62481E+07         0.32346E+06         0.00000E+00
    0.32346E+06        -0.25379E+08         0.00000E+00
    0.00000E+00         0.00000E+00        -0.20823E+07
 
   -0.60900E+07         0.40713E+06         0.00000E+00
    0.40713E+06        -0.25412E+08         0.00000E+00
    0.00000E+00         0.00000E+00        -0.22244E+07
 
   -0.59383E+07         0.49525E+06         0.00000E+00
    0.49525E+06        -0.25451E+08         0.00000E+00
    0.00000E+00         0.00000E+00        -0.23744E+07
 
   -0.57934E+07         0.58870E+06         0.00000E+00
    0.58870E+06        -0.25496E+08         0.00000E+00
    0.00000E+00         0.00000E+00        -0.25329E+07
 
   -0.56570E+07         0.68840E+06         0.00000E+00
    0.68840E+06        -0.25547E+08         0.00000E+00
    0.00000E+00         0.00000E+00        -0.26994E+07
 
   -0.55296E+07         0.79525E+06         0.00000E+00
    0.79525E+06        -0.25605E+08         0.00000E+00
    0.00000E+00         0.00000E+00        -0.28742E+07
 
   -0.54120E+07         0.91024E+06         0.00000E+00
    0.91024E+06        -0.25670E+08         0.00000E+00
    0.00000E+00         0.00000E+00        -0.30576E+07
 
   -0.53041E+07         0.10350E+07         0.00000E+00
    0.10350E+07        -0.25742E+08         0.00000E+00
    0.00000E+00         0.00000E+00        -0.32502E+07
 
   -0.52069E+07         0.11708E+07         0.00000E+00
    0.11708E+07        -0.25820E+08         0.00000E+00
    0.00000E+00         0.00000E+00        -0.34520E+07
 
   -0.51218E+07         0.13189E+07         0.00000E+00
    0.13189E+07        -0.25906E+08         0.00000E+00
    0.00000E+00         0.00000E+00        -0.36633E+07
 
   -0.50532E+07         0.14805E+07         0.00000E+00
    0.14805E+07        -0.25998E+08         0.00000E+00
    0.00000E+00         0.00000E+00        -0.38816E+07
 
   -0.50037E+07         0.16558E+07         0.00000E+00
    0.16558E+07        -0.26098E+08         0.00000E+00
    0.00000E+00         0.00000E+00        -0.41050E+07
 
   -0.49756E+07         0.18445E+07         0.00000E+00
    0.18445E+07        -0.26203E+08         0.00000E+00
    0.00000E+00         0.00000E+00        -0.43306E+07
 
   -0.49730E+07         0.20398E+07         0.00000E+00
    0.20398E+07        -0.26313E+08         0.00000E+00
    0.00000E+00         0.00000E+00        -0.45531E+07
 
   -0.50023E+07         0.22521E+07         0.00000E+00
    0.22521E+07        -0.26428E+08         0.00000E+00
    0.00000E+00         0.00000E+00        -0.47676E+07
 
   -0.50473E+07         0.24700E+07         0.00000E+00
    0.24700E+07        -0.26536E+08         0.00000E+00
    0.00000E+00         0.00000E+00        -0.49720E+07
 
   -0.19860E+08        -0.12181E+06         0.00000E+00
   -0.12181E+06        -0.27517E+08         0.00000E+00
    0.00000E+00         0.00000E+00        -0.10362E+07
 
   -0.19314E+08        -0.36110E+06         0.00000E+00
   -0.36110E+06        -0.27536E+08         0.00000E+00
    0.00000E+00         0.00000E+00        -0.94641E+06
 
   -0.18723E+08        -0.54387E+06         0.00000E+00
   -0.54387E+06        -0.27515E+08         0.00000E+00
    0.00000E+00         0.00000E+00        -0.90912E+06
 
   -0.18127E+08        -0.68352E+06         0.00000E+00
   -0.68352E+06        -0.27473E+08         0.00000E+00
    0.00000E+00         0.00000E+00        -0.87668E+06
 
   -0.17534E+08        -0.78601E+06         0.00000E+00
   -0.78601E+06        -0.27427E+08         0.00000E+00
    0.00000E+00         0.00000E+00        -0.85223E+06
 
   -0.16957E+08        -0.85572E+06         0.00000E+00
   -0.85572E+06        -0.27377E+08         0.00000E+00
    0.00000E+00         0.00000E+00        -0.83530E+06
 
   -0.16404E+08        -0.89852E+06         0.00000E+00
   -0.89852E+06        -0.27329E+08         0.00000E+00
    0.00000E+00         0.00000E+00        -0.82814E+06
 
   -0.15875E+08        -0.92007E+06         0.00000E+00
   -0.92007E+06        -0.27271E+08         0.00000E+00
    0.00000E+00         0.00000E+00        -0.82184E+06
 
   -0.15373E+08        -0.92573E+06         0.00000E+00
   -0.92573E+06        -0.27206E+08         0.00000E+00
    0.00000E+00         0.00000E+00        -0.81694E+06
 
   -0.14890E+08        -0.91940E+06         0.00000E+00
   -0.91940E+06        -0.27133E+08         0.00000E+00
    0.00000E+00         0.00000E+00        -0.81220E+06
 
   -0.14427E+08        -0.90238E+06         0.00000E+00
   -0.90238E+06        -0.27058E+08         0.00000E+00
    0.00000E+00         0.00000E+00        -0.81088E+06
 
   -0.13985E+08        -0.87679E+06         0.00000E+00
   -0.87679E+06        -0.26980E+08         0.00000E+00
    0.00000E+00         0.00000E+00        -0.81167E+06
 
   -0.13561E+08        -0.84484E+06         0.00000E+00
   -0.84484E+06        -0.26901E+08         0.00000E+00
    0.00000E+00         0.00000E+00        -0.81499E+06
 
   -0.13156E+08        -0.80694E+06         0.00000E+00
   -0.80694E+06        -0.26821E+08         0.00000E+00
    0.00000E+00         0.00000E+00        -0.82085E+06
 
   -0.12767E+08        -0.76405E+06         0.00000E+00
   -0.76405E+06        -0.26742E+08         0.00000E+00
    0.00000E+00         0.00000E+00        -0.83039E+06
 
   -0.12393E+08        -0.71791E+06         0.00000E+00
   -0.71791E+06        -0.26666E+08         0.00000E+00
    0.00000E+00         0.00000E+00        -0.84386E+06
 
   -0.12035E+08        -0.66958E+06         0.00000E+00
   -0.66958E+06        -0.26593E+08         0.00000E+00
    0.00000E+00         0.00000E+00        -0.86203E+06
 
   -0.11691E+08        -0.61992E+06         0.00000E+00
   -0.61992E+06        -0.26524E+08         0.00000E+00
    0.00000E+00         0.00000E+00        -0.88517E+06
 
   -0.11360E+08        -0.56977E+06         0.00000E+00
   -0.56977E+06        -0.26459E+08         0.00000E+00
    0.00000E+00         0.00000E+00        -0.91347E+06
 
   -0.11043E+08        -0.51973E+06         0.00000E+00
   -0.51973E+06        -0.26398E+08         0.00000E+00
    0.00000E+00         0.00000E+00        -0.94700E+06
 
   -0.10738E+08        -0.46993E+06         0.00000E+00
   -0.46993E+06        -0.26342E+08         0.00000E+00
    0.00000E+00         0.00000E+00        -0.98555E+06
 
   -0.10445E+08        -0.42076E+06         0.00000E+00
   -0.42076E+06        -0.26291E+08         0.00000E+00
    0.00000E+00         0.00000E+00        -0.10294E+07
 
   -0.10164E+08        -0.37261E+06         0.00000E+00
   -0.37261E+06        -0.26246E+08         0.00000E+00
    0.00000E+00         0.00000E+00        -0.10783E+07
 
   -0.98951E+07        -0.32532E+06         0.00000E+00
   -0.32532E+06        -0.26205E+08         0.00000E+00
    0.00000E+00         0.00000E+00        -0.11321E+07
 
   -0.96369E+07        -0.27853E+06         0.00000E+00
   -0.27853E+06        -0.26169E+08         0.00000E+00
    0.00000E+00         0.00000E+00        -0.11910E+07
 
   -0.93893E+07        -0.23214E+06         0.00000E+00
   -0.23214E+06        -0.26139E+08         0.00000E+00
    0.00000E+00         0.00000E+00        -0.12549E+07
 
   -0.91514E+07        -0.18613E+06         0.00000E+00
   -0.18613E+06        -0.26114E+08         0.00000E+00
    0.00000E+00         0.00000E+00        -0.13243E+07
 
   -0.89224E+07        -0.14031E+06         0.00000E+00
   -0.14031E+06        -0.26095E+08         0.00000E+00
    0.00000E+00         0.00000E+00        -0.13991E+07
 
   -0.87022E+07        -0.94556E+05         0.00000E+00
   -0.94556E+05        -0.26081E+08         0.00000E+00
    0.00000E+00         0.00000E+00        -0.14793E+07
 
   -0.84903E+07        -0.48737E+05         0.00000E+00
   -0.48737E+05        -0.26073E+08         0.00000E+00
    0.00000E+00         0.00000E+00        -0.15649E+07
 
   -0.82860E+07        -0.26767E+04         0.00000E+00
   -0.26767E+04        -0.26070E+08         0.00000E+00
    0.00000E+00         0.00000E+00        -0.16561E+07
 
   -0.80889E+07         0.43903E+05         0.00000E+00
    0.43903E+05        -0.26073E+08         0.00000E+00
    0.00000E+00         0.00000E+00        -0.17531E+07
 
   -0.78987E+07         0.91386E+05         0.00000E+00
    0.91386E+05        -0.26081E+08         0.00000E+00
    0.00000E+00         0.00000E+00        -0.18565E+07
 
   -0.77145E+07         0.14021E+06         0.00000E+00
    0.14021E+06        -0.26096E+08         0.00000E+00
    0.00000E+00         0.00000E+00        -0.19666E+07
 
   -0.75352E+07         0.19077E+06         0.00000E+00
    0.19077E+06        -0.26116E+08         0.00000E+00
    0.00000E+00         0.00000E+00        -0.20846E+07
 
   -0.73606E+07         0.24342E+06         0.00000E+00
    0.24342E+06        -0.26143E+08         0.00000E+00
    0.00000E+00         0.00000E+00        -0.22108E+07
 
   -0.71889E+07         0.29856E+06         0.00000E+00
    0.29856E+06        -0.26177E+08         0.00000E+00
    0.00000E+00         0.00000E+00        -0.23470E+07
 
   -0.70195E+07         0.35698E+06         0.00000E+00
    0.35698E+06        -0.26218E+08         0.00000E+00
    0.00000E+00         0.00000E+00        -0.24940E+07
 
   -0.68535E+07         0.41956E+06         0.00000E+00
    0.41956E+06        -0.26266E+08         0.00000E+00
    0.00000E+00         0.00000E+00        -0.26522E+07
 
   -0.66910E+07         0.48722E+06         0.00000E+00
    0.48722E+06        -0.26322E+08         0.00000E+00
    0.00000E+00         0.00000E+00        -0.28227E+07
 
   -0.65321E+07         0.56150E+06         0.00000E+00
    0.56150E+06        -0.26387E+08         0.00000E+00
    0.00000E+00         0.00000E+00        -0.30069E+07
 
   -0.63768E+07         0.64387E+06         0.00000E+00
    0.64387E+06        -0.26460E+08         0.00000E+00
    0.00000E+00         0.00000E+00        -0.32064E+07
 
   -0.62238E+07         0.73409E+06         0.00000E+00
    0.73409E+06        -0.26544E+08         0.00000E+00
    0.00000E+00         0.00000E+00        -0.34242E+07
 
   -0.60761E+07         0.83481E+06         0.00000E+00
    0.83481E+06        -0.26639E+08         0.00000E+00
    0.00000E+00         0.00000E+00        -0.36599E+07
 
   -0.59343E+07         0.94903E+06         0.00000E+00
    0.94903E+06        -0.26745E+08         0.00000E+00
    0.00000E+00         0.00000E+00        -0.39159E+07
 
   -0.58052E+07         0.10795E+07         0.00000E+00
    0.10795E+07        -0.26863E+08         0.00000E+00
    0.00000E+00         0.00000E+00        -0.41896E+07
 
   -0.56955E+07         0.12296E+07         0.00000E+00
    0.12296E+07        -0.26995E+08         0.00000E+00
    0.00000E+00         0.00000E+00        -0.44791E+07
 
   -0.56099E+07         0.14063E+07         0.00000E+00
    0.14063E+07        -0.27139E+08         0.00000E+00
    0.00000E+00         0.00000E+00        -0.47823E+07
 
   -0.55498E+07         0.15985E+07         0.00000E+00
    0.15985E+07        -0.27295E+08         0.00000E+00
    0.00000E+00         0.00000E+00        -0.50964E+07
 
   -0.55494E+07         0.18306E+07         0.00000E+00
    0.18306E+07        -0.27477E+08         0.00000E+00
    0.00000E+00         0.00000E+00        -0.54128E+07
 
   -0.22342E+08        -0.18642E+06         0.00000E+00
   -0.18642E+06        -0.29185E+08         0.00000E+00
    0.00000E+00         0.00000E+00        -0.51492E+07
 
   -0.21624E+08        -0.23311E+06         0.00000E+00
   -0.23311E+06        -0.29117E+08         0.00000E+00
    0.00000E+00         0.00000E+00        -0.40788E+07
 
   -0.20893E+08        -0.27663E+06         0.00000E+00
   -0.27663E+06        -0.29040E+08         0.00000E+00
    0.00000E+00         0.00000E+00        -0.32197E+07
 
   -0.20180E+08        -0.31394E+06         0.00000E+00
   -0.31394E+06        -0.28948E+08         0.00000E+00
    0.00000E+00         0.00000E+00        -0.25084E+07
 
   -0.19482E+08        -0.34748E+06         0.00000E+00
   -0.34748E+06        -0.28833E+08         0.00000E+00
    0.00000E+00         0.00000E+00        -0.19671E+07
 
   -0.18805E+08        -0.37325E+06         0.00000E+00
   -0.37325E+06        -0.28702E+08         0.00000E+00
    0.00000E+00         0.00000E+00        -0.16164E+07
 
   -0.18165E+08        -0.38727E+06         0.00000E+00
   -0.38727E+06        -0.28556E+08         0.00000E+00
    0.00000E+00         0.00000E+00        -0.14927E+07
 
   -0.17567E+08        -0.39143E+06         0.00000E+00
   -0.39143E+06        -0.28409E+08         0.00000E+00
    0.00000E+00         0.00000E+00        -0.14155E+07
 
   -0.17012E+08        -0.38875E+06         0.00000E+00
   -0.38875E+06        -0.28263E+08         0.00000E+00
    0.00000E+00         0.00000E+00        -0.13457E+07
 
   -0.16485E+08        -0.37990E+06         0.00000E+00
   -0.37990E+06        -0.28121E+08         0.00000E+00
    0.00000E+00         0.00000E+00        -0.12846E+07
 
   -0.15984E+08        -0.36519E+06         0.00000E+00
   -0.36519E+06        -0.27982E+08         0.00000E+00
    0.00000E+00         0.00000E+00        -0.12301E+07
 
   -0.15515E+08        -0.34818E+06         0.00000E+00
   -0.34818E+06        -0.27848E+08         0.00000E+00
    0.00000E+00         0.00000E+00        -0.11828E+07
 
   -0.15070E+08        -0.32927E+06         0.00000E+00
   -0.32927E+06        -0.27721E+08         0.00000E+00
    0.00000E+00         0.00000E+00        -0.11431E+07
 
   -0.14647E+08        -0.30893E+06         0.00000E+00
   -0.30893E+06        -0.27600E+08         0.00000E+00
    0.00000E+00         0.00000E+00        -0.11106E+07
 
   -0.14246E+08        -0.28860E+06         0.00000E+00
   -0.28860E+06        -0.27486E+08         0.00000E+00
    0.00000E+00         0.00000E+00        -0.10851E+07
 
   -0.13865E+08        -0.26801E+06         0.00000E+00
   -0.26801E+06        -0.27379E+08         0.00000E+00
    0.00000E+00         0.00000E+00        -0.10669E+07
 
   -0.13502E+08        -0.24731E+06         0.00000E+00
   -0.24731E+06        -0.27280E+08         0.00000E+00
    0.00000E+00         0.00000E+00        -0.10555E+07
 
   -0.13155E+08        -0.22683E+06         0.00000E+00
   -0.22683E+06        -0.27189E+08         0.00000E+00
    0.00000E+00         0.00000E+00        -0.10511E+07
 
   -0.12824E+08        -0.20677E+06         0.00000E+00
   -0.20677E+06        -0.27106E+08         0.00000E+00
    0.00000E+00         0.00000E+00        -0.10533E+07
 
   -0.12508E+08        -0.18718E+06         0.00000E+00
   -0.18718E+06        -0.27029E+08         0.00000E+00
    0.00000E+00         0.00000E+00        -0.10621E+07
 
   -0.12205E+08        -0.16818E+06         0.00000E+00
   -0.16818E+06        -0.26961E+08         0.00000E+00
    0.00000E+00         0.00000E+00        -0.10774E+07
 
   -0.11916E+08        -0.14977E+06         0.00000E+00
   -0.14977E+06        -0.26899E+08         0.00000E+00
    0.00000E+00         0.00000E+00        -0.10989E+07
 
   -0.11638E+08        -0.13187E+06         0.00000E+00
   -0.13187E+06        -0.26845E+08         0.00000E+00
    0.00000E+00         0.00000E+00        -0.11266E+07
 
   -0.11371E+08        -0.11448E+06         0.00000E+00
   -0.11448E+06        -0.26798E+08         0.00000E+00
    0.00000E+00         0.00000E+00        -0.11603E+07
 
   -0.11115E+08        -0.97593E+05         0.00000E+00
   -0.97593E+05        -0.26757E+08         0.00000E+00
    0.00000E+00         0.00000E+00        -0.11998E+07
 
   -0.10869E+08        -0.81075E+05         0.00000E+00
   -0.81075E+05        -0.26723E+08         0.00000E+00
    0.00000E+00         0.00000E+00        -0.12451E+07
 
   -0.10632E+08        -0.64758E+05         0.00000E+00
   -0.64758E+05        -0.26695E+08         0.00000E+00
    0.00000E+00         0.00000E+00        -0.12961E+07
 
   -0.10404E+08        -0.48626E+05         0.00000E+00
   -0.48626E+05        -0.26674E+08         0.00000E+00
    0.00000E+00         0.00000E+00        -0.13530E+07
 
   -0.10184E+08        -0.32610E+05         0.00000E+00
   -0.32610E+05        -0.26659E+08         0.00000E+00
    0.00000E+00         0.00000E+00        -0.14157E+07
 
   -0.99716E+07        -0.16602E+05         0.00000E+00
   -0.16602E+05        -0.26651E+08         0.00000E+00
    0.00000E+00         0.00000E+00        -0.14846E+07
 
   -0.97659E+07        -0.53138E+03         0.00000E+00
   -0.53138E+03        -0.26649E+08         0.00000E+00
    0.00000E+00         0.00000E+00        -0.15596E+07
 
   -0.95664E+07         0.15671E+05         0.00000E+00
    0.15671E+05        -0.26653E+08         0.00000E+00
    0.00000E+00         0.00000E+00        -0.16413E+07
 
   -0.93723E+07         0.32116E+05         0.00000E+00
    0.32116E+05        -0.26664E+08         0.00000E+00
    0.00000E+00         0.00000E+00        -0.17299E+07
 
   -0.91828E+07         0.48937E+05         0.00000E+00
    0.48937E+05        -0.26681E+08         0.00000E+00
    0.00000E+00         0.00000E+00        -0.18260E+07
 
   -0.89972E+07         0.66263E+05         0.00000E+00
    0.66263E+05        -0.26705E+08         0.00000E+00
    0.00000E+00         0.00000E+00        -0.19301E+07
 
   -0.88147E+07         0.84389E+05         0.00000E+00
    0.84389E+05        -0.26737E+08         0.00000E+00
    0.00000E+00         0.00000E+00        -0.20432E+07
 
   -0.86339E+07         0.10338E+06         0.00000E+00
    0.10338E+06        -0.26775E+08         0.00000E+00
    0.00000E+00         0.00000E+00        -0.21663E+07
 
   -0.84525E+07         0.12322E+06         0.00000E+00
    0.12322E+06        -0.26822E+08         0.00000E+00
    0.00000E+00         0.00000E+00        -0.23016E+07
 
   -0.82701E+07         0.14439E+06         0.00000E+00
    0.14439E+06        -0.26877E+08         0.00000E+00
    0.00000E+00         0.00000E+00        -0.24502E+07
 
   -0.80867E+07         0.16738E+06         0.00000E+00
    0.16738E+06        -0.26941E+08         0.00000E+00
    0.00000E+00         0.00000E+00        -0.26133E+07
 
   -0.79022E+07         0.19244E+06         0.00000E+00
    0.19244E+06        -0.27014E+08         0.00000E+00
    0.00000E+00         0.00000E+00        -0.27924E+07
 
   -0.77156E+07         0.22012E+06         0.00000E+00
    0.22012E+06        -0.27099E+08         0.00000E+00
    0.00000E+00         0.00000E+00        -0.29902E+07
 
   -0.75261E+07         0.25196E+06         0.00000E+00
    0.25196E+06        -0.27194E+08         0.00000E+00
    0.00000E+00         0.00000E+00        -0.32094E+07
 
   -0.73316E+07         0.28819E+06         0.00000E+00
    0.28819E+06        -0.27303E+08         0.00000E+00
    0.00000E+00         0.00000E+00        -0.34545E+07
 
   -0.71294E+07         0.32984E+06         0.00000E+00
    0.32984E+06        -0.27427E+08         0.00000E+00
    0.00000E+00         0.00000E+00        -0.37312E+07
 
   -0.69209E+07         0.37982E+06         0.00000E+00
    0.37982E+06        -0.27568E+08         0.00000E+00
    0.00000E+00         0.00000E+00        -0.40435E+07
 
   -0.67068E+07         0.44135E+06         0.00000E+00
    0.44135E+06        -0.27727E+08         0.00000E+00
    0.00000E+00         0.00000E+00        -0.43971E+07
 
   -0.64949E+07         0.51912E+06         0.00000E+00
    0.51912E+06        -0.27909E+08         0.00000E+00
    0.00000E+00         0.00000E+00        -0.47944E+07
 
   -0.62877E+07         0.62601E+06         0.00000E+00
    0.62601E+06        -0.28115E+08         0.00000E+00
    0.00000E+00         0.00000E+00        -0.52432E+07
 
   -0.60735E+07         0.75232E+06         0.00000E+00
    0.75232E+06        -0.28344E+08         0.00000E+00
    0.00000E+00         0.00000E+00        -0.57548E+07
 
TENSORS stresstot double 
   -0.49995E+08         0.25795E+01         0.00000E+00
    0.25795E+01        -0.50000E+08         0.00000E+00
    0.00000E+00         0.00000E+00        -0.50000E+08
 
   -0.49995E+08         0.98296E+01         0.00000E+00
    0.98296E+01        -0.50000E+08         0.00000E+00
    0.00000E+00         0.00000E+00        -0.50000E+08
 
   -0.49995E+08         0.17235E+02         0.00000E+00
    0.17235E+02        -0.50000E+08         0.00000E+00
    0.00000E+00         0.00000E+00        -0.50000E+08
 
   -0.49995E+08         0.24727E+02         0.00000E+00
    0.24727E+02        -0.50000E+08         0.00000E+00
    0.00000E+00         0.00000E+00        -0.50000E+08
 
   -0.49995E+08         0.32263E+02         0.00000E+00
    0.32263E+02        -0.50000E+08         0.00000E+00
    0.00000E+00         0.00000E+00        -0.50000E+08
 
   -0.49995E+08         0.39817E+02         0.00000E+00
    0.39817E+02        -0.50000E+08         0.00000E+00
    0.00000E+00         0.00000E+00        -0.50000E+08
 
   -0.49995E+08         0.47371E+02         0.00000E+00
    0.47371E+02        -0.50000E+08         0.00000E+00
    0.00000E+00         0.00000E+00        -0.50000E+08
 
   -0.49995E+08         0.54912E+02         0.00000E+00
    0.54912E+02        -0.50000E+08         0.00000E+00
    0.00000E+00         0.00000E+00        -0.50000E+08
 
   -0.49995E+08         0.62428E+02         0.00000E+00
    0.62428E+02        -0.50000E+08         0.00000E+00
    0.00000E+00         0.00000E+00        -0.50000E+08
 
   -0.49995E+08         0.69908E+02         0.00000E+00
    0.69908E+02        -0.50000E+08         0.00000E+00
    0.00000E+00         0.00000E+00        -0.50000E+08
 
   -0.49995E+08         0.77344E+02         0.00000E+00
    0.77344E+02        -0.50000E+08         0.00000E+00
    0.00000E+00         0.00000E+00        -0.50000E+08
 
   -0.49995E+08         0.84727E+02         0.00000E+00
    0.84727E+02        -0.50000E+08         0.00000E+00
    0.00000E+00         0.00000E+00        -0.50000E+08
 
   -0.49995E+08         0.92048E+02         0.00000E+00
    0.92048E+02        -0.50000E+08         0.00000E+00
    0.00000E+00         0.00000E+00        -0.50000E+08
 
   -0.49995E+08         0.99300E+02         0.00000E+00
    0.99300E+02        -0.50000E+08         0.00000E+00
    0.00000E+00         0.00000E+00        -0.50000E+08
 
   -0.49995E+08         0.10647E+03         0.00000E+00
    0.10647E+03        -0.50000E+08         0.00000E+00
    0.00000E+00         0.00000E+00        -0.50000E+08
 
   -0.49995E+08         0.11356E+03         0.00000E+00
    0.11356E+03        -0.50000E+08         0.00000E+00
    0.00000E+00         0.00000E+00        -0.50000E+08
 
   -0.49995E+08         0.12056E+03         0.00000E+00
    0.12056E+03        -0.50000E+08         0.00000E+00
    0.00000E+00         0.00000E+00        -0.50000E+08
 
   -0.49995E+08         0.12745E+03         0.00000E+00
    0.12745E+03        -0.50000E+08         0.00000E+00
    0.00000E+00         0.00000E+00        -0.50000E+08
 
   -0.49995E+08         0.13424E+03         0.00000E+00
    0.13424E+03        -0.49999E+08         0.00000E+00
    0.00000E+00         0.00000E+00        -0.50000E+08
 
   -0.49995E+08         0.14091E+03         0.00000E+00
    0.14091E+03        -0.49999E+08         0.00000E+00
    0.00000E+00         0.00000E+00        -0.50000E+08
 
   -0.49995E+08         0.14747E+03         0.00000E+00
    0.14747E+03        -0.49999E+08         0.00000E+00
    0.00000E+00         0.00000E+00        -0.50000E+08
 
   -0.49995E+08         0.15389E+03         0.00000E+00
    0.15389E+03        -0.49999E+08         0.00000E+00
    0.00000E+00         0.00000E+00        -0.50000E+08
 
   -0.49996E+08         0.16017E+03         0.00000E+00
    0.16017E+03        -0.49999E+08         0.00000E+00
    0.00000E+00         0.00000E+00        -0.50000E+08
 
   -0.49996E+08         0.16632E+03         0.00000E+00
    0.16632E+03        -0.49999E+08         0.00000E+00
    0.00000E+00         0.00000E+00        -0.50000E+08
 
   -0.49996E+08         0.17231E+03         0.00000E+00
    0.17231E+03        -0.49999E+08         0.00000E+00
    0.00000E+00         0.00000E+00        -0.50000E+08
 
   -0.49996E+08         0.17815E+03         0.00000E+00
    0.17815E+03        -0.49999E+08         0.00000E+00
    0.00000E+00         0.00000E+00        -0.50000E+08
 
   -0.49996E+08         0.18382E+03         0.00000E+00
    0.18382E+03        -0.49999E+08         0.00000E+00
    0.00000E+00         0.00000E+00        -0.50000E+08
 
   -0.49996E+08         0.18933E+03         0.00000E+00
    0.18933E+03        -0.49999E+08         0.00000E+00
    0.00000E+00         0.00000E+00        -0.50000E+08
 
   -0.49996E+08         0.19466E+03         0.00000E+00
    0.19466E+03        -0.49999E+08         0.00000E+00
    0.00000E+00         0.00000E+00        -0.50000E+08
 
   -0.49996E+08         0.19982E+03         0.00000E+00
    0.19982E+03        -0.49999E+08         0.00000E+00
    0.00000E+00         0.00000E+00        -0.50000E+08
 
   -0.49997E+08         0.20478E+03         0.00000E+00
    0.20478E+03        -0.49999E+08         0.00000E+00
    0.00000E+00         0.00000E+00        -0.50000E+08
 
   -0.49997E+08         0.20956E+03         0.00000E+00
    0.20956E+03        -0.49999E+08         0.00000E+00
    0.00000E+00         0.00000E+00        -0.50000E+08
 
   -0.49997E+08         0.21413E+03         0.00000E+00
    0.21413E+03        -0.49999E+08         0.00000E+00
    0.00000E+00         0.00000E+00        -0.50000E+08
 
   -0.49997E+08         0.21851E+03         0.00000E+00
    0.21851E+03        -0.49998E+08         0.00000E+00
    0.00000E+00         0.00000E+00        -0.50000E+08
 
   -0.49997E+08         0.22268E+03         0.00000E+00
    0.22268E+03        -0.49998E+08         0.00000E+00
    0.00000E+00         0.00000E+00        -0.50000E+08
 
   -0.49997E+08         0.22663E+03         0.00000E+00
    0.22663E+03        -0.49998E+08         0.00000E+00
    0.00000E+00         0.00000E+00        -0.50000E+08
 
   -0.49997E+08         0.23037E+03         0.00000E+00
    0.23037E+03        -0.49998E+08         0.00000E+00
    0.00000E+00         0.00000E+00        -0.50000E+08
 
   -0.49998E+08         0.23389E+03         0.00000E+00
    0.23389E+03        -0.49998E+08         0.00000E+00
    0.00000E+00         0.00000E+00        -0.50000E+08
 
   -0.49998E+08         0.23719E+03         0.00000E+00
    0.23719E+03        -0.49998E+08         0.00000E+00
    0.00000E+00         0.00000E+00        -0.50000E+08
 
   -0.49998E+08         0.24026E+03         0.00000E+00
    0.24026E+03        -0.49998E+08         0.00000E+00
    0.00000E+00         0.00000E+00        -0.50000E+08
 
   -0.49998E+08         0.24310E+03         0.00000E+00
    0.24310E+03        -0.49998E+08         0.00000E+00
    0.00000E+00         0.00000E+00        -0.50000E+08
 
   -0.49998E+08         0.24571E+03         0.00000E+00
    0.24571E+03        -0.49998E+08         0.00000E+00
    0.00000E+00         0.00000E+00        -0.50000E+08
 
   -0.49999E+08         0.24809E+03         0.00000E+00
    0.24809E+03        -0.49998E+08         0.00000E+00
    0.00000E+00         0.00000E+00        -0.50000E+08
 
   -0.49999E+08         0.25024E+03         0.00000E+00
    0.25024E+03        -0.49997E+08         0.00000E+00
    0.00000E+00         0.00000E+00        -0.50000E+08
 
   -0.49999E+08         0.25216E+03         0.00000E+00
    0.25216E+03        -0.49997E+08         0.00000E+00
    0.00000E+00         0.00000E+00        -0.50000E+08
 
   -0.49999E+08         0.25386E+03         0.00000E+00
    0.25386E+03        -0.49997E+08         0.00000E+00
    0.00000E+00         0.00000E+00        -0.50000E+08
 
   -0.49999E+08         0.25536E+03         0.00000E+00
    0.25536E+03        -0.49997E+08         0.00000E+00
    0.00000E+00         0.00000E+00        -0.50000E+08
 
   -0.49999E+08         0.25666E+03         0.00000E+00
    0.25666E+03        -0.49997E+08         0.00000E+00
    0.00000E+00         0.00000E+00        -0.50000E+08
 
   -0.50000E+08         0.25781E+03         0.00000E+00
    0.25781E+03        -0.49997E+08         0.00000E+00
    0.00000E+00         0.00000E+00        -0.50000E+08
 
   -0.50000E+08         0.25887E+03         0.00000E+00
    0.25887E+03        -0.49997E+08         0.00000E+00
    0.00000E+00         0.00000E+00        -0.50000E+08
 
   -0.49995E+08         0.10385E+02         0.00000E+00
    0.10385E+02        -0.50000E+08         0.00000E+00
    0.00000E+00         0.00000E+00        -0.50000E+08
 
   -0.49995E+08         0.32065E+02         0.00000E+00
    0.32065E+02        -0.50000E+08         0.00000E+00
    0.00000E+00         0.00000E+00        -0.50000E+08
 
   -0.49995E+08         0.54098E+02         0.00000E+00
    0.54098E+02        -0.50000E+08         0.00000E+00
    0.00000E+00         0.00000E+00        -0.50000E+08
 
   -0.49995E+08         0.76376E+02         0.00000E+00
    0.76376E+02        -0.50000E+08         0.00000E+00
    0.00000E+00         0.00000E+00        -0.50000E+08
 
   -0.49995E+08         0.98815E+02         0.00000E+00
    0.98815E+02        -0.50000E+08         0.00000E+00
    0.00000E+00         0.00000E+00        -0.50000E+08
 
   -0.49995E+08         0.12135E+03         0.00000E+00
    0.12135E+03        -0.50000E+08         0.00000E+00
    0.00000E+00         0.00000E+00        -0.50000E+08
 
   -0.49995E+08         0.14392E+03         0.00000E+00
    0.14392E+03        -0.50000E+08         0.00000E+00
    0.00000E+00         0.00000E+00        -0.50000E+08
 
   -0.49995E+08         0.16648E+03         0.00000E+00
    0.16648E+03        -0.50000E+08         0.00000E+00
    0.00000E+00         0.00000E+00        -0.50000E+08
 
   -0.49995E+08         0.18899E+03         0.00000E+00
    0.18899E+03        -0.50000E+08         0.00000E+00
    0.00000E+00         0.00000E+00        -0.50000E+08
 
   -0.49995E+08         0.21142E+03         0.00000E+00
    0.21142E+03        -0.50000E+08         0.00000E+00
    0.00000E+00         0.00000E+00        -0.50000E+08
 
   -0.49995E+08         0.23373E+03         0.00000E+00
    0.23373E+03        -0.50000E+08         0.00000E+00
    0.00000E+00         0.00000E+00        -0.50000E+08
 
   -0.49995E+08         0.25590E+03         0.00000E+00
    0.25590E+03        -0.50000E+08         0.00000E+00
    0.00000E+00         0.00000E+00        -0.50000E+08
 
   -0.49995E+08         0.27790E+03         0.00000E+00
    0.27790E+03        -0.50000E+08         0.00000E+00
    0.00000E+00         0.00000E+00        -0.50000E+08
 
   -0.49995E+08         0.29969E+03         0.00000E+00
    0.29969E+03        -0.50000E+08         0.00000E+00
    0.00000E+00         0.00000E+00        -0.50000E+08
 
   -0.49995E+08         0.32126E+03         0.00000E+00
    0.32126E+03        -0.50000E+08         0.00000E+00
    0.00000E+00         0.00000E+00        -0.50000E+08
 
   -0.49995E+08         0.34258E+03         0.00000E+00
    0.34258E+03        -0.50000E+08         0.00000E+00
    0.00000E+00         0.00000E+00        -0.50000E+08
 
   -0.49995E+08         0.36363E+03         0.00000E+00
    0.36363E+03        -0.50000E+08         0.00000E+00
    0.00000E+00         0.00000E+00        -0.50000E+08
 
   -0.49995E+08         0.38437E+03         0.00000E+00
    0.38437E+03        -0.50000E+08         0.00000E+00
    0.00000E+00         0.00000E+00        -0.50000E+08
 
   -0.49995E+08         0.40480E+03         0.00000E+00
    0.40480E+03        -0.49999E+08         0.00000E+00
    0.00000E+00         0.00000E+00        -0.50000E+08
 
   -0.49995E+08         0.42488E+03         0.00000E+00
    0.42488E+03        -0.49999E+08         0.00000E+00
    0.00000E+00         0.00000E+00        -0.50000E+08
 
   -0.49995E+08         0.44460E+03         0.00000E+00
    0.44460E+03        -0.49999E+08         0.00000E+00
    0.00000E+00         0.00000E+00        -0.50000E+08
 
   -0.49995E+08         0.46393E+03         0.00000E+00
    0.46393E+03        -0.49999E+08         0.00000E+00
    0.00000E+00         0.00000E+00        -0.50000E+08
 
   -0.49995E+08         0.48286E+03         0.00000E+00
    0.48286E+03        -0.49999E+08         0.00000E+00
    0.00000E+00         0.00000E+00        -0.50000E+08
 
   -0.49996E+08         0.50135E+03         0.00000E+00
    0.50135E+03        -0.49999E+08         0.00000E+00
    0.00000E+00         0.00000E+00        -0.50000E+08
 
   -0.49996E+08         0.51940E+03         0.00000E+00
    0.51940E+03        -0.49999E+08         0.00000E+00
    0.00000E+00         0.00000E+00        -0.50000E+08
 
   -0.49996E+08         0.53698E+03         0.00000E+00
    0.53698E+03        -0.49999E+08         0.00000E+00
    0.00000E+00         0.00000E+00        -0.50000E+08
 
   -0.49996E+08         0.55407E+03         0.00000E+00
    0.55407E+03        -0.49999E+08         0.00000E+00
    0.00000E+00         0.00000E+00        -0.50000E+08
 
   -0.49996E+08         0.57065E+03         0.00000E+00
    0.57065E+03        -0.49999E+08         0.00000E+00
    0.00000E+00         0.00000E+00        -0.50000E+08
 
   -0.49996E+08         0.58671E+03         0.00000E+00
    0.58671E+03        -0.49999E+08         0.00000E+00
    0.00000E+00         0.00000E+00        -0.50000E+08
 
   -0.49996E+08         0.60223E+03         0.00000E+00
    0.60223E+03        -0.49999E+08         0.00000E+00
    0.00000E+00         0.00000E+00        -0.50000E+08
 
   -0.49996E+08         0.61718E+03         0.00000E+00
    0.61718E+03        -0.49999E+08         0.00000E+00
    0.00000E+00         0.00000E+00        -0.50000E+08
 
   -0.49997E+08         0.63156E+03         0.00000E+00
    0.63156E+03        -0.49999E+08         0.00000E+00
    0.00000E+00         0.00000E+00        -0.50000E+08
 
   -0.49997E+08         0.64534E+03         0.00000E+00
    0.64534E+03        -0.49998E+08         0.00000E+00
    0.00000E+00         0.00000E+00        -0.50000E+08
 
   -0.49997E+08         0.65852E+03         0.00000E+00
    0.65852E+03        -0.49998E+08         0.00000E+00
    0.00000E+00         0.00000E+00        -0.50000E+08
 
   -0.49997E+08         0.67107E+03         0.00000E+00
    0.67107E+03        -0.49998E+08         0.00000E+00
    0.00000E+00         0.00000E+00        -0.50000E+08
 
   -0.49997E+08         0.68298E+03         0.00000E+00
    0.68298E+03        -0.49998E+08         0.00000E+00
    0.00000E+00         0.00000E+00        -0.50000E+08
 
   -0.49997E+08         0.69424E+03         0.00000E+00
    0.69424E+03        -0.49998E+08         0.00000E+00
    0.00000E+00         0.00000E+00        -0.50000E+08
 
   -0.49998E+08         0.70484E+03         0.00000E+00
    0.70484E+03        -0.49998E+08         0.00000E+00
    0.00000E+00         0.00000E+00        -0.50000E+08
 
   -0.49998E+08         0.71476E+03         0.00000E+00
    0.71476E+03        -0.49998E+08         0.00000E+00
    0.00000E+00         0.00000E+00        -0.50000E+08
 
   -0.49998E+08         0.72399E+03         0.00000E+00
    0.72399E+03        -0.49998E+08         0.00000E+00
    0.00000E+00         0.00000E+00        -0.50000E+08
 
   -0.49998E+08         0.73254E+03         0.00000E+00
    0.73254E+03        -0.49998E+08         0.00000E+00
    0.00000E+00         0.00000E+00        -0.50000E+08
 
   -0.49998E+08         0.74037E+03         0.00000E+00
    0.74037E+03        -0.49998E+08         0.00000E+00
    0.00000E+00         0.00000E+00        -0.50000E+08
 
   -0.49998E+08         0.74751E+03         0.00000E+00
    0.74751E+03        -0.49998E+08         0.00000E+00
    0.00000E+00         0.00000E+00        -0.50000E+08
 
   -0.49999E+08         0.75393E+03         0.00000E+00
    0.75393E+03        -0.49997E+08         0.00000E+00
    0.00000E+00         0.00000E+00        -0.50000E+08
 
   -0.49999E+08         0.75965E+03         0.00000E+00
    0.75965E+03        -0.49997E+08         0.00000E+00
    0.00000E+00         0.00000E+00        -0.50000E+08
 
   -0.49999E+08         0.76466E+03         0.00000E+00
    0.76466E+03        -0.49997E+08         0.00000E+00
    0.00000E+00         0.00000E+00        -0.50000E+08
 
   -0.49999E+08         0.76898E+03         0.00000E+00
    0.76898E+03        -0.49997E+08         0.00000E+00
    0.00000E+00         0.00000E+00        -0.50000E+08
 
   -0.49999E+08         0.77263E+03         0.00000E+00
    0.77263E+03        -0.49997E+08         0.00000E+00
    0.00000E+00         0.00000E+00        -0.50000E+08
 
   -0.50000E+08         0.77562E+03         0.00000E+00
    0.77562E+03        -0.49997E+08         0.00000E+00
    0.00000E+00         0.00000E+00        -0.50000E+08
 
   -0.50000E+08         0.77800E+03         0.00000E+00
    0.77800E+03        -0.49997E+08         0.00000E+00
    0.00000E+00         0.00000E+00        -0.50000E+08
 
   -0.49994E+08         0.18279E+02         0.00000E+00
    0.18279E+02        -0.50000E+08         0.00000E+00
    0.00000E+00         0.00000E+00        -0.50000E+08
 
   -0.49994E+08         0.55532E+02         0.00000E+00
    0.55532E+02        -0.50000E+08         0.00000E+00
    0.00000E+00         0.00000E+00        -0.50000E+08
 
   -0.49994E+08         0.92984E+02         0.00000E+00
    0.92984E+02        -0.50000E+08         0.00000E+00
    0.00000E+00         0.00000E+00        -0.50000E+08
 
   -0.49994E+08         0.13061E+03         0.00000E+00
    0.13061E+03        -0.50000E+08         0.00000E+00
    0.00000E+00         0.00000E+00        -0.50000E+08
 
   -0.49994E+08         0.16836E+03         0.00000E+00
    0.16836E+03        -0.50000E+08         0.00000E+00
    0.00000E+00         0.00000E+00        -0.50000E+08
 
   -0.49994E+08         0.20618E+03         0.00000E+00
    0.20618E+03        -0.50000E+08         0.00000E+00
    0.00000E+00         0.00000E+00        -0.50000E+08
 
   -0.49994E+08         0.24403E+03         0.00000E+00
    0.24403E+03        -0.50000E+08         0.00000E+00
    0.00000E+00         0.00000E+00        -0.50000E+08
 
   -0.49994E+08         0.28183E+03         0.00000E+00
    0.28183E+03        -0.50000E+08         0.00000E+00
    0.00000E+00         0.00000E+00        -0.50000E+08
 
   -0.49994E+08         0.31955E+03         0.00000E+00
    0.31955E+03        -0.50000E+08         0.00000E+00
    0.00000E+00         0.00000E+00        -0.50000E+08
 
   -0.49994E+08         0.35714E+03         0.00000E+00
    0.35714E+03        -0.50000E+08         0.00000E+00
    0.00000E+00         0.00000E+00        -0.50000E+08
 
   -0.49994E+08         0.39453E+03         0.00000E+00
    0.39453E+03        -0.50000E+08         0.00000E+00
    0.00000E+00         0.00000E+00        -0.50000E+08
 
   -0.49995E+08         0.43168E+03         0.00000E+00
    0.43168E+03        -0.50000E+08         0.00000E+00
    0.00000E+00         0.00000E+00        -0.50000E+08
 
   -0.49995E+08         0.46856E+03         0.00000E+00
    0.46856E+03        -0.50000E+08         0.00000E+00
    0.00000E+00         0.00000E+00        -0.50000E+08
 
   -0.49995E+08         0.50510E+03         0.00000E+00
    0.50510E+03        -0.50000E+08         0.00000E+00
    0.00000E+00         0.00000E+00        -0.50000E+08
 
   -0.49995E+08         0.54128E+03         0.00000E+00
    0.54128E+03        -0.50000E+08         0.00000E+00
    0.00000E+00         0.00000E+00        -0.50000E+08
 
   -0.49995E+08         0.57704E+03         0.00000E+00
    0.57704E+03        -0.50000E+08         0.00000E+00
    0.00000E+00         0.00000E+00        -0.50000E+08
 
   -0.49995E+08         0.61235E+03         0.00000E+00
    0.61235E+03        -0.50000E+08         0.00000E+00
    0.00000E+00         0.00000E+00        -0.50000E+08
 
   -0.49995E+08         0.64716E+03         0.00000E+00
    0.64716E+03        -0.50000E+08         0.00000E+00
    0.00000E+00         0.00000E+00        -0.50000E+08
 
   -0.49995E+08         0.68144E+03         0.00000E+00
    0.68144E+03        -0.49999E+08         0.00000E+00
    0.00000E+00         0.00000E+00        -0.50000E+08
 
   -0.49995E+08         0.71515E+03         0.00000E+00
    0.71515E+03        -0.49999E+08         0.00000E+00
    0.00000E+00         0.00000E+00        -0.50000E+08
 
   -0.49995E+08         0.74825E+03         0.00000E+00
    0.74825E+03        -0.49999E+08         0.00000E+00
    0.00000E+00         0.00000E+00        -0.50000E+08
 
   -0.49995E+08         0.78071E+03         0.00000E+00
    0.78071E+03        -0.49999E+08         0.00000E+00
    0.00000E+00         0.00000E+00        -0.50000E+08
 
   -0.49995E+08         0.81248E+03         0.00000E+00
    0.81248E+03        -0.49999E+08         0.00000E+00
    0.00000E+00         0.00000E+00        -0.50000E+08
 
   -0.49995E+08         0.84354E+03         0.00000E+00
    0.84354E+03        -0.49999E+08         0.00000E+00
    0.00000E+00         0.00000E+00        -0.50000E+08
 
   -0.49996E+08         0.87385E+03         0.00000E+00
    0.87385E+03        -0.49999E+08         0.00000E+00
    0.00000E+00         0.00000E+00        -0.50000E+08
 
   -0.49996E+08         0.90337E+03         0.00000E+00
    0.90337E+03        -0.49999E+08         0.00000E+00
    0.00000E+00         0.00000E+00        -0.50000E+08
 
   -0.49996E+08         0.93207E+03         0.00000E+00
    0.93207E+03        -0.49999E+08         0.00000E+00
    0.00000E+00         0.00000E+00        -0.50000E+08
 
   -0.49996E+08         0.95992E+03         0.00000E+00
    0.95992E+03        -0.49999E+08         0.00000E+00
    0.00000E+00         0.00000E+00        -0.50000E+08
 
   -0.49996E+08         0.98690E+03         0.00000E+00
    0.98690E+03        -0.49999E+08         0.00000E+00
    0.00000E+00         0.00000E+00        -0.50000E+08
 
   -0.49996E+08         0.10130E+04         0.00000E+00
    0.10130E+04        -0.49999E+08         0.00000E+00
    0.00000E+00         0.00000E+00        -0.50000E+08
 
   -0.49996E+08         0.10381E+04         0.00000E+00
    0.10381E+04        -0.49999E+08         0.00000E+00
    0.00000E+00         0.00000E+00        -0.50000E+08
 
   -0.49997E+08         0.10622E+04         0.00000E+00
    0.10622E+04        -0.49999E+08         0.00000E+00
    0.00000E+00         0.00000E+00        -0.50000E+08
 
   -0.49997E+08         0.10854E+04         0.00000E+00
    0.10854E+04        -0.49998E+08         0.00000E+00
    0.00000E+00         0.00000E+00        -0.50000E+08
 
   -0.49997E+08         0.11075E+04         0.00000E+00
    0.11075E+04        -0.49998E+08         0.00000E+00
    0.00000E+00         0.00000E+00        -0.50000E+08
 
   -0.49997E+08         0.11286E+04         0.00000E+00
    0.11286E+04        -0.49998E+08         0.00000E+00
    0.00000E+00         0.00000E+00        -0.50000E+08
 
   -0.49997E+08         0.11486E+04         0.00000E+00
    0.11486E+04        -0.49998E+08         0.00000E+00
    0.00000E+00         0.00000E+00        -0.50000E+08
 
   -0.49997E+08         0.11675E+04         0.00000E+00
    0.11675E+04        -0.49998E+08         0.00000E+00
    0.00000E+00         0.00000E+00        -0.50000E+08
 
   -0.49998E+08         0.11852E+04         0.00000E+00
    0.11852E+04        -0.49998E+08         0.00000E+00
    0.00000E+00         0.00000E+00        -0.50000E+08
 
   -0.49998E+08         0.12019E+04         0.00000E+00
    0.12019E+04        -0.49998E+08         0.00000E+00
    0.00000E+00         0.00000E+00        -0.50000E+08
 
   -0.49998E+08         0.12174E+04         0.00000E+00
    0.12174E+04        -0.49998E+08         0.00000E+00
    0.00000E+00         0.00000E+00        -0.50000E+08
 
   -0.49998E+08         0.12317E+04         0.00000E+00
    0.12317E+04        -0.49998E+08         0.00000E+00
    0.00000E+00         0.00000E+00        -0.50000E+08
 
   -0.49998E+08         0.12448E+04         0.00000E+00
    0.12448E+04        -0.49998E+08         0.00000E+00
    0.00000E+00         0.00000E+00        -0.50000E+08
 
   -0.49998E+08         0.12566E+04         0.00000E+00
    0.12566E+04        -0.49997E+08         0.00000E+00
    0.00000E+00         0.00000E+00        -0.50000E+08
 
   -0.49999E+08         0.12673E+04         0.00000E+00
    0.12673E+04        -0.49997E+08         0.00000E+00
    0.00000E+00         0.00000E+00        -0.50000E+08
 
   -0.49999E+08         0.12767E+04         0.00000E+00
    0.12767E+04        -0.49997E+08         0.00000E+00
    0.00000E+00         0.00000E+00        -0.50000E+08
 
   -0.49999E+08         0.12849E+04         0.00000E+00
    0.12849E+04        -0.49997E+08         0.00000E+00
    0.00000E+00         0.00000E+00        -0.50000E+08
 
   -0.49999E+08         0.12918E+04         0.00000E+00
    0.12918E+04        -0.49997E+08         0.00000E+00
    0.00000E+00         0.00000E+00        -0.50000E+08
 
   -0.49999E+08         0.12975E+04         0.00000E+00
    0.12975E+04        -0.49997E+08         0.00000E+00
    0.00000E+00         0.00000E+00        -0.50000E+08
 
   -0.50000E+08         0.13018E+04         0.00000E+00
    0.13018E+04        -0.49997E+08         0.00000E+00
    0.00000E+00         0.00000E+00        -0.50000E+08
 
   -0.50000E+08         0.13049E+04         0.00000E+00
    0.13049E+04        -0.49997E+08         0.00000E+00
    0.00000E+00         0.00000E+00        -0.50000E+08
 
   -0.49994E+08         0.26306E+02         0.00000E+00
    0.26306E+02        -0.50000E+08         0.00000E+00
    0.00000E+00         0.00000E+00        -0.50000E+08
 
   -0.49994E+08         0.79661E+02         0.00000E+00
    0.79661E+02        -0.50000E+08         0.00000E+00
    0.00000E+00         0.00000E+00        -0.50000E+08
 
   -0.49994E+08         0.13321E+03         0.00000E+00
    0.13321E+03        -0.50000E+08         0.00000E+00
    0.00000E+00         0.00000E+00        -0.50000E+08
 
   -0.49994E+08         0.18690E+03         0.00000E+00
    0.18690E+03        -0.50000E+08         0.00000E+00
    0.00000E+00         0.00000E+00        -0.50000E+08
 
   -0.49994E+08         0.24067E+03         0.00000E+00
    0.24067E+03        -0.50000E+08         0.00000E+00
    0.00000E+00         0.00000E+00        -0.50000E+08
 
   -0.49994E+08         0.29446E+03         0.00000E+00
    0.29446E+03        -0.50000E+08         0.00000E+00
    0.00000E+00         0.00000E+00        -0.50000E+08
 
   -0.49994E+08         0.34822E+03         0.00000E+00
    0.34822E+03        -0.50000E+08         0.00000E+00
    0.00000E+00         0.00000E+00        -0.50000E+08
 
   -0.49994E+08         0.40187E+03         0.00000E+00
    0.40187E+03        -0.50000E+08         0.00000E+00
    0.00000E+00         0.00000E+00        -0.50000E+08
 
   -0.49994E+08         0.45536E+03         0.00000E+00
    0.45536E+03        -0.50000E+08         0.00000E+00
    0.00000E+00         0.00000E+00        -0.50000E+08
 
   -0.49994E+08         0.50862E+03         0.00000E+00
    0.50862E+03        -0.50000E+08         0.00000E+00
    0.00000E+00         0.00000E+00        -0.50000E+08
 
   -0.49994E+08         0.56160E+03         0.00000E+00
    0.56160E+03        -0.50000E+08         0.00000E+00
    0.00000E+00         0.00000E+00        -0.50000E+08
 
   -0.49994E+08         0.61423E+03         0.00000E+00
    0.61423E+03        -0.50000E+08         0.00000E+00
    0.00000E+00         0.00000E+00        -0.50000E+08
 
   -0.49994E+08         0.66646E+03         0.00000E+00
    0.66646E+03        -0.50000E+08         0.00000E+00
    0.00000E+00         0.00000E+00        -0.50000E+08
 
   -0.49994E+08         0.71822E+03         0.00000E+00
    0.71822E+03        -0.50000E+08         0.00000E+00
    0.00000E+00         0.00000E+00        -0.50000E+08
 
   -0.49994E+08         0.76945E+03         0.00000E+00
    0.76945E+03        -0.50000E+08         0.00000E+00
    0.00000E+00         0.00000E+00        -0.50000E+08
 
   -0.49995E+08         0.82009E+03         0.00000E+00
    0.82009E+03        -0.50000E+08         0.00000E+00
    0.00000E+00         0.00000E+00        -0.50000E+08
 
   -0.49995E+08         0.87009E+03         0.00000E+00
    0.87009E+03        -0.50000E+08         0.00000E+00
    0.00000E+00         0.00000E+00        -0.50000E+08
 
   -0.49995E+08         0.91940E+03         0.00000E+00
    0.91940E+03        -0.50000E+08         0.00000E+00
    0.00000E+00         0.00000E+00        -0.50000E+08
 
   -0.49995E+08         0.96795E+03         0.00000E+00
    0.96795E+03        -0.49999E+08         0.00000E+00
    0.00000E+00         0.00000E+00        -0.50000E+08
 
   -0.49995E+08         0.10157E+04         0.00000E+00
    0.10157E+04        -0.49999E+08         0.00000E+00
    0.00000E+00         0.00000E+00        -0.50000E+08
 
   -0.49995E+08         0.10626E+04         0.00000E+00
    0.10626E+04        -0.49999E+08         0.00000E+00
    0.00000E+00         0.00000E+00        -0.50000E+08
 
   -0.49995E+08         0.11086E+04         0.00000E+00
    0.11086E+04        -0.49999E+08         0.00000E+00
    0.00000E+00         0.00000E+00        -0.50000E+08
 
   -0.49995E+08         0.11536E+04         0.00000E+00
    0.11536E+04        -0.49999E+08         0.00000E+00
    0.00000E+00         0.00000E+00        -0.50000E+08
 
   -0.49995E+08         0.11976E+04         0.00000E+00
    0.11976E+04        -0.49999E+08         0.00000E+00
    0.00000E+00         0.00000E+00        -0.50000E+08
 
   -0.49995E+08         0.12405E+04         0.00000E+00
    0.12405E+04        -0.49999E+08         0.00000E+00
    0.00000E+00         0.00000E+00        -0.50000E+08
 
   -0.49996E+08         0.12823E+04         0.00000E+00
    0.12823E+04        -0.49999E+08         0.00000E+00
    0.00000E+00         0.00000E+00        -0.50000E+08
 
   -0.49996E+08         0.13230E+04         0.00000E+00
    0.13230E+04        -0.49999E+08         0.00000E+00
    0.00000E+00         0.00000E+00        -0.50000E+08
 
   -0.49996E+08         0.13624E+04         0.00000E+00
    0.13624E+04        -0.49999E+08         0.00000E+00
    0.00000E+00         0.00000E+00        -0.50000E+08
 
   -0.49996E+08         0.14006E+04         0.00000E+00
    0.14006E+04        -0.49999E+08         0.00000E+00
    0.00000E+00         0.00000E+00        -0.50000E+08
 
   -0.49996E+08         0.14375E+04         0.00000E+00
    0.14375E+04        -0.49999E+08         0.00000E+00
    0.00000E+00         0.00000E+00        -0.50000E+08
 
   -0.49996E+08         0.14731E+04         0.00000E+00
    0.14731E+04        -0.49999E+08         0.00000E+00
    0.00000E+00         0.00000E+00        -0.50000E+08
 
   -0.49996E+08         0.15073E+04         0.00000E+00
    0.15073E+04        -0.49998E+08         0.00000E+00
    0.00000E+00         0.00000E+00        -0.50000E+08
 
   -0.49997E+08         0.15401E+04         0.00000E+00
    0.15401E+04        -0.49998E+08         0.00000E+00
    0.00000E+00         0.00000E+00        -0.50000E+08
 
   -0.49997E+08         0.15714E+04         0.00000E+00
    0.15714E+04        -0.49998E+08         0.00000E+00
    0.00000E+00         0.00000E+00        -0.50000E+08
 
   -0.49997E+08         0.16013E+04         0.00000E+00
    0.16013E+04        -0.49998E+08         0.00000E+00
    0.00000E+00         0.00000E+00        -0.50000E+08
 
   -0.49997E+08         0.16296E+04         0.00000E+00
    0.16296E+04        -0.49998E+08         0.00000E+00
    0.00000E+00         0.00000E+00        -0.50000E+08
 
   -0.49997E+08         0.16563E+04         0.00000E+00
    0.16563E+04        -0.49998E+08         0.00000E+00
    0.00000E+00         0.00000E+00        -0.50000E+08
 
   -0.49997E+08         0.16815E+04         0.00000E+00
    0.16815E+04        -0.49998E+08         0.00000E+00
    0.00000E+00         0.00000E+00        -0.50000E+08
 
   -0.49998E+08         0.17050E+04         0.00000E+00
    0.17050E+04        -0.49998E+08         0.00000E+00
    0.00000E+00         0.00000E+00        -0.50000E+08
 
   -0.49998E+08         0.17269E+04         0.00000E+00
    0.17269E+04        -0.49998E+08         0.00000E+00
    0.00000E+00         0.00000E+00        -0.50000E+08
 
   -0.49998E+08         0.17470E+04         0.00000E+00
    0.17470E+04        -0.49998E+08         0.00000E+00
    0.00000E+00         0.00000E+00        -0.50000E+08
 
   -0.49998E+08         0.17655E+04         0.00000E+00
    0.17655E+04        -0.49997E+08         0.00000E+00
    0.00000E+00         0.00000E+00        -0.50000E+08
 
   -0.49998E+08         0.17822E+04         0.00000E+00
    0.17822E+04        -0.49997E+08         0.00000E+00
    0.00000E+00         0.00000E+00        -0.50000E+08
 
   -0.49999E+08         0.17971E+04         0.00000E+00
    0.17971E+04        -0.49997E+08         0.00000E+00
    0.00000E+00         0.00000E+00        -0.50000E+08
 
   -0.49999E+08         0.18103E+04         0.00000E+00
    0.18103E+04        -0.49997E+08         0.00000E+00
    0.00000E+00         0.00000E+00        -0.50000E+08
 
   -0.49999E+08         0.18216E+04         0.00000E+00
    0.18216E+04        -0.49997E+08         0.00000E+00
    0.00000E+00         0.00000E+00        -0.50000E+08
 
   -0.49999E+08         0.18311E+04         0.00000E+00
    0.18311E+04        -0.49997E+08         0.00000E+00
    0.00000E+00         0.00000E+00        -0.50000E+08
 
   -0.49999E+08         0.18387E+04         0.00000E+00
    0.18387E+04        -0.49997E+08         0.00000E+00
    0.00000E+00         0.00000E+00        -0.50000E+08
 
   -0.50000E+08         0.18444E+04         0.00000E+00
    0.18444E+04        -0.49997E+08         0.00000E+00
    0.00000E+00         0.00000E+00        -0.50000E+08
 
   -0.50000E+08         0.18482E+04         0.00000E+00
    0.18482E+04        -0.49997E+08         0.00000E+00
    0.00000E+00         0.00000E+00        -0.50000E+08
 
   -0.49994E+08         0.34680E+02         0.00000E+00
    0.34680E+02        -0.50000E+08         0.00000E+00
    0.00000E+00         0.00000E+00        -0.50000E+08
 
   -0.49994E+08         0.10487E+03         0.00000E+00
    0.10487E+03        -0.50000E+08         0.00000E+00
    0.00000E+00         0.00000E+00        -0.50000E+08
 
   -0.49994E+08         0.17526E+03         0.00000E+00
    0.17526E+03        -0.50000E+08         0.00000E+00
    0.00000E+00         0.00000E+00        -0.50000E+08
 
   -0.49994E+08         0.24578E+03         0.00000E+00
    0.24578E+03        -0.50000E+08         0.00000E+00
    0.00000E+00         0.00000E+00        -0.50000E+08
 
   -0.49994E+08         0.31635E+03         0.00000E+00
    0.31635E+03        -0.50000E+08         0.00000E+00
    0.00000E+00         0.00000E+00        -0.50000E+08
 
   -0.49994E+08         0.38691E+03         0.00000E+00
    0.38691E+03        -0.50000E+08         0.00000E+00
    0.00000E+00         0.00000E+00        -0.50000E+08
 
   -0.49994E+08         0.45738E+03         0.00000E+00
    0.45738E+03        -0.50000E+08         0.00000E+00
    0.00000E+00         0.00000E+00        -0.50000E+08
 
   -0.49994E+08         0.52767E+03         0.00000E+00
    0.52767E+03        -0.50000E+08         0.00000E+00
    0.00000E+00         0.00000E+00        -0.50000E+08
 
   -0.49994E+08         0.59771E+03         0.00000E+00
    0.59771E+03        -0.50000E+08         0.00000E+00
    0.00000E+00         0.00000E+00        -0.50000E+08
 
   -0.49994E+08         0.66744E+03         0.00000E+00
    0.66744E+03        -0.50000E+08         0.00000E+00
    0.00000E+00         0.00000E+00        -0.50000E+08
 
   -0.49994E+08         0.73676E+03         0.00000E+00
    0.73676E+03        -0.50000E+08         0.00000E+00
    0.00000E+00         0.00000E+00        -0.50000E+08
 
   -0.49994E+08         0.80561E+03         0.00000E+00
    0.80561E+03        -0.50000E+08         0.00000E+00
    0.00000E+00         0.00000E+00        -0.50000E+08
 
   -0.49994E+08         0.87391E+03         0.00000E+00
    0.87391E+03        -0.50000E+08         0.00000E+00
    0.00000E+00         0.00000E+00        -0.50000E+08
 
   -0.49994E+08         0.94159E+03         0.00000E+00
    0.94159E+03        -0.50000E+08         0.00000E+00
    0.00000E+00         0.00000E+00        -0.50000E+08
 
   -0.49994E+08         0.10086E+04         0.00000E+00
    0.10086E+04        -0.50000E+08         0.00000E+00
    0.00000E+00         0.00000E+00        -0.50000E+08
 
   -0.49994E+08         0.10748E+04         0.00000E+00
    0.10748E+04        -0.50000E+08         0.00000E+00
    0.00000E+00         0.00000E+00        -0.50000E+08
 
   -0.49994E+08         0.11401E+04         0.00000E+00
    0.11401E+04        -0.50000E+08         0.00000E+00
    0.00000E+00         0.00000E+00        -0.50000E+08
 
   -0.49994E+08         0.12046E+04         0.00000E+00
    0.12046E+04        -0.49999E+08         0.00000E+00
    0.00000E+00         0.00000E+00        -0.50000E+08
 
   -0.49994E+08         0.12680E+04         0.00000E+00
    0.12680E+04        -0.49999E+08         0.00000E+00
    0.00000E+00         0.00000E+00        -0.50000E+08
 
   -0.49995E+08         0.13304E+04         0.00000E+00
    0.13304E+04        -0.49999E+08         0.00000E+00
    0.00000E+00         0.00000E+00        -0.50000E+08
 
   -0.49995E+08         0.13917E+04         0.00000E+00
    0.13917E+04        -0.49999E+08         0.00000E+00
    0.00000E+00         0.00000E+00        -0.50000E+08
 
   -0.49995E+08         0.14518E+04         0.00000E+00
    0.14518E+04        -0.49999E+08         0.00000E+00
    0.00000E+00         0.00000E+00        -0.50000E+08
 
   -0.49995E+08         0.15106E+04         0.00000E+00
    0.15106E+04        -0.49999E+08         0.00000E+00
    0.00000E+00         0.00000E+00        -0.50000E+08
 
   -0.49995E+08         0.15681E+04         0.00000E+00
    0.15681E+04        -0.49999E+08         0.00000E+00
    0.00000E+00         0.00000E+00        -0.50000E+08
 
   -0.49995E+08         0.16242E+04         0.00000E+00
    0.16242E+04        -0.49999E+08         0.00000E+00
    0.00000E+00         0.00000E+00        -0.50000E+08
 
   -0.49995E+08         0.16788E+04         0.00000E+00
    0.16788E+04        -0.49999E+08         0.00000E+00
    0.00000E+00         0.00000E+00        -0.50000E+08
 
   -0.49995E+08         0.17319E+04         0.00000E+00
    0.17319E+04        -0.49999E+08         0.00000E+00
    0.00000E+00         0.00000E+00        -0.50000E+08
 
   -0.49996E+08         0.17835E+04         0.00000E+00
    0.17835E+04        -0.49999E+08         0.00000E+00
    0.00000E+00         0.00000E+00        -0.50000E+08
 
   -0.49996E+08         0.18334E+04         0.00000E+00
    0.18334E+04        -0.49999E+08         0.00000E+00
    0.00000E+00         0.00000E+00        -0.50000E+08
 
   -0.49996E+08         0.18816E+04         0.00000E+00
    0.18816E+04        -0.49999E+08         0.00000E+00
    0.00000E+00         0.00000E+00        -0.50000E+08
 
   -0.49996E+08         0.19281E+04         0.00000E+00
    0.19281E+04        -0.49998E+08         0.00000E+00
    0.00000E+00         0.00000E+00        -0.50000E+08
 
   -0.49996E+08         0.19728E+04         0.00000E+00
    0.19728E+04        -0.49998E+08         0.00000E+00
    0.00000E+00         0.00000E+00        -0.50000E+08
 
   -0.49996E+08         0.20156E+04         0.00000E+00
    0.20156E+04        -0.49998E+08         0.00000E+00
    0.00000E+00         0.00000E+00        -0.50000E+08
 
   -0.49997E+08         0.20565E+04         0.00000E+00
    0.20565E+04        -0.49998E+08         0.00000E+00
    0.00000E+00         0.00000E+00        -0.50000E+08
 
   -0.49997E+08         0.20955E+04         0.00000E+00
    0.20955E+04        -0.49998E+08         0.00000E+00
    0.00000E+00         0.00000E+00        -0.50000E+08
 
   -0.49997E+08         0.21324E+04         0.00000E+00
    0.21324E+04        -0.49998E+08         0.00000E+00
    0.00000E+00         0.00000E+00        -0.50000E+08
 
   -0.49997E+08         0.21673E+04         0.00000E+00
    0.21673E+04        -0.49998E+08         0.00000E+00
    0.00000E+00         0.00000E+00        -0.50000E+08
 
   -0.49997E+08         0.22001E+04         0.00000E+00
    0.22001E+04        -0.49998E+08         0.00000E+00
    0.00000E+00         0.00000E+00        -0.50000E+08
 
   -0.49997E+08         0.22308E+04         0.00000E+00
    0.22308E+04        -0.49998E+08         0.00000E+00
    0.00000E+00         0.00000E+00        -0.50000E+08
 
   -0.49998E+08         0.22592E+04         0.00000E+00
    0.22592E+04        -0.49998E+08         0.00000E+00
    0.00000E+00         0.00000E+00        -0.50000E+08
 
   -0.49998E+08         0.22855E+04         0.00000E+00
    0.22855E+04        -0.49997E+08         0.00000E+00
    0.00000E+00         0.00000E+00        -0.50000E+08
 
   -0.49998E+08         0.23095E+04         0.00000E+00
    0.23095E+04        -0.49997E+08         0.00000E+00
    0.00000E+00         0.00000E+00        -0.50000E+08
 
   -0.49998E+08         0.23312E+04         0.00000E+00
    0.23312E+04        -0.49997E+08         0.00000E+00
    0.00000E+00         0.00000E+00        -0.50000E+08
 
   -0.49998E+08         0.23505E+04         0.00000E+00
    0.23505E+04        -0.49997E+08         0.00000E+00
    0.00000E+00         0.00000E+00        -0.50000E+08
 
   -0.49999E+08         0.23675E+04         0.00000E+00
    0.23675E+04        -0.49997E+08         0.00000E+00
    0.00000E+00         0.00000E+00        -0.50000E+08
 
   -0.49999E+08         0.23821E+04         0.00000E+00
    0.23821E+04        -0.49997E+08         0.00000E+00
    0.00000E+00         0.00000E+00        -0.50000E+08
 
   -0.49999E+08         0.23942E+04         0.00000E+00
    0.23942E+04        -0.49997E+08         0.00000E+00
    0.00000E+00         0.00000E+00        -0.50000E+08
 
   -0.49999E+08         0.24039E+04         0.00000E+00
    0.24039E+04        -0.49997E+08         0.00000E+00
    0.00000E+00         0.00000E+00        -0.50000E+08
 
   -0.50000E+08         0.24111E+04         0.00000E+00
    0.24111E+04        -0.49997E+08         0.00000E+00
    0.00000E+00         0.00000E+00        -0.50000E+08
 
   -0.50000E+08         0.24158E+04         0.00000E+00
    0.24158E+04        -0.49996E+08         0.00000E+00
    0.00000E+00         0.00000E+00        -0.50000E+08
 
   -0.49993E+08         0.43512E+02         0.00000E+00
    0.43512E+02        -0.50000E+08         0.00000E+00
    0.00000E+00         0.00000E+00        -0.50000E+08
 
   -0.49993E+08         0.13148E+03         0.00000E+00
    0.13148E+03        -0.50000E+08         0.00000E+00
    0.00000E+00         0.00000E+00        -0.50000E+08
 
   -0.49993E+08         0.21967E+03         0.00000E+00
    0.21967E+03        -0.50000E+08         0.00000E+00
    0.00000E+00         0.00000E+00        -0.50000E+08
 
   -0.49993E+08         0.30799E+03         0.00000E+00
    0.30799E+03        -0.50000E+08         0.00000E+00
    0.00000E+00         0.00000E+00        -0.50000E+08
 
   -0.49993E+08         0.39635E+03         0.00000E+00
    0.39635E+03        -0.50000E+08         0.00000E+00
    0.00000E+00         0.00000E+00        -0.50000E+08
 
   -0.49993E+08         0.48465E+03         0.00000E+00
    0.48465E+03        -0.50000E+08         0.00000E+00
    0.00000E+00         0.00000E+00        -0.50000E+08
 
   -0.49993E+08         0.57281E+03         0.00000E+00
    0.57281E+03        -0.50000E+08         0.00000E+00
    0.00000E+00         0.00000E+00        -0.50000E+08
 
   -0.49993E+08         0.66072E+03         0.00000E+00
    0.66072E+03        -0.50000E+08         0.00000E+00
    0.00000E+00         0.00000E+00        -0.50000E+08
 
   -0.49993E+08         0.74830E+03         0.00000E+00
    0.74830E+03        -0.50000E+08         0.00000E+00
    0.00000E+00         0.00000E+00        -0.50000E+08
 
   -0.49994E+08         0.83545E+03         0.00000E+00
    0.83545E+03        -0.50000E+08         0.00000E+00
    0.00000E+00         0.00000E+00        -0.50000E+08
 
   -0.49994E+08         0.92209E+03         0.00000E+00
    0.92209E+03        -0.50000E+08         0.00000E+00
    0.00000E+00         0.00000E+00        -0.50000E+08
 
   -0.49994E+08         0.10081E+04         0.00000E+00
    0.10081E+04        -0.50000E+08         0.00000E+00
    0.00000E+00         0.00000E+00        -0.50000E+08
 
   -0.49994E+08         0.10934E+04         0.00000E+00
    0.10934E+04        -0.50000E+08         0.00000E+00
    0.00000E+00         0.00000E+00        -0.50000E+08
 
   -0.49994E+08         0.11779E+04         0.00000E+00
    0.11779E+04        -0.50000E+08         0.00000E+00
    0.00000E+00         0.00000E+00        -0.50000E+08
 
   -0.49994E+08         0.12616E+04         0.00000E+00
    0.12616E+04        -0.50000E+08         0.00000E+00
    0.00000E+00         0.00000E+00        -0.50000E+08
 
   -0.49994E+08         0.13442E+04         0.00000E+00
    0.13442E+04        -0.50000E+08         0.00000E+00
    0.00000E+00         0.00000E+00        -0.50000E+08
 
   -0.49994E+08         0.14258E+04         0.00000E+00
    0.14258E+04        -0.50000E+08         0.00000E+00
    0.00000E+00         0.00000E+00        -0.50000E+08
 
   -0.49994E+08         0.15063E+04         0.00000E+00
    0.15063E+04        -0.49999E+08         0.00000E+00
    0.00000E+00         0.00000E+00        -0.50000E+08
 
   -0.49994E+08         0.15855E+04         0.00000E+00
    0.15855E+04        -0.49999E+08         0.00000E+00
    0.00000E+00         0.00000E+00        -0.50000E+08
 
   -0.49994E+08         0.16633E+04         0.00000E+00
    0.16633E+04        -0.49999E+08         0.00000E+00
    0.00000E+00         0.00000E+00        -0.50000E+08
 
   -0.49994E+08         0.17398E+04         0.00000E+00
    0.17398E+04        -0.49999E+08         0.00000E+00
    0.00000E+00         0.00000E+00        -0.50000E+08
 
   -0.49994E+08         0.18147E+04         0.00000E+00
    0.18147E+04        -0.49999E+08         0.00000E+00
    0.00000E+00         0.00000E+00        -0.50000E+08
 
   -0.49995E+08         0.18881E+04         0.00000E+00
    0.18881E+04        -0.49999E+08         0.00000E+00
    0.00000E+00         0.00000E+00        -0.50000E+08
 
   -0.49995E+08         0.19599E+04         0.00000E+00
    0.19599E+04        -0.49999E+08         0.00000E+00
    0.00000E+00         0.00000E+00        -0.50000E+08
 
   -0.49995E+08         0.20298E+04         0.00000E+00
    0.20298E+04        -0.49999E+08         0.00000E+00
    0.00000E+00         0.00000E+00        -0.50000E+08
 
   -0.49995E+08         0.20980E+04         0.00000E+00
    0.20980E+04        -0.49999E+08         0.00000E+00
    0.00000E+00         0.00000E+00        -0.50000E+08
 
   -0.49995E+08         0.21643E+04         0.00000E+00
    0.21643E+04        -0.49999E+08         0.00000E+00
    0.00000E+00         0.00000E+00        -0.50000E+08
 
   -0.49995E+08         0.22286E+04         0.00000E+00
    0.22286E+04        -0.49999E+08         0.00000E+00
    0.00000E+00         0.00000E+00        -0.50000E+08
 
   -0.49995E+08         0.22908E+04         0.00000E+00
    0.22908E+04        -0.49999E+08         0.00000E+00
    0.00000E+00         0.00000E+00        -0.50000E+08
 
   -0.49996E+08         0.23510E+04         0.00000E+00
    0.23510E+04        -0.49998E+08         0.00000E+00
    0.00000E+00         0.00000E+00        -0.50000E+08
 
   -0.49996E+08         0.24090E+04         0.00000E+00
    0.24090E+04        -0.49998E+08         0.00000E+00
    0.00000E+00         0.00000E+00        -0.50000E+08
 
   -0.49996E+08         0.24647E+04         0.00000E+00
    0.24647E+04        -0.49998E+08         0.00000E+00
    0.00000E+00         0.00000E+00        -0.50000E+08
 
   -0.49996E+08         0.25181E+04         0.00000E+00
    0.25181E+04        -0.49998E+08         0.00000E+00
    0.00000E+00         0.00000E+00        -0.50000E+08
 
   -0.49996E+08         0.25691E+04         0.00000E+00
    0.25691E+04        -0.49998E+08         0.00000E+00
    0.00000E+00         0.00000E+00        -0.50000E+08
 
   -0.49996E+08         0.26176E+04         0.00000E+00
    0.26176E+04        -0.49998E+08         0.00000E+00
    0.00000E+00         0.00000E+00        -0.50000E+08
 
   -0.49997E+08         0.26637E+04         0.00000E+00
    0.26637E+04        -0.49998E+08         0.00000E+00
    0.00000E+00         0.00000E+00        -0.50000E+08
 
   -0.49997E+08         0.27071E+04         0.00000E+00
    0.27071E+04        -0.49998E+08         0.00000E+00
    0.00000E+00         0.00000E+00        -0.50000E+08
 
   -0.49997E+08         0.27480E+04         0.00000E+00
    0.27480E+04        -0.49998E+08         0.00000E+00
    0.00000E+00         0.00000E+00        -0.50000E+08
 
   -0.49997E+08         0.27862E+04         0.00000E+00
    0.27862E+04        -0.49998E+08         0.00000E+00
    0.00000E+00         0.00000E+00        -0.50000E+08
 
   -0.49998E+08         0.28216E+04         0.00000E+00
    0.28216E+04        -0.49997E+08         0.00000E+00
    0.00000E+00         0.00000E+00        -0.50000E+08
 
   -0.49998E+08         0.28543E+04         0.00000E+00
    0.28543E+04        -0.49997E+08         0.00000E+00
    0.00000E+00         0.00000E+00        -0.50000E+08
 
   -0.49998E+08         0.28841E+04         0.00000E+00
    0.28841E+04        -0.49997E+08         0.00000E+00
    0.00000E+00         0.00000E+00        -0.50000E+08
 
   -0.49998E+08         0.29110E+04         0.00000E+00
    0.29110E+04        -0.49997E+08         0.00000E+00
    0.00000E+00         0.00000E+00        -0.50000E+08
 
   -0.49998E+08         0.29350E+04         0.00000E+00
    0.29350E+04        -0.49997E+08         0.00000E+00
    0.00000E+00         0.00000E+00        -0.50000E+08
 
   -0.49999E+08         0.29561E+04         0.00000E+00
    0.29561E+04        -0.49997E+08         0.00000E+00
    0.00000E+00         0.00000E+00        -0.50000E+08
 
   -0.49999E+08         0.29741E+04         0.00000E+00
    0.29741E+04        -0.49997E+08         0.00000E+00
    0.00000E+00         0.00000E+00        -0.50000E+08
 
   -0.49999E+08         0.29890E+04         0.00000E+00
    0.29890E+04        -0.49997E+08         0.00000E+00
    0.00000E+00         0.00000E+00        -0.50000E+08
 
   -0.49999E+08         0.30009E+04         0.00000E+00
    0.30009E+04        -0.49996E+08         0.00000E+00
    0.00000E+00         0.00000E+00        -0.50000E+08
 
   -0.50000E+08         0.30097E+04         0.00000E+00
    0.30097E+04        -0.49996E+08         0.00000E+00
    0.00000E+00         0.00000E+00        -0.50000E+08
 
   -0.50000E+08         0.30153E+04         0.00000E+00
    0.30153E+04        -0.49996E+08         0.00000E+00
    0.00000E+00         0.00000E+00        -0.50000E+08
 
   -0.49993E+08         0.52929E+02         0.00000E+00
    0.52929E+02        -0.50000E+08         0.00000E+00
    0.00000E+00         0.00000E+00        -0.50000E+08
 
   -0.49993E+08         0.15987E+03         0.00000E+00
    0.15987E+03        -0.50000E+08         0.00000E+00
    0.00000E+00         0.00000E+00        -0.50000E+08
 
   -0.49993E+08         0.26705E+03         0.00000E+00
    0.26705E+03        -0.50000E+08         0.00000E+00
    0.00000E+00         0.00000E+00        -0.50000E+08
 
   -0.49993E+08         0.37437E+03         0.00000E+00
    0.37437E+03        -0.50000E+08         0.00000E+00
    0.00000E+00         0.00000E+00        -0.50000E+08
 
   -0.49993E+08         0.48171E+03         0.00000E+00
    0.48171E+03        -0.50000E+08         0.00000E+00
    0.00000E+00         0.00000E+00        -0.50000E+08
 
   -0.49993E+08         0.58895E+03         0.00000E+00
    0.58895E+03        -0.50000E+08         0.00000E+00
    0.00000E+00         0.00000E+00        -0.50000E+08
 
   -0.49993E+08         0.69600E+03         0.00000E+00
    0.69600E+03        -0.50000E+08         0.00000E+00
    0.00000E+00         0.00000E+00        -0.50000E+08
 
   -0.49993E+08         0.80273E+03         0.00000E+00
    0.80273E+03        -0.50000E+08         0.00000E+00
    0.00000E+00         0.00000E+00        -0.50000E+08
 
   -0.49993E+08         0.90903E+03         0.00000E+00
    0.90903E+03        -0.50000E+08         0.00000E+00
    0.00000E+00         0.00000E+00        -0.50000E+08
 
   -0.49993E+08         0.10148E+04         0.00000E+00
    0.10148E+04        -0.50000E+08         0.00000E+00
    0.00000E+00         0.00000E+00        -0.50000E+08
 
   -0.49993E+08         0.11199E+04         0.00000E+00
    0.11199E+04        -0.50000E+08         0.00000E+00
    0.00000E+00         0.00000E+00        -0.50000E+08
 
   -0.49993E+08         0.12243E+04         0.00000E+00
    0.12243E+04        -0.50000E+08         0.00000E+00
    0.00000E+00         0.00000E+00        -0.50000E+08
 
   -0.49993E+08         0.13278E+04         0.00000E+00
    0.13278E+04        -0.50000E+08         0.00000E+00
    0.00000E+00         0.00000E+00        -0.50000E+08
 
   -0.49993E+08         0.14303E+04         0.00000E+00
    0.14303E+04        -0.50000E+08         0.00000E+00
    0.00000E+00         0.00000E+00        -0.50000E+08
 
   -0.49993E+08         0.15317E+04         0.00000E+00
    0.15317E+04        -0.50000E+08         0.00000E+00
    0.00000E+00         0.00000E+00        -0.50000E+08
 
   -0.49993E+08         0.16319E+04         0.00000E+00
    0.16319E+04        -0.50000E+08         0.00000E+00
    0.00000E+00         0.00000E+00        -0.50000E+08
 
   -0.49993E+08         0.17308E+04         0.00000E+00
    0.17308E+04        -0.49999E+08         0.00000E+00
    0.00000E+00         0.00000E+00        -0.50000E+08
 
   -0.49994E+08         0.18283E+04         0.00000E+00
    0.18283E+04        -0.49999E+08         0.00000E+00
    0.00000E+00         0.00000E+00        -0.50000E+08
 
   -0.49994E+08         0.19243E+04         0.00000E+00
    0.19243E+04        -0.49999E+08         0.00000E+00
    0.00000E+00         0.00000E+00        -0.50000E+08
 
   -0.49994E+08         0.20187E+04         0.00000E+00
    0.20187E+04        -0.49999E+08         0.00000E+00
    0.00000E+00         0.00000E+00        -0.50000E+08
 
   -0.49994E+08         0.21113E+04         0.00000E+00
    0.21113E+04        -0.49999E+08         0.00000E+00
    0.00000E+00         0.00000E+00        -0.50000E+08
 
   -0.49994E+08         0.22022E+04         0.00000E+00
    0.22022E+04        -0.49999E+08         0.00000E+00
    0.00000E+00         0.00000E+00        -0.50000E+08
 
   -0.49994E+08         0.22911E+04         0.00000E+00
    0.22911E+04        -0.49999E+08         0.00000E+00
    0.00000E+00         0.00000E+00        -0.50000E+08
 
   -0.49994E+08         0.23780E+04         0.00000E+00
    0.23780E+04        -0.49999E+08         0.00000E+00
    0.00000E+00         0.00000E+00        -0.50000E+08
 
   -0.49994E+08         0.24628E+04         0.00000E+00
    0.24628E+04        -0.49999E+08         0.00000E+00
    0.00000E+00         0.00000E+00        -0.50000E+08
 
   -0.49995E+08         0.25454E+04         0.00000E+00
    0.25454E+04        -0.49999E+08         0.00000E+00
    0.00000E+00         0.00000E+00        -0.50000E+08
 
   -0.49995E+08         0.26256E+04         0.00000E+00
    0.26256E+04        -0.49999E+08         0.00000E+00
    0.00000E+00         0.00000E+00        -0.50000E+08
 
   -0.49995E+08         0.27035E+04         0.00000E+00
    0.27035E+04        -0.49999E+08         0.00000E+00
    0.00000E+00         0.00000E+00        -0.50000E+08
 
   -0.49995E+08         0.27789E+04         0.00000E+00
    0.27789E+04        -0.49998E+08         0.00000E+00
    0.00000E+00         0.00000E+00        -0.50000E+08
 
   -0.49995E+08         0.28518E+04         0.00000E+00
    0.28518E+04        -0.49998E+08         0.00000E+00
    0.00000E+00         0.00000E+00        -0.50000E+08
 
   -0.49995E+08         0.29220E+04         0.00000E+00
    0.29220E+04        -0.49998E+08         0.00000E+00
    0.00000E+00         0.00000E+00        -0.50000E+08
 
   -0.49996E+08         0.29894E+04         0.00000E+00
    0.29894E+04        -0.49998E+08         0.00000E+00
    0.00000E+00         0.00000E+00        -0.50000E+08
 
   -0.49996E+08         0.30541E+04         0.00000E+00
    0.30541E+04        -0.49998E+08         0.00000E+00
    0.00000E+00         0.00000E+00        -0.50000E+08
 
   -0.49996E+08         0.31158E+04         0.00000E+00
    0.31158E+04        -0.49998E+08         0.00000E+00
    0.00000E+00         0.00000E+00        -0.50000E+08
 
   -0.49996E+08         0.31746E+04         0.00000E+00
    0.31746E+04        -0.49998E+08         0.00000E+00
    0.00000E+00         0.00000E+00        -0.50000E+08
 
   -0.49996E+08         0.32303E+04         0.00000E+00
    0.32303E+04        -0.49998E+08         0.00000E+00
    0.00000E+00         0.00000E+00        -0.50000E+08
 
   -0.49997E+08         0.32830E+04         0.00000E+00
    0.32830E+04        -0.49998E+08         0.00000E+00
    0.00000E+00         0.00000E+00        -0.50000E+08
 
   -0.49997E+08         0.33324E+04         0.00000E+00
    0.33324E+04        -0.49997E+08         0.00000E+00
    0.00000E+00         0.00000E+00        -0.50000E+08
 
   -0.49997E+08         0.33786E+04         0.00000E+00
    0.33786E+04        -0.49997E+08         0.00000E+00
    0.00000E+00         0.00000E+00        -0.50000E+08
 
   -0.49997E+08         0.34214E+04         0.00000E+00
    0.34214E+04        -0.49997E+08         0.00000E+00
    0.00000E+00         0.00000E+00        -0.50000E+08
 
   -0.49998E+08         0.34609E+04         0.00000E+00
    0.34609E+04        -0.49997E+08         0.00000E+00
    0.00000E+00         0.00000E+00        -0.50000E+08
 
   -0.49998E+08         0.34969E+04         0.00000E+00
    0.34969E+04        -0.49997E+08         0.00000E+00
    0.00000E+00         0.00000E+00        -0.50000E+08
 
   -0.49998E+08         0.35295E+04         0.00000E+00
    0.35295E+04        -0.49997E+08         0.00000E+00
    0.00000E+00         0.00000E+00        -0.50000E+08
 
   -0.49998E+08         0.35584E+04         0.00000E+00
    0.35584E+04        -0.49997E+08         0.00000E+00
    0.00000E+00         0.00000E+00        -0.50000E+08
 
   -0.49999E+08         0.35838E+04         0.00000E+00
    0.35838E+04        -0.49997E+08         0.00000E+00
    0.00000E+00         0.00000E+00        -0.50000E+08
 
   -0.49999E+08         0.36055E+04         0.00000E+00
    0.36055E+04        -0.49996E+08         0.00000E+00
    0.00000E+00         0.00000E+00        -0.50000E+08
 
   -0.49999E+08         0.36235E+04         0.00000E+00
    0.36235E+04        -0.49996E+08         0.00000E+00
    0.00000E+00         0.00000E+00        -0.50000E+08
 
   -0.49999E+08         0.36378E+04         0.00000E+00
    0.36378E+04        -0.49996E+08         0.00000E+00
    0.00000E+00         0.00000E+00        -0.50000E+08
 
   -0.50000E+08         0.36482E+04         0.00000E+00
    0.36482E+04        -0.49996E+08         0.00000E+00
    0.00000E+00         0.00000E+00        -0.50000E+08
 
   -0.50000E+08         0.36549E+04         0.00000E+00
    0.36549E+04        -0.49996E+08         0.00000E+00
    0.00000E+00         0.00000E+00        -0.50000E+08
 
   -0.49992E+08         0.63059E+02         0.00000E+00
    0.63059E+02        -0.50000E+08         0.00000E+00
    0.00000E+00         0.00000E+00        -0.50000E+08
 
   -0.49992E+08         0.19041E+03         0.00000E+00
    0.19041E+03        -0.50000E+08         0.00000E+00
    0.00000E+00         0.00000E+00        -0.50000E+08
 
   -0.49992E+08         0.31803E+03         0.00000E+00
    0.31803E+03        -0.50000E+08         0.00000E+00
    0.00000E+00         0.00000E+00        -0.50000E+08
 
   -0.49992E+08         0.44579E+03         0.00000E+00
    0.44579E+03        -0.50000E+08         0.00000E+00
    0.00000E+00         0.00000E+00        -0.50000E+08
 
   -0.49992E+08         0.57355E+03         0.00000E+00
    0.57355E+03        -0.50000E+08         0.00000E+00
    0.00000E+00         0.00000E+00        -0.50000E+08
 
   -0.49992E+08         0.70119E+03         0.00000E+00
    0.70119E+03        -0.50000E+08         0.00000E+00
    0.00000E+00         0.00000E+00        -0.50000E+08
 
   -0.49992E+08         0.82856E+03         0.00000E+00
    0.82856E+03        -0.50000E+08         0.00000E+00
    0.00000E+00         0.00000E+00        -0.50000E+08
 
   -0.49992E+08         0.95555E+03         0.00000E+00
    0.95555E+03        -0.50000E+08         0.00000E+00
    0.00000E+00         0.00000E+00        -0.50000E+08
 
   -0.49992E+08         0.10820E+04         0.00000E+00
    0.10820E+04        -0.50000E+08         0.00000E+00
    0.00000E+00         0.00000E+00        -0.50000E+08
 
   -0.49992E+08         0.12078E+04         0.00000E+00
    0.12078E+04        -0.50000E+08         0.00000E+00
    0.00000E+00         0.00000E+00        -0.50000E+08
 
   -0.49992E+08         0.13328E+04         0.00000E+00
    0.13328E+04        -0.50000E+08         0.00000E+00
    0.00000E+00         0.00000E+00        -0.50000E+08
 
   -0.49993E+08         0.14569E+04         0.00000E+00
    0.14569E+04        -0.50000E+08         0.00000E+00
    0.00000E+00         0.00000E+00        -0.50000E+08
 
   -0.49993E+08         0.15799E+04         0.00000E+00
    0.15799E+04        -0.50000E+08         0.00000E+00
    0.00000E+00         0.00000E+00        -0.50000E+08
 
   -0.49993E+08         0.17018E+04         0.00000E+00
    0.17018E+04        -0.50000E+08         0.00000E+00
    0.00000E+00         0.00000E+00        -0.50000E+08
 
   -0.49993E+08         0.18224E+04         0.00000E+00
    0.18224E+04        -0.50000E+08         0.00000E+00
    0.00000E+00         0.00000E+00        -0.50000E+08
 
   -0.49993E+08         0.19415E+04         0.00000E+00
    0.19415E+04        -0.49999E+08         0.00000E+00
    0.00000E+00         0.00000E+00        -0.50000E+08
 
   -0.49993E+08         0.20590E+04         0.00000E+00
    0.20590E+04        -0.49999E+08         0.00000E+00
    0.00000E+00         0.00000E+00        -0.50000E+08
 
   -0.49993E+08         0.21749E+04         0.00000E+00
    0.21749E+04        -0.49999E+08         0.00000E+00
    0.00000E+00         0.00000E+00        -0.50000E+08
 
   -0.49993E+08         0.22890E+04         0.00000E+00
    0.22890E+04        -0.49999E+08         0.00000E+00
    0.00000E+00         0.00000E+00        -0.50000E+08
 
   -0.49993E+08         0.24011E+04         0.00000E+00
    0.24011E+04        -0.49999E+08         0.00000E+00
    0.00000E+00         0.00000E+00        -0.50000E+08
 
   -0.49993E+08         0.25112E+04         0.00000E+00
    0.25112E+04        -0.49999E+08         0.00000E+00
    0.00000E+00         0.00000E+00        -0.50000E+08
 
   -0.49994E+08         0.26191E+04         0.00000E+00
    0.26191E+04        -0.49999E+08         0.00000E+00
    0.00000E+00         0.00000E+00        -0.50000E+08
 
   -0.49994E+08         0.27247E+04         0.00000E+00
    0.27247E+04        -0.49999E+08         0.00000E+00
    0.00000E+00         0.00000E+00        -0.50000E+08
 
   -0.49994E+08         0.28279E+04         0.00000E+00
    0.28279E+04        -0.49999E+08         0.00000E+00
    0.00000E+00         0.00000E+00        -0.50000E+08
 
   -0.49994E+08         0.29286E+04         0.00000E+00
    0.29286E+04        -0.49999E+08         0.00000E+00
    0.00000E+00         0.00000E+00        -0.50000E+08
 
   -0.49994E+08         0.30267E+04         0.00000E+00
    0.30267E+04        -0.49999E+08         0.00000E+00
    0.00000E+00         0.00000E+00        -0.50000E+08
 
   -0.49994E+08         0.31220E+04         0.00000E+00
    0.31220E+04        -0.49999E+08         0.00000E+00
    0.00000E+00         0.00000E+00        -0.50000E+08
 
   -0.49994E+08         0.32145E+04         0.00000E+00
    0.32145E+04        -0.49998E+08         0.00000E+00
    0.00000E+00         0.00000E+00        -0.50000E+08
 
   -0.49995E+08         0.33040E+04         0.00000E+00
    0.33040E+04        -0.49998E+08         0.00000E+00
    0.00000E+00         0.00000E+00        -0.50000E+08
 
   -0.49995E+08         0.33905E+04         0.00000E+00
    0.33905E+04        -0.49998E+08         0.00000E+00
    0.00000E+00         0.00000E+00        -0.50000E+08
 
   -0.49995E+08         0.34739E+04         0.00000E+00
    0.34739E+04        -0.49998E+08         0.00000E+00
    0.00000E+00         0.00000E+00        -0.50000E+08
 
   -0.49995E+08         0.35540E+04         0.00000E+00
    0.35540E+04        -0.49998E+08         0.00000E+00
    0.00000E+00         0.00000E+00        -0.50000E+08
 
   -0.49995E+08         0.36307E+04         0.00000E+00
    0.36307E+04        -0.49998E+08         0.00000E+00
    0.00000E+00         0.00000E+00        -0.50000E+08
 
   -0.49996E+08         0.37040E+04         0.00000E+00
    0.37040E+04        -0.49998E+08         0.00000E+00
    0.00000E+00         0.00000E+00        -0.50000E+08
 
   -0.49996E+08         0.37737E+04         0.00000E+00
    0.37737E+04        -0.49998E+08         0.00000E+00
    0.00000E+00         0.00000E+00        -0.50000E+08
 
   -0.49996E+08         0.38399E+04         0.00000E+00
    0.38399E+04        -0.49998E+08         0.00000E+00
    0.00000E+00         0.00000E+00        -0.50000E+08
 
   -0.49996E+08         0.39023E+04         0.00000E+00
    0.39023E+04        -0.49997E+08         0.00000E+00
    0.00000E+00         0.00000E+00        -0.50000E+08
 
   -0.49997E+08         0.39610E+04         0.00000E+00
    0.39610E+04        -0.49997E+08         0.00000E+00
    0.00000E+00         0.00000E+00        -0.50000E+08
 
   -0.49997E+08         0.40157E+04         0.00000E+00
    0.40157E+04        -0.49997E+08         0.00000E+00
    0.00000E+00         0.00000E+00        -0.50000E+08
 
   -0.49997E+08         0.40666E+04         0.00000E+00
    0.40666E+04        -0.49997E+08         0.00000E+00
    0.00000E+00         0.00000E+00        -0.50000E+08
 
   -0.49997E+08         0.41134E+04         0.00000E+00
    0.41134E+04        -0.49997E+08         0.00000E+00
    0.00000E+00         0.00000E+00        -0.50000E+08
 
   -0.49998E+08         0.41561E+04         0.00000E+00
    0.41561E+04        -0.49997E+08         0.00000E+00
    0.00000E+00         0.00000E+00        -0.50000E+08
 
   -0.49998E+08         0.41947E+04         0.00000E+00
    0.41947E+04        -0.49997E+08         0.00000E+00
    0.00000E+00         0.00000E+00        -0.50000E+08
 
   -0.49998E+08         0.42290E+04         0.00000E+00
    0.42290E+04        -0.49996E+08         0.00000E+00
    0.00000E+00         0.00000E+00        -0.50000E+08
 
   -0.49998E+08         0.42591E+04         0.00000E+00
    0.42591E+04        -0.49996E+08         0.00000E+00
    0.00000E+00         0.00000E+00        -0.50000E+08
 
   -0.49999E+08         0.42848E+04         0.00000E+00
    0.42848E+04        -0.49996E+08         0.00000E+00
    0.00000E+00         0.00000E+00        -0.50000E+08
 
   -0.49999E+08         0.43061E+04         0.00000E+00
    0.43061E+04        -0.49996E+08         0.00000E+00
    0.00000E+00         0.00000E+00        -0.50000E+08
 
   -0.49999E+08         0.43230E+04         0.00000E+00
    0.43230E+04        -0.49996E+08         0.00000E+00
    0.00000E+00         0.00000E+00        -0.50000E+08
 
   -0.49999E+08         0.43353E+04         0.00000E+00
    0.43353E+04        -0.49996E+08         0.00000E+00
    0.00000E+00         0.00000E+00        -0.50000E+08
 
   -0.50000E+08         0.43431E+04         0.00000E+00
    0.43431E+04        -0.49996E+08         0.00000E+00
    0.00000E+00         0.00000E+00        -0.50000E+08
 
   -0.49992E+08         0.74042E+02         0.00000E+00
    0.74042E+02        -0.50000E+08         0.00000E+00
    0.00000E+00         0.00000E+00        -0.50000E+08
 
   -0.49992E+08         0.22352E+03         0.00000E+00
    0.22352E+03        -0.50000E+08         0.00000E+00
    0.00000E+00         0.00000E+00        -0.50000E+08
 
   -0.49992E+08         0.37329E+03         0.00000E+00
    0.37329E+03        -0.50000E+08         0.00000E+00
    0.00000E+00         0.00000E+00        -0.50000E+08
 
   -0.49992E+08         0.52321E+03         0.00000E+00
    0.52321E+03        -0.50000E+08         0.00000E+00
    0.00000E+00         0.00000E+00        -0.50000E+08
 
   -0.49992E+08         0.67311E+03         0.00000E+00
    0.67311E+03        -0.50000E+08         0.00000E+00
    0.00000E+00         0.00000E+00        -0.50000E+08
 
   -0.49992E+08         0.82285E+03         0.00000E+00
    0.82285E+03        -0.50000E+08         0.00000E+00
    0.00000E+00         0.00000E+00        -0.50000E+08
 
   -0.49992E+08         0.97226E+03         0.00000E+00
    0.97226E+03        -0.50000E+08         0.00000E+00
    0.00000E+00         0.00000E+00        -0.50000E+08
 
   -0.49992E+08         0.11212E+04         0.00000E+00
    0.11212E+04        -0.50000E+08         0.00000E+00
    0.00000E+00         0.00000E+00        -0.50000E+08
 
   -0.49992E+08         0.12695E+04         0.00000E+00
    0.12695E+04        -0.50000E+08         0.00000E+00
    0.00000E+00         0.00000E+00        -0.50000E+08
 
   -0.49992E+08         0.14170E+04         0.00000E+00
    0.14170E+04        -0.50000E+08         0.00000E+00
    0.00000E+00         0.00000E+00        -0.50000E+08
 
   -0.49992E+08         0.15636E+04         0.00000E+00
    0.15636E+04        -0.50000E+08         0.00000E+00
    0.00000E+00         0.00000E+00        -0.50000E+08
 
   -0.49992E+08         0.17091E+04         0.00000E+00
    0.17091E+04        -0.50000E+08         0.00000E+00
    0.00000E+00         0.00000E+00        -0.50000E+08
 
   -0.49992E+08         0.18533E+04         0.00000E+00
    0.18533E+04        -0.50000E+08         0.00000E+00
    0.00000E+00         0.00000E+00        -0.50000E+08
 
   -0.49992E+08         0.19961E+04         0.00000E+00
    0.19961E+04        -0.50000E+08         0.00000E+00
    0.00000E+00         0.00000E+00        -0.50000E+08
 
   -0.49992E+08         0.21374E+04         0.00000E+00
    0.21374E+04        -0.50000E+08         0.00000E+00
    0.00000E+00         0.00000E+00        -0.50000E+08
 
   -0.49992E+08         0.22770E+04         0.00000E+00
    0.22770E+04        -0.49999E+08         0.00000E+00
    0.00000E+00         0.00000E+00        -0.50000E+08
 
   -0.49992E+08         0.24147E+04         0.00000E+00
    0.24147E+04        -0.49999E+08         0.00000E+00
    0.00000E+00         0.00000E+00        -0.50000E+08
 
   -0.49992E+08         0.25505E+04         0.00000E+00
    0.25505E+04        -0.49999E+08         0.00000E+00
    0.00000E+00         0.00000E+00        -0.50000E+08
 
   -0.49993E+08         0.26841E+04         0.00000E+00
    0.26841E+04        -0.49999E+08         0.00000E+00
    0.00000E+00         0.00000E+00        -0.50000E+08
 
   -0.49993E+08         0.28155E+04         0.00000E+00
    0.28155E+04        -0.49999E+08         0.00000E+00
    0.00000E+00         0.00000E+00        -0.50000E+08
 
   -0.49993E+08         0.29444E+04         0.00000E+00
    0.29444E+04        -0.49999E+08         0.00000E+00
    0.00000E+00         0.00000E+00        -0.50000E+08
 
   -0.49993E+08         0.30708E+04         0.00000E+00
    0.30708E+04        -0.49999E+08         0.00000E+00
    0.00000E+00         0.00000E+00        -0.50000E+08
 
   -0.49993E+08         0.31946E+04         0.00000E+00
    0.31946E+04        -0.49999E+08         0.00000E+00
    0.00000E+00         0.00000E+00        -0.50000E+08
 
   -0.49993E+08         0.33154E+04         0.00000E+00
    0.33154E+04        -0.49999E+08         0.00000E+00
    0.00000E+00         0.00000E+00        -0.50000E+08
 
   -0.49993E+08         0.34334E+04         0.00000E+00
    0.34334E+04        -0.49999E+08         0.00000E+00
    0.00000E+00         0.00000E+00        -0.50000E+08
 
   -0.49994E+08         0.35482E+04         0.00000E+00
    0.35482E+04        -0.49999E+08         0.00000E+00
    0.00000E+00         0.00000E+00        -0.50000E+08
 
   -0.49994E+08         0.36598E+04         0.00000E+00
    0.36598E+04        -0.49998E+08         0.00000E+00
    0.00000E+00         0.00000E+00        -0.50000E+08
 
   -0.49994E+08         0.37681E+04         0.00000E+00
    0.37681E+04        -0.49998E+08         0.00000E+00
    0.00000E+00         0.00000E+00        -0.50000E+08
 
   -0.49994E+08         0.38730E+04         0.00000E+00
    0.38730E+04        -0.49998E+08         0.00000E+00
    0.00000E+00         0.00000E+00        -0.50000E+08
 
   -0.49994E+08         0.39742E+04         0.00000E+00
    0.39742E+04        -0.49998E+08         0.00000E+00
    0.00000E+00         0.00000E+00        -0.50000E+08
 
   -0.49995E+08         0.40718E+04         0.00000E+00
    0.40718E+04        -0.49998E+08         0.00000E+00
    0.00000E+00         0.00000E+00        -0.50000E+08
 
   -0.49995E+08         0.41656E+04         0.00000E+00
    0.41656E+04        -0.49998E+08         0.00000E+00
    0.00000E+00         0.00000E+00        -0.50000E+08
 
   -0.49995E+08         0.42554E+04         0.00000E+00
    0.42554E+04        -0.49998E+08         0.00000E+00
    0.00000E+00         0.00000E+00        -0.50000E+08
 
   -0.49995E+08         0.43412E+04         0.00000E+00
    0.43412E+04        -0.49998E+08         0.00000E+00
    0.00000E+00         0.00000E+00        -0.50000E+08
 
   -0.49996E+08         0.44228E+04         0.00000E+00
    0.44228E+04        -0.49997E+08         0.00000E+00
    0.00000E+00         0.00000E+00        -0.50000E+08
 
   -0.49996E+08         0.45002E+04         0.00000E+00
    0.45002E+04        -0.49997E+08         0.00000E+00
    0.00000E+00         0.00000E+00        -0.50000E+08
 
   -0.49996E+08         0.45733E+04         0.00000E+00
    0.45733E+04        -0.49997E+08         0.00000E+00
    0.00000E+00         0.00000E+00        -0.50000E+08
 
   -0.49996E+08         0.46420E+04         0.00000E+00
    0.46420E+04        -0.49997E+08         0.00000E+00
    0.00000E+00         0.00000E+00        -0.50000E+08
 
   -0.49997E+08         0.47061E+04         0.00000E+00
    0.47061E+04        -0.49997E+08         0.00000E+00
    0.00000E+00         0.00000E+00        -0.50000E+08
 
   -0.49997E+08         0.47656E+04         0.00000E+00
    0.47656E+04        -0.49997E+08         0.00000E+00
    0.00000E+00         0.00000E+00        -0.50000E+08
 
   -0.49997E+08         0.48204E+04         0.00000E+00
    0.48204E+04        -0.49997E+08         0.00000E+00
    0.00000E+00         0.00000E+00        -0.50000E+08
 
   -0.49997E+08         0.48704E+04         0.00000E+00
    0.48704E+04        -0.49996E+08         0.00000E+00
    0.00000E+00         0.00000E+00        -0.50000E+08
 
   -0.49998E+08         0.49155E+04         0.00000E+00
    0.49155E+04        -0.49996E+08         0.00000E+00
    0.00000E+00         0.00000E+00        -0.50000E+08
 
   -0.49998E+08         0.49557E+04         0.00000E+00
    0.49557E+04        -0.49996E+08         0.00000E+00
    0.00000E+00         0.00000E+00        -0.50000E+08
 
   -0.49998E+08         0.49908E+04         0.00000E+00
    0.49908E+04        -0.49996E+08         0.00000E+00
    0.00000E+00         0.00000E+00        -0.50000E+08
 
   -0.49999E+08         0.50209E+04         0.00000E+00
    0.50209E+04        -0.49996E+08         0.00000E+00
    0.00000E+00         0.00000E+00        -0.50000E+08
 
   -0.49999E+08         0.50459E+04         0.00000E+00
    0.50459E+04        -0.49996E+08         0.00000E+00
    0.00000E+00         0.00000E+00        -0.50000E+08
 
   -0.49999E+08         0.50656E+04         0.00000E+00
    0.50656E+04        -0.49996E+08         0.00000E+00
    0.00000E+00         0.00000E+00        -0.50000E+08
 
   -0.49999E+08         0.50800E+04         0.00000E+00
    0.50800E+04        -0.49995E+08         0.00000E+00
    0.00000E+00         0.00000E+00        -0.50000E+08
 
   -0.50000E+08         0.50891E+04         0.00000E+00
    0.50891E+04        -0.49995E+08         0.00000E+00
    0.00000E+00         0.00000E+00        -0.50000E+08
 
   -0.49991E+08         0.86026E+02         0.00000E+00
    0.86026E+02        -0.50000E+08         0.00000E+00
    0.00000E+00         0.00000E+00        -0.50000E+08
 
   -0.49991E+08         0.25964E+03         0.00000E+00
    0.25964E+03        -0.50000E+08         0.00000E+00
    0.00000E+00         0.00000E+00        -0.50000E+08
 
   -0.49991E+08         0.43357E+03         0.00000E+00
    0.43357E+03        -0.50000E+08         0.00000E+00
    0.00000E+00         0.00000E+00        -0.50000E+08
 
   -0.49991E+08         0.60766E+03         0.00000E+00
    0.60766E+03        -0.50000E+08         0.00000E+00
    0.00000E+00         0.00000E+00        -0.50000E+08
 
   -0.49991E+08         0.78171E+03         0.00000E+00
    0.78171E+03        -0.50000E+08         0.00000E+00
    0.00000E+00         0.00000E+00        -0.50000E+08
 
   -0.49991E+08         0.95555E+03         0.00000E+00
    0.95555E+03        -0.50000E+08         0.00000E+00
    0.00000E+00         0.00000E+00        -0.50000E+08
 
   -0.49991E+08         0.11290E+04         0.00000E+00
    0.11290E+04        -0.50000E+08         0.00000E+00
    0.00000E+00         0.00000E+00        -0.50000E+08
 
   -0.49991E+08         0.13019E+04         0.00000E+00
    0.13019E+04        -0.50000E+08         0.00000E+00
    0.00000E+00         0.00000E+00        -0.50000E+08
 
   -0.49991E+08         0.14740E+04         0.00000E+00
    0.14740E+04        -0.50000E+08         0.00000E+00
    0.00000E+00         0.00000E+00        -0.50000E+08
 
   -0.49991E+08         0.16452E+04         0.00000E+00
    0.16452E+04        -0.50000E+08         0.00000E+00
    0.00000E+00         0.00000E+00        -0.50000E+08
 
   -0.49991E+08         0.18152E+04         0.00000E+00
    0.18152E+04        -0.50000E+08         0.00000E+00
    0.00000E+00         0.00000E+00        -0.50000E+08
 
   -0.49991E+08         0.19840E+04         0.00000E+00
    0.19840E+04        -0.50000E+08         0.00000E+00
    0.00000E+00         0.00000E+00        -0.50000E+08
 
   -0.49991E+08         0.21513E+04         0.00000E+00
    0.21513E+04        -0.50000E+08         0.00000E+00
    0.00000E+00         0.00000E+00        -0.50000E+08
 
   -0.49991E+08         0.23170E+04         0.00000E+00
    0.23170E+04        -0.50000E+08         0.00000E+00
    0.00000E+00         0.00000E+00        -0.50000E+08
 
   -0.49991E+08         0.24809E+04         0.00000E+00
    0.24809E+04        -0.49999E+08         0.00000E+00
    0.00000E+00         0.00000E+00        -0.50000E+08
 
   -0.49991E+08         0.26428E+04         0.00000E+00
    0.26428E+04        -0.49999E+08         0.00000E+00
    0.00000E+00         0.00000E+00        -0.50000E+08
 
   -0.49992E+08         0.28026E+04         0.00000E+00
    0.28026E+04        -0.49999E+08         0.00000E+00
    0.00000E+00         0.00000E+00        -0.50000E+08
 
   -0.49992E+08         0.29600E+04         0.00000E+00
    0.29600E+04        -0.49999E+08         0.00000E+00
    0.00000E+00         0.00000E+00        -0.50000E+08
 
   -0.49992E+08         0.31150E+04         0.00000E+00
    0.31150E+04        -0.49999E+08         0.00000E+00
    0.00000E+00         0.00000E+00        -0.50000E+08
 
   -0.49992E+08         0.32673E+04         0.00000E+00
    0.32673E+04        -0.49999E+08         0.00000E+00
    0.00000E+00         0.00000E+00        -0.50000E+08
 
   -0.49992E+08         0.34168E+04         0.00000E+00
    0.34168E+04        -0.49999E+08         0.00000E+00
    0.00000E+00         0.00000E+00        -0.50000E+08
 
   -0.49992E+08         0.35633E+04         0.00000E+00
    0.35633E+04        -0.49999E+08         0.00000E+00
    0.00000E+00         0.00000E+00        -0.50000E+08
 
   -0.49992E+08         0.37068E+04         0.00000E+00
    0.37068E+04        -0.49999E+08         0.00000E+00
    0.00000E+00         0.00000E+00        -0.50000E+08
 
   -0.49993E+08         0.38469E+04         0.00000E+00
    0.38469E+04        -0.49999E+08         0.00000E+00
    0.00000E+00         0.00000E+00        -0.50000E+08
 
   -0.49993E+08         0.39836E+04         0.00000E+00
    0.39836E+04        -0.49999E+08         0.00000E+00
    0.00000E+00         0.00000E+00        -0.50000E+08
 
   -0.49993E+08         0.41167E+04         0.00000E+00
    0.41167E+04        -0.49998E+08         0.00000E+00
    0.00000E+00         0.00000E+00        -0.50000E+08
 
   -0.49993E+08         0.42461E+04         0.00000E+00
    0.42461E+04        -0.49998E+08         0.00000E+00
    0.00000E+00         0.00000E+00        -0.50000E+08
 
   -0.49993E+08         0.43716E+04         0.00000E+00
    0.43716E+04        -0.49998E+08         0.00000E+00
    0.00000E+00         0.00000E+00        -0.50000E+08
 
   -0.49994E+08         0.44931E+04         0.00000E+00
    0.44931E+04        -0.49998E+08         0.00000E+00
    0.00000E+00         0.00000E+00        -0.50000E+08
 
   -0.49994E+08         0.46105E+04         0.00000E+00
    0.46105E+04        -0.49998E+08         0.00000E+00
    0.00000E+00         0.00000E+00        -0.50000E+08
 
   -0.49994E+08         0.47235E+04         0.00000E+00
    0.47235E+04        -0.49998E+08         0.00000E+00
    0.00000E+00         0.00000E+00        -0.50000E+08
 
   -0.49994E+08         0.48322E+04         0.00000E+00
    0.48322E+04        -0.49998E+08         0.00000E+00
    0.00000E+00         0.00000E+00        -0.50000E+08
 
   -0.49995E+08         0.49363E+04         0.00000E+00
    0.49363E+04        -0.49997E+08         0.00000E+00
    0.00000E+00         0.00000E+00        -0.50000E+08
 
   -0.49995E+08         0.50357E+04         0.00000E+00
    0.50357E+04        -0.49997E+08         0.00000E+00
    0.00000E+00         0.00000E+00        -0.50000E+08
 
   -0.49995E+08         0.51303E+04         0.00000E+00
    0.51303E+04        -0.49997E+08         0.00000E+00
    0.00000E+00         0.00000E+00        -0.50000E+08
 
   -0.49995E+08         0.52200E+04         0.00000E+00
    0.52200E+04        -0.49997E+08         0.00000E+00
    0.00000E+00         0.00000E+00        -0.50000E+08
 
   -0.49996E+08         0.53047E+04         0.00000E+00
    0.53047E+04        -0.49997E+08         0.00000E+00
    0.00000E+00         0.00000E+00        -0.50000E+08
 
   -0.49996E+08         0.53843E+04         0.00000E+00
    0.53843E+04        -0.49997E+08         0.00000E+00
    0.00000E+00         0.00000E+00        -0.50000E+08
 
   -0.49996E+08         0.54586E+04         0.00000E+00
    0.54586E+04        -0.49997E+08         0.00000E+00
    0.00000E+00         0.00000E+00        -0.50000E+08
 
   -0.49997E+08         0.55275E+04         0.00000E+00
    0.55275E+04        -0.49996E+08         0.00000E+00
    0.00000E+00         0.00000E+00        -0.50000E+08
 
   -0.49997E+08         0.55910E+04         0.00000E+00
    0.55910E+04        -0.49996E+08         0.00000E+00
    0.00000E+00         0.00000E+00        -0.50000E+08
 
   -0.49997E+08         0.56489E+04         0.00000E+00
    0.56489E+04        -0.49996E+08         0.00000E+00
    0.00000E+00         0.00000E+00        -0.50000E+08
 
   -0.49997E+08         0.57012E+04         0.00000E+00
    0.57012E+04        -0.49996E+08         0.00000E+00
    0.00000E+00         0.00000E+00        -0.50000E+08
 
   -0.49998E+08         0.57478E+04         0.00000E+00
    0.57478E+04        -0.49996E+08         0.00000E+00
    0.00000E+00         0.00000E+00        -0.50000E+08
 
   -0.49998E+08         0.57886E+04         0.00000E+00
    0.57886E+04        -0.49996E+08         0.00000E+00
    0.00000E+00         0.00000E+00        -0.50000E+08
 
   -0.49998E+08         0.58235E+04         0.00000E+00
    0.58235E+04        -0.49995E+08         0.00000E+00
    0.00000E+00         0.00000E+00        -0.50000E+08
 
   -0.49999E+08         0.58524E+04         0.00000E+00
    0.58524E+04        -0.49995E+08         0.00000E+00
    0.00000E+00         0.00000E+00        -0.50000E+08
 
   -0.49999E+08         0.58753E+04         0.00000E+00
    0.58753E+04        -0.49995E+08         0.00000E+00
    0.00000E+00         0.00000E+00        -0.50000E+08
 
   -0.49999E+08         0.58921E+04         0.00000E+00
    0.58921E+04        -0.49995E+08         0.00000E+00
    0.00000E+00         0.00000E+00        -0.50000E+08
 
   -0.50000E+08         0.59027E+04         0.00000E+00
    0.59027E+04        -0.49995E+08         0.00000E+00
    0.00000E+00         0.00000E+00        -0.50000E+08
 
   -0.49990E+08         0.99174E+02         0.00000E+00
    0.99174E+02        -0.50000E+08         0.00000E+00
    0.00000E+00         0.00000E+00        -0.50000E+08
 
   -0.49990E+08         0.29925E+03         0.00000E+00
    0.29925E+03        -0.50000E+08         0.00000E+00
    0.00000E+00         0.00000E+00        -0.50000E+08
 
   -0.49990E+08         0.49969E+03         0.00000E+00
    0.49969E+03        -0.50000E+08         0.00000E+00
    0.00000E+00         0.00000E+00        -0.50000E+08
 
   -0.49990E+08         0.70027E+03         0.00000E+00
    0.70027E+03        -0.50000E+08         0.00000E+00
    0.00000E+00         0.00000E+00        -0.50000E+08
 
   -0.49990E+08         0.90079E+03         0.00000E+00
    0.90079E+03        -0.50000E+08         0.00000E+00
    0.00000E+00         0.00000E+00        -0.50000E+08
 
   -0.49990E+08         0.11010E+04         0.00000E+00
    0.11010E+04        -0.50000E+08         0.00000E+00
    0.00000E+00         0.00000E+00        -0.50000E+08
 
   -0.49990E+08         0.13008E+04         0.00000E+00
    0.13008E+04        -0.50000E+08         0.00000E+00
    0.00000E+00         0.00000E+00        -0.50000E+08
 
   -0.49990E+08         0.14999E+04         0.00000E+00
    0.14999E+04        -0.50000E+08         0.00000E+00
    0.00000E+00         0.00000E+00        -0.50000E+08
 
   -0.49990E+08         0.16981E+04         0.00000E+00
    0.16981E+04        -0.50000E+08         0.00000E+00
    0.00000E+00         0.00000E+00        -0.50000E+08
 
   -0.49990E+08         0.18953E+04         0.00000E+00
    0.18953E+04        -0.50000E+08         0.00000E+00
    0.00000E+00         0.00000E+00        -0.50000E+08
 
   -0.49990E+08         0.20911E+04         0.00000E+00
    0.20911E+04        -0.50000E+08         0.00000E+00
    0.00000E+00         0.00000E+00        -0.50000E+08
 
   -0.49990E+08         0.22854E+04         0.00000E+00
    0.22854E+04        -0.50000E+08         0.00000E+00
    0.00000E+00         0.00000E+00        -0.50000E+08
 
   -0.49990E+08         0.24780E+04         0.00000E+00
    0.24780E+04        -0.50000E+08         0.00000E+00
    0.00000E+00         0.00000E+00        -0.50000E+08
 
   -0.49990E+08         0.26688E+04         0.00000E+00
    0.26688E+04        -0.49999E+08         0.00000E+00
    0.00000E+00         0.00000E+00        -0.50000E+08
 
   -0.49990E+08         0.28574E+04         0.00000E+00
    0.28574E+04        -0.49999E+08         0.00000E+00
    0.00000E+00         0.00000E+00        -0.50000E+08
 
   -0.49991E+08         0.30438E+04         0.00000E+00
    0.30438E+04        -0.49999E+08         0.00000E+00
    0.00000E+00         0.00000E+00        -0.50000E+08
 
   -0.49991E+08         0.32276E+04         0.00000E+00
    0.32276E+04        -0.49999E+08         0.00000E+00
    0.00000E+00         0.00000E+00        -0.50000E+08
 
   -0.49991E+08         0.34088E+04         0.00000E+00
    0.34088E+04        -0.49999E+08         0.00000E+00
    0.00000E+00         0.00000E+00        -0.50000E+08
 
   -0.49991E+08         0.35871E+04         0.00000E+00
    0.35871E+04        -0.49999E+08         0.00000E+00
    0.00000E+00         0.00000E+00        -0.50000E+08
 
   -0.49991E+08         0.37624E+04         0.00000E+00
    0.37624E+04        -0.49999E+08         0.00000E+00
    0.00000E+00         0.00000E+00        -0.50000E+08
 
   -0.49991E+08         0.39344E+04         0.00000E+00
    0.39344E+04        -0.49999E+08         0.00000E+00
    0.00000E+00         0.00000E+00        -0.50000E+08
 
   -0.49992E+08         0.41030E+04         0.00000E+00
    0.41030E+04        -0.49999E+08         0.00000E+00
    0.00000E+00         0.00000E+00        -0.50000E+08
 
   -0.49992E+08         0.42680E+04         0.00000E+00
    0.42680E+04        -0.49999E+08         0.00000E+00
    0.00000E+00         0.00000E+00        -0.50000E+08
 
   -0.49992E+08         0.44292E+04         0.00000E+00
    0.44292E+04        -0.49999E+08         0.00000E+00
    0.00000E+00         0.00000E+00        -0.50000E+08
 
   -0.49992E+08         0.45864E+04         0.00000E+00
    0.45864E+04        -0.49998E+08         0.00000E+00
    0.00000E+00         0.00000E+00        -0.50000E+08
 
   -0.49992E+08         0.47396E+04         0.00000E+00
    0.47396E+04        -0.49998E+08         0.00000E+00
    0.00000E+00         0.00000E+00        -0.50000E+08
 
   -0.49993E+08         0.48884E+04         0.00000E+00
    0.48884E+04        -0.49998E+08         0.00000E+00
    0.00000E+00         0.00000E+00        -0.50000E+08
 
   -0.49993E+08         0.50328E+04         0.00000E+00
    0.50328E+04        -0.49998E+08         0.00000E+00
    0.00000E+00         0.00000E+00        -0.50000E+08
 
   -0.49993E+08         0.51725E+04         0.00000E+00
    0.51725E+04        -0.49998E+08         0.00000E+00
    0.00000E+00         0.00000E+00        -0.50000E+08
 
   -0.49993E+08         0.53075E+04         0.00000E+00
    0.53075E+04        -0.49998E+08         0.00000E+00
    0.00000E+00         0.00000E+00        -0.50000E+08
 
   -0.49994E+08         0.54375E+04         0.00000E+00
    0.54375E+04        -0.49998E+08         0.00000E+00
    0.00000E+00         0.00000E+00        -0.50000E+08
 
   -0.49994E+08         0.55625E+04         0.00000E+00
    0.55625E+04        -0.49997E+08         0.00000E+00
    0.00000E+00         0.00000E+00        -0.50000E+08
 
   -0.49994E+08         0.56822E+04         0.00000E+00
    0.56822E+04        -0.49997E+08         0.00000E+00
    0.00000E+00         0.00000E+00        -0.50000E+08
 
   -0.49994E+08         0.57965E+04         0.00000E+00
    0.57965E+04        -0.49997E+08         0.00000E+00
    0.00000E+00         0.00000E+00        -0.50000E+08
 
   -0.49995E+08         0.59054E+04         0.00000E+00
    0.59054E+04        -0.49997E+08         0.00000E+00
    0.00000E+00         0.00000E+00        -0.50000E+08
 
   -0.49995E+08         0.60086E+04         0.00000E+00
    0.60086E+04        -0.49997E+08         0.00000E+00
    0.00000E+00         0.00000E+00        -0.50000E+08
 
   -0.49995E+08         0.61060E+04         0.00000E+00
    0.61060E+04        -0.49997E+08         0.00000E+00
    0.00000E+00         0.00000E+00        -0.50000E+08
 
   -0.49996E+08         0.61975E+04         0.00000E+00
    0.61975E+04        -0.49996E+08         0.00000E+00
    0.00000E+00         0.00000E+00        -0.50000E+08
 
   -0.49996E+08         0.62829E+04         0.00000E+00
    0.62829E+04        -0.49996E+08         0.00000E+00
    0.00000E+00         0.00000E+00        -0.50000E+08
 
   -0.49996E+08         0.63622E+04         0.00000E+00
    0.63622E+04        -0.49996E+08         0.00000E+00
    0.00000E+00         0.00000E+00        -0.50000E+08
 
   -0.49996E+08         0.64353E+04         0.00000E+00
    0.64353E+04        -0.49996E+08         0.00000E+00
    0.00000E+00         0.00000E+00        -0.50000E+08
 
   -0.49997E+08         0.65020E+04         0.00000E+00
    0.65020E+04        -0.49996E+08         0.00000E+00
    0.00000E+00         0.00000E+00        -0.50000E+08
 
   -0.49997E+08         0.65622E+04         0.00000E+00
    0.65622E+04        -0.49996E+08         0.00000E+00
    0.00000E+00         0.00000E+00        -0.50000E+08
 
   -0.49998E+08         0.66158E+04         0.00000E+00
    0.66158E+04        -0.49995E+08         0.00000E+00
    0.00000E+00         0.00000E+00        -0.50000E+08
 
   -0.49998E+08         0.66627E+04         0.00000E+00
    0.66627E+04        -0.49995E+08         0.00000E+00
    0.00000E+00         0.00000E+00        -0.50000E+08
 
   -0.49998E+08         0.67029E+04         0.00000E+00
    0.67029E+04        -0.49995E+08         0.00000E+00
    0.00000E+00         0.00000E+00        -0.50000E+08
 
   -0.49999E+08         0.67363E+04         0.00000E+00
    0.67363E+04        -0.49995E+08         0.00000E+00
    0.00000E+00         0.00000E+00        -0.50000E+08
 
   -0.49999E+08         0.67627E+04         0.00000E+00
    0.67627E+04        -0.49995E+08         0.00000E+00
    0.00000E+00         0.00000E+00        -0.50000E+08
 
   -0.49999E+08         0.67821E+04         0.00000E+00
    0.67821E+04        -0.49994E+08         0.00000E+00
    0.00000E+00         0.00000E+00        -0.50000E+08
 
   -0.50000E+08         0.67945E+04         0.00000E+00
    0.67945E+04        -0.49994E+08         0.00000E+00
    0.00000E+00         0.00000E+00        -0.50000E+08
 
   -0.49989E+08         0.11366E+03         0.00000E+00
    0.11366E+03        -0.50000E+08         0.00000E+00
    0.00000E+00         0.00000E+00        -0.50000E+08
 
   -0.49989E+08         0.34290E+03         0.00000E+00
    0.34290E+03        -0.50000E+08         0.00000E+00
    0.00000E+00         0.00000E+00        -0.50000E+08
 
   -0.49989E+08         0.57251E+03         0.00000E+00
    0.57251E+03        -0.50000E+08         0.00000E+00
    0.00000E+00         0.00000E+00        -0.50000E+08
 
   -0.49989E+08         0.80227E+03         0.00000E+00
    0.80227E+03        -0.50000E+08         0.00000E+00
    0.00000E+00         0.00000E+00        -0.50000E+08
 
   -0.49989E+08         0.10319E+04         0.00000E+00
    0.10319E+04        -0.50000E+08         0.00000E+00
    0.00000E+00         0.00000E+00        -0.50000E+08
 
   -0.49989E+08         0.12613E+04         0.00000E+00
    0.12613E+04        -0.50000E+08         0.00000E+00
    0.00000E+00         0.00000E+00        -0.50000E+08
 
   -0.49989E+08         0.14900E+04         0.00000E+00
    0.14900E+04        -0.50000E+08         0.00000E+00
    0.00000E+00         0.00000E+00        -0.50000E+08
 
   -0.49989E+08         0.17180E+04         0.00000E+00
    0.17180E+04        -0.50000E+08         0.00000E+00
    0.00000E+00         0.00000E+00        -0.50000E+08
 
   -0.49989E+08         0.19449E+04         0.00000E+00
    0.19449E+04        -0.50000E+08         0.00000E+00
    0.00000E+00         0.00000E+00        -0.50000E+08
 
   -0.49989E+08         0.21706E+04         0.00000E+00
    0.21706E+04        -0.50000E+08         0.00000E+00
    0.00000E+00         0.00000E+00        -0.50000E+08
 
   -0.49989E+08         0.23948E+04         0.00000E+00
    0.23948E+04        -0.50000E+08         0.00000E+00
    0.00000E+00         0.00000E+00        -0.50000E+08
 
   -0.49989E+08         0.26172E+04         0.00000E+00
    0.26172E+04        -0.50000E+08         0.00000E+00
    0.00000E+00         0.00000E+00        -0.50000E+08
 
   -0.49989E+08         0.28376E+04         0.00000E+00
    0.28376E+04        -0.50000E+08         0.00000E+00
    0.00000E+00         0.00000E+00        -0.50000E+08
 
   -0.49989E+08         0.30559E+04         0.00000E+00
    0.30559E+04        -0.49999E+08         0.00000E+00
    0.00000E+00         0.00000E+00        -0.50000E+08
 
   -0.49989E+08         0.32718E+04         0.00000E+00
    0.32718E+04        -0.49999E+08         0.00000E+00
    0.00000E+00         0.00000E+00        -0.50000E+08
 
   -0.49990E+08         0.34850E+04         0.00000E+00
    0.34850E+04        -0.49999E+08         0.00000E+00
    0.00000E+00         0.00000E+00        -0.50000E+08
 
   -0.49990E+08         0.36953E+04         0.00000E+00
    0.36953E+04        -0.49999E+08         0.00000E+00
    0.00000E+00         0.00000E+00        -0.50000E+08
 
   -0.49990E+08         0.39026E+04         0.00000E+00
    0.39026E+04        -0.49999E+08         0.00000E+00
    0.00000E+00         0.00000E+00        -0.50000E+08
 
   -0.49990E+08         0.41066E+04         0.00000E+00
    0.41066E+04        -0.49999E+08         0.00000E+00
    0.00000E+00         0.00000E+00        -0.50000E+08
 
   -0.49990E+08         0.43071E+04         0.00000E+00
    0.43071E+04        -0.49999E+08         0.00000E+00
    0.00000E+00         0.00000E+00        -0.50000E+08
 
   -0.49990E+08         0.45039E+04         0.00000E+00
    0.45039E+04        -0.49999E+08         0.00000E+00
    0.00000E+00         0.00000E+00        -0.50000E+08
 
   -0.49991E+08         0.46967E+04         0.00000E+00
    0.46967E+04        -0.49999E+08         0.00000E+00
    0.00000E+00         0.00000E+00        -0.50000E+08
 
   -0.49991E+08         0.48854E+04         0.00000E+00
    0.48854E+04        -0.49998E+08         0.00000E+00
    0.00000E+00         0.00000E+00        -0.50000E+08
 
   -0.49991E+08         0.50698E+04         0.00000E+00
    0.50698E+04        -0.49998E+08         0.00000E+00
    0.00000E+00         0.00000E+00        -0.50000E+08
 
   -0.49991E+08         0.52496E+04         0.00000E+00
    0.52496E+04        -0.49998E+08         0.00000E+00
    0.00000E+00         0.00000E+00        -0.50000E+08
 
   -0.49992E+08         0.54248E+04         0.00000E+00
    0.54248E+04        -0.49998E+08         0.00000E+00
    0.00000E+00         0.00000E+00        -0.50000E+08
 
   -0.49992E+08         0.55950E+04         0.00000E+00
    0.55950E+04        -0.49998E+08         0.00000E+00
    0.00000E+00         0.00000E+00        -0.50000E+08
 
   -0.49992E+08         0.57601E+04         0.00000E+00
    0.57601E+04        -0.49998E+08         0.00000E+00
    0.00000E+00         0.00000E+00        -0.50000E+08
 
   -0.49992E+08         0.59199E+04         0.00000E+00
    0.59199E+04        -0.49998E+08         0.00000E+00
    0.00000E+00         0.00000E+00        -0.50000E+08
 
   -0.49993E+08         0.60742E+04         0.00000E+00
    0.60742E+04        -0.49997E+08         0.00000E+00
    0.00000E+00         0.00000E+00        -0.50000E+08
 
   -0.49993E+08         0.62229E+04         0.00000E+00
    0.62229E+04        -0.49997E+08         0.00000E+00
    0.00000E+00         0.00000E+00        -0.50000E+08
 
   -0.49993E+08         0.63658E+04         0.00000E+00
    0.63658E+04        -0.49997E+08         0.00000E+00
    0.00000E+00         0.00000E+00        -0.50000E+08
 
   -0.49993E+08         0.65027E+04         0.00000E+00
    0.65027E+04        -0.49997E+08         0.00000E+00
    0.00000E+00         0.00000E+00        -0.50000E+08
 
   -0.49994E+08         0.66335E+04         0.00000E+00
    0.66335E+04        -0.49997E+08         0.00000E+00
    0.00000E+00         0.00000E+00        -0.50000E+08
 
   -0.49994E+08         0.67580E+04         0.00000E+00
    0.67580E+04        -0.49997E+08         0.00000E+00
    0.00000E+00         0.00000E+00        -0.50000E+08
 
   -0.49994E+08         0.68760E+04         0.00000E+00
    0.68760E+04        -0.49996E+08         0.00000E+00
    0.00000E+00         0.00000E+00        -0.50000E+08
 
   -0.49995E+08         0.69874E+04         0.00000E+00
    0.69874E+04        -0.49996E+08         0.00000E+00
    0.00000E+00         0.00000E+00        -0.50000E+08
 
   -0.49995E+08         0.70920E+04         0.00000E+00
    0.70920E+04        -0.49996E+08         0.00000E+00
    0.00000E+00         0.00000E+00        -0.50000E+08
 
   -0.49995E+08         0.71898E+04         0.00000E+00
    0.71898E+04        -0.49996E+08         0.00000E+00
    0.00000E+00         0.00000E+00        -0.50000E+08
 
   -0.49996E+08         0.72805E+04         0.00000E+00
    0.72805E+04        -0.49996E+08         0.00000E+00
    0.00000E+00         0.00000E+00        -0.50000E+08
 
   -0.49996E+08         0.73641E+04         0.00000E+00
    0.73641E+04        -0.49995E+08         0.00000E+00
    0.00000E+00         0.00000E+00        -0.50000E+08
 
   -0.49996E+08         0.74404E+04         0.00000E+00
    0.74404E+04        -0.49995E+08         0.00000E+00
    0.00000E+00         0.00000E+00        -0.50000E+08
 
   -0.49997E+08         0.75094E+04         0.00000E+00
    0.75094E+04        -0.49995E+08         0.00000E+00
    0.00000E+00         0.00000E+00        -0.50000E+08
 
   -0.49997E+08         0.75708E+04         0.00000E+00
    0.75708E+04        -0.49995E+08         0.00000E+00
    0.00000E+00         0.00000E+00        -0.50000E+08
 
   -0.49998E+08         0.76246E+04         0.00000E+00
    0.76246E+04        -0.49995E+08         0.00000E+00
    0.00000E+00         0.00000E+00        -0.50000E+08
 
   -0.49998E+08         0.76707E+04         0.00000E+00
    0.76707E+04        -0.49994E+08         0.00000E+00
    0.00000E+00         0.00000E+00        -0.50000E+08
 
   -0.49998E+08         0.77089E+04         0.00000E+00
    0.77089E+04        -0.49994E+08         0.00000E+00
    0.00000E+00         0.00000E+00        -0.50000E+08
 
   -0.49999E+08         0.77393E+04         0.00000E+00
    0.77393E+04        -0.49994E+08         0.00000E+00
    0.00000E+00         0.00000E+00        -0.50000E+08
 
   -0.49999E+08         0.77617E+04         0.00000E+00
    0.77617E+04        -0.49994E+08         0.00000E+00
    0.00000E+00         0.00000E+00        -0.50000E+08
 
   -0.50000E+08         0.77759E+04         0.00000E+00
    0.77759E+04        -0.49994E+08         0.00000E+00
    0.00000E+00         0.00000E+00        -0.50000E+08
 
   -0.49988E+08         0.12969E+03         0.00000E+00
    0.12969E+03        -0.50000E+08         0.00000E+00
    0.00000E+00         0.00000E+00        -0.50000E+08
 
   -0.49988E+08         0.39115E+03         0.00000E+00
    0.39115E+03        -0.50000E+08         0.00000E+00
    0.00000E+00         0.00000E+00        -0.50000E+08
 
   -0.49988E+08         0.65301E+03         0.00000E+00
    0.65301E+03        -0.50000E+08         0.00000E+00
    0.00000E+00         0.00000E+00        -0.50000E+08
 
   -0.49988E+08         0.91501E+03         0.00000E+00
    0.91501E+03        -0.50000E+08         0.00000E+00
    0.00000E+00         0.00000E+00        -0.50000E+08
 
   -0.49988E+08         0.11769E+04         0.00000E+00
    0.11769E+04        -0.50000E+08         0.00000E+00
    0.00000E+00         0.00000E+00        -0.50000E+08
 
   -0.49988E+08         0.14383E+04         0.00000E+00
    0.14383E+04        -0.50000E+08         0.00000E+00
    0.00000E+00         0.00000E+00        -0.50000E+08
 
   -0.49988E+08         0.16991E+04         0.00000E+00
    0.16991E+04        -0.50000E+08         0.00000E+00
    0.00000E+00         0.00000E+00        -0.50000E+08
 
   -0.49988E+08         0.19590E+04         0.00000E+00
    0.19590E+04        -0.50000E+08         0.00000E+00
    0.00000E+00         0.00000E+00        -0.50000E+08
 
   -0.49988E+08         0.22176E+04         0.00000E+00
    0.22176E+04        -0.50000E+08         0.00000E+00
    0.00000E+00         0.00000E+00        -0.50000E+08
 
   -0.49988E+08         0.24748E+04         0.00000E+00
    0.24748E+04        -0.50000E+08         0.00000E+00
    0.00000E+00         0.00000E+00        -0.50000E+08
 
   -0.49988E+08         0.27302E+04         0.00000E+00
    0.27302E+04        -0.50000E+08         0.00000E+00
    0.00000E+00         0.00000E+00        -0.50000E+08
 
   -0.49988E+08         0.29836E+04         0.00000E+00
    0.29836E+04        -0.50000E+08         0.00000E+00
    0.00000E+00         0.00000E+00        -0.50000E+08
 
   -0.49988E+08         0.32348E+04         0.00000E+00
    0.32348E+04        -0.49999E+08         0.00000E+00
    0.00000E+00         0.00000E+00        -0.50000E+08
 
   -0.49988E+08         0.34835E+04         0.00000E+00
    0.34835E+04        -0.49999E+08         0.00000E+00
    0.00000E+00         0.00000E+00        -0.50000E+08
 
   -0.49988E+08         0.37294E+04         0.00000E+00
    0.37294E+04        -0.49999E+08         0.00000E+00
    0.00000E+00         0.00000E+00        -0.50000E+08
 
   -0.49988E+08         0.39722E+04         0.00000E+00
    0.39722E+04        -0.49999E+08         0.00000E+00
    0.00000E+00         0.00000E+00        -0.50000E+08
 
   -0.49989E+08         0.42118E+04         0.00000E+00
    0.42118E+04        -0.49999E+08         0.00000E+00
    0.00000E+00         0.00000E+00        -0.50000E+08
 
   -0.49989E+08         0.44479E+04         0.00000E+00
    0.44479E+04        -0.49999E+08         0.00000E+00
    0.00000E+00         0.00000E+00        -0.50000E+08
 
   -0.49989E+08         0.46802E+04         0.00000E+00
    0.46802E+04        -0.49999E+08         0.00000E+00
    0.00000E+00         0.00000E+00        -0.50000E+08
 
   -0.49989E+08         0.49085E+04         0.00000E+00
    0.49085E+04        -0.49999E+08         0.00000E+00
    0.00000E+00         0.00000E+00        -0.50000E+08
 
   -0.49989E+08         0.51326E+04         0.00000E+00
    0.51326E+04        -0.49999E+08         0.00000E+00
    0.00000E+00         0.00000E+00        -0.50000E+08
 
   -0.49990E+08         0.53522E+04         0.00000E+00
    0.53522E+04        -0.49998E+08         0.00000E+00
    0.00000E+00         0.00000E+00        -0.50000E+08
 
   -0.49990E+08         0.55670E+04         0.00000E+00
    0.55670E+04        -0.49998E+08         0.00000E+00
    0.00000E+00         0.00000E+00        -0.50000E+08
 
   -0.49990E+08         0.57770E+04         0.00000E+00
    0.57770E+04        -0.49998E+08         0.00000E+00
    0.00000E+00         0.00000E+00        -0.50000E+08
 
   -0.49990E+08         0.59817E+04         0.00000E+00
    0.59817E+04        -0.49998E+08         0.00000E+00
    0.00000E+00         0.00000E+00        -0.50000E+08
 
   -0.49991E+08         0.61811E+04         0.00000E+00
    0.61811E+04        -0.49998E+08         0.00000E+00
    0.00000E+00         0.00000E+00        -0.50000E+08
 
   -0.49991E+08         0.63749E+04         0.00000E+00
    0.63749E+04        -0.49998E+08         0.00000E+00
    0.00000E+00         0.00000E+00        -0.50000E+08
 
   -0.49991E+08         0.65628E+04         0.00000E+00
    0.65628E+04        -0.49998E+08         0.00000E+00
    0.00000E+00         0.00000E+00        -0.50000E+08
 
   -0.49991E+08         0.67448E+04         0.00000E+00
    0.67448E+04        -0.49997E+08         0.00000E+00
    0.00000E+00         0.00000E+00        -0.50000E+08
 
   -0.49992E+08         0.69205E+04         0.00000E+00
    0.69205E+04        -0.49997E+08         0.00000E+00
    0.00000E+00         0.00000E+00        -0.50000E+08
 
   -0.49992E+08         0.70898E+04         0.00000E+00
    0.70898E+04        -0.49997E+08         0.00000E+00
    0.00000E+00         0.00000E+00        -0.50000E+08
 
   -0.49992E+08         0.72525E+04         0.00000E+00
    0.72525E+04        -0.49997E+08         0.00000E+00
    0.00000E+00         0.00000E+00        -0.50000E+08
 
   -0.49993E+08         0.74084E+04         0.00000E+00
    0.74084E+04        -0.49997E+08         0.00000E+00
    0.00000E+00         0.00000E+00        -0.50000E+08
 
   -0.49993E+08         0.75572E+04         0.00000E+00
    0.75572E+04        -0.49996E+08         0.00000E+00
    0.00000E+00         0.00000E+00        -0.50000E+08
 
   -0.49993E+08         0.76990E+04         0.00000E+00
    0.76990E+04        -0.49996E+08         0.00000E+00
    0.00000E+00         0.00000E+00        -0.50000E+08
 
   -0.49994E+08         0.78333E+04         0.00000E+00
    0.78333E+04        -0.49996E+08         0.00000E+00
    0.00000E+00         0.00000E+00        -0.50000E+08
 
   -0.49994E+08         0.79602E+04         0.00000E+00
    0.79602E+04        -0.49996E+08         0.00000E+00
    0.00000E+00         0.00000E+00        -0.50000E+08
 
   -0.49995E+08         0.80794E+04         0.00000E+00
    0.80794E+04        -0.49996E+08         0.00000E+00
    0.00000E+00         0.00000E+00        -0.50000E+08
 
   -0.49995E+08         0.81908E+04         0.00000E+00
    0.81908E+04        -0.49995E+08         0.00000E+00
    0.00000E+00         0.00000E+00        -0.50000E+08
 
   -0.49995E+08         0.82942E+04         0.00000E+00
    0.82942E+04        -0.49995E+08         0.00000E+00
    0.00000E+00         0.00000E+00        -0.50000E+08
 
   -0.49996E+08         0.83894E+04         0.00000E+00
    0.83894E+04        -0.49995E+08         0.00000E+00
    0.00000E+00         0.00000E+00        -0.50000E+08
 
   -0.49996E+08         0.84764E+04         0.00000E+00
    0.84764E+04        -0.49995E+08         0.00000E+00
    0.00000E+00         0.00000E+00        -0.50000E+08
 
   -0.49997E+08         0.85550E+04         0.00000E+00
    0.85550E+04        -0.49995E+08         0.00000E+00
    0.00000E+00         0.00000E+00        -0.50000E+08
 
   -0.49997E+08         0.86250E+04         0.00000E+00
    0.86250E+04        -0.49994E+08         0.00000E+00
    0.00000E+00         0.00000E+00        -0.50000E+08
 
   -0.49997E+08         0.86864E+04         0.00000E+00
    0.86864E+04        -0.49994E+08         0.00000E+00
    0.00000E+00         0.00000E+00        -0.50000E+08
 
   -0.49998E+08         0.87391E+04         0.00000E+00
    0.87391E+04        -0.49994E+08         0.00000E+00
    0.00000E+00         0.00000E+00        -0.50000E+08
 
   -0.49998E+08         0.87828E+04         0.00000E+00
    0.87828E+04        -0.49994E+08         0.00000E+00
    0.00000E+00         0.00000E+00        -0.50000E+08
 
   -0.49999E+08         0.88176E+04         0.00000E+00
    0.88176E+04        -0.49993E+08         0.00000E+00
    0.00000E+00         0.00000E+00        -0.50000E+08
 
   -0.49999E+08         0.88433E+04         0.00000E+00
    0.88433E+04        -0.49993E+08         0.00000E+00
    0.00000E+00         0.00000E+00        -0.50000E+08
 
   -0.50000E+08         0.88598E+04         0.00000E+00
    0.88598E+04        -0.49993E+08         0.00000E+00
    0.00000E+00         0.00000E+00        -0.50000E+08
 
   -0.49986E+08         0.14746E+03         0.00000E+00
    0.14746E+03        -0.50000E+08         0.00000E+00
    0.00000E+00         0.00000E+00        -0.50000E+08
 
   -0.49986E+08         0.44464E+03         0.00000E+00
    0.44464E+03        -0.50000E+08         0.00000E+00
    0.00000E+00         0.00000E+00        -0.50000E+08
 
   -0.49986E+08         0.74225E+03         0.00000E+00
    0.74225E+03        -0.50000E+08         0.00000E+00
    0.00000E+00         0.00000E+00        -0.50000E+08
 
   -0.49986E+08         0.10400E+04         0.00000E+00
    0.10400E+04        -0.50000E+08         0.00000E+00
    0.00000E+00         0.00000E+00        -0.50000E+08
 
   -0.49986E+08         0.13375E+04         0.00000E+00
    0.13375E+04        -0.50000E+08         0.00000E+00
    0.00000E+00         0.00000E+00        -0.50000E+08
 
   -0.49986E+08         0.16345E+04         0.00000E+00
    0.16345E+04        -0.50000E+08         0.00000E+00
    0.00000E+00         0.00000E+00        -0.50000E+08
 
   -0.49986E+08         0.19308E+04         0.00000E+00
    0.19308E+04        -0.50000E+08         0.00000E+00
    0.00000E+00         0.00000E+00        -0.50000E+08
 
   -0.49986E+08         0.22259E+04         0.00000E+00
    0.22259E+04        -0.50000E+08         0.00000E+00
    0.00000E+00         0.00000E+00        -0.50000E+08
 
   -0.49986E+08         0.25197E+04         0.00000E+00
    0.25197E+04        -0.50000E+08         0.00000E+00
    0.00000E+00         0.00000E+00        -0.50000E+08
 
   -0.49986E+08         0.28117E+04         0.00000E+00
    0.28117E+04        -0.50000E+08         0.00000E+00
    0.00000E+00         0.00000E+00        -0.50000E+08
 
   -0.49987E+08         0.31018E+04         0.00000E+00
    0.31018E+04        -0.50000E+08         0.00000E+00
    0.00000E+00         0.00000E+00        -0.50000E+08
 
   -0.49987E+08         0.33895E+04         0.00000E+00
    0.33895E+04        -0.50000E+08         0.00000E+00
    0.00000E+00         0.00000E+00        -0.50000E+08
 
   -0.49987E+08         0.36747E+04         0.00000E+00
    0.36747E+04        -0.49999E+08         0.00000E+00
    0.00000E+00         0.00000E+00        -0.50000E+08
 
   -0.49987E+08         0.39570E+04         0.00000E+00
    0.39570E+04        -0.49999E+08         0.00000E+00
    0.00000E+00         0.00000E+00        -0.50000E+08
 
   -0.49987E+08         0.42361E+04         0.00000E+00
    0.42361E+04        -0.49999E+08         0.00000E+00
    0.00000E+00         0.00000E+00        -0.50000E+08
 
   -0.49987E+08         0.45118E+04         0.00000E+00
    0.45118E+04        -0.49999E+08         0.00000E+00
    0.00000E+00         0.00000E+00        -0.50000E+08
 
   -0.49987E+08         0.47837E+04         0.00000E+00
    0.47837E+04        -0.49999E+08         0.00000E+00
    0.00000E+00         0.00000E+00        -0.50000E+08
 
   -0.49988E+08         0.50516E+04         0.00000E+00
    0.50516E+04        -0.49999E+08         0.00000E+00
    0.00000E+00         0.00000E+00        -0.50000E+08
 
   -0.49988E+08         0.53153E+04         0.00000E+00
    0.53153E+04        -0.49999E+08         0.00000E+00
    0.00000E+00         0.00000E+00        -0.50000E+08
 
   -0.49988E+08         0.55743E+04         0.00000E+00
    0.55743E+04        -0.49999E+08         0.00000E+00
    0.00000E+00         0.00000E+00        -0.50000E+08
 
   -0.49988E+08         0.58286E+04         0.00000E+00
    0.58286E+04        -0.49998E+08         0.00000E+00
    0.00000E+00         0.00000E+00        -0.50000E+08
 
   -0.49988E+08         0.60777E+04         0.00000E+00
    0.60777E+04        -0.49998E+08         0.00000E+00
    0.00000E+00         0.00000E+00        -0.50000E+08
 
   -0.49989E+08         0.63215E+04         0.00000E+00
    0.63215E+04        -0.49998E+08         0.00000E+00
    0.00000E+00         0.00000E+00        -0.50000E+08
 
   -0.49989E+08         0.65597E+04         0.00000E+00
    0.65597E+04        -0.49998E+08         0.00000E+00
    0.00000E+00         0.00000E+00        -0.50000E+08
 
   -0.49989E+08         0.67920E+04         0.00000E+00
    0.67920E+04        -0.49998E+08         0.00000E+00
    0.00000E+00         0.00000E+00        -0.50000E+08
 
   -0.49990E+08         0.70182E+04         0.00000E+00
    0.70182E+04        -0.49998E+08         0.00000E+00
    0.00000E+00         0.00000E+00        -0.50000E+08
 
   -0.49990E+08         0.72381E+04         0.00000E+00
    0.72381E+04        -0.49997E+08         0.00000E+00
    0.00000E+00         0.00000E+00        -0.50000E+08
 
   -0.49990E+08         0.74513E+04         0.00000E+00
    0.74513E+04        -0.49997E+08         0.00000E+00
    0.00000E+00         0.00000E+00        -0.50000E+08
 
   -0.49990E+08         0.76577E+04         0.00000E+00
    0.76577E+04        -0.49997E+08         0.00000E+00
    0.00000E+00         0.00000E+00        -0.50000E+08
 
   -0.49991E+08         0.78571E+04         0.00000E+00
    0.78571E+04        -0.49997E+08         0.00000E+00
    0.00000E+00         0.00000E+00        -0.50000E+08
 
   -0.49991E+08         0.80492E+04         0.00000E+00
    0.80492E+04        -0.49997E+08         0.00000E+00
    0.00000E+00         0.00000E+00        -0.50000E+08
 
   -0.49992E+08         0.82337E+04         0.00000E+00
    0.82337E+04        -0.49996E+08         0.00000E+00
    0.00000E+00         0.00000E+00        -0.50000E+08
 
   -0.49992E+08         0.84106E+04         0.00000E+00
    0.84106E+04        -0.49996E+08         0.00000E+00
    0.00000E+00         0.00000E+00        -0.50000E+08
 
   -0.49992E+08         0.85795E+04         0.00000E+00
    0.85795E+04        -0.49996E+08         0.00000E+00
    0.00000E+00         0.00000E+00        -0.50000E+08
 
   -0.49993E+08         0.87404E+04         0.00000E+00
    0.87404E+04        -0.49996E+08         0.00000E+00
    0.00000E+00         0.00000E+00        -0.50000E+08
 
   -0.49993E+08         0.88929E+04         0.00000E+00
    0.88929E+04        -0.49996E+08         0.00000E+00
    0.00000E+00         0.00000E+00        -0.50000E+08
 
   -0.49993E+08         0.90369E+04         0.00000E+00
    0.90369E+04        -0.49995E+08         0.00000E+00
    0.00000E+00         0.00000E+00        -0.50000E+08
 
   -0.49994E+08         0.91722E+04         0.00000E+00
    0.91722E+04        -0.49995E+08         0.00000E+00
    0.00000E+00         0.00000E+00        -0.50000E+08
 
   -0.49994E+08         0.92986E+04         0.00000E+00
    0.92986E+04        -0.49995E+08         0.00000E+00
    0.00000E+00         0.00000E+00        -0.50000E+08
 
   -0.49995E+08         0.94160E+04         0.00000E+00
    0.94160E+04        -0.49995E+08         0.00000E+00
    0.00000E+00         0.00000E+00        -0.50000E+08
 
   -0.49995E+08         0.95242E+04         0.00000E+00
    0.95242E+04        -0.49994E+08         0.00000E+00
    0.00000E+00         0.00000E+00        -0.50000E+08
 
   -0.49996E+08         0.96230E+04         0.00000E+00
    0.96230E+04        -0.49994E+08         0.00000E+00
    0.00000E+00         0.00000E+00        -0.50000E+08
 
   -0.49996E+08         0.97123E+04         0.00000E+00
    0.97123E+04        -0.49994E+08         0.00000E+00
    0.00000E+00         0.00000E+00        -0.50000E+08
 
   -0.49997E+08         0.97920E+04         0.00000E+00
    0.97920E+04        -0.49994E+08         0.00000E+00
    0.00000E+00         0.00000E+00        -0.50000E+08
 
   -0.49997E+08         0.98619E+04         0.00000E+00
    0.98619E+04        -0.49994E+08         0.00000E+00
    0.00000E+00         0.00000E+00        -0.50000E+08
 
   -0.49998E+08         0.99218E+04         0.00000E+00
    0.99218E+04        -0.49993E+08         0.00000E+00
    0.00000E+00         0.00000E+00        -0.50000E+08
 
   -0.49998E+08         0.99717E+04         0.00000E+00
    0.99717E+04        -0.49993E+08         0.00000E+00
    0.00000E+00         0.00000E+00        -0.50000E+08
 
   -0.49999E+08         0.10011E+05         0.00000E+00
    0.10011E+05        -0.49993E+08         0.00000E+00
    0.00000E+00         0.00000E+00        -0.50000E+08
 
   -0.49999E+08         0.10041E+05         0.00000E+00
    0.10041E+05        -0.49993E+08         0.00000E+00
    0.00000E+00         0.00000E+00        -0.50000E+08
 
   -0.50000E+08         0.10060E+05         0.00000E+00
    0.10060E+05        -0.49992E+08         0.00000E+00
    0.00000E+00         0.00000E+00        -0.50000E+08
 
   -0.49985E+08         0.16721E+03         0.00000E+00
    0.16721E+03        -0.50000E+08         0.00000E+00
    0.00000E+00         0.00000E+00        -0.50000E+08
 
   -0.49985E+08         0.50409E+03         0.00000E+00
    0.50409E+03        -0.50000E+08         0.00000E+00
    0.00000E+00         0.00000E+00        -0.50000E+08
 
   -0.49985E+08         0.84139E+03         0.00000E+00
    0.84139E+03        -0.50000E+08         0.00000E+00
    0.00000E+00         0.00000E+00        -0.50000E+08
 
   -0.49985E+08         0.11788E+04         0.00000E+00
    0.11788E+04        -0.50000E+08         0.00000E+00
    0.00000E+00         0.00000E+00        -0.50000E+08
 
   -0.49985E+08         0.15159E+04         0.00000E+00
    0.15159E+04        -0.50000E+08         0.00000E+00
    0.00000E+00         0.00000E+00        -0.50000E+08
 
   -0.49985E+08         0.18525E+04         0.00000E+00
    0.18525E+04        -0.50000E+08         0.00000E+00
    0.00000E+00         0.00000E+00        -0.50000E+08
 
   -0.49985E+08         0.21880E+04         0.00000E+00
    0.21880E+04        -0.50000E+08         0.00000E+00
    0.00000E+00         0.00000E+00        -0.50000E+08
 
   -0.49985E+08         0.25224E+04         0.00000E+00
    0.25224E+04        -0.50000E+08         0.00000E+00
    0.00000E+00         0.00000E+00        -0.50000E+08
 
   -0.49985E+08         0.28550E+04         0.00000E+00
    0.28550E+04        -0.50000E+08         0.00000E+00
    0.00000E+00         0.00000E+00        -0.50000E+08
 
   -0.49985E+08         0.31858E+04         0.00000E+00
    0.31858E+04        -0.50000E+08         0.00000E+00
    0.00000E+00         0.00000E+00        -0.50000E+08
 
   -0.49985E+08         0.35142E+04         0.00000E+00
    0.35142E+04        -0.50000E+08         0.00000E+00
    0.00000E+00         0.00000E+00        -0.50000E+08
 
   -0.49985E+08         0.38400E+04         0.00000E+00
    0.38400E+04        -0.49999E+08         0.00000E+00
    0.00000E+00         0.00000E+00        -0.50000E+08
 
   -0.49985E+08         0.41629E+04         0.00000E+00
    0.41629E+04        -0.49999E+08         0.00000E+00
    0.00000E+00         0.00000E+00        -0.50000E+08
 
   -0.49985E+08         0.44825E+04         0.00000E+00
    0.44825E+04        -0.49999E+08         0.00000E+00
    0.00000E+00         0.00000E+00        -0.50000E+08
 
   -0.49986E+08         0.47984E+04         0.00000E+00
    0.47984E+04        -0.49999E+08         0.00000E+00
    0.00000E+00         0.00000E+00        -0.50000E+08
 
   -0.49986E+08         0.51105E+04         0.00000E+00
    0.51105E+04        -0.49999E+08         0.00000E+00
    0.00000E+00         0.00000E+00        -0.50000E+08
 
   -0.49986E+08         0.54182E+04         0.00000E+00
    0.54182E+04        -0.49999E+08         0.00000E+00
    0.00000E+00         0.00000E+00        -0.50000E+08
 
   -0.49986E+08         0.57215E+04         0.00000E+00
    0.57215E+04        -0.49999E+08         0.00000E+00
    0.00000E+00         0.00000E+00        -0.50000E+08
 
   -0.49986E+08         0.60198E+04         0.00000E+00
    0.60198E+04        -0.49999E+08         0.00000E+00
    0.00000E+00         0.00000E+00        -0.50000E+08
 
   -0.49987E+08         0.63130E+04         0.00000E+00
    0.63130E+04        -0.49998E+08         0.00000E+00
    0.00000E+00         0.00000E+00        -0.50000E+08
 
   -0.49987E+08         0.66007E+04         0.00000E+00
    0.66007E+04        -0.49998E+08         0.00000E+00
    0.00000E+00         0.00000E+00        -0.50000E+08
 
   -0.49987E+08         0.68826E+04         0.00000E+00
    0.68826E+04        -0.49998E+08         0.00000E+00
    0.00000E+00         0.00000E+00        -0.50000E+08
 
   -0.49987E+08         0.71585E+04         0.00000E+00
    0.71585E+04        -0.49998E+08         0.00000E+00
    0.00000E+00         0.00000E+00        -0.50000E+08
 
   -0.49988E+08         0.74280E+04         0.00000E+00
    0.74280E+04        -0.49998E+08         0.00000E+00
    0.00000E+00         0.00000E+00        -0.50000E+08
 
   -0.49988E+08         0.76908E+04         0.00000E+00
    0.76908E+04        -0.49998E+08         0.00000E+00
    0.00000E+00         0.00000E+00        -0.50000E+08
 
   -0.49988E+08         0.79468E+04         0.00000E+00
    0.79468E+04        -0.49997E+08         0.00000E+00
    0.00000E+00         0.00000E+00        -0.50000E+08
 
   -0.49989E+08         0.81955E+04         0.00000E+00
    0.81955E+04        -0.49997E+08         0.00000E+00
    0.00000E+00         0.00000E+00        -0.50000E+08
 
   -0.49989E+08         0.84367E+04         0.00000E+00
    0.84367E+04        -0.49997E+08         0.00000E+00
    0.00000E+00         0.00000E+00        -0.50000E+08
 
   -0.49989E+08         0.86703E+04         0.00000E+00
    0.86703E+04        -0.49997E+08         0.00000E+00
    0.00000E+00         0.00000E+00        -0.50000E+08
 
   -0.49990E+08         0.88958E+04         0.00000E+00
    0.88958E+04        -0.49997E+08         0.00000E+00
    0.00000E+00         0.00000E+00        -0.50000E+08
 
   -0.49990E+08         0.91132E+04         0.00000E+00
    0.91132E+04        -0.49996E+08         0.00000E+00
    0.00000E+00         0.00000E+00        -0.50000E+08
 
   -0.49991E+08         0.93220E+04         0.00000E+00
    0.93220E+04        -0.49996E+08         0.00000E+00
    0.00000E+00         0.00000E+00        -0.50000E+08
 
   -0.49991E+08         0.95221E+04         0.00000E+00
    0.95221E+04        -0.49996E+08         0.00000E+00
    0.00000E+00         0.00000E+00        -0.50000E+08
 
   -0.49991E+08         0.97133E+04         0.00000E+00
    0.97133E+04        -0.49996E+08         0.00000E+00
    0.00000E+00         0.00000E+00        -0.50000E+08
 
   -0.49992E+08         0.98953E+04         0.00000E+00
    0.98953E+04        -0.49995E+08         0.00000E+00
    0.00000E+00         0.00000E+00        -0.50000E+08
 
   -0.49992E+08         0.10068E+05         0.00000E+00
    0.10068E+05        -0.49995E+08         0.00000E+00
    0.00000E+00         0.00000E+00        -0.50000E+08
 
   -0.49993E+08         0.10231E+05         0.00000E+00
    0.10231E+05        -0.49995E+08         0.00000E+00
    0.00000E+00         0.00000E+00        -0.50000E+08
 
   -0.49993E+08         0.10384E+05         0.00000E+00
    0.10384E+05        -0.49995E+08         0.00000E+00
    0.00000E+00         0.00000E+00        -0.50000E+08
 
   -0.49994E+08         0.10527E+05         0.00000E+00
    0.10527E+05        -0.49994E+08         0.00000E+00
    0.00000E+00         0.00000E+00        -0.50000E+08
 
   -0.49994E+08         0.10660E+05         0.00000E+00
    0.10660E+05        -0.49994E+08         0.00000E+00
    0.00000E+00         0.00000E+00        -0.50000E+08
 
   -0.49995E+08         0.10783E+05         0.00000E+00
    0.10783E+05        -0.49994E+08         0.00000E+00
    0.00000E+00         0.00000E+00        -0.50000E+08
 
   -0.49995E+08         0.10895E+05         0.00000E+00
    0.10895E+05        -0.49994E+08         0.00000E+00
    0.00000E+00         0.00000E+00        -0.50000E+08
 
   -0.49996E+08         0.10996E+05         0.00000E+00
    0.10996E+05        -0.49993E+08         0.00000E+00
    0.00000E+00         0.00000E+00        -0.50000E+08
 
   -0.49996E+08         0.11086E+05         0.00000E+00
    0.11086E+05        -0.49993E+08         0.00000E+00
    0.00000E+00         0.00000E+00        -0.50000E+08
 
   -0.49997E+08         0.11166E+05         0.00000E+00
    0.11166E+05        -0.49993E+08         0.00000E+00
    0.00000E+00         0.00000E+00        -0.50000E+08
 
   -0.49997E+08         0.11234E+05         0.00000E+00
    0.11234E+05        -0.49993E+08         0.00000E+00
    0.00000E+00         0.00000E+00        -0.50000E+08
 
   -0.49998E+08         0.11291E+05         0.00000E+00
    0.11291E+05        -0.49992E+08         0.00000E+00
    0.00000E+00         0.00000E+00        -0.50000E+08
 
   -0.49998E+08         0.11336E+05         0.00000E+00
    0.11336E+05        -0.49992E+08         0.00000E+00
    0.00000E+00         0.00000E+00        -0.50000E+08
 
   -0.49999E+08         0.11370E+05         0.00000E+00
    0.11370E+05        -0.49992E+08         0.00000E+00
    0.00000E+00         0.00000E+00        -0.50000E+08
 
   -0.49999E+08         0.11392E+05         0.00000E+00
    0.11392E+05        -0.49991E+08         0.00000E+00
    0.00000E+00         0.00000E+00        -0.50000E+08
 
   -0.49983E+08         0.18921E+03         0.00000E+00
    0.18921E+03        -0.50000E+08         0.00000E+00
    0.00000E+00         0.00000E+00        -0.50000E+08
 
   -0.49983E+08         0.57025E+03         0.00000E+00
    0.57025E+03        -0.50000E+08         0.00000E+00
    0.00000E+00         0.00000E+00        -0.50000E+08
 
   -0.49983E+08         0.95172E+03         0.00000E+00
    0.95172E+03        -0.50000E+08         0.00000E+00
    0.00000E+00         0.00000E+00        -0.50000E+08
 
   -0.49983E+08         0.13332E+04         0.00000E+00
    0.13332E+04        -0.50000E+08         0.00000E+00
    0.00000E+00         0.00000E+00        -0.50000E+08
 
   -0.49983E+08         0.17144E+04         0.00000E+00
    0.17144E+04        -0.50000E+08         0.00000E+00
    0.00000E+00         0.00000E+00        -0.50000E+08
 
   -0.49983E+08         0.20949E+04         0.00000E+00
    0.20949E+04        -0.50000E+08         0.00000E+00
    0.00000E+00         0.00000E+00        -0.50000E+08
 
   -0.49983E+08         0.24742E+04         0.00000E+00
    0.24742E+04        -0.50000E+08         0.00000E+00
    0.00000E+00         0.00000E+00        -0.50000E+08
 
   -0.49983E+08         0.28521E+04         0.00000E+00
    0.28521E+04        -0.50000E+08         0.00000E+00
    0.00000E+00         0.00000E+00        -0.50000E+08
 
   -0.49983E+08         0.32280E+04         0.00000E+00
    0.32280E+04        -0.50000E+08         0.00000E+00
    0.00000E+00         0.00000E+00        -0.50000E+08
 
   -0.49983E+08         0.36018E+04         0.00000E+00
    0.36018E+04        -0.50000E+08         0.00000E+00
    0.00000E+00         0.00000E+00        -0.50000E+08
 
   -0.49983E+08         0.39729E+04         0.00000E+00
    0.39729E+04        -0.49999E+08         0.00000E+00
    0.00000E+00         0.00000E+00        -0.50000E+08
 
   -0.49983E+08         0.43410E+04         0.00000E+00
    0.43410E+04        -0.49999E+08         0.00000E+00
    0.00000E+00         0.00000E+00        -0.50000E+08
 
   -0.49984E+08         0.47057E+04         0.00000E+00
    0.47057E+04        -0.49999E+08         0.00000E+00
    0.00000E+00         0.00000E+00        -0.50000E+08
 
   -0.49984E+08         0.50667E+04         0.00000E+00
    0.50667E+04        -0.49999E+08         0.00000E+00
    0.00000E+00         0.00000E+00        -0.50000E+08
 
   -0.49984E+08         0.54235E+04         0.00000E+00
    0.54235E+04        -0.49999E+08         0.00000E+00
    0.00000E+00         0.00000E+00        -0.50000E+08
 
   -0.49984E+08         0.57759E+04         0.00000E+00
    0.57759E+04        -0.49999E+08         0.00000E+00
    0.00000E+00         0.00000E+00        -0.50000E+08
 
   -0.49984E+08         0.61235E+04         0.00000E+00
    0.61235E+04        -0.49999E+08         0.00000E+00
    0.00000E+00         0.00000E+00        -0.50000E+08
 
   -0.49985E+08         0.64660E+04         0.00000E+00
    0.64660E+04        -0.49999E+08         0.00000E+00
    0.00000E+00         0.00000E+00        -0.50000E+08
 
   -0.49985E+08         0.68029E+04         0.00000E+00
    0.68029E+04        -0.49998E+08         0.00000E+00
    0.00000E+00         0.00000E+00        -0.50000E+08
 
   -0.49985E+08         0.71339E+04         0.00000E+00
    0.71339E+04        -0.49998E+08         0.00000E+00
    0.00000E+00         0.00000E+00        -0.50000E+08
 
   -0.49985E+08         0.74587E+04         0.00000E+00
    0.74587E+04        -0.49998E+08         0.00000E+00
    0.00000E+00         0.00000E+00        -0.50000E+08
 
   -0.49986E+08         0.77770E+04         0.00000E+00
    0.77770E+04        -0.49998E+08         0.00000E+00
    0.00000E+00         0.00000E+00        -0.50000E+08
 
   -0.49986E+08         0.80884E+04         0.00000E+00
    0.80884E+04        -0.49998E+08         0.00000E+00
    0.00000E+00         0.00000E+00        -0.50000E+08
 
   -0.49986E+08         0.83927E+04         0.00000E+00
    0.83927E+04        -0.49998E+08         0.00000E+00
    0.00000E+00         0.00000E+00        -0.50000E+08
 
   -0.49987E+08         0.86894E+04         0.00000E+00
    0.86894E+04        -0.49997E+08         0.00000E+00
    0.00000E+00         0.00000E+00        -0.50000E+08
 
   -0.49987E+08         0.89783E+04         0.00000E+00
    0.89783E+04        -0.49997E+08         0.00000E+00
    0.00000E+00         0.00000E+00        -0.50000E+08
 
   -0.49987E+08         0.92591E+04         0.00000E+00
    0.92591E+04        -0.49997E+08         0.00000E+00
    0.00000E+00         0.00000E+00        -0.50000E+08
 
   -0.49988E+08         0.95315E+04         0.00000E+00
    0.95315E+04        -0.49997E+08         0.00000E+00
    0.00000E+00         0.00000E+00        -0.50000E+08
 
   -0.49988E+08         0.97951E+04         0.00000E+00
    0.97951E+04        -0.49996E+08         0.00000E+00
    0.00000E+00         0.00000E+00        -0.50000E+08
 
   -0.49989E+08         0.10050E+05         0.00000E+00
    0.10050E+05        -0.49996E+08         0.00000E+00
    0.00000E+00         0.00000E+00        -0.50000E+08
 
   -0.49989E+08         0.10295E+05         0.00000E+00
    0.10295E+05        -0.49996E+08         0.00000E+00
    0.00000E+00         0.00000E+00        -0.50000E+08
 
   -0.49989E+08         0.10531E+05         0.00000E+00
    0.10531E+05        -0.49996E+08         0.00000E+00
    0.00000E+00         0.00000E+00        -0.50000E+08
 
   -0.49990E+08         0.10757E+05         0.00000E+00
    0.10757E+05        -0.49995E+08         0.00000E+00
    0.00000E+00         0.00000E+00        -0.50000E+08
 
   -0.49990E+08         0.10973E+05         0.00000E+00
    0.10973E+05        -0.49995E+08         0.00000E+00
    0.00000E+00         0.00000E+00        -0.50000E+08
 
   -0.49991E+08         0.11178E+05         0.00000E+00
    0.11178E+05        -0.49995E+08         0.00000E+00
    0.00000E+00         0.00000E+00        -0.50000E+08
 
   -0.49991E+08         0.11373E+05         0.00000E+00
    0.11373E+05        -0.49995E+08         0.00000E+00
    0.00000E+00         0.00000E+00        -0.50000E+08
 
   -0.49992E+08         0.11557E+05         0.00000E+00
    0.11557E+05        -0.49994E+08         0.00000E+00
    0.00000E+00         0.00000E+00        -0.50000E+08
 
   -0.49992E+08         0.11730E+05         0.00000E+00
    0.11730E+05        -0.49994E+08         0.00000E+00
    0.00000E+00         0.00000E+00        -0.50000E+08
 
   -0.49993E+08         0.11892E+05         0.00000E+00
    0.11892E+05        -0.49994E+08         0.00000E+00
    0.00000E+00         0.00000E+00        -0.50000E+08
 
   -0.49993E+08         0.12042E+05         0.00000E+00
    0.12042E+05        -0.49993E+08         0.00000E+00
    0.00000E+00         0.00000E+00        -0.50000E+08
 
   -0.49994E+08         0.12181E+05         0.00000E+00
    0.12181E+05        -0.49993E+08         0.00000E+00
    0.00000E+00         0.00000E+00        -0.50000E+08
 
   -0.49995E+08         0.12308E+05         0.00000E+00
    0.12308E+05        -0.49993E+08         0.00000E+00
    0.00000E+00         0.00000E+00        -0.50000E+08
 
   -0.49995E+08         0.12422E+05         0.00000E+00
    0.12422E+05        -0.49993E+08         0.00000E+00
    0.00000E+00         0.00000E+00        -0.50000E+08
 
   -0.49996E+08         0.12525E+05         0.00000E+00
    0.12525E+05        -0.49992E+08         0.00000E+00
    0.00000E+00         0.00000E+00        -0.50000E+08
 
   -0.49996E+08         0.12614E+05         0.00000E+00
    0.12614E+05        -0.49992E+08         0.00000E+00
    0.00000E+00         0.00000E+00        -0.50000E+08
 
   -0.49997E+08         0.12692E+05         0.00000E+00
    0.12692E+05        -0.49992E+08         0.00000E+00
    0.00000E+00         0.00000E+00        -0.50000E+08
 
   -0.49998E+08         0.12756E+05         0.00000E+00
    0.12756E+05        -0.49991E+08         0.00000E+00
    0.00000E+00         0.00000E+00        -0.50000E+08
 
   -0.49998E+08         0.12808E+05         0.00000E+00
    0.12808E+05        -0.49991E+08         0.00000E+00
    0.00000E+00         0.00000E+00        -0.50000E+08
 
   -0.49999E+08         0.12846E+05         0.00000E+00
    0.12846E+05        -0.49991E+08         0.00000E+00
    0.00000E+00         0.00000E+00        -0.50000E+08
 
   -0.49999E+08         0.12872E+05         0.00000E+00
    0.12872E+05        -0.49990E+08         0.00000E+00
    0.00000E+00         0.00000E+00        -0.50000E+08
 
   -0.49981E+08         0.21374E+03         0.00000E+00
    0.21374E+03        -0.50000E+08         0.00000E+00
    0.00000E+00         0.00000E+00        -0.50000E+08
 
   -0.49981E+08         0.64400E+03         0.00000E+00
    0.64400E+03        -0.50000E+08         0.00000E+00
    0.00000E+00         0.00000E+00        -0.50000E+08
 
   -0.49981E+08         0.10747E+04         0.00000E+00
    0.10747E+04        -0.50000E+08         0.00000E+00
    0.00000E+00         0.00000E+00        -0.50000E+08
 
   -0.49981E+08         0.15053E+04         0.00000E+00
    0.15053E+04        -0.50000E+08         0.00000E+00
    0.00000E+00         0.00000E+00        -0.50000E+08
 
   -0.49981E+08         0.19356E+04         0.00000E+00
    0.19356E+04        -0.50000E+08         0.00000E+00
    0.00000E+00         0.00000E+00        -0.50000E+08
 
   -0.49981E+08         0.23649E+04         0.00000E+00
    0.23649E+04        -0.50000E+08         0.00000E+00
    0.00000E+00         0.00000E+00        -0.50000E+08
 
   -0.49981E+08         0.27930E+04         0.00000E+00
    0.27930E+04        -0.50000E+08         0.00000E+00
    0.00000E+00         0.00000E+00        -0.50000E+08
 
   -0.49981E+08         0.32193E+04         0.00000E+00
    0.32193E+04        -0.50000E+08         0.00000E+00
    0.00000E+00         0.00000E+00        -0.50000E+08
 
   -0.49981E+08         0.36434E+04         0.00000E+00
    0.36434E+04        -0.50000E+08         0.00000E+00
    0.00000E+00         0.00000E+00        -0.50000E+08
 
   -0.49981E+08         0.40650E+04         0.00000E+00
    0.40650E+04        -0.50000E+08         0.00000E+00
    0.00000E+00         0.00000E+00        -0.50000E+08
 
   -0.49981E+08         0.44835E+04         0.00000E+00
    0.44835E+04        -0.49999E+08         0.00000E+00
    0.00000E+00         0.00000E+00        -0.50000E+08
 
   -0.49981E+08         0.48986E+04         0.00000E+00
    0.48986E+04        -0.49999E+08         0.00000E+00
    0.00000E+00         0.00000E+00        -0.50000E+08
 
   -0.49982E+08         0.53099E+04         0.00000E+00
    0.53099E+04        -0.49999E+08         0.00000E+00
    0.00000E+00         0.00000E+00        -0.50000E+08
 
   -0.49982E+08         0.57169E+04         0.00000E+00
    0.57169E+04        -0.49999E+08         0.00000E+00
    0.00000E+00         0.00000E+00        -0.50000E+08
 
   -0.49982E+08         0.61193E+04         0.00000E+00
    0.61193E+04        -0.49999E+08         0.00000E+00
    0.00000E+00         0.00000E+00        -0.50000E+08
 
   -0.49982E+08         0.65166E+04         0.00000E+00
    0.65166E+04        -0.49999E+08         0.00000E+00
    0.00000E+00         0.00000E+00        -0.50000E+08
 
   -0.49982E+08         0.69084E+04         0.00000E+00
    0.69084E+04        -0.49999E+08         0.00000E+00
    0.00000E+00         0.00000E+00        -0.50000E+08
 
   -0.49983E+08         0.72944E+04         0.00000E+00
    0.72944E+04        -0.49998E+08         0.00000E+00
    0.00000E+00         0.00000E+00        -0.50000E+08
 
   -0.49983E+08         0.76741E+04         0.00000E+00
    0.76741E+04        -0.49998E+08         0.00000E+00
    0.00000E+00         0.00000E+00        -0.50000E+08
 
   -0.49983E+08         0.80472E+04         0.00000E+00
    0.80472E+04        -0.49998E+08         0.00000E+00
    0.00000E+00         0.00000E+00        -0.50000E+08
 
   -0.49984E+08         0.84133E+04         0.00000E+00
    0.84133E+04        -0.49998E+08         0.00000E+00
    0.00000E+00         0.00000E+00        -0.50000E+08
 
   -0.49984E+08         0.87720E+04         0.00000E+00
    0.87720E+04        -0.49998E+08         0.00000E+00
    0.00000E+00         0.00000E+00        -0.50000E+08
 
   -0.49984E+08         0.91230E+04         0.00000E+00
    0.91230E+04        -0.49997E+08         0.00000E+00
    0.00000E+00         0.00000E+00        -0.50000E+08
 
   -0.49985E+08         0.94658E+04         0.00000E+00
    0.94658E+04        -0.49997E+08         0.00000E+00
    0.00000E+00         0.00000E+00        -0.50000E+08
 
   -0.49985E+08         0.98002E+04         0.00000E+00
    0.98002E+04        -0.49997E+08         0.00000E+00
    0.00000E+00         0.00000E+00        -0.50000E+08
 
   -0.49985E+08         0.10126E+05         0.00000E+00
    0.10126E+05        -0.49997E+08         0.00000E+00
    0.00000E+00         0.00000E+00        -0.50000E+08
 
   -0.49986E+08         0.10442E+05         0.00000E+00
    0.10442E+05        -0.49997E+08         0.00000E+00
    0.00000E+00         0.00000E+00        -0.50000E+08
 
   -0.49986E+08         0.10749E+05         0.00000E+00
    0.10749E+05        -0.49996E+08         0.00000E+00
    0.00000E+00         0.00000E+00        -0.50000E+08
 
   -0.49987E+08         0.11046E+05         0.00000E+00
    0.11046E+05        -0.49996E+08         0.00000E+00
    0.00000E+00         0.00000E+00        -0.50000E+08
 
   -0.49987E+08         0.11333E+05         0.00000E+00
    0.11333E+05        -0.49996E+08         0.00000E+00
    0.00000E+00         0.00000E+00        -0.50000E+08
 
   -0.49988E+08         0.11610E+05         0.00000E+00
    0.11610E+05        -0.49995E+08         0.00000E+00
    0.00000E+00         0.00000E+00        -0.50000E+08
 
   -0.49988E+08         0.11875E+05         0.00000E+00
    0.11875E+05        -0.49995E+08         0.00000E+00
    0.00000E+00         0.00000E+00        -0.50000E+08
 
   -0.49989E+08         0.12130E+05         0.00000E+00
    0.12130E+05        -0.49995E+08         0.00000E+00
    0.00000E+00         0.00000E+00        -0.50000E+08
 
   -0.49989E+08         0.12373E+05         0.00000E+00
    0.12373E+05        -0.49995E+08         0.00000E+00
    0.00000E+00         0.00000E+00        -0.50000E+08
 
   -0.49990E+08         0.12605E+05         0.00000E+00
    0.12605E+05        -0.49994E+08         0.00000E+00
    0.00000E+00         0.00000E+00        -0.50000E+08
 
   -0.49990E+08         0.12825E+05         0.00000E+00
    0.12825E+05        -0.49994E+08         0.00000E+00
    0.00000E+00         0.00000E+00        -0.50000E+08
 
   -0.49991E+08         0.13032E+05         0.00000E+00
    0.13032E+05        -0.49994E+08         0.00000E+00
    0.00000E+00         0.00000E+00        -0.50000E+08
 
   -0.49992E+08         0.13228E+05         0.00000E+00
    0.13228E+05        -0.49993E+08         0.00000E+00
    0.00000E+00         0.00000E+00        -0.50000E+08
 
   -0.49992E+08         0.13410E+05         0.00000E+00
    0.13410E+05        -0.49993E+08         0.00000E+00
    0.00000E+00         0.00000E+00        -0.50000E+08
 
   -0.49993E+08         0.13580E+05         0.00000E+00
    0.13580E+05        -0.49993E+08         0.00000E+00
    0.00000E+00         0.00000E+00        -0.50000E+08
 
   -0.49993E+08         0.13736E+05         0.00000E+00
    0.13736E+05        -0.49992E+08         0.00000E+00
    0.00000E+00         0.00000E+00        -0.50000E+08
 
   -0.49994E+08         0.13879E+05         0.00000E+00
    0.13879E+05        -0.49992E+08         0.00000E+00
    0.00000E+00         0.00000E+00        -0.50000E+08
 
   -0.49995E+08         0.14009E+05         0.00000E+00
    0.14009E+05        -0.49992E+08         0.00000E+00
    0.00000E+00         0.00000E+00        -0.50000E+08
 
   -0.49995E+08         0.14124E+05         0.00000E+00
    0.14124E+05        -0.49991E+08         0.00000E+00
    0.00000E+00         0.00000E+00        -0.50000E+08
 
   -0.49996E+08         0.14226E+05         0.00000E+00
    0.14226E+05        -0.49991E+08         0.00000E+00
    0.00000E+00         0.00000E+00        -0.50000E+08
 
   -0.49997E+08         0.14314E+05         0.00000E+00
    0.14314E+05        -0.49991E+08         0.00000E+00
    0.00000E+00         0.00000E+00        -0.50000E+08
 
   -0.49997E+08         0.14387E+05         0.00000E+00
    0.14387E+05        -0.49990E+08         0.00000E+00
    0.00000E+00         0.00000E+00        -0.50000E+08
 
   -0.49998E+08         0.14446E+05         0.00000E+00
    0.14446E+05        -0.49990E+08         0.00000E+00
    0.00000E+00         0.00000E+00        -0.50000E+08
 
   -0.49999E+08         0.14490E+05         0.00000E+00
    0.14490E+05        -0.49990E+08         0.00000E+00
    0.00000E+00         0.00000E+00        -0.50000E+08
 
   -0.49999E+08         0.14519E+05         0.00000E+00
    0.14519E+05        -0.49989E+08         0.00000E+00
    0.00000E+00         0.00000E+00        -0.50000E+08
 
   -0.49979E+08         0.24113E+03         0.00000E+00
    0.24113E+03        -0.50000E+08         0.00000E+00
    0.00000E+00         0.00000E+00        -0.50000E+08
 
   -0.49979E+08         0.72627E+03         0.00000E+00
    0.72627E+03        -0.50000E+08         0.00000E+00
    0.00000E+00         0.00000E+00        -0.50000E+08
 
   -0.49979E+08         0.12118E+04         0.00000E+00
    0.12118E+04        -0.50000E+08         0.00000E+00
    0.00000E+00         0.00000E+00        -0.50000E+08
 
   -0.49979E+08         0.16973E+04         0.00000E+00
    0.16973E+04        -0.50000E+08         0.00000E+00
    0.00000E+00         0.00000E+00        -0.50000E+08
 
   -0.49979E+08         0.21822E+04         0.00000E+00
    0.21822E+04        -0.50000E+08         0.00000E+00
    0.00000E+00         0.00000E+00        -0.50000E+08
 
   -0.49979E+08         0.26660E+04         0.00000E+00
    0.26660E+04        -0.50000E+08         0.00000E+00
    0.00000E+00         0.00000E+00        -0.50000E+08
 
   -0.49979E+08         0.31483E+04         0.00000E+00
    0.31483E+04        -0.50000E+08         0.00000E+00
    0.00000E+00         0.00000E+00        -0.50000E+08
 
   -0.49979E+08         0.36286E+04         0.00000E+00
    0.36286E+04        -0.50000E+08         0.00000E+00
    0.00000E+00         0.00000E+00        -0.50000E+08
 
   -0.49979E+08         0.41064E+04         0.00000E+00
    0.41064E+04        -0.50000E+08         0.00000E+00
    0.00000E+00         0.00000E+00        -0.50000E+08
 
   -0.49979E+08         0.45812E+04         0.00000E+00
    0.45812E+04        -0.49999E+08         0.00000E+00
    0.00000E+00         0.00000E+00        -0.50000E+08
 
   -0.49979E+08         0.50526E+04         0.00000E+00
    0.50526E+04        -0.49999E+08         0.00000E+00
    0.00000E+00         0.00000E+00        -0.50000E+08
 
   -0.49979E+08         0.55201E+04         0.00000E+00
    0.55201E+04        -0.49999E+08         0.00000E+00
    0.00000E+00         0.00000E+00        -0.50000E+08
 
   -0.49979E+08         0.59832E+04         0.00000E+00
    0.59832E+04        -0.49999E+08         0.00000E+00
    0.00000E+00         0.00000E+00        -0.50000E+08
 
   -0.49980E+08         0.64415E+04         0.00000E+00
    0.64415E+04        -0.49999E+08         0.00000E+00
    0.00000E+00         0.00000E+00        -0.50000E+08
 
   -0.49980E+08         0.68944E+04         0.00000E+00
    0.68944E+04        -0.49999E+08         0.00000E+00
    0.00000E+00         0.00000E+00        -0.50000E+08
 
   -0.49980E+08         0.73417E+04         0.00000E+00
    0.73417E+04        -0.49999E+08         0.00000E+00
    0.00000E+00         0.00000E+00        -0.50000E+08
 
   -0.49980E+08         0.77827E+04         0.00000E+00
    0.77827E+04        -0.49998E+08         0.00000E+00
    0.00000E+00         0.00000E+00        -0.50000E+08
 
   -0.49981E+08         0.82172E+04         0.00000E+00
    0.82172E+04        -0.49998E+08         0.00000E+00
    0.00000E+00         0.00000E+00        -0.50000E+08
 
   -0.49981E+08         0.86445E+04         0.00000E+00
    0.86445E+04        -0.49998E+08         0.00000E+00
    0.00000E+00         0.00000E+00        -0.50000E+08
 
   -0.49981E+08         0.90644E+04         0.00000E+00
    0.90644E+04        -0.49998E+08         0.00000E+00
    0.00000E+00         0.00000E+00        -0.50000E+08
 
   -0.49982E+08         0.94764E+04         0.00000E+00
    0.94764E+04        -0.49998E+08         0.00000E+00
    0.00000E+00         0.00000E+00        -0.50000E+08
 
   -0.49982E+08         0.98801E+04         0.00000E+00
    0.98801E+04        -0.49997E+08         0.00000E+00
    0.00000E+00         0.00000E+00        -0.50000E+08
 
   -0.49982E+08         0.10275E+05         0.00000E+00
    0.10275E+05        -0.49997E+08         0.00000E+00
    0.00000E+00         0.00000E+00        -0.50000E+08
 
   -0.49983E+08         0.10661E+05         0.00000E+00
    0.10661E+05        -0.49997E+08         0.00000E+00
    0.00000E+00         0.00000E+00        -0.50000E+08
 
   -0.49983E+08         0.11037E+05         0.00000E+00
    0.11037E+05        -0.49997E+08         0.00000E+00
    0.00000E+00         0.00000E+00        -0.50000E+08
 
   -0.49984E+08         0.11403E+05         0.00000E+00
    0.11403E+05        -0.49996E+08         0.00000E+00
    0.00000E+00         0.00000E+00        -0.50000E+08
 
   -0.49984E+08         0.11759E+05         0.00000E+00
    0.11759E+05        -0.49996E+08         0.00000E+00
    0.00000E+00         0.00000E+00        -0.50000E+08
 
   -0.49985E+08         0.12105E+05         0.00000E+00
    0.12105E+05        -0.49996E+08         0.00000E+00
    0.00000E+00         0.00000E+00        -0.50000E+08
 
   -0.49985E+08         0.12439E+05         0.00000E+00
    0.12439E+05        -0.49996E+08         0.00000E+00
    0.00000E+00         0.00000E+00        -0.50000E+08
 
   -0.49986E+08         0.12762E+05         0.00000E+00
    0.12762E+05        -0.49995E+08         0.00000E+00
    0.00000E+00         0.00000E+00        -0.50000E+08
 
   -0.49986E+08         0.13073E+05         0.00000E+00
    0.13073E+05        -0.49995E+08         0.00000E+00
    0.00000E+00         0.00000E+00        -0.50000E+08
 
   -0.49987E+08         0.13372E+05         0.00000E+00
    0.13372E+05        -0.49995E+08         0.00000E+00
    0.00000E+00         0.00000E+00        -0.50000E+08
 
   -0.49987E+08         0.13659E+05         0.00000E+00
    0.13659E+05        -0.49994E+08         0.00000E+00
    0.00000E+00         0.00000E+00        -0.50000E+08
 
   -0.49988E+08         0.13933E+05         0.00000E+00
    0.13933E+05        -0.49994E+08         0.00000E+00
    0.00000E+00         0.00000E+00        -0.50000E+08
 
   -0.49989E+08         0.14193E+05         0.00000E+00
    0.14193E+05        -0.49994E+08         0.00000E+00
    0.00000E+00         0.00000E+00        -0.50000E+08
 
   -0.49989E+08         0.14441E+05         0.00000E+00
    0.14441E+05        -0.49993E+08         0.00000E+00
    0.00000E+00         0.00000E+00        -0.50000E+08
 
   -0.49990E+08         0.14675E+05         0.00000E+00
    0.14675E+05        -0.49993E+08         0.00000E+00
    0.00000E+00         0.00000E+00        -0.50000E+08
 
   -0.49991E+08         0.14894E+05         0.00000E+00
    0.14894E+05        -0.49993E+08         0.00000E+00
    0.00000E+00         0.00000E+00        -0.50000E+08
 
   -0.49991E+08         0.15100E+05         0.00000E+00
    0.15100E+05        -0.49992E+08         0.00000E+00
    0.00000E+00         0.00000E+00        -0.50000E+08
 
   -0.49992E+08         0.15291E+05         0.00000E+00
    0.15291E+05        -0.49992E+08         0.00000E+00
    0.00000E+00         0.00000E+00        -0.50000E+08
 
   -0.49993E+08         0.15467E+05         0.00000E+00
    0.15467E+05        -0.49992E+08         0.00000E+00
    0.00000E+00         0.00000E+00        -0.50000E+08
 
   -0.49993E+08         0.15629E+05         0.00000E+00
    0.15629E+05        -0.49991E+08         0.00000E+00
    0.00000E+00         0.00000E+00        -0.50000E+08
 
   -0.49994E+08         0.15775E+05         0.00000E+00
    0.15775E+05        -0.49991E+08         0.00000E+00
    0.00000E+00         0.00000E+00        -0.50000E+08
 
   -0.49995E+08         0.15905E+05         0.00000E+00
    0.15905E+05        -0.49990E+08         0.00000E+00
    0.00000E+00         0.00000E+00        -0.50000E+08
 
   -0.49995E+08         0.16020E+05         0.00000E+00
    0.16020E+05        -0.49990E+08         0.00000E+00
    0.00000E+00         0.00000E+00        -0.50000E+08
 
   -0.49996E+08         0.16120E+05         0.00000E+00
    0.16120E+05        -0.49990E+08         0.00000E+00
    0.00000E+00         0.00000E+00        -0.50000E+08
 
   -0.49997E+08         0.16203E+05         0.00000E+00
    0.16203E+05        -0.49989E+08         0.00000E+00
    0.00000E+00         0.00000E+00        -0.50000E+08
 
   -0.49998E+08         0.16269E+05         0.00000E+00
    0.16269E+05        -0.49989E+08         0.00000E+00
    0.00000E+00         0.00000E+00        -0.50000E+08
 
   -0.49998E+08         0.16320E+05         0.00000E+00
    0.16320E+05        -0.49989E+08         0.00000E+00
    0.00000E+00         0.00000E+00        -0.50000E+08
 
   -0.49999E+08         0.16354E+05         0.00000E+00
    0.16354E+05        -0.49988E+08         0.00000E+00
    0.00000E+00         0.00000E+00        -0.50000E+08
 
   -0.49976E+08         0.27171E+03         0.00000E+00
    0.27171E+03        -0.50000E+08         0.00000E+00
    0.00000E+00         0.00000E+00        -0.49999E+08
 
   -0.49976E+08         0.81813E+03         0.00000E+00
    0.81813E+03        -0.50000E+08         0.00000E+00
    0.00000E+00         0.00000E+00        -0.49999E+08
 
   -0.49976E+08         0.13649E+04         0.00000E+00
    0.13649E+04        -0.50000E+08         0.00000E+00
    0.00000E+00         0.00000E+00        -0.49999E+08
 
   -0.49976E+08         0.19115E+04         0.00000E+00
    0.19115E+04        -0.50000E+08         0.00000E+00
    0.00000E+00         0.00000E+00        -0.49999E+08
 
   -0.49976E+08         0.24574E+04         0.00000E+00
    0.24574E+04        -0.50000E+08         0.00000E+00
    0.00000E+00         0.00000E+00        -0.49999E+08
 
   -0.49976E+08         0.30020E+04         0.00000E+00
    0.30020E+04        -0.50000E+08         0.00000E+00
    0.00000E+00         0.00000E+00        -0.49999E+08
 
   -0.49976E+08         0.35448E+04         0.00000E+00
    0.35448E+04        -0.50000E+08         0.00000E+00
    0.00000E+00         0.00000E+00        -0.49999E+08
 
   -0.49976E+08         0.40853E+04         0.00000E+00
    0.40853E+04        -0.50000E+08         0.00000E+00
    0.00000E+00         0.00000E+00        -0.49999E+08
 
   -0.49976E+08         0.46228E+04         0.00000E+00
    0.46228E+04        -0.50000E+08         0.00000E+00
    0.00000E+00         0.00000E+00        -0.49999E+08
 
   -0.49976E+08         0.51570E+04         0.00000E+00
    0.51570E+04        -0.49999E+08         0.00000E+00
    0.00000E+00         0.00000E+00        -0.49999E+08
 
   -0.49977E+08         0.56873E+04         0.00000E+00
    0.56873E+04        -0.49999E+08         0.00000E+00
    0.00000E+00         0.00000E+00        -0.49999E+08
 
   -0.49977E+08         0.62131E+04         0.00000E+00
    0.62131E+04        -0.49999E+08         0.00000E+00
    0.00000E+00         0.00000E+00        -0.49999E+08
 
   -0.49977E+08         0.67339E+04         0.00000E+00
    0.67339E+04        -0.49999E+08         0.00000E+00
    0.00000E+00         0.00000E+00        -0.49999E+08
 
   -0.49977E+08         0.72492E+04         0.00000E+00
    0.72492E+04        -0.49999E+08         0.00000E+00
    0.00000E+00         0.00000E+00        -0.49999E+08
 
   -0.49977E+08         0.77585E+04         0.00000E+00
    0.77585E+04        -0.49999E+08         0.00000E+00
    0.00000E+00         0.00000E+00        -0.49999E+08
 
   -0.49978E+08         0.82614E+04         0.00000E+00
    0.82614E+04        -0.49998E+08         0.00000E+00
    0.00000E+00         0.00000E+00        -0.49999E+08
 
   -0.49978E+08         0.87572E+04         0.00000E+00
    0.87572E+04        -0.49998E+08         0.00000E+00
    0.00000E+00         0.00000E+00        -0.49999E+08
 
   -0.49978E+08         0.92456E+04         0.00000E+00
    0.92456E+04        -0.49998E+08         0.00000E+00
    0.00000E+00         0.00000E+00        -0.49999E+08
 
   -0.49979E+08         0.97260E+04         0.00000E+00
    0.97260E+04        -0.49998E+08         0.00000E+00
    0.00000E+00         0.00000E+00        -0.49999E+08
 
   -0.49979E+08         0.10198E+05         0.00000E+00
    0.10198E+05        -0.49998E+08         0.00000E+00
    0.00000E+00         0.00000E+00        -0.49999E+08
 
   -0.49980E+08         0.10661E+05         0.00000E+00
    0.10661E+05        -0.49997E+08         0.00000E+00
    0.00000E+00         0.00000E+00        -0.49999E+08
 
   -0.49980E+08         0.11115E+05         0.00000E+00
    0.11115E+05        -0.49997E+08         0.00000E+00
    0.00000E+00         0.00000E+00        -0.49999E+08
 
   -0.49980E+08         0.11559E+05         0.00000E+00
    0.11559E+05        -0.49997E+08         0.00000E+00
    0.00000E+00         0.00000E+00        -0.49999E+08
 
   -0.49981E+08         0.11992E+05         0.00000E+00
    0.11992E+05        -0.49997E+08         0.00000E+00
    0.00000E+00         0.00000E+00        -0.49999E+08
 
   -0.49981E+08         0.12415E+05         0.00000E+00
    0.12415E+05        -0.49996E+08         0.00000E+00
    0.00000E+00         0.00000E+00        -0.49999E+08
 
   -0.49982E+08         0.12827E+05         0.00000E+00
    0.12827E+05        -0.49996E+08         0.00000E+00
    0.00000E+00         0.00000E+00        -0.49999E+08
 
   -0.49982E+08         0.13227E+05         0.00000E+00
    0.13227E+05        -0.49996E+08         0.00000E+00
    0.00000E+00         0.00000E+00        -0.49999E+08
 
   -0.49983E+08         0.13615E+05         0.00000E+00
    0.13615E+05        -0.49995E+08         0.00000E+00
    0.00000E+00         0.00000E+00        -0.49999E+08
 
   -0.49984E+08         0.13991E+05         0.00000E+00
    0.13991E+05        -0.49995E+08         0.00000E+00
    0.00000E+00         0.00000E+00        -0.49999E+08
 
   -0.49984E+08         0.14353E+05         0.00000E+00
    0.14353E+05        -0.49995E+08         0.00000E+00
    0.00000E+00         0.00000E+00        -0.49999E+08
 
   -0.49985E+08         0.14703E+05         0.00000E+00
    0.14703E+05        -0.49994E+08         0.00000E+00
    0.00000E+00         0.00000E+00        -0.49999E+08
 
   -0.49985E+08         0.15039E+05         0.00000E+00
    0.15039E+05        -0.49994E+08         0.00000E+00
    0.00000E+00         0.00000E+00        -0.49999E+08
 
   -0.49986E+08         0.15361E+05         0.00000E+00
    0.15361E+05        -0.49994E+08         0.00000E+00
    0.00000E+00         0.00000E+00        -0.49999E+08
 
   -0.49987E+08         0.15669E+05         0.00000E+00
    0.15669E+05        -0.49993E+08         0.00000E+00
    0.00000E+00         0.00000E+00        -0.49999E+08
 
   -0.49987E+08         0.15963E+05         0.00000E+00
    0.15963E+05        -0.49993E+08         0.00000E+00
    0.00000E+00         0.00000E+00        -0.49999E+08
 
   -0.49988E+08         0.16241E+05         0.00000E+00
    0.16241E+05        -0.49993E+08         0.00000E+00
    0.00000E+00         0.00000E+00        -0.49999E+08
 
   -0.49989E+08         0.16504E+05         0.00000E+00
    0.16504E+05        -0.49992E+08         0.00000E+00
    0.00000E+00         0.00000E+00        -0.49999E+08
 
   -0.49989E+08         0.16751E+05         0.00000E+00
    0.16751E+05        -0.49992E+08         0.00000E+00
    0.00000E+00         0.00000E+00        -0.49999E+08
 
   -0.49990E+08         0.16982E+05         0.00000E+00
    0.16982E+05        -0.49991E+08         0.00000E+00
    0.00000E+00         0.00000E+00        -0.49999E+08
 
   -0.49991E+08         0.17197E+05         0.00000E+00
    0.17197E+05        -0.49991E+08         0.00000E+00
    0.00000E+00         0.00000E+00        -0.49999E+08
 
   -0.49992E+08         0.17396E+05         0.00000E+00
    0.17396E+05        -0.49991E+08         0.00000E+00
    0.00000E+00         0.00000E+00        -0.49999E+08
 
   -0.49992E+08         0.17578E+05         0.00000E+00
    0.17578E+05        -0.49990E+08         0.00000E+00
    0.00000E+00         0.00000E+00        -0.49999E+08
 
   -0.49993E+08         0.17743E+05         0.00000E+00
    0.17743E+05        -0.49990E+08         0.00000E+00
    0.00000E+00         0.00000E+00        -0.49999E+08
 
   -0.49994E+08         0.17890E+05         0.00000E+00
    0.17890E+05        -0.49989E+08         0.00000E+00
    0.00000E+00         0.00000E+00        -0.49999E+08
 
   -0.49995E+08         0.18020E+05         0.00000E+00
    0.18020E+05        -0.49989E+08         0.00000E+00
    0.00000E+00         0.00000E+00        -0.49999E+08
 
   -0.49996E+08         0.18132E+05         0.00000E+00
    0.18132E+05        -0.49988E+08         0.00000E+00
    0.00000E+00         0.00000E+00        -0.49999E+08
 
   -0.49996E+08         0.18226E+05         0.00000E+00
    0.18226E+05        -0.49988E+08         0.00000E+00
    0.00000E+00         0.00000E+00        -0.49999E+08
 
   -0.49997E+08         0.18302E+05         0.00000E+00
    0.18302E+05        -0.49988E+08         0.00000E+00
    0.00000E+00         0.00000E+00        -0.49999E+08
 
   -0.49998E+08         0.18359E+05         0.00000E+00
    0.18359E+05        -0.49987E+08         0.00000E+00
    0.00000E+00         0.00000E+00        -0.49999E+08
 
   -0.49999E+08         0.18398E+05         0.00000E+00
    0.18398E+05        -0.49987E+08         0.00000E+00
    0.00000E+00         0.00000E+00        -0.49999E+08
 
   -0.49973E+08         0.30589E+03         0.00000E+00
    0.30589E+03        -0.50000E+08         0.00000E+00
    0.00000E+00         0.00000E+00        -0.49999E+08
 
   -0.49973E+08         0.92072E+03         0.00000E+00
    0.92072E+03        -0.50000E+08         0.00000E+00
    0.00000E+00         0.00000E+00        -0.49999E+08
 
   -0.49973E+08         0.15359E+04         0.00000E+00
    0.15359E+04        -0.50000E+08         0.00000E+00
    0.00000E+00         0.00000E+00        -0.49999E+08
 
   -0.49973E+08         0.21507E+04         0.00000E+00
    0.21507E+04        -0.50000E+08         0.00000E+00
    0.00000E+00         0.00000E+00        -0.49999E+08
 
   -0.49973E+08         0.27646E+04         0.00000E+00
    0.27646E+04        -0.50000E+08         0.00000E+00
    0.00000E+00         0.00000E+00        -0.49999E+08
 
   -0.49973E+08         0.33770E+04         0.00000E+00
    0.33770E+04        -0.50000E+08         0.00000E+00
    0.00000E+00         0.00000E+00        -0.49999E+08
 
   -0.49973E+08         0.39873E+04         0.00000E+00
    0.39873E+04        -0.50000E+08         0.00000E+00
    0.00000E+00         0.00000E+00        -0.49999E+08
 
   -0.49973E+08         0.45949E+04         0.00000E+00
    0.45949E+04        -0.50000E+08         0.00000E+00
    0.00000E+00         0.00000E+00        -0.49999E+08
 
   -0.49973E+08         0.51991E+04         0.00000E+00
    0.51991E+04        -0.49999E+08         0.00000E+00
    0.00000E+00         0.00000E+00        -0.49999E+08
 
   -0.49974E+08         0.57995E+04         0.00000E+00
    0.57995E+04        -0.49999E+08         0.00000E+00
    0.00000E+00         0.00000E+00        -0.49999E+08
 
   -0.49974E+08         0.63953E+04         0.00000E+00
    0.63953E+04        -0.49999E+08         0.00000E+00
    0.00000E+00         0.00000E+00        -0.49999E+08
 
   -0.49974E+08         0.69861E+04         0.00000E+00
    0.69861E+04        -0.49999E+08         0.00000E+00
    0.00000E+00         0.00000E+00        -0.49999E+08
 
   -0.49974E+08         0.75712E+04         0.00000E+00
    0.75712E+04        -0.49999E+08         0.00000E+00
    0.00000E+00         0.00000E+00        -0.49999E+08
 
   -0.49975E+08         0.81501E+04         0.00000E+00
    0.81501E+04        -0.49999E+08         0.00000E+00
    0.00000E+00         0.00000E+00        -0.49999E+08
 
   -0.49975E+08         0.87223E+04         0.00000E+00
    0.87223E+04        -0.49999E+08         0.00000E+00
    0.00000E+00         0.00000E+00        -0.49999E+08
 
   -0.49975E+08         0.92870E+04         0.00000E+00
    0.92870E+04        -0.49998E+08         0.00000E+00
    0.00000E+00         0.00000E+00        -0.49999E+08
 
   -0.49975E+08         0.98439E+04         0.00000E+00
    0.98439E+04        -0.49998E+08         0.00000E+00
    0.00000E+00         0.00000E+00        -0.49999E+08
 
   -0.49976E+08         0.10392E+05         0.00000E+00
    0.10392E+05        -0.49998E+08         0.00000E+00
    0.00000E+00         0.00000E+00        -0.49999E+08
 
   -0.49976E+08         0.10932E+05         0.00000E+00
    0.10932E+05        -0.49998E+08         0.00000E+00
    0.00000E+00         0.00000E+00        -0.49999E+08
 
   -0.49977E+08         0.11462E+05         0.00000E+00
    0.11462E+05        -0.49997E+08         0.00000E+00
    0.00000E+00         0.00000E+00        -0.49999E+08
 
   -0.49977E+08         0.11982E+05         0.00000E+00
    0.11982E+05        -0.49997E+08         0.00000E+00
    0.00000E+00         0.00000E+00        -0.49999E+08
 
   -0.49978E+08         0.12491E+05         0.00000E+00
    0.12491E+05        -0.49997E+08         0.00000E+00
    0.00000E+00         0.00000E+00        -0.49999E+08
 
   -0.49978E+08         0.12989E+05         0.00000E+00
    0.12989E+05        -0.49996E+08         0.00000E+00
    0.00000E+00         0.00000E+00        -0.49999E+08
 
   -0.49979E+08         0.13476E+05         0.00000E+00
    0.13476E+05        -0.49996E+08         0.00000E+00
    0.00000E+00         0.00000E+00        -0.49999E+08
 
   -0.49979E+08         0.13951E+05         0.00000E+00
    0.13951E+05        -0.49996E+08         0.00000E+00
    0.00000E+00         0.00000E+00        -0.49999E+08
 
   -0.49980E+08         0.14413E+05         0.00000E+00
    0.14413E+05        -0.49996E+08         0.00000E+00
    0.00000E+00         0.00000E+00        -0.49999E+08
 
   -0.49980E+08         0.14862E+05         0.00000E+00
    0.14862E+05        -0.49995E+08         0.00000E+00
    0.00000E+00         0.00000E+00        -0.49999E+08
 
   -0.49981E+08         0.15298E+05         0.00000E+00
    0.15298E+05        -0.49995E+08         0.00000E+00
    0.00000E+00         0.00000E+00        -0.49999E+08
 
   -0.49982E+08         0.15720E+05         0.00000E+00
    0.15720E+05        -0.49994E+08         0.00000E+00
    0.00000E+00         0.00000E+00        -0.49999E+08
 
   -0.49982E+08         0.16127E+05         0.00000E+00
    0.16127E+05        -0.49994E+08         0.00000E+00
    0.00000E+00         0.00000E+00        -0.49999E+08
 
   -0.49983E+08         0.16520E+05         0.00000E+00
    0.16520E+05        -0.49994E+08         0.00000E+00
    0.00000E+00         0.00000E+00        -0.49999E+08
 
   -0.49984E+08         0.16897E+05         0.00000E+00
    0.16897E+05        -0.49993E+08         0.00000E+00
    0.00000E+00         0.00000E+00        -0.49999E+08
 
   -0.49984E+08         0.17259E+05         0.00000E+00
    0.17259E+05        -0.49993E+08         0.00000E+00
    0.00000E+00         0.00000E+00        -0.49999E+08
 
   -0.49985E+08         0.17605E+05         0.00000E+00
    0.17605E+05        -0.49993E+08         0.00000E+00
    0.00000E+00         0.00000E+00        -0.49999E+08
 
   -0.49986E+08         0.17934E+05         0.00000E+00
    0.17934E+05        -0.49992E+08         0.00000E+00
    0.00000E+00         0.00000E+00        -0.49999E+08
 
   -0.49987E+08         0.18247E+05         0.00000E+00
    0.18247E+05        -0.49992E+08         0.00000E+00
    0.00000E+00         0.00000E+00        -0.49999E+08
 
   -0.49987E+08         0.18542E+05         0.00000E+00
    0.18542E+05        -0.49991E+08         0.00000E+00
    0.00000E+00         0.00000E+00        -0.49999E+08
 
   -0.49988E+08         0.18820E+05         0.00000E+00
    0.18820E+05        -0.49991E+08         0.00000E+00
    0.00000E+00         0.00000E+00        -0.49999E+08
 
   -0.49989E+08         0.19080E+05         0.00000E+00
    0.19080E+05        -0.49990E+08         0.00000E+00
    0.00000E+00         0.00000E+00        -0.49999E+08
 
   -0.49990E+08         0.19322E+05         0.00000E+00
    0.19322E+05        -0.49990E+08         0.00000E+00
    0.00000E+00         0.00000E+00        -0.49999E+08
 
   -0.49991E+08         0.19545E+05         0.00000E+00
    0.19545E+05        -0.49989E+08         0.00000E+00
    0.00000E+00         0.00000E+00        -0.49999E+08
 
   -0.49991E+08         0.19750E+05         0.00000E+00
    0.19750E+05        -0.49989E+08         0.00000E+00
    0.00000E+00         0.00000E+00        -0.49999E+08
 
   -0.49992E+08         0.19936E+05         0.00000E+00
    0.19936E+05        -0.49989E+08         0.00000E+00
    0.00000E+00         0.00000E+00        -0.49999E+08
 
   -0.49993E+08         0.20102E+05         0.00000E+00
    0.20102E+05        -0.49988E+08         0.00000E+00
    0.00000E+00         0.00000E+00        -0.49999E+08
 
   -0.49994E+08         0.20248E+05         0.00000E+00
    0.20248E+05        -0.49988E+08         0.00000E+00
    0.00000E+00         0.00000E+00        -0.49999E+08
 
   -0.49995E+08         0.20375E+05         0.00000E+00
    0.20375E+05        -0.49987E+08         0.00000E+00
    0.00000E+00         0.00000E+00        -0.49999E+08
 
   -0.49996E+08         0.20482E+05         0.00000E+00
    0.20482E+05        -0.49987E+08         0.00000E+00
    0.00000E+00         0.00000E+00        -0.49999E+08
 
   -0.49997E+08         0.20568E+05         0.00000E+00
    0.20568E+05        -0.49986E+08         0.00000E+00
    0.00000E+00         0.00000E+00        -0.49999E+08
 
   -0.49998E+08         0.20634E+05         0.00000E+00
    0.20634E+05        -0.49986E+08         0.00000E+00
    0.00000E+00         0.00000E+00        -0.49999E+08
 
   -0.49999E+08         0.20678E+05         0.00000E+00
    0.20678E+05        -0.49985E+08         0.00000E+00
    0.00000E+00         0.00000E+00        -0.49999E+08
 
   -0.49970E+08         0.34409E+03         0.00000E+00
    0.34409E+03        -0.50000E+08         0.00000E+00
    0.00000E+00         0.00000E+00        -0.49999E+08
 
   -0.49970E+08         0.10354E+04         0.00000E+00
    0.10354E+04        -0.50000E+08         0.00000E+00
    0.00000E+00         0.00000E+00        -0.49999E+08
 
   -0.49970E+08         0.17268E+04         0.00000E+00
    0.17268E+04        -0.50000E+08         0.00000E+00
    0.00000E+00         0.00000E+00        -0.49999E+08
 
   -0.49970E+08         0.24178E+04         0.00000E+00
    0.24178E+04        -0.50000E+08         0.00000E+00
    0.00000E+00         0.00000E+00        -0.49999E+08
 
   -0.49970E+08         0.31077E+04         0.00000E+00
    0.31077E+04        -0.50000E+08         0.00000E+00
    0.00000E+00         0.00000E+00        -0.49999E+08
 
   -0.49970E+08         0.37958E+04         0.00000E+00
    0.37958E+04        -0.50000E+08         0.00000E+00
    0.00000E+00         0.00000E+00        -0.49999E+08
 
   -0.49970E+08         0.44813E+04         0.00000E+00
    0.44813E+04        -0.50000E+08         0.00000E+00
    0.00000E+00         0.00000E+00        -0.49999E+08
 
   -0.49970E+08         0.51638E+04         0.00000E+00
    0.51638E+04        -0.50000E+08         0.00000E+00
    0.00000E+00         0.00000E+00        -0.49999E+08
 
   -0.49970E+08         0.58424E+04         0.00000E+00
    0.58424E+04        -0.49999E+08         0.00000E+00
    0.00000E+00         0.00000E+00        -0.49999E+08
 
   -0.49970E+08         0.65165E+04         0.00000E+00
    0.65165E+04        -0.49999E+08         0.00000E+00
    0.00000E+00         0.00000E+00        -0.49999E+08
 
   -0.49971E+08         0.71855E+04         0.00000E+00
    0.71855E+04        -0.49999E+08         0.00000E+00
    0.00000E+00         0.00000E+00        -0.49999E+08
 
   -0.49971E+08         0.78487E+04         0.00000E+00
    0.78487E+04        -0.49999E+08         0.00000E+00
    0.00000E+00         0.00000E+00        -0.49999E+08
 
   -0.49971E+08         0.85055E+04         0.00000E+00
    0.85055E+04        -0.49999E+08         0.00000E+00
    0.00000E+00         0.00000E+00        -0.49999E+08
 
   -0.49971E+08         0.91553E+04         0.00000E+00
    0.91553E+04        -0.49999E+08         0.00000E+00
    0.00000E+00         0.00000E+00        -0.49999E+08
 
   -0.49972E+08         0.97973E+04         0.00000E+00
    0.97973E+04        -0.49998E+08         0.00000E+00
    0.00000E+00         0.00000E+00        -0.49999E+08
 
   -0.49972E+08         0.10431E+05         0.00000E+00
    0.10431E+05        -0.49998E+08         0.00000E+00
    0.00000E+00         0.00000E+00        -0.49999E+08
 
   -0.49973E+08         0.11056E+05         0.00000E+00
    0.11056E+05        -0.49998E+08         0.00000E+00
    0.00000E+00         0.00000E+00        -0.49999E+08
 
   -0.49973E+08         0.11671E+05         0.00000E+00
    0.11671E+05        -0.49998E+08         0.00000E+00
    0.00000E+00         0.00000E+00        -0.49999E+08
 
   -0.49973E+08         0.12277E+05         0.00000E+00
    0.12277E+05        -0.49997E+08         0.00000E+00
    0.00000E+00         0.00000E+00        -0.49999E+08
 
   -0.49974E+08         0.12871E+05         0.00000E+00
    0.12871E+05        -0.49997E+08         0.00000E+00
    0.00000E+00         0.00000E+00        -0.49999E+08
 
   -0.49974E+08         0.13454E+05         0.00000E+00
    0.13454E+05        -0.49997E+08         0.00000E+00
    0.00000E+00         0.00000E+00        -0.49999E+08
 
   -0.49975E+08         0.14026E+05         0.00000E+00
    0.14026E+05        -0.49996E+08         0.00000E+00
    0.00000E+00         0.00000E+00        -0.49999E+08
 
   -0.49975E+08         0.14585E+05         0.00000E+00
    0.14585E+05        -0.49996E+08         0.00000E+00
    0.00000E+00         0.00000E+00        -0.49999E+08
 
   -0.49976E+08         0.15131E+05         0.00000E+00
    0.15131E+05        -0.49996E+08         0.00000E+00
    0.00000E+00         0.00000E+00        -0.49999E+08
 
   -0.49977E+08         0.15663E+05         0.00000E+00
    0.15663E+05        -0.49995E+08         0.00000E+00
    0.00000E+00         0.00000E+00        -0.49999E+08
 
   -0.49977E+08         0.16181E+05         0.00000E+00
    0.16181E+05        -0.49995E+08         0.00000E+00
    0.00000E+00         0.00000E+00        -0.49999E+08
 
   -0.49978E+08         0.16685E+05         0.00000E+00
    0.16685E+05        -0.49995E+08         0.00000E+00
    0.00000E+00         0.00000E+00        -0.49999E+08
 
   -0.49979E+08         0.17174E+05         0.00000E+00
    0.17174E+05        -0.49994E+08         0.00000E+00
    0.00000E+00         0.00000E+00        -0.49999E+08
 
   -0.49979E+08         0.17647E+05         0.00000E+00
    0.17647E+05        -0.49994E+08         0.00000E+00
    0.00000E+00         0.00000E+00        -0.49999E+08
 
   -0.49980E+08         0.18104E+05         0.00000E+00
    0.18104E+05        -0.49993E+08         0.00000E+00
    0.00000E+00         0.00000E+00        -0.49999E+08
 
   -0.49981E+08         0.18544E+05         0.00000E+00
    0.18544E+05        -0.49993E+08         0.00000E+00
    0.00000E+00         0.00000E+00        -0.49999E+08
 
   -0.49982E+08         0.18968E+05         0.00000E+00
    0.18968E+05        -0.49993E+08         0.00000E+00
    0.00000E+00         0.00000E+00        -0.49999E+08
 
   -0.49982E+08         0.19374E+05         0.00000E+00
    0.19374E+05        -0.49992E+08         0.00000E+00
    0.00000E+00         0.00000E+00        -0.49999E+08
 
   -0.49983E+08         0.19762E+05         0.00000E+00
    0.19762E+05        -0.49992E+08         0.00000E+00
    0.00000E+00         0.00000E+00        -0.49999E+08
 
   -0.49984E+08         0.20132E+05         0.00000E+00
    0.20132E+05        -0.49991E+08         0.00000E+00
    0.00000E+00         0.00000E+00        -0.49999E+08
 
   -0.49985E+08         0.20482E+05         0.00000E+00
    0.20482E+05        -0.49991E+08         0.00000E+00
    0.00000E+00         0.00000E+00        -0.49999E+08
 
   -0.49986E+08         0.20814E+05         0.00000E+00
    0.20814E+05        -0.49990E+08         0.00000E+00
    0.00000E+00         0.00000E+00        -0.49999E+08
 
   -0.49987E+08         0.21126E+05         0.00000E+00
    0.21126E+05        -0.49990E+08         0.00000E+00
    0.00000E+00         0.00000E+00        -0.49999E+08
 
   -0.49988E+08         0.21418E+05         0.00000E+00
    0.21418E+05        -0.49989E+08         0.00000E+00
    0.00000E+00         0.00000E+00        -0.49999E+08
 
   -0.49989E+08         0.21690E+05         0.00000E+00
    0.21690E+05        -0.49989E+08         0.00000E+00
    0.00000E+00         0.00000E+00        -0.49999E+08
 
   -0.49989E+08         0.21941E+05         0.00000E+00
    0.21941E+05        -0.49988E+08         0.00000E+00
    0.00000E+00         0.00000E+00        -0.49999E+08
 
   -0.49990E+08         0.22172E+05         0.00000E+00
    0.22172E+05        -0.49988E+08         0.00000E+00
    0.00000E+00         0.00000E+00        -0.49999E+08
 
   -0.49991E+08         0.22381E+05         0.00000E+00
    0.22381E+05        -0.49987E+08         0.00000E+00
    0.00000E+00         0.00000E+00        -0.49999E+08
 
   -0.49992E+08         0.22568E+05         0.00000E+00
    0.22568E+05        -0.49987E+08         0.00000E+00
    0.00000E+00         0.00000E+00        -0.49999E+08
 
   -0.49993E+08         0.22733E+05         0.00000E+00
    0.22733E+05        -0.49986E+08         0.00000E+00
    0.00000E+00         0.00000E+00        -0.49999E+08
 
   -0.49994E+08         0.22876E+05         0.00000E+00
    0.22876E+05        -0.49986E+08         0.00000E+00
    0.00000E+00         0.00000E+00        -0.49999E+08
 
   -0.49995E+08         0.22997E+05         0.00000E+00
    0.22997E+05        -0.49985E+08         0.00000E+00
    0.00000E+00         0.00000E+00        -0.49999E+08
 
   -0.49997E+08         0.23095E+05         0.00000E+00
    0.23095E+05        -0.49985E+08         0.00000E+00
    0.00000E+00         0.00000E+00        -0.49999E+08
 
   -0.49998E+08         0.23170E+05         0.00000E+00
    0.23170E+05        -0.49984E+08         0.00000E+00
    0.00000E+00         0.00000E+00        -0.49999E+08
 
   -0.49999E+08         0.23221E+05         0.00000E+00
    0.23221E+05        -0.49984E+08         0.00000E+00
    0.00000E+00         0.00000E+00        -0.49999E+08
 
   -0.49966E+08         0.38681E+03         0.00000E+00
    0.38681E+03        -0.50000E+08         0.00000E+00
    0.00000E+00         0.00000E+00        -0.49999E+08
 
   -0.49966E+08         0.11634E+04         0.00000E+00
    0.11634E+04        -0.50000E+08         0.00000E+00
    0.00000E+00         0.00000E+00        -0.49999E+08
 
   -0.49966E+08         0.19402E+04         0.00000E+00
    0.19402E+04        -0.50000E+08         0.00000E+00
    0.00000E+00         0.00000E+00        -0.49999E+08
 
   -0.49966E+08         0.27163E+04         0.00000E+00
    0.27163E+04        -0.50000E+08         0.00000E+00
    0.00000E+00         0.00000E+00        -0.49999E+08
 
   -0.49966E+08         0.34909E+04         0.00000E+00
    0.34909E+04        -0.50000E+08         0.00000E+00
    0.00000E+00         0.00000E+00        -0.49999E+08
 
   -0.49966E+08         0.42634E+04         0.00000E+00
    0.42634E+04        -0.50000E+08         0.00000E+00
    0.00000E+00         0.00000E+00        -0.49999E+08
 
   -0.49966E+08         0.50330E+04         0.00000E+00
    0.50330E+04        -0.50000E+08         0.00000E+00
    0.00000E+00         0.00000E+00        -0.49999E+08
 
   -0.49966E+08         0.57989E+04         0.00000E+00
    0.57989E+04        -0.49999E+08         0.00000E+00
    0.00000E+00         0.00000E+00        -0.49999E+08
 
   -0.49967E+08         0.65604E+04         0.00000E+00
    0.65604E+04        -0.49999E+08         0.00000E+00
    0.00000E+00         0.00000E+00        -0.49999E+08
 
   -0.49967E+08         0.73168E+04         0.00000E+00
    0.73168E+04        -0.49999E+08         0.00000E+00
    0.00000E+00         0.00000E+00        -0.49999E+08
 
   -0.49967E+08         0.80673E+04         0.00000E+00
    0.80673E+04        -0.49999E+08         0.00000E+00
    0.00000E+00         0.00000E+00        -0.49999E+08
 
   -0.49967E+08         0.88113E+04         0.00000E+00
    0.88113E+04        -0.49999E+08         0.00000E+00
    0.00000E+00         0.00000E+00        -0.49999E+08
 
   -0.49968E+08         0.95480E+04         0.00000E+00
    0.95480E+04        -0.49999E+08         0.00000E+00
    0.00000E+00         0.00000E+00        -0.49999E+08
 
   -0.49968E+08         0.10277E+05         0.00000E+00
    0.10277E+05        -0.49998E+08         0.00000E+00
    0.00000E+00         0.00000E+00        -0.49999E+08
 
   -0.49968E+08         0.10997E+05         0.00000E+00
    0.10997E+05        -0.49998E+08         0.00000E+00
    0.00000E+00         0.00000E+00        -0.49999E+08
 
   -0.49969E+08         0.11707E+05         0.00000E+00
    0.11707E+05        -0.49998E+08         0.00000E+00
    0.00000E+00         0.00000E+00        -0.49999E+08
 
   -0.49969E+08         0.12408E+05         0.00000E+00
    0.12408E+05        -0.49998E+08         0.00000E+00
    0.00000E+00         0.00000E+00        -0.49999E+08
 
   -0.49970E+08         0.13098E+05         0.00000E+00
    0.13098E+05        -0.49997E+08         0.00000E+00
    0.00000E+00         0.00000E+00        -0.49999E+08
 
   -0.49970E+08         0.13776E+05         0.00000E+00
    0.13776E+05        -0.49997E+08         0.00000E+00
    0.00000E+00         0.00000E+00        -0.49999E+08
 
   -0.49971E+08         0.14443E+05         0.00000E+00
    0.14443E+05        -0.49997E+08         0.00000E+00
    0.00000E+00         0.00000E+00        -0.49999E+08
 
   -0.49971E+08         0.15096E+05         0.00000E+00
    0.15096E+05        -0.49996E+08         0.00000E+00
    0.00000E+00         0.00000E+00        -0.49999E+08
 
   -0.49972E+08         0.15737E+05         0.00000E+00
    0.15737E+05        -0.49996E+08         0.00000E+00
    0.00000E+00         0.00000E+00        -0.49999E+08
 
   -0.49973E+08         0.16363E+05         0.00000E+00
    0.16363E+05        -0.49996E+08         0.00000E+00
    0.00000E+00         0.00000E+00        -0.49999E+08
 
   -0.49973E+08         0.16975E+05         0.00000E+00
    0.16975E+05        -0.49995E+08         0.00000E+00
    0.00000E+00         0.00000E+00        -0.49999E+08
 
   -0.49974E+08         0.17572E+05         0.00000E+00
    0.17572E+05        -0.49995E+08         0.00000E+00
    0.00000E+00         0.00000E+00        -0.49999E+08
 
   -0.49975E+08         0.18153E+05         0.00000E+00
    0.18153E+05        -0.49994E+08         0.00000E+00
    0.00000E+00         0.00000E+00        -0.49999E+08
 
   -0.49975E+08         0.18718E+05         0.00000E+00
    0.18718E+05        -0.49994E+08         0.00000E+00
    0.00000E+00         0.00000E+00        -0.49999E+08
 
   -0.49976E+08         0.19265E+05         0.00000E+00
    0.19265E+05        -0.49994E+08         0.00000E+00
    0.00000E+00         0.00000E+00        -0.49999E+08
 
   -0.49977E+08         0.19796E+05         0.00000E+00
    0.19796E+05        -0.49993E+08         0.00000E+00
    0.00000E+00         0.00000E+00        -0.49999E+08
 
   -0.49978E+08         0.20308E+05         0.00000E+00
    0.20308E+05        -0.49993E+08         0.00000E+00
    0.00000E+00         0.00000E+00        -0.49999E+08
 
   -0.49979E+08         0.20802E+05         0.00000E+00
    0.20802E+05        -0.49992E+08         0.00000E+00
    0.00000E+00         0.00000E+00        -0.49999E+08
 
   -0.49979E+08         0.21276E+05         0.00000E+00
    0.21276E+05        -0.49992E+08         0.00000E+00
    0.00000E+00         0.00000E+00        -0.49999E+08
 
   -0.49980E+08         0.21731E+05         0.00000E+00
    0.21731E+05        -0.49991E+08         0.00000E+00
    0.00000E+00         0.00000E+00        -0.49999E+08
 
   -0.49981E+08         0.22166E+05         0.00000E+00
    0.22166E+05        -0.49991E+08         0.00000E+00
    0.00000E+00         0.00000E+00        -0.49999E+08
 
   -0.49982E+08         0.22581E+05         0.00000E+00
    0.22581E+05        -0.49990E+08         0.00000E+00
    0.00000E+00         0.00000E+00        -0.49999E+08
 
   -0.49983E+08         0.22975E+05         0.00000E+00
    0.22975E+05        -0.49990E+08         0.00000E+00
    0.00000E+00         0.00000E+00        -0.49999E+08
 
   -0.49984E+08         0.23347E+05         0.00000E+00
    0.23347E+05        -0.49989E+08         0.00000E+00
    0.00000E+00         0.00000E+00        -0.49999E+08
 
   -0.49985E+08         0.23697E+05         0.00000E+00
    0.23697E+05        -0.49989E+08         0.00000E+00
    0.00000E+00         0.00000E+00        -0.49999E+08
 
   -0.49986E+08         0.24025E+05         0.00000E+00
    0.24025E+05        -0.49988E+08         0.00000E+00
    0.00000E+00         0.00000E+00        -0.49999E+08
 
   -0.49987E+08         0.24330E+05         0.00000E+00
    0.24330E+05        -0.49988E+08         0.00000E+00
    0.00000E+00         0.00000E+00        -0.49999E+08
 
   -0.49988E+08         0.24613E+05         0.00000E+00
    0.24613E+05        -0.49987E+08         0.00000E+00
    0.00000E+00         0.00000E+00        -0.49999E+08
 
   -0.49989E+08         0.24871E+05         0.00000E+00
    0.24871E+05        -0.49986E+08         0.00000E+00
    0.00000E+00         0.00000E+00        -0.49999E+08
 
   -0.49990E+08         0.25106E+05         0.00000E+00
    0.25106E+05        -0.49986E+08         0.00000E+00
    0.00000E+00         0.00000E+00        -0.49999E+08
 
   -0.49991E+08         0.25317E+05         0.00000E+00
    0.25317E+05        -0.49985E+08         0.00000E+00
    0.00000E+00         0.00000E+00        -0.49999E+08
 
   -0.49993E+08         0.25504E+05         0.00000E+00
    0.25504E+05        -0.49985E+08         0.00000E+00
    0.00000E+00         0.00000E+00        -0.49999E+08
 
   -0.49994E+08         0.25665E+05         0.00000E+00
    0.25665E+05        -0.49984E+08         0.00000E+00
    0.00000E+00         0.00000E+00        -0.49999E+08
 
   -0.49995E+08         0.25802E+05         0.00000E+00
    0.25802E+05        -0.49983E+08         0.00000E+00
    0.00000E+00         0.00000E+00        -0.49999E+08
 
   -0.49996E+08         0.25913E+05         0.00000E+00
    0.25913E+05        -0.49983E+08         0.00000E+00
    0.00000E+00         0.00000E+00        -0.49999E+08
 
   -0.49997E+08         0.25999E+05         0.00000E+00
    0.25999E+05        -0.49982E+08         0.00000E+00
    0.00000E+00         0.00000E+00        -0.49999E+08
 
   -0.49998E+08         0.26058E+05         0.00000E+00
    0.26058E+05        -0.49982E+08         0.00000E+00
    0.00000E+00         0.00000E+00        -0.49999E+08
 
   -0.49962E+08         0.43456E+03         0.00000E+00
    0.43456E+03        -0.50000E+08         0.00000E+00
    0.00000E+00         0.00000E+00        -0.49999E+08
 
   -0.49962E+08         0.13066E+04         0.00000E+00
    0.13066E+04        -0.50000E+08         0.00000E+00
    0.00000E+00         0.00000E+00        -0.49999E+08
 
   -0.49962E+08         0.21785E+04         0.00000E+00
    0.21785E+04        -0.50000E+08         0.00000E+00
    0.00000E+00         0.00000E+00        -0.49999E+08
 
   -0.49962E+08         0.30496E+04         0.00000E+00
    0.30496E+04        -0.50000E+08         0.00000E+00
    0.00000E+00         0.00000E+00        -0.49999E+08
 
   -0.49962E+08         0.39189E+04         0.00000E+00
    0.39189E+04        -0.50000E+08         0.00000E+00
    0.00000E+00         0.00000E+00        -0.49999E+08
 
   -0.49962E+08         0.47856E+04         0.00000E+00
    0.47856E+04        -0.50000E+08         0.00000E+00
    0.00000E+00         0.00000E+00        -0.49999E+08
 
   -0.49962E+08         0.56489E+04         0.00000E+00
    0.56489E+04        -0.50000E+08         0.00000E+00
    0.00000E+00         0.00000E+00        -0.49999E+08
 
   -0.49962E+08         0.65079E+04         0.00000E+00
    0.65079E+04        -0.49999E+08         0.00000E+00
    0.00000E+00         0.00000E+00        -0.49999E+08
 
   -0.49963E+08         0.73619E+04         0.00000E+00
    0.73619E+04        -0.49999E+08         0.00000E+00
    0.00000E+00         0.00000E+00        -0.49999E+08
 
   -0.49963E+08         0.82101E+04         0.00000E+00
    0.82101E+04        -0.49999E+08         0.00000E+00
    0.00000E+00         0.00000E+00        -0.49999E+08
 
   -0.49963E+08         0.90515E+04         0.00000E+00
    0.90515E+04        -0.49999E+08         0.00000E+00
    0.00000E+00         0.00000E+00        -0.49999E+08
 
   -0.49963E+08         0.98855E+04         0.00000E+00
    0.98855E+04        -0.49999E+08         0.00000E+00
    0.00000E+00         0.00000E+00        -0.49999E+08
 
   -0.49964E+08         0.10711E+05         0.00000E+00
    0.10711E+05        -0.49998E+08         0.00000E+00
    0.00000E+00         0.00000E+00        -0.49999E+08
 
   -0.49964E+08         0.11528E+05         0.00000E+00
    0.11528E+05        -0.49998E+08         0.00000E+00
    0.00000E+00         0.00000E+00        -0.49999E+08
 
   -0.49965E+08         0.12335E+05         0.00000E+00
    0.12335E+05        -0.49998E+08         0.00000E+00
    0.00000E+00         0.00000E+00        -0.49999E+08
 
   -0.49965E+08         0.13131E+05         0.00000E+00
    0.13131E+05        -0.49998E+08         0.00000E+00
    0.00000E+00         0.00000E+00        -0.49999E+08
 
   -0.49966E+08         0.13916E+05         0.00000E+00
    0.13916E+05        -0.49997E+08         0.00000E+00
    0.00000E+00         0.00000E+00        -0.49999E+08
 
   -0.49966E+08         0.14689E+05         0.00000E+00
    0.14689E+05        -0.49997E+08         0.00000E+00
    0.00000E+00         0.00000E+00        -0.49999E+08
 
   -0.49967E+08         0.15449E+05         0.00000E+00
    0.15449E+05        -0.49997E+08         0.00000E+00
    0.00000E+00         0.00000E+00        -0.49999E+08
 
   -0.49967E+08         0.16195E+05         0.00000E+00
    0.16195E+05        -0.49996E+08         0.00000E+00
    0.00000E+00         0.00000E+00        -0.49999E+08
 
   -0.49968E+08         0.16928E+05         0.00000E+00
    0.16928E+05        -0.49996E+08         0.00000E+00
    0.00000E+00         0.00000E+00        -0.49999E+08
 
   -0.49969E+08         0.17645E+05         0.00000E+00
    0.17645E+05        -0.49996E+08         0.00000E+00
    0.00000E+00         0.00000E+00        -0.49999E+08
 
   -0.49969E+08         0.18347E+05         0.00000E+00
    0.18347E+05        -0.49995E+08         0.00000E+00
    0.00000E+00         0.00000E+00        -0.49999E+08
 
   -0.49970E+08         0.19032E+05         0.00000E+00
    0.19032E+05        -0.49995E+08         0.00000E+00
    0.00000E+00         0.00000E+00        -0.49999E+08
 
   -0.49971E+08         0.19700E+05         0.00000E+00
    0.19700E+05        -0.49994E+08         0.00000E+00
    0.00000E+00         0.00000E+00        -0.49999E+08
 
   -0.49972E+08         0.20351E+05         0.00000E+00
    0.20351E+05        -0.49994E+08         0.00000E+00
    0.00000E+00         0.00000E+00        -0.49999E+08
 
   -0.49972E+08         0.20983E+05         0.00000E+00
    0.20983E+05        -0.49993E+08         0.00000E+00
    0.00000E+00         0.00000E+00        -0.49999E+08
 
   -0.49973E+08         0.21597E+05         0.00000E+00
    0.21597E+05        -0.49993E+08         0.00000E+00
    0.00000E+00         0.00000E+00        -0.49999E+08
 
   -0.49974E+08         0.22191E+05         0.00000E+00
    0.22191E+05        -0.49992E+08         0.00000E+00
    0.00000E+00         0.00000E+00        -0.49999E+08
 
   -0.49975E+08         0.22764E+05         0.00000E+00
    0.22764E+05        -0.49992E+08         0.00000E+00
    0.00000E+00         0.00000E+00        -0.49999E+08
 
   -0.49976E+08         0.23317E+05         0.00000E+00
    0.23317E+05        -0.49991E+08         0.00000E+00
    0.00000E+00         0.00000E+00        -0.49999E+08
 
   -0.49977E+08         0.23849E+05         0.00000E+00
    0.23849E+05        -0.49991E+08         0.00000E+00
    0.00000E+00         0.00000E+00        -0.49999E+08
 
   -0.49978E+08         0.24359E+05         0.00000E+00
    0.24359E+05        -0.49990E+08         0.00000E+00
    0.00000E+00         0.00000E+00        -0.49999E+08
 
   -0.49979E+08         0.24847E+05         0.00000E+00
    0.24847E+05        -0.49990E+08         0.00000E+00
    0.00000E+00         0.00000E+00        -0.49999E+08
 
   -0.49980E+08         0.25311E+05         0.00000E+00
    0.25311E+05        -0.49989E+08         0.00000E+00
    0.00000E+00         0.00000E+00        -0.49999E+08
 
   -0.49981E+08         0.25753E+05         0.00000E+00
    0.25753E+05        -0.49988E+08         0.00000E+00
    0.00000E+00         0.00000E+00        -0.49999E+08
 
   -0.49982E+08         0.26170E+05         0.00000E+00
    0.26170E+05        -0.49988E+08         0.00000E+00
    0.00000E+00         0.00000E+00        -0.49999E+08
 
   -0.49983E+08         0.26563E+05         0.00000E+00
    0.26563E+05        -0.49987E+08         0.00000E+00
    0.00000E+00         0.00000E+00        -0.49999E+08
 
   -0.49984E+08         0.26931E+05         0.00000E+00
    0.26931E+05        -0.49987E+08         0.00000E+00
    0.00000E+00         0.00000E+00        -0.49999E+08
 
   -0.49986E+08         0.27273E+05         0.00000E+00
    0.27273E+05        -0.49986E+08         0.00000E+00
    0.00000E+00         0.00000E+00        -0.49999E+08
 
   -0.49987E+08         0.27590E+05         0.00000E+00
    0.27590E+05        -0.49985E+08         0.00000E+00
    0.00000E+00         0.00000E+00        -0.49999E+08
 
   -0.49988E+08         0.27881E+05         0.00000E+00
    0.27881E+05        -0.49985E+08         0.00000E+00
    0.00000E+00         0.00000E+00        -0.49999E+08
 
   -0.49989E+08         0.28145E+05         0.00000E+00
    0.28145E+05        -0.49984E+08         0.00000E+00
    0.00000E+00         0.00000E+00        -0.49999E+08
 
   -0.49990E+08         0.28383E+05         0.00000E+00
    0.28383E+05        -0.49984E+08         0.00000E+00
    0.00000E+00         0.00000E+00        -0.49999E+08
 
   -0.49992E+08         0.28593E+05         0.00000E+00
    0.28593E+05        -0.49983E+08         0.00000E+00
    0.00000E+00         0.00000E+00        -0.49999E+08
 
   -0.49993E+08         0.28775E+05         0.00000E+00
    0.28775E+05        -0.49982E+08         0.00000E+00
    0.00000E+00         0.00000E+00        -0.49999E+08
 
   -0.49994E+08         0.28930E+05         0.00000E+00
    0.28930E+05        -0.49982E+08         0.00000E+00
    0.00000E+00         0.00000E+00        -0.49999E+08
 
   -0.49996E+08         0.29056E+05         0.00000E+00
    0.29056E+05        -0.49981E+08         0.00000E+00
    0.00000E+00         0.00000E+00        -0.49999E+08
 
   -0.49997E+08         0.29154E+05         0.00000E+00
    0.29154E+05        -0.49980E+08         0.00000E+00
    0.00000E+00         0.00000E+00        -0.49999E+08
 
   -0.49998E+08         0.29223E+05         0.00000E+00
    0.29223E+05        -0.49980E+08         0.00000E+00
    0.00000E+00         0.00000E+00        -0.49999E+08
 
   -0.49957E+08         0.48795E+03         0.00000E+00
    0.48795E+03        -0.50000E+08         0.00000E+00
    0.00000E+00         0.00000E+00        -0.49999E+08
 
   -0.49957E+08         0.14665E+04         0.00000E+00
    0.14665E+04        -0.50000E+08         0.00000E+00
    0.00000E+00         0.00000E+00        -0.49999E+08
 
   -0.49957E+08         0.24448E+04         0.00000E+00
    0.24448E+04        -0.50000E+08         0.00000E+00
    0.00000E+00         0.00000E+00        -0.49999E+08
 
   -0.49957E+08         0.34219E+04         0.00000E+00
    0.34219E+04        -0.50000E+08         0.00000E+00
    0.00000E+00         0.00000E+00        -0.49999E+08
 
   -0.49957E+08         0.43968E+04         0.00000E+00
    0.43968E+04        -0.50000E+08         0.00000E+00
    0.00000E+00         0.00000E+00        -0.49999E+08
 
   -0.49958E+08         0.53686E+04         0.00000E+00
    0.53686E+04        -0.50000E+08         0.00000E+00
    0.00000E+00         0.00000E+00        -0.49999E+08
 
   -0.49958E+08         0.63365E+04         0.00000E+00
    0.63365E+04        -0.50000E+08         0.00000E+00
    0.00000E+00         0.00000E+00        -0.49999E+08
 
   -0.49958E+08         0.72994E+04         0.00000E+00
    0.72994E+04        -0.49999E+08         0.00000E+00
    0.00000E+00         0.00000E+00        -0.49999E+08
 
   -0.49958E+08         0.82566E+04         0.00000E+00
    0.82566E+04        -0.49999E+08         0.00000E+00
    0.00000E+00         0.00000E+00        -0.49999E+08
 
   -0.49958E+08         0.92070E+04         0.00000E+00
    0.92070E+04        -0.49999E+08         0.00000E+00
    0.00000E+00         0.00000E+00        -0.49999E+08
 
   -0.49959E+08         0.10150E+05         0.00000E+00
    0.10150E+05        -0.49999E+08         0.00000E+00
    0.00000E+00         0.00000E+00        -0.49999E+08
 
   -0.49959E+08         0.11084E+05         0.00000E+00
    0.11084E+05        -0.49999E+08         0.00000E+00
    0.00000E+00         0.00000E+00        -0.49999E+08
 
   -0.49959E+08         0.12009E+05         0.00000E+00
    0.12009E+05        -0.49998E+08         0.00000E+00
    0.00000E+00         0.00000E+00        -0.49999E+08
 
   -0.49960E+08         0.12924E+05         0.00000E+00
    0.12924E+05        -0.49998E+08         0.00000E+00
    0.00000E+00         0.00000E+00        -0.49999E+08
 
   -0.49960E+08         0.13827E+05         0.00000E+00
    0.13827E+05        -0.49998E+08         0.00000E+00
    0.00000E+00         0.00000E+00        -0.49999E+08
 
   -0.49961E+08         0.14719E+05         0.00000E+00
    0.14719E+05        -0.49997E+08         0.00000E+00
    0.00000E+00         0.00000E+00        -0.49999E+08
 
   -0.49961E+08         0.15598E+05         0.00000E+00
    0.15598E+05        -0.49997E+08         0.00000E+00
    0.00000E+00         0.00000E+00        -0.49999E+08
 
   -0.49962E+08         0.16463E+05         0.00000E+00
    0.16463E+05        -0.49997E+08         0.00000E+00
    0.00000E+00         0.00000E+00        -0.49999E+08
 
   -0.49963E+08         0.17314E+05         0.00000E+00
    0.17314E+05        -0.49996E+08         0.00000E+00
    0.00000E+00         0.00000E+00        -0.49999E+08
 
   -0.49963E+08         0.18150E+05         0.00000E+00
    0.18150E+05        -0.49996E+08         0.00000E+00
    0.00000E+00         0.00000E+00        -0.49999E+08
 
   -0.49964E+08         0.18969E+05         0.00000E+00
    0.18969E+05        -0.49995E+08         0.00000E+00
    0.00000E+00         0.00000E+00        -0.49999E+08
 
   -0.49965E+08         0.19772E+05         0.00000E+00
    0.19772E+05        -0.49995E+08         0.00000E+00
    0.00000E+00         0.00000E+00        -0.49999E+08
 
   -0.49966E+08         0.20557E+05         0.00000E+00
    0.20557E+05        -0.49995E+08         0.00000E+00
    0.00000E+00         0.00000E+00        -0.49999E+08
 
   -0.49966E+08         0.21325E+05         0.00000E+00
    0.21325E+05        -0.49994E+08         0.00000E+00
    0.00000E+00         0.00000E+00        -0.49999E+08
 
   -0.49967E+08         0.22073E+05         0.00000E+00
    0.22073E+05        -0.49994E+08         0.00000E+00
    0.00000E+00         0.00000E+00        -0.49999E+08
 
   -0.49968E+08         0.22801E+05         0.00000E+00
    0.22801E+05        -0.49993E+08         0.00000E+00
    0.00000E+00         0.00000E+00        -0.49999E+08
 
   -0.49969E+08         0.23509E+05         0.00000E+00
    0.23509E+05        -0.49993E+08         0.00000E+00
    0.00000E+00         0.00000E+00        -0.49999E+08
 
   -0.49970E+08         0.24195E+05         0.00000E+00
    0.24195E+05        -0.49992E+08         0.00000E+00
    0.00000E+00         0.00000E+00        -0.49999E+08
 
   -0.49971E+08         0.24860E+05         0.00000E+00
    0.24860E+05        -0.49991E+08         0.00000E+00
    0.00000E+00         0.00000E+00        -0.49999E+08
 
   -0.49972E+08         0.25502E+05         0.00000E+00
    0.25502E+05        -0.49991E+08         0.00000E+00
    0.00000E+00         0.00000E+00        -0.49999E+08
 
   -0.49973E+08         0.26121E+05         0.00000E+00
    0.26121E+05        -0.49990E+08         0.00000E+00
    0.00000E+00         0.00000E+00        -0.49999E+08
 
   -0.49974E+08         0.26717E+05         0.00000E+00
    0.26717E+05        -0.49990E+08         0.00000E+00
    0.00000E+00         0.00000E+00        -0.49999E+08
 
   -0.49975E+08         0.27288E+05         0.00000E+00
    0.27288E+05        -0.49989E+08         0.00000E+00
    0.00000E+00         0.00000E+00        -0.49999E+08
 
   -0.49976E+08         0.27834E+05         0.00000E+00
    0.27834E+05        -0.49988E+08         0.00000E+00
    0.00000E+00         0.00000E+00        -0.49999E+08
 
   -0.49978E+08         0.28354E+05         0.00000E+00
    0.28354E+05        -0.49988E+08         0.00000E+00
    0.00000E+00         0.00000E+00        -0.49999E+08
 
   -0.49979E+08         0.28849E+05         0.00000E+00
    0.28849E+05        -0.49987E+08         0.00000E+00
    0.00000E+00         0.00000E+00        -0.49999E+08
 
   -0.49980E+08         0.29316E+05         0.00000E+00
    0.29316E+05        -0.49987E+08         0.00000E+00
    0.00000E+00         0.00000E+00        -0.49999E+08
 
   -0.49981E+08         0.29757E+05         0.00000E+00
    0.29757E+05        -0.49986E+08         0.00000E+00
    0.00000E+00         0.00000E+00        -0.49999E+08
 
   -0.49983E+08         0.30169E+05         0.00000E+00
    0.30169E+05        -0.49985E+08         0.00000E+00
    0.00000E+00         0.00000E+00        -0.49999E+08
 
   -0.49984E+08         0.30554E+05         0.00000E+00
    0.30554E+05        -0.49984E+08         0.00000E+00
    0.00000E+00         0.00000E+00        -0.49999E+08
 
   -0.49985E+08         0.30910E+05         0.00000E+00
    0.30910E+05        -0.49984E+08         0.00000E+00
    0.00000E+00         0.00000E+00        -0.49999E+08
 
   -0.49987E+08         0.31236E+05         0.00000E+00
    0.31236E+05        -0.49983E+08         0.00000E+00
    0.00000E+00         0.00000E+00        -0.49999E+08
 
   -0.49988E+08         0.31533E+05         0.00000E+00
    0.31533E+05        -0.49982E+08         0.00000E+00
    0.00000E+00         0.00000E+00        -0.49999E+08
 
   -0.49989E+08         0.31800E+05         0.00000E+00
    0.31800E+05        -0.49982E+08         0.00000E+00
    0.00000E+00         0.00000E+00        -0.49999E+08
 
   -0.49991E+08         0.32037E+05         0.00000E+00
    0.32037E+05        -0.49981E+08         0.00000E+00
    0.00000E+00         0.00000E+00        -0.49999E+08
 
   -0.49992E+08         0.32243E+05         0.00000E+00
    0.32243E+05        -0.49980E+08         0.00000E+00
    0.00000E+00         0.00000E+00        -0.49999E+08
 
   -0.49993E+08         0.32418E+05         0.00000E+00
    0.32418E+05        -0.49979E+08         0.00000E+00
    0.00000E+00         0.00000E+00        -0.49999E+08
 
   -0.49995E+08         0.32561E+05         0.00000E+00
    0.32561E+05        -0.49979E+08         0.00000E+00
    0.00000E+00         0.00000E+00        -0.49999E+08
 
   -0.49996E+08         0.32672E+05         0.00000E+00
    0.32672E+05        -0.49978E+08         0.00000E+00
    0.00000E+00         0.00000E+00        -0.49999E+08
 
   -0.49998E+08         0.32752E+05         0.00000E+00
    0.32752E+05        -0.49977E+08         0.00000E+00
    0.00000E+00         0.00000E+00        -0.49999E+08
 
   -0.49952E+08         0.54762E+03         0.00000E+00
    0.54762E+03        -0.50000E+08         0.00000E+00
    0.00000E+00         0.00000E+00        -0.49998E+08
 
   -0.49952E+08         0.16452E+04         0.00000E+00
    0.16452E+04        -0.50000E+08         0.00000E+00
    0.00000E+00         0.00000E+00        -0.49998E+08
 
   -0.49952E+08         0.27422E+04         0.00000E+00
    0.27422E+04        -0.50000E+08         0.00000E+00
    0.00000E+00         0.00000E+00        -0.49998E+08
 
   -0.49952E+08         0.38376E+04         0.00000E+00
    0.38376E+04        -0.50000E+08         0.00000E+00
    0.00000E+00         0.00000E+00        -0.49998E+08
 
   -0.49952E+08         0.49304E+04         0.00000E+00
    0.49304E+04        -0.50000E+08         0.00000E+00
    0.00000E+00         0.00000E+00        -0.49998E+08
 
   -0.49952E+08         0.60195E+04         0.00000E+00
    0.60195E+04        -0.50000E+08         0.00000E+00
    0.00000E+00         0.00000E+00        -0.49998E+08
 
   -0.49953E+08         0.71040E+04         0.00000E+00
    0.71040E+04        -0.49999E+08         0.00000E+00
    0.00000E+00         0.00000E+00        -0.49998E+08
 
   -0.49953E+08         0.81827E+04         0.00000E+00
    0.81827E+04        -0.49999E+08         0.00000E+00
    0.00000E+00         0.00000E+00        -0.49998E+08
 
   -0.49953E+08         0.92548E+04         0.00000E+00
    0.92548E+04        -0.49999E+08         0.00000E+00
    0.00000E+00         0.00000E+00        -0.49998E+08
 
   -0.49953E+08         0.10319E+05         0.00000E+00
    0.10319E+05        -0.49999E+08         0.00000E+00
    0.00000E+00         0.00000E+00        -0.49998E+08
 
   -0.49954E+08         0.11375E+05         0.00000E+00
    0.11375E+05        -0.49999E+08         0.00000E+00
    0.00000E+00         0.00000E+00        -0.49998E+08
 
   -0.49954E+08         0.12421E+05         0.00000E+00
    0.12421E+05        -0.49998E+08         0.00000E+00
    0.00000E+00         0.00000E+00        -0.49998E+08
 
   -0.49955E+08         0.13456E+05         0.00000E+00
    0.13456E+05        -0.49998E+08         0.00000E+00
    0.00000E+00         0.00000E+00        -0.49998E+08
 
   -0.49955E+08         0.14480E+05         0.00000E+00
    0.14480E+05        -0.49998E+08         0.00000E+00
    0.00000E+00         0.00000E+00        -0.49998E+08
 
   -0.49956E+08         0.15492E+05         0.00000E+00
    0.15492E+05        -0.49997E+08         0.00000E+00
    0.00000E+00         0.00000E+00        -0.49998E+08
 
   -0.49956E+08         0.16490E+05         0.00000E+00
    0.16490E+05        -0.49997E+08         0.00000E+00
    0.00000E+00         0.00000E+00        -0.49998E+08
 
   -0.49957E+08         0.17473E+05         0.00000E+00
    0.17473E+05        -0.49997E+08         0.00000E+00
    0.00000E+00         0.00000E+00        -0.49998E+08
 
   -0.49958E+08         0.18441E+05         0.00000E+00
    0.18441E+05        -0.49996E+08         0.00000E+00
    0.00000E+00         0.00000E+00        -0.49998E+08
 
   -0.49958E+08         0.19393E+05         0.00000E+00
    0.19393E+05        -0.49996E+08         0.00000E+00
    0.00000E+00         0.00000E+00        -0.49998E+08
 
   -0.49959E+08         0.20328E+05         0.00000E+00
    0.20328E+05        -0.49995E+08         0.00000E+00
    0.00000E+00         0.00000E+00        -0.49998E+08
 
   -0.49960E+08         0.21245E+05         0.00000E+00
    0.21245E+05        -0.49995E+08         0.00000E+00
    0.00000E+00         0.00000E+00        -0.49998E+08
 
   -0.49961E+08         0.22143E+05         0.00000E+00
    0.22143E+05        -0.49994E+08         0.00000E+00
    0.00000E+00         0.00000E+00        -0.49998E+08
 
   -0.49961E+08         0.23022E+05         0.00000E+00
    0.23022E+05        -0.49994E+08         0.00000E+00
    0.00000E+00         0.00000E+00        -0.49998E+08
 
   -0.49962E+08         0.23880E+05         0.00000E+00
    0.23880E+05        -0.49993E+08         0.00000E+00
    0.00000E+00         0.00000E+00        -0.49998E+08
 
   -0.49963E+08         0.24716E+05         0.00000E+00
    0.24716E+05        -0.49993E+08         0.00000E+00
    0.00000E+00         0.00000E+00        -0.49998E+08
 
   -0.49964E+08         0.25531E+05         0.00000E+00
    0.25531E+05        -0.49992E+08         0.00000E+00
    0.00000E+00         0.00000E+00        -0.49998E+08
 
   -0.49965E+08         0.26323E+05         0.00000E+00
    0.26323E+05        -0.49992E+08         0.00000E+00
    0.00000E+00         0.00000E+00        -0.49998E+08
 
   -0.49966E+08         0.27091E+05         0.00000E+00
    0.27091E+05        -0.49991E+08         0.00000E+00
    0.00000E+00         0.00000E+00        -0.49998E+08
 
   -0.49968E+08         0.27834E+05         0.00000E+00
    0.27834E+05        -0.49990E+08         0.00000E+00
    0.00000E+00         0.00000E+00        -0.49998E+08
 
   -0.49969E+08         0.28553E+05         0.00000E+00
    0.28553E+05        -0.49990E+08         0.00000E+00
    0.00000E+00         0.00000E+00        -0.49998E+08
 
   -0.49970E+08         0.29246E+05         0.00000E+00
    0.29246E+05        -0.49989E+08         0.00000E+00
    0.00000E+00         0.00000E+00        -0.49998E+08
 
   -0.49971E+08         0.29912E+05         0.00000E+00
    0.29912E+05        -0.49988E+08         0.00000E+00
    0.00000E+00         0.00000E+00        -0.49998E+08
 
   -0.49972E+08         0.30551E+05         0.00000E+00
    0.30551E+05        -0.49988E+08         0.00000E+00
    0.00000E+00         0.00000E+00        -0.49998E+08
 
   -0.49974E+08         0.31162E+05         0.00000E+00
    0.31162E+05        -0.49987E+08         0.00000E+00
    0.00000E+00         0.00000E+00        -0.49998E+08
 
   -0.49975E+08         0.31745E+05         0.00000E+00
    0.31745E+05        -0.49986E+08         0.00000E+00
    0.00000E+00         0.00000E+00        -0.49998E+08
 
   -0.49976E+08         0.32298E+05         0.00000E+00
    0.32298E+05        -0.49986E+08         0.00000E+00
    0.00000E+00         0.00000E+00        -0.49998E+08
 
   -0.49978E+08         0.32822E+05         0.00000E+00
    0.32822E+05        -0.49985E+08         0.00000E+00
    0.00000E+00         0.00000E+00        -0.49998E+08
 
   -0.49979E+08         0.33315E+05         0.00000E+00
    0.33315E+05        -0.49984E+08         0.00000E+00
    0.00000E+00         0.00000E+00        -0.49998E+08
 
   -0.49980E+08         0.33778E+05         0.00000E+00
    0.33778E+05        -0.49983E+08         0.00000E+00
    0.00000E+00         0.00000E+00        -0.49998E+08
 
   -0.49982E+08         0.34209E+05         0.00000E+00
    0.34209E+05        -0.49983E+08         0.00000E+00
    0.00000E+00         0.00000E+00        -0.49998E+08
 
   -0.49983E+08         0.34608E+05         0.00000E+00
    0.34608E+05        -0.49982E+08         0.00000E+00
    0.00000E+00         0.00000E+00        -0.49998E+08
 
   -0.49985E+08         0.34975E+05         0.00000E+00
    0.34975E+05        -0.49981E+08         0.00000E+00
    0.00000E+00         0.00000E+00        -0.49998E+08
 
   -0.49986E+08         0.35309E+05         0.00000E+00
    0.35309E+05        -0.49980E+08         0.00000E+00
    0.00000E+00         0.00000E+00        -0.49998E+08
 
   -0.49988E+08         0.35609E+05         0.00000E+00
    0.35609E+05        -0.49980E+08         0.00000E+00
    0.00000E+00         0.00000E+00        -0.49998E+08
 
   -0.49989E+08         0.35876E+05         0.00000E+00
    0.35876E+05        -0.49979E+08         0.00000E+00
    0.00000E+00         0.00000E+00        -0.49998E+08
 
   -0.49991E+08         0.36108E+05         0.00000E+00
    0.36108E+05        -0.49978E+08         0.00000E+00
    0.00000E+00         0.00000E+00        -0.49998E+08
 
   -0.49993E+08         0.36306E+05         0.00000E+00
    0.36306E+05        -0.49977E+08         0.00000E+00
    0.00000E+00         0.00000E+00        -0.49998E+08
 
   -0.49994E+08         0.36469E+05         0.00000E+00
    0.36469E+05        -0.49976E+08         0.00000E+00
    0.00000E+00         0.00000E+00        -0.49998E+08
 
   -0.49996E+08         0.36596E+05         0.00000E+00
    0.36596E+05        -0.49975E+08         0.00000E+00
    0.00000E+00         0.00000E+00        -0.49998E+08
 
   -0.49998E+08         0.36688E+05         0.00000E+00
    0.36688E+05        -0.49975E+08         0.00000E+00
    0.00000E+00         0.00000E+00        -0.49998E+08
 
   -0.49946E+08         0.61430E+03         0.00000E+00
    0.61430E+03        -0.50000E+08         0.00000E+00
    0.00000E+00         0.00000E+00        -0.49998E+08
 
   -0.49946E+08         0.18447E+04         0.00000E+00
    0.18447E+04        -0.50000E+08         0.00000E+00
    0.00000E+00         0.00000E+00        -0.49998E+08
 
   -0.49946E+08         0.30742E+04         0.00000E+00
    0.30742E+04        -0.50000E+08         0.00000E+00
    0.00000E+00         0.00000E+00        -0.49998E+08
 
   -0.49946E+08         0.43016E+04         0.00000E+00
    0.43016E+04        -0.50000E+08         0.00000E+00
    0.00000E+00         0.00000E+00        -0.49998E+08
 
   -0.49947E+08         0.55259E+04         0.00000E+00
    0.55259E+04        -0.50000E+08         0.00000E+00
    0.00000E+00         0.00000E+00        -0.49998E+08
 
   -0.49947E+08         0.67458E+04         0.00000E+00
    0.67458E+04        -0.50000E+08         0.00000E+00
    0.00000E+00         0.00000E+00        -0.49998E+08
 
   -0.49947E+08         0.79603E+04         0.00000E+00
    0.79603E+04        -0.49999E+08         0.00000E+00
    0.00000E+00         0.00000E+00        -0.49998E+08
 
   -0.49947E+08         0.91682E+04         0.00000E+00
    0.91682E+04        -0.49999E+08         0.00000E+00
    0.00000E+00         0.00000E+00        -0.49998E+08
 
   -0.49947E+08         0.10368E+05         0.00000E+00
    0.10368E+05        -0.49999E+08         0.00000E+00
    0.00000E+00         0.00000E+00        -0.49998E+08
 
   -0.49948E+08         0.11560E+05         0.00000E+00
    0.11560E+05        -0.49999E+08         0.00000E+00
    0.00000E+00         0.00000E+00        -0.49998E+08
 
   -0.49948E+08         0.12741E+05         0.00000E+00
    0.12741E+05        -0.49998E+08         0.00000E+00
    0.00000E+00         0.00000E+00        -0.49998E+08
 
   -0.49949E+08         0.13912E+05         0.00000E+00
    0.13912E+05        -0.49998E+08         0.00000E+00
    0.00000E+00         0.00000E+00        -0.49998E+08
 
   -0.49949E+08         0.15071E+05         0.00000E+00
    0.15071E+05        -0.49998E+08         0.00000E+00
    0.00000E+00         0.00000E+00        -0.49998E+08
 
   -0.49950E+08         0.16216E+05         0.00000E+00
    0.16216E+05        -0.49997E+08         0.00000E+00
    0.00000E+00         0.00000E+00        -0.49998E+08
 
   -0.49950E+08         0.17347E+05         0.00000E+00
    0.17347E+05        -0.49997E+08         0.00000E+00
    0.00000E+00         0.00000E+00        -0.49998E+08
 
   -0.49951E+08         0.18463E+05         0.00000E+00
    0.18463E+05        -0.49997E+08         0.00000E+00
    0.00000E+00         0.00000E+00        -0.49998E+08
 
   -0.49952E+08         0.19563E+05         0.00000E+00
    0.19563E+05        -0.49996E+08         0.00000E+00
    0.00000E+00         0.00000E+00        -0.49998E+08
 
   -0.49952E+08         0.20646E+05         0.00000E+00
    0.20646E+05        -0.49996E+08         0.00000E+00
    0.00000E+00         0.00000E+00        -0.49998E+08
 
   -0.49953E+08         0.21710E+05         0.00000E+00
    0.21710E+05        -0.49995E+08         0.00000E+00
    0.00000E+00         0.00000E+00        -0.49998E+08
 
   -0.49954E+08         0.22756E+05         0.00000E+00
    0.22756E+05        -0.49995E+08         0.00000E+00
    0.00000E+00         0.00000E+00        -0.49998E+08
 
   -0.49955E+08         0.23781E+05         0.00000E+00
    0.23781E+05        -0.49994E+08         0.00000E+00
    0.00000E+00         0.00000E+00        -0.49998E+08
 
   -0.49956E+08         0.24785E+05         0.00000E+00
    0.24785E+05        -0.49994E+08         0.00000E+00
    0.00000E+00         0.00000E+00        -0.49998E+08
 
   -0.49957E+08         0.25767E+05         0.00000E+00
    0.25767E+05        -0.49993E+08         0.00000E+00
    0.00000E+00         0.00000E+00        -0.49998E+08
 
   -0.49958E+08         0.26726E+05         0.00000E+00
    0.26726E+05        -0.49993E+08         0.00000E+00
    0.00000E+00         0.00000E+00        -0.49998E+08
 
   -0.49959E+08         0.27662E+05         0.00000E+00
    0.27662E+05        -0.49992E+08         0.00000E+00
    0.00000E+00         0.00000E+00        -0.49998E+08
 
   -0.49960E+08         0.28572E+05         0.00000E+00
    0.28572E+05        -0.49991E+08         0.00000E+00
    0.00000E+00         0.00000E+00        -0.49998E+08
 
   -0.49961E+08         0.29457E+05         0.00000E+00
    0.29457E+05        -0.49991E+08         0.00000E+00
    0.00000E+00         0.00000E+00        -0.49998E+08
 
   -0.49962E+08         0.30316E+05         0.00000E+00
    0.30316E+05        -0.49990E+08         0.00000E+00
    0.00000E+00         0.00000E+00        -0.49998E+08
 
   -0.49964E+08         0.31148E+05         0.00000E+00
    0.31148E+05        -0.49989E+08         0.00000E+00
    0.00000E+00         0.00000E+00        -0.49998E+08
 
   -0.49965E+08         0.31951E+05         0.00000E+00
    0.31951E+05        -0.49989E+08         0.00000E+00
    0.00000E+00         0.00000E+00        -0.49998E+08
 
   -0.49966E+08         0.32726E+05         0.00000E+00
    0.32726E+05        -0.49988E+08         0.00000E+00
    0.00000E+00         0.00000E+00        -0.49998E+08
 
   -0.49968E+08         0.33471E+05         0.00000E+00
    0.33471E+05        -0.49987E+08         0.00000E+00
    0.00000E+00         0.00000E+00        -0.49998E+08
 
   -0.49969E+08         0.34185E+05         0.00000E+00
    0.34185E+05        -0.49986E+08         0.00000E+00
    0.00000E+00         0.00000E+00        -0.49998E+08
 
   -0.49970E+08         0.34869E+05         0.00000E+00
    0.34869E+05        -0.49986E+08         0.00000E+00
    0.00000E+00         0.00000E+00        -0.49998E+08
 
   -0.49972E+08         0.35521E+05         0.00000E+00
    0.35521E+05        -0.49985E+08         0.00000E+00
    0.00000E+00         0.00000E+00        -0.49998E+08
 
   -0.49973E+08         0.36141E+05         0.00000E+00
    0.36141E+05        -0.49984E+08         0.00000E+00
    0.00000E+00         0.00000E+00        -0.49998E+08
 
   -0.49975E+08         0.36727E+05         0.00000E+00
    0.36727E+05        -0.49983E+08         0.00000E+00
    0.00000E+00         0.00000E+00        -0.49998E+08
 
   -0.49976E+08         0.37280E+05         0.00000E+00
    0.37280E+05        -0.49982E+08         0.00000E+00
    0.00000E+00         0.00000E+00        -0.49998E+08
 
   -0.49978E+08         0.37798E+05         0.00000E+00
    0.37798E+05        -0.49982E+08         0.00000E+00
    0.00000E+00         0.00000E+00        -0.49998E+08
 
   -0.49980E+08         0.38281E+05         0.00000E+00
    0.38281E+05        -0.49981E+08         0.00000E+00
    0.00000E+00         0.00000E+00        -0.49998E+08
 
   -0.49981E+08         0.38729E+05         0.00000E+00
    0.38729E+05        -0.49980E+08         0.00000E+00
    0.00000E+00         0.00000E+00        -0.49998E+08
 
   -0.49983E+08         0.39140E+05         0.00000E+00
    0.39140E+05        -0.49979E+08         0.00000E+00
    0.00000E+00         0.00000E+00        -0.49998E+08
 
   -0.49985E+08         0.39515E+05         0.00000E+00
    0.39515E+05        -0.49978E+08         0.00000E+00
    0.00000E+00         0.00000E+00        -0.49998E+08
 
   -0.49986E+08         0.39853E+05         0.00000E+00
    0.39853E+05        -0.49977E+08         0.00000E+00
    0.00000E+00         0.00000E+00        -0.49998E+08
 
   -0.49988E+08         0.40154E+05         0.00000E+00
    0.40154E+05        -0.49976E+08         0.00000E+00
    0.00000E+00         0.00000E+00        -0.49998E+08
 
   -0.49990E+08         0.40416E+05         0.00000E+00
    0.40416E+05        -0.49975E+08         0.00000E+00
    0.00000E+00         0.00000E+00        -0.49998E+08
 
   -0.49992E+08         0.40640E+05         0.00000E+00
    0.40640E+05        -0.49974E+08         0.00000E+00
    0.00000E+00         0.00000E+00        -0.49998E+08
 
   -0.49993E+08         0.40824E+05         0.00000E+00
    0.40824E+05        -0.49974E+08         0.00000E+00
    0.00000E+00         0.00000E+00        -0.49998E+08
 
   -0.49995E+08         0.40970E+05         0.00000E+00
    0.40970E+05        -0.49973E+08         0.00000E+00
    0.00000E+00         0.00000E+00        -0.49998E+08
 
   -0.49997E+08         0.41076E+05         0.00000E+00
    0.41076E+05        -0.49972E+08         0.00000E+00
    0.00000E+00         0.00000E+00        -0.49998E+08
 
   -0.49940E+08         0.68878E+03         0.00000E+00
    0.68878E+03        -0.50000E+08         0.00000E+00
    0.00000E+00         0.00000E+00        -0.49998E+08
 
   -0.49940E+08         0.20674E+04         0.00000E+00
    0.20674E+04        -0.50000E+08         0.00000E+00
    0.00000E+00         0.00000E+00        -0.49998E+08
 
   -0.49940E+08         0.34447E+04         0.00000E+00
    0.34447E+04        -0.50000E+08         0.00000E+00
    0.00000E+00         0.00000E+00        -0.49998E+08
 
   -0.49940E+08         0.48195E+04         0.00000E+00
    0.48195E+04        -0.50000E+08         0.00000E+00
    0.00000E+00         0.00000E+00        -0.49998E+08
 
   -0.49940E+08         0.61904E+04         0.00000E+00
    0.61904E+04        -0.50000E+08         0.00000E+00
    0.00000E+00         0.00000E+00        -0.49998E+08
 
   -0.49940E+08         0.75561E+04         0.00000E+00
    0.75561E+04        -0.50000E+08         0.00000E+00
    0.00000E+00         0.00000E+00        -0.49998E+08
 
   -0.49940E+08         0.89156E+04         0.00000E+00
    0.89156E+04        -0.49999E+08         0.00000E+00
    0.00000E+00         0.00000E+00        -0.49998E+08
 
   -0.49941E+08         0.10267E+05         0.00000E+00
    0.10267E+05        -0.49999E+08         0.00000E+00
    0.00000E+00         0.00000E+00        -0.49998E+08
 
   -0.49941E+08         0.11610E+05         0.00000E+00
    0.11610E+05        -0.49999E+08         0.00000E+00
    0.00000E+00         0.00000E+00        -0.49998E+08
 
   -0.49941E+08         0.12943E+05         0.00000E+00
    0.12943E+05        -0.49999E+08         0.00000E+00
    0.00000E+00         0.00000E+00        -0.49998E+08
 
   -0.49942E+08         0.14265E+05         0.00000E+00
    0.14265E+05        -0.49998E+08         0.00000E+00
    0.00000E+00         0.00000E+00        -0.49998E+08
 
   -0.49942E+08         0.15574E+05         0.00000E+00
    0.15574E+05        -0.49998E+08         0.00000E+00
    0.00000E+00         0.00000E+00        -0.49998E+08
 
   -0.49943E+08         0.16870E+05         0.00000E+00
    0.16870E+05        -0.49998E+08         0.00000E+00
    0.00000E+00         0.00000E+00        -0.49998E+08
 
   -0.49944E+08         0.18150E+05         0.00000E+00
    0.18150E+05        -0.49997E+08         0.00000E+00
    0.00000E+00         0.00000E+00        -0.49998E+08
 
   -0.49944E+08         0.19415E+05         0.00000E+00
    0.19415E+05        -0.49997E+08         0.00000E+00
    0.00000E+00         0.00000E+00        -0.49998E+08
 
   -0.49945E+08         0.20663E+05         0.00000E+00
    0.20663E+05        -0.49996E+08         0.00000E+00
    0.00000E+00         0.00000E+00        -0.49998E+08
 
   -0.49946E+08         0.21892E+05         0.00000E+00
    0.21892E+05        -0.49996E+08         0.00000E+00
    0.00000E+00         0.00000E+00        -0.49998E+08
 
   -0.49947E+08         0.23102E+05         0.00000E+00
    0.23102E+05        -0.49995E+08         0.00000E+00
    0.00000E+00         0.00000E+00        -0.49998E+08
 
   -0.49948E+08         0.24292E+05         0.00000E+00
    0.24292E+05        -0.49995E+08         0.00000E+00
    0.00000E+00         0.00000E+00        -0.49998E+08
 
   -0.49949E+08         0.25460E+05         0.00000E+00
    0.25460E+05        -0.49994E+08         0.00000E+00
    0.00000E+00         0.00000E+00        -0.49998E+08
 
   -0.49950E+08         0.26606E+05         0.00000E+00
    0.26606E+05        -0.49994E+08         0.00000E+00
    0.00000E+00         0.00000E+00        -0.49998E+08
 
   -0.49951E+08         0.27727E+05         0.00000E+00
    0.27727E+05        -0.49993E+08         0.00000E+00
    0.00000E+00         0.00000E+00        -0.49998E+08
 
   -0.49952E+08         0.28825E+05         0.00000E+00
    0.28825E+05        -0.49992E+08         0.00000E+00
    0.00000E+00         0.00000E+00        -0.49998E+08
 
   -0.49953E+08         0.29897E+05         0.00000E+00
    0.29897E+05        -0.49992E+08         0.00000E+00
    0.00000E+00         0.00000E+00        -0.49998E+08
 
   -0.49954E+08         0.30942E+05         0.00000E+00
    0.30942E+05        -0.49991E+08         0.00000E+00
    0.00000E+00         0.00000E+00        -0.49998E+08
 
   -0.49955E+08         0.31959E+05         0.00000E+00
    0.31959E+05        -0.49990E+08         0.00000E+00
    0.00000E+00         0.00000E+00        -0.49998E+08
 
   -0.49957E+08         0.32948E+05         0.00000E+00
    0.32948E+05        -0.49990E+08         0.00000E+00
    0.00000E+00         0.00000E+00        -0.49998E+08
 
   -0.49958E+08         0.33908E+05         0.00000E+00
    0.33908E+05        -0.49989E+08         0.00000E+00
    0.00000E+00         0.00000E+00        -0.49998E+08
 
   -0.49959E+08         0.34837E+05         0.00000E+00
    0.34837E+05        -0.49988E+08         0.00000E+00
    0.00000E+00         0.00000E+00        -0.49998E+08
 
   -0.49961E+08         0.35735E+05         0.00000E+00
    0.35735E+05        -0.49987E+08         0.00000E+00
    0.00000E+00         0.00000E+00        -0.49998E+08
 
   -0.49962E+08         0.36600E+05         0.00000E+00
    0.36600E+05        -0.49987E+08         0.00000E+00
    0.00000E+00         0.00000E+00        -0.49998E+08
 
   -0.49964E+08         0.37433E+05         0.00000E+00
    0.37433E+05        -0.49986E+08         0.00000E+00
    0.00000E+00         0.00000E+00        -0.49998E+08
 
   -0.49965E+08         0.38232E+05         0.00000E+00
    0.38232E+05        -0.49985E+08         0.00000E+00
    0.00000E+00         0.00000E+00        -0.49998E+08
 
   -0.49967E+08         0.38997E+05         0.00000E+00
    0.38997E+05        -0.49984E+08         0.00000E+00
    0.00000E+00         0.00000E+00        -0.49998E+08
 
   -0.49969E+08         0.39726E+05         0.00000E+00
    0.39726E+05        -0.49983E+08         0.00000E+00
    0.00000E+00         0.00000E+00        -0.49998E+08
 
   -0.49970E+08         0.40419E+05         0.00000E+00
    0.40419E+05        -0.49982E+08         0.00000E+00
    0.00000E+00         0.00000E+00        -0.49998E+08
 
   -0.49972E+08         0.41075E+05         0.00000E+00
    0.41075E+05        -0.49981E+08         0.00000E+00
    0.00000E+00         0.00000E+00        -0.49998E+08
 
   -0.49974E+08         0.41694E+05         0.00000E+00
    0.41694E+05        -0.49980E+08         0.00000E+00
    0.00000E+00         0.00000E+00        -0.49998E+08
 
   -0.49975E+08         0.42274E+05         0.00000E+00
    0.42274E+05        -0.49979E+08         0.00000E+00
    0.00000E+00         0.00000E+00        -0.49998E+08
 
   -0.49977E+08         0.42816E+05         0.00000E+00
    0.42816E+05        -0.49979E+08         0.00000E+00
    0.00000E+00         0.00000E+00        -0.49998E+08
 
   -0.49979E+08         0.43318E+05         0.00000E+00
    0.43318E+05        -0.49978E+08         0.00000E+00
    0.00000E+00         0.00000E+00        -0.49998E+08
 
   -0.49981E+08         0.43780E+05         0.00000E+00
    0.43780E+05        -0.49977E+08         0.00000E+00
    0.00000E+00         0.00000E+00        -0.49998E+08
 
   -0.49983E+08         0.44201E+05         0.00000E+00
    0.44201E+05        -0.49976E+08         0.00000E+00
    0.00000E+00         0.00000E+00        -0.49998E+08
 
   -0.49985E+08         0.44581E+05         0.00000E+00
    0.44581E+05        -0.49975E+08         0.00000E+00
    0.00000E+00         0.00000E+00        -0.49998E+08
 
   -0.49987E+08         0.44919E+05         0.00000E+00
    0.44919E+05        -0.49974E+08         0.00000E+00
    0.00000E+00         0.00000E+00        -0.49998E+08
 
   -0.49989E+08         0.45215E+05         0.00000E+00
    0.45215E+05        -0.49973E+08         0.00000E+00
    0.00000E+00         0.00000E+00        -0.49998E+08
 
   -0.49991E+08         0.45468E+05         0.00000E+00
    0.45468E+05        -0.49972E+08         0.00000E+00
    0.00000E+00         0.00000E+00        -0.49998E+08
 
   -0.49993E+08         0.45678E+05         0.00000E+00
    0.45678E+05        -0.49971E+08         0.00000E+00
    0.00000E+00         0.00000E+00        -0.49998E+08
 
   -0.49995E+08         0.45844E+05         0.00000E+00
    0.45844E+05        -0.49970E+08         0.00000E+00
    0.00000E+00         0.00000E+00        -0.49998E+08
 
   -0.49997E+08         0.45966E+05         0.00000E+00
    0.45966E+05        -0.49969E+08         0.00000E+00
    0.00000E+00         0.00000E+00        -0.49998E+08
 
   -0.49933E+08         0.77195E+03         0.00000E+00
    0.77195E+03        -0.50000E+08         0.00000E+00
    0.00000E+00         0.00000E+00        -0.49997E+08
 
   -0.49933E+08         0.23160E+04         0.00000E+00
    0.23160E+04        -0.50000E+08         0.00000E+00
    0.00000E+00         0.00000E+00        -0.49997E+08
 
   -0.49933E+08         0.38582E+04         0.00000E+00
    0.38582E+04        -0.50000E+08         0.00000E+00
    0.00000E+00         0.00000E+00        -0.49997E+08
 
   -0.49933E+08         0.53971E+04         0.00000E+00
    0.53971E+04        -0.50000E+08         0.00000E+00
    0.00000E+00         0.00000E+00        -0.49997E+08
 
   -0.49933E+08         0.69315E+04         0.00000E+00
    0.69315E+04        -0.50000E+08         0.00000E+00
    0.00000E+00         0.00000E+00        -0.49997E+08
 
   -0.49933E+08         0.84597E+04         0.00000E+00
    0.84597E+04        -0.49999E+08         0.00000E+00
    0.00000E+00         0.00000E+00        -0.49997E+08
 
   -0.49933E+08         0.99806E+04         0.00000E+00
    0.99806E+04        -0.49999E+08         0.00000E+00
    0.00000E+00         0.00000E+00        -0.49997E+08
 
   -0.49934E+08         0.11493E+05         0.00000E+00
    0.11493E+05        -0.49999E+08         0.00000E+00
    0.00000E+00         0.00000E+00        -0.49997E+08
 
   -0.49934E+08         0.12995E+05         0.00000E+00
    0.12995E+05        -0.49999E+08         0.00000E+00
    0.00000E+00         0.00000E+00        -0.49997E+08
 
   -0.49934E+08         0.14485E+05         0.00000E+00
    0.14485E+05        -0.49998E+08         0.00000E+00
    0.00000E+00         0.00000E+00        -0.49997E+08
 
   -0.49935E+08         0.15962E+05         0.00000E+00
    0.15962E+05        -0.49998E+08         0.00000E+00
    0.00000E+00         0.00000E+00        -0.49997E+08
 
   -0.49936E+08         0.17426E+05         0.00000E+00
    0.17426E+05        -0.49998E+08         0.00000E+00
    0.00000E+00         0.00000E+00        -0.49997E+08
 
   -0.49936E+08         0.18874E+05         0.00000E+00
    0.18874E+05        -0.49997E+08         0.00000E+00
    0.00000E+00         0.00000E+00        -0.49997E+08
 
   -0.49937E+08         0.20305E+05         0.00000E+00
    0.20305E+05        -0.49997E+08         0.00000E+00
    0.00000E+00         0.00000E+00        -0.49997E+08
 
   -0.49938E+08         0.21718E+05         0.00000E+00
    0.21718E+05        -0.49996E+08         0.00000E+00
    0.00000E+00         0.00000E+00        -0.49997E+08
 
   -0.49939E+08         0.23112E+05         0.00000E+00
    0.23112E+05        -0.49996E+08         0.00000E+00
    0.00000E+00         0.00000E+00        -0.49997E+08
 
   -0.49939E+08         0.24486E+05         0.00000E+00
    0.24486E+05        -0.49995E+08         0.00000E+00
    0.00000E+00         0.00000E+00        -0.49997E+08
 
   -0.49940E+08         0.25837E+05         0.00000E+00
    0.25837E+05        -0.49995E+08         0.00000E+00
    0.00000E+00         0.00000E+00        -0.49997E+08
 
   -0.49941E+08         0.27166E+05         0.00000E+00
    0.27166E+05        -0.49994E+08         0.00000E+00
    0.00000E+00         0.00000E+00        -0.49997E+08
 
   -0.49942E+08         0.28471E+05         0.00000E+00
    0.28471E+05        -0.49994E+08         0.00000E+00
    0.00000E+00         0.00000E+00        -0.49997E+08
 
   -0.49944E+08         0.29750E+05         0.00000E+00
    0.29750E+05        -0.49993E+08         0.00000E+00
    0.00000E+00         0.00000E+00        -0.49997E+08
 
   -0.49945E+08         0.31003E+05         0.00000E+00
    0.31003E+05        -0.49992E+08         0.00000E+00
    0.00000E+00         0.00000E+00        -0.49997E+08
 
   -0.49946E+08         0.32229E+05         0.00000E+00
    0.32229E+05        -0.49992E+08         0.00000E+00
    0.00000E+00         0.00000E+00        -0.49997E+08
 
   -0.49947E+08         0.33426E+05         0.00000E+00
    0.33426E+05        -0.49991E+08         0.00000E+00
    0.00000E+00         0.00000E+00        -0.49997E+08
 
   -0.49949E+08         0.34593E+05         0.00000E+00
    0.34593E+05        -0.49990E+08         0.00000E+00
    0.00000E+00         0.00000E+00        -0.49997E+08
 
   -0.49950E+08         0.35729E+05         0.00000E+00
    0.35729E+05        -0.49989E+08         0.00000E+00
    0.00000E+00         0.00000E+00        -0.49997E+08
 
   -0.49952E+08         0.36833E+05         0.00000E+00
    0.36833E+05        -0.49988E+08         0.00000E+00
    0.00000E+00         0.00000E+00        -0.49997E+08
 
   -0.49953E+08         0.37905E+05         0.00000E+00
    0.37905E+05        -0.49988E+08         0.00000E+00
    0.00000E+00         0.00000E+00        -0.49997E+08
 
   -0.49955E+08         0.38943E+05         0.00000E+00
    0.38943E+05        -0.49987E+08         0.00000E+00
    0.00000E+00         0.00000E+00        -0.49997E+08
 
   -0.49956E+08         0.39946E+05         0.00000E+00
    0.39946E+05        -0.49986E+08         0.00000E+00
    0.00000E+00         0.00000E+00        -0.49997E+08
 
   -0.49958E+08         0.40913E+05         0.00000E+00
    0.40913E+05        -0.49985E+08         0.00000E+00
    0.00000E+00         0.00000E+00        -0.49997E+08
 
   -0.49959E+08         0.41843E+05         0.00000E+00
    0.41843E+05        -0.49984E+08         0.00000E+00
    0.00000E+00         0.00000E+00        -0.49997E+08
 
   -0.49961E+08         0.42736E+05         0.00000E+00
    0.42736E+05        -0.49983E+08         0.00000E+00
    0.00000E+00         0.00000E+00        -0.49997E+08
 
   -0.49963E+08         0.43590E+05         0.00000E+00
    0.43590E+05        -0.49982E+08         0.00000E+00
    0.00000E+00         0.00000E+00        -0.49997E+08
 
   -0.49965E+08         0.44406E+05         0.00000E+00
    0.44406E+05        -0.49981E+08         0.00000E+00
    0.00000E+00         0.00000E+00        -0.49997E+08
 
   -0.49967E+08         0.45180E+05         0.00000E+00
    0.45180E+05        -0.49980E+08         0.00000E+00
    0.00000E+00         0.00000E+00        -0.49997E+08
 
   -0.49969E+08         0.45914E+05         0.00000E+00
    0.45914E+05        -0.49979E+08         0.00000E+00
    0.00000E+00         0.00000E+00        -0.49997E+08
 
   -0.49970E+08         0.46607E+05         0.00000E+00
    0.46607E+05        -0.49978E+08         0.00000E+00
    0.00000E+00         0.00000E+00        -0.49997E+08
 
   -0.49972E+08         0.47256E+05         0.00000E+00
    0.47256E+05        -0.49977E+08         0.00000E+00
    0.00000E+00         0.00000E+00        -0.49997E+08
 
   -0.49974E+08         0.47863E+05         0.00000E+00
    0.47863E+05        -0.49976E+08         0.00000E+00
    0.00000E+00         0.00000E+00        -0.49997E+08
 
   -0.49977E+08         0.48426E+05         0.00000E+00
    0.48426E+05        -0.49975E+08         0.00000E+00
    0.00000E+00         0.00000E+00        -0.49997E+08
 
   -0.49979E+08         0.48944E+05         0.00000E+00
    0.48944E+05        -0.49974E+08         0.00000E+00
    0.00000E+00         0.00000E+00        -0.49997E+08
 
   -0.49981E+08         0.49417E+05         0.00000E+00
    0.49417E+05        -0.49973E+08         0.00000E+00
    0.00000E+00         0.00000E+00        -0.49997E+08
 
   -0.49983E+08         0.49844E+05         0.00000E+00
    0.49844E+05        -0.49972E+08         0.00000E+00
    0.00000E+00         0.00000E+00        -0.49997E+08
 
   -0.49985E+08         0.50225E+05         0.00000E+00
    0.50225E+05        -0.49971E+08         0.00000E+00
    0.00000E+00         0.00000E+00        -0.49997E+08
 
   -0.49987E+08         0.50558E+05         0.00000E+00
    0.50558E+05        -0.49970E+08         0.00000E+00
    0.00000E+00         0.00000E+00        -0.49997E+08
 
   -0.49989E+08         0.50845E+05         0.00000E+00
    0.50845E+05        -0.49968E+08         0.00000E+00
    0.00000E+00         0.00000E+00        -0.49997E+08
 
   -0.49992E+08         0.51083E+05         0.00000E+00
    0.51083E+05        -0.49967E+08         0.00000E+00
    0.00000E+00         0.00000E+00        -0.49997E+08
 
   -0.49994E+08         0.51273E+05         0.00000E+00
    0.51273E+05        -0.49966E+08         0.00000E+00
    0.00000E+00         0.00000E+00        -0.49997E+08
 
   -0.49996E+08         0.51414E+05         0.00000E+00
    0.51414E+05        -0.49965E+08         0.00000E+00
    0.00000E+00         0.00000E+00        -0.49997E+08
 
   -0.49924E+08         0.86477E+03         0.00000E+00
    0.86477E+03        -0.50000E+08         0.00000E+00
    0.00000E+00         0.00000E+00        -0.49997E+08
 
   -0.49924E+08         0.25932E+04         0.00000E+00
    0.25932E+04        -0.50000E+08         0.00000E+00
    0.00000E+00         0.00000E+00        -0.49997E+08
 
   -0.49924E+08         0.43192E+04         0.00000E+00
    0.43192E+04        -0.50000E+08         0.00000E+00
    0.00000E+00         0.00000E+00        -0.49997E+08
 
   -0.49925E+08         0.60412E+04         0.00000E+00
    0.60412E+04        -0.50000E+08         0.00000E+00
    0.00000E+00         0.00000E+00        -0.49997E+08
 
   -0.49925E+08         0.77576E+04         0.00000E+00
    0.77576E+04        -0.50000E+08         0.00000E+00
    0.00000E+00         0.00000E+00        -0.49997E+08
 
   -0.49925E+08         0.94668E+04         0.00000E+00
    0.94668E+04        -0.49999E+08         0.00000E+00
    0.00000E+00         0.00000E+00        -0.49997E+08
 
   -0.49925E+08         0.11167E+05         0.00000E+00
    0.11167E+05        -0.49999E+08         0.00000E+00
    0.00000E+00         0.00000E+00        -0.49997E+08
 
   -0.49926E+08         0.12858E+05         0.00000E+00
    0.12858E+05        -0.49999E+08         0.00000E+00
    0.00000E+00         0.00000E+00        -0.49997E+08
 
   -0.49926E+08         0.14537E+05         0.00000E+00
    0.14537E+05        -0.49999E+08         0.00000E+00
    0.00000E+00         0.00000E+00        -0.49997E+08
 
   -0.49927E+08         0.16202E+05         0.00000E+00
    0.16202E+05        -0.49998E+08         0.00000E+00
    0.00000E+00         0.00000E+00        -0.49997E+08
 
   -0.49927E+08         0.17853E+05         0.00000E+00
    0.17853E+05        -0.49998E+08         0.00000E+00
    0.00000E+00         0.00000E+00        -0.49997E+08
 
   -0.49928E+08         0.19488E+05         0.00000E+00
    0.19488E+05        -0.49997E+08         0.00000E+00
    0.00000E+00         0.00000E+00        -0.49997E+08
 
   -0.49929E+08         0.21106E+05         0.00000E+00
    0.21106E+05        -0.49997E+08         0.00000E+00
    0.00000E+00         0.00000E+00        -0.49997E+08
 
   -0.49929E+08         0.22704E+05         0.00000E+00
    0.22704E+05        -0.49997E+08         0.00000E+00
    0.00000E+00         0.00000E+00        -0.49997E+08
 
   -0.49930E+08         0.24283E+05         0.00000E+00
    0.24283E+05        -0.49996E+08         0.00000E+00
    0.00000E+00         0.00000E+00        -0.49997E+08
 
   -0.49931E+08         0.25839E+05         0.00000E+00
    0.25839E+05        -0.49995E+08         0.00000E+00
    0.00000E+00         0.00000E+00        -0.49997E+08
 
   -0.49932E+08         0.27373E+05         0.00000E+00
    0.27373E+05        -0.49995E+08         0.00000E+00
    0.00000E+00         0.00000E+00        -0.49997E+08
 
   -0.49933E+08         0.28882E+05         0.00000E+00
    0.28882E+05        -0.49994E+08         0.00000E+00
    0.00000E+00         0.00000E+00        -0.49997E+08
 
   -0.49934E+08         0.30365E+05         0.00000E+00
    0.30365E+05        -0.49994E+08         0.00000E+00
    0.00000E+00         0.00000E+00        -0.49997E+08
 
   -0.49936E+08         0.31822E+05         0.00000E+00
    0.31822E+05        -0.49993E+08         0.00000E+00
    0.00000E+00         0.00000E+00        -0.49997E+08
 
   -0.49937E+08         0.33250E+05         0.00000E+00
    0.33250E+05        -0.49992E+08         0.00000E+00
    0.00000E+00         0.00000E+00        -0.49997E+08
 
   -0.49938E+08         0.34648E+05         0.00000E+00
    0.34648E+05        -0.49991E+08         0.00000E+00
    0.00000E+00         0.00000E+00        -0.49997E+08
 
   -0.49940E+08         0.36016E+05         0.00000E+00
    0.36016E+05        -0.49991E+08         0.00000E+00
    0.00000E+00         0.00000E+00        -0.49997E+08
 
   -0.49941E+08         0.37352E+05         0.00000E+00
    0.37352E+05        -0.49990E+08         0.00000E+00
    0.00000E+00         0.00000E+00        -0.49997E+08
 
   -0.49943E+08         0.38655E+05         0.00000E+00
    0.38655E+05        -0.49989E+08         0.00000E+00
    0.00000E+00         0.00000E+00        -0.49997E+08
 
   -0.49944E+08         0.39923E+05         0.00000E+00
    0.39923E+05        -0.49988E+08         0.00000E+00
    0.00000E+00         0.00000E+00        -0.49997E+08
 
   -0.49946E+08         0.41156E+05         0.00000E+00
    0.41156E+05        -0.49987E+08         0.00000E+00
    0.00000E+00         0.00000E+00        -0.49997E+08
 
   -0.49947E+08         0.42352E+05         0.00000E+00
    0.42352E+05        -0.49986E+08         0.00000E+00
    0.00000E+00         0.00000E+00        -0.49997E+08
 
   -0.49949E+08         0.43510E+05         0.00000E+00
    0.43510E+05        -0.49985E+08         0.00000E+00
    0.00000E+00         0.00000E+00        -0.49997E+08
 
   -0.49951E+08         0.44630E+05         0.00000E+00
    0.44630E+05        -0.49984E+08         0.00000E+00
    0.00000E+00         0.00000E+00        -0.49997E+08
 
   -0.49953E+08         0.45710E+05         0.00000E+00
    0.45710E+05        -0.49983E+08         0.00000E+00
    0.00000E+00         0.00000E+00        -0.49997E+08
 
   -0.49955E+08         0.46749E+05         0.00000E+00
    0.46749E+05        -0.49982E+08         0.00000E+00
    0.00000E+00         0.00000E+00        -0.49997E+08
 
   -0.49957E+08         0.47746E+05         0.00000E+00
    0.47746E+05        -0.49981E+08         0.00000E+00
    0.00000E+00         0.00000E+00        -0.49997E+08
 
   -0.49959E+08         0.48700E+05         0.00000E+00
    0.48700E+05        -0.49980E+08         0.00000E+00
    0.00000E+00         0.00000E+00        -0.49997E+08
 
   -0.49961E+08         0.49611E+05         0.00000E+00
    0.49611E+05        -0.49979E+08         0.00000E+00
    0.00000E+00         0.00000E+00        -0.49997E+08
 
   -0.49963E+08         0.50477E+05         0.00000E+00
    0.50477E+05        -0.49978E+08         0.00000E+00
    0.00000E+00         0.00000E+00        -0.49997E+08
 
   -0.49965E+08         0.51298E+05         0.00000E+00
    0.51298E+05        -0.49977E+08         0.00000E+00
    0.00000E+00         0.00000E+00        -0.49997E+08
 
   -0.49967E+08         0.52072E+05         0.00000E+00
    0.52072E+05        -0.49976E+08         0.00000E+00
    0.00000E+00         0.00000E+00        -0.49997E+08
 
   -0.49969E+08         0.52800E+05         0.00000E+00
    0.52800E+05        -0.49975E+08         0.00000E+00
    0.00000E+00         0.00000E+00        -0.49997E+08
 
   -0.49971E+08         0.53479E+05         0.00000E+00
    0.53479E+05        -0.49973E+08         0.00000E+00
    0.00000E+00         0.00000E+00        -0.49997E+08
 
   -0.49974E+08         0.54109E+05         0.00000E+00
    0.54109E+05        -0.49972E+08         0.00000E+00
    0.00000E+00         0.00000E+00        -0.49997E+08
 
   -0.49976E+08         0.54690E+05         0.00000E+00
    0.54690E+05        -0.49971E+08         0.00000E+00
    0.00000E+00         0.00000E+00        -0.49997E+08
 
   -0.49978E+08         0.55221E+05         0.00000E+00
    0.55221E+05        -0.49970E+08         0.00000E+00
    0.00000E+00         0.00000E+00        -0.49997E+08
 
   -0.49981E+08         0.55701E+05         0.00000E+00
    0.55701E+05        -0.49969E+08         0.00000E+00
    0.00000E+00         0.00000E+00        -0.49997E+08
 
   -0.49983E+08         0.56130E+05         0.00000E+00
    0.56130E+05        -0.49967E+08         0.00000E+00
    0.00000E+00         0.00000E+00        -0.49997E+08
 
   -0.49986E+08         0.56507E+05         0.00000E+00
    0.56507E+05        -0.49966E+08         0.00000E+00
    0.00000E+00         0.00000E+00        -0.49997E+08
 
   -0.49988E+08         0.56830E+05         0.00000E+00
    0.56830E+05        -0.49965E+08         0.00000E+00
    0.00000E+00         0.00000E+00        -0.49997E+08
 
   -0.49990E+08         0.57101E+05         0.00000E+00
    0.57101E+05        -0.49964E+08         0.00000E+00
    0.00000E+00         0.00000E+00        -0.49997E+08
 
   -0.49993E+08         0.57318E+05         0.00000E+00
    0.57318E+05        -0.49962E+08         0.00000E+00
    0.00000E+00         0.00000E+00        -0.49997E+08
 
   -0.49996E+08         0.57481E+05         0.00000E+00
    0.57481E+05        -0.49961E+08         0.00000E+00
    0.00000E+00         0.00000E+00        -0.49997E+08
 
   -0.49915E+08         0.96832E+03         0.00000E+00
    0.96832E+03        -0.50000E+08         0.00000E+00
    0.00000E+00         0.00000E+00        -0.49996E+08
 
   -0.49915E+08         0.29023E+04         0.00000E+00
    0.29023E+04        -0.50000E+08         0.00000E+00
    0.00000E+00         0.00000E+00        -0.49996E+08
 
   -0.49915E+08         0.48331E+04         0.00000E+00
    0.48331E+04        -0.50000E+08         0.00000E+00
    0.00000E+00         0.00000E+00        -0.49996E+08
 
   -0.49915E+08         0.67589E+04         0.00000E+00
    0.67589E+04        -0.50000E+08         0.00000E+00
    0.00000E+00         0.00000E+00        -0.49996E+08
 
   -0.49916E+08         0.86780E+04         0.00000E+00
    0.86780E+04        -0.50000E+08         0.00000E+00
    0.00000E+00         0.00000E+00        -0.49996E+08
 
   -0.49916E+08         0.10589E+05         0.00000E+00
    0.10589E+05        -0.49999E+08         0.00000E+00
    0.00000E+00         0.00000E+00        -0.49996E+08
 
   -0.49916E+08         0.12489E+05         0.00000E+00
    0.12489E+05        -0.49999E+08         0.00000E+00
    0.00000E+00         0.00000E+00        -0.49996E+08
 
   -0.49917E+08         0.14378E+05         0.00000E+00
    0.14378E+05        -0.49999E+08         0.00000E+00
    0.00000E+00         0.00000E+00        -0.49996E+08
 
   -0.49917E+08         0.16254E+05         0.00000E+00
    0.16254E+05        -0.49998E+08         0.00000E+00
    0.00000E+00         0.00000E+00        -0.49996E+08
 
   -0.49918E+08         0.18114E+05         0.00000E+00
    0.18114E+05        -0.49998E+08         0.00000E+00
    0.00000E+00         0.00000E+00        -0.49996E+08
 
   -0.49919E+08         0.19958E+05         0.00000E+00
    0.19958E+05        -0.49998E+08         0.00000E+00
    0.00000E+00         0.00000E+00        -0.49996E+08
 
   -0.49919E+08         0.21784E+05         0.00000E+00
    0.21784E+05        -0.49997E+08         0.00000E+00
    0.00000E+00         0.00000E+00        -0.49996E+08
 
   -0.49920E+08         0.23590E+05         0.00000E+00
    0.23590E+05        -0.49997E+08         0.00000E+00
    0.00000E+00         0.00000E+00        -0.49996E+08
 
   -0.49921E+08         0.25375E+05         0.00000E+00
    0.25375E+05        -0.49996E+08         0.00000E+00
    0.00000E+00         0.00000E+00        -0.49996E+08
 
   -0.49922E+08         0.27136E+05         0.00000E+00
    0.27136E+05        -0.49996E+08         0.00000E+00
    0.00000E+00         0.00000E+00        -0.49996E+08
 
   -0.49923E+08         0.28873E+05         0.00000E+00
    0.28873E+05        -0.49995E+08         0.00000E+00
    0.00000E+00         0.00000E+00        -0.49996E+08
 
   -0.49924E+08         0.30585E+05         0.00000E+00
    0.30585E+05        -0.49994E+08         0.00000E+00
    0.00000E+00         0.00000E+00        -0.49996E+08
 
   -0.49925E+08         0.32269E+05         0.00000E+00
    0.32269E+05        -0.49994E+08         0.00000E+00
    0.00000E+00         0.00000E+00        -0.49996E+08
 
   -0.49927E+08         0.33924E+05         0.00000E+00
    0.33924E+05        -0.49993E+08         0.00000E+00
    0.00000E+00         0.00000E+00        -0.49996E+08
 
   -0.49928E+08         0.35549E+05         0.00000E+00
    0.35549E+05        -0.49992E+08         0.00000E+00
    0.00000E+00         0.00000E+00        -0.49996E+08
 
   -0.49929E+08         0.37142E+05         0.00000E+00
    0.37142E+05        -0.49991E+08         0.00000E+00
    0.00000E+00         0.00000E+00        -0.49996E+08
 
   -0.49931E+08         0.38702E+05         0.00000E+00
    0.38702E+05        -0.49990E+08         0.00000E+00
    0.00000E+00         0.00000E+00        -0.49996E+08
 
   -0.49932E+08         0.40228E+05         0.00000E+00
    0.40228E+05        -0.49990E+08         0.00000E+00
    0.00000E+00         0.00000E+00        -0.49996E+08
 
   -0.49934E+08         0.41718E+05         0.00000E+00
    0.41718E+05        -0.49989E+08         0.00000E+00
    0.00000E+00         0.00000E+00        -0.49996E+08
 
   -0.49936E+08         0.43171E+05         0.00000E+00
    0.43171E+05        -0.49988E+08         0.00000E+00
    0.00000E+00         0.00000E+00        -0.49996E+08
 
   -0.49938E+08         0.44586E+05         0.00000E+00
    0.44586E+05        -0.49987E+08         0.00000E+00
    0.00000E+00         0.00000E+00        -0.49996E+08
 
   -0.49939E+08         0.45961E+05         0.00000E+00
    0.45961E+05        -0.49986E+08         0.00000E+00
    0.00000E+00         0.00000E+00        -0.49996E+08
 
   -0.49941E+08         0.47296E+05         0.00000E+00
    0.47296E+05        -0.49985E+08         0.00000E+00
    0.00000E+00         0.00000E+00        -0.49996E+08
 
   -0.49943E+08         0.48588E+05         0.00000E+00
    0.48588E+05        -0.49984E+08         0.00000E+00
    0.00000E+00         0.00000E+00        -0.49996E+08
 
   -0.49945E+08         0.49838E+05         0.00000E+00
    0.49838E+05        -0.49983E+08         0.00000E+00
    0.00000E+00         0.00000E+00        -0.49996E+08
 
   -0.49947E+08         0.51043E+05         0.00000E+00
    0.51043E+05        -0.49981E+08         0.00000E+00
    0.00000E+00         0.00000E+00        -0.49996E+08
 
   -0.49949E+08         0.52203E+05         0.00000E+00
    0.52203E+05        -0.49980E+08         0.00000E+00
    0.00000E+00         0.00000E+00        -0.49996E+08
 
   -0.49951E+08         0.53316E+05         0.00000E+00
    0.53316E+05        -0.49979E+08         0.00000E+00
    0.00000E+00         0.00000E+00        -0.49996E+08
 
   -0.49954E+08         0.54382E+05         0.00000E+00
    0.54382E+05        -0.49978E+08         0.00000E+00
    0.00000E+00         0.00000E+00        -0.49996E+08
 
   -0.49956E+08         0.55399E+05         0.00000E+00
    0.55399E+05        -0.49977E+08         0.00000E+00
    0.00000E+00         0.00000E+00        -0.49996E+08
 
   -0.49958E+08         0.56367E+05         0.00000E+00
    0.56367E+05        -0.49976E+08         0.00000E+00
    0.00000E+00         0.00000E+00        -0.49996E+08
 
   -0.49961E+08         0.57284E+05         0.00000E+00
    0.57284E+05        -0.49974E+08         0.00000E+00
    0.00000E+00         0.00000E+00        -0.49996E+08
 
   -0.49963E+08         0.58150E+05         0.00000E+00
    0.58150E+05        -0.49973E+08         0.00000E+00
    0.00000E+00         0.00000E+00        -0.49996E+08
 
   -0.49965E+08         0.58963E+05         0.00000E+00
    0.58963E+05        -0.49972E+08         0.00000E+00
    0.00000E+00         0.00000E+00        -0.49996E+08
 
   -0.49968E+08         0.59723E+05         0.00000E+00
    0.59723E+05        -0.49970E+08         0.00000E+00
    0.00000E+00         0.00000E+00        -0.49996E+08
 
   -0.49970E+08         0.60430E+05         0.00000E+00
    0.60430E+05        -0.49969E+08         0.00000E+00
    0.00000E+00         0.00000E+00        -0.49996E+08
 
   -0.49973E+08         0.61081E+05         0.00000E+00
    0.61081E+05        -0.49968E+08         0.00000E+00
    0.00000E+00         0.00000E+00        -0.49996E+08
 
   -0.49976E+08         0.61677E+05         0.00000E+00
    0.61677E+05        -0.49966E+08         0.00000E+00
    0.00000E+00         0.00000E+00        -0.49996E+08
 
   -0.49978E+08         0.62217E+05         0.00000E+00
    0.62217E+05        -0.49965E+08         0.00000E+00
    0.00000E+00         0.00000E+00        -0.49996E+08
 
   -0.49981E+08         0.62699E+05         0.00000E+00
    0.62699E+05        -0.49964E+08         0.00000E+00
    0.00000E+00         0.00000E+00        -0.49996E+08
 
   -0.49984E+08         0.63124E+05         0.00000E+00
    0.63124E+05        -0.49962E+08         0.00000E+00
    0.00000E+00         0.00000E+00        -0.49996E+08
 
   -0.49986E+08         0.63490E+05         0.00000E+00
    0.63490E+05        -0.49961E+08         0.00000E+00
    0.00000E+00         0.00000E+00        -0.49996E+08
 
   -0.49989E+08         0.63798E+05         0.00000E+00
    0.63798E+05        -0.49959E+08         0.00000E+00
    0.00000E+00         0.00000E+00        -0.49996E+08
 
   -0.49992E+08         0.64046E+05         0.00000E+00
    0.64046E+05        -0.49958E+08         0.00000E+00
    0.00000E+00         0.00000E+00        -0.49996E+08
 
   -0.49995E+08         0.64234E+05         0.00000E+00
    0.64234E+05        -0.49957E+08         0.00000E+00
    0.00000E+00         0.00000E+00        -0.49996E+08
 
   -0.49905E+08         0.10838E+04         0.00000E+00
    0.10838E+04        -0.50000E+08         0.00000E+00
    0.00000E+00         0.00000E+00        -0.49996E+08
 
   -0.49905E+08         0.32468E+04         0.00000E+00
    0.32468E+04        -0.50000E+08         0.00000E+00
    0.00000E+00         0.00000E+00        -0.49996E+08
 
   -0.49905E+08         0.54056E+04         0.00000E+00
    0.54056E+04        -0.50000E+08         0.00000E+00
    0.00000E+00         0.00000E+00        -0.49996E+08
 
   -0.49905E+08         0.75582E+04         0.00000E+00
    0.75582E+04        -0.50000E+08         0.00000E+00
    0.00000E+00         0.00000E+00        -0.49996E+08
 
   -0.49906E+08         0.97030E+04         0.00000E+00
    0.97030E+04        -0.50000E+08         0.00000E+00
    0.00000E+00         0.00000E+00        -0.49996E+08
 
   -0.49906E+08         0.11838E+05         0.00000E+00
    0.11838E+05        -0.49999E+08         0.00000E+00
    0.00000E+00         0.00000E+00        -0.49996E+08
 
   -0.49906E+08         0.13961E+05         0.00000E+00
    0.13961E+05        -0.49999E+08         0.00000E+00
    0.00000E+00         0.00000E+00        -0.49996E+08
 
   -0.49907E+08         0.16071E+05         0.00000E+00
    0.16071E+05        -0.49999E+08         0.00000E+00
    0.00000E+00         0.00000E+00        -0.49996E+08
 
   -0.49907E+08         0.18165E+05         0.00000E+00
    0.18165E+05        -0.49998E+08         0.00000E+00
    0.00000E+00         0.00000E+00        -0.49996E+08
 
   -0.49908E+08         0.20242E+05         0.00000E+00
    0.20242E+05        -0.49998E+08         0.00000E+00
    0.00000E+00         0.00000E+00        -0.49996E+08
 
   -0.49909E+08         0.22300E+05         0.00000E+00
    0.22300E+05        -0.49997E+08         0.00000E+00
    0.00000E+00         0.00000E+00        -0.49996E+08
 
   -0.49910E+08         0.24338E+05         0.00000E+00
    0.24338E+05        -0.49997E+08         0.00000E+00
    0.00000E+00         0.00000E+00        -0.49996E+08
 
   -0.49911E+08         0.26353E+05         0.00000E+00
    0.26353E+05        -0.49996E+08         0.00000E+00
    0.00000E+00         0.00000E+00        -0.49996E+08
 
   -0.49912E+08         0.28344E+05         0.00000E+00
    0.28344E+05        -0.49996E+08         0.00000E+00
    0.00000E+00         0.00000E+00        -0.49996E+08
 
   -0.49913E+08         0.30309E+05         0.00000E+00
    0.30309E+05        -0.49995E+08         0.00000E+00
    0.00000E+00         0.00000E+00        -0.49996E+08
 
   -0.49914E+08         0.32247E+05         0.00000E+00
    0.32247E+05        -0.49994E+08         0.00000E+00
    0.00000E+00         0.00000E+00        -0.49996E+08
 
   -0.49915E+08         0.34156E+05         0.00000E+00
    0.34156E+05        -0.49994E+08         0.00000E+00
    0.00000E+00         0.00000E+00        -0.49996E+08
 
   -0.49917E+08         0.36034E+05         0.00000E+00
    0.36034E+05        -0.49993E+08         0.00000E+00
    0.00000E+00         0.00000E+00        -0.49996E+08
 
   -0.49918E+08         0.37880E+05         0.00000E+00
    0.37880E+05        -0.49992E+08         0.00000E+00
    0.00000E+00         0.00000E+00        -0.49996E+08
 
   -0.49920E+08         0.39692E+05         0.00000E+00
    0.39692E+05        -0.49991E+08         0.00000E+00
    0.00000E+00         0.00000E+00        -0.49996E+08
 
   -0.49921E+08         0.41468E+05         0.00000E+00
    0.41468E+05        -0.49990E+08         0.00000E+00
    0.00000E+00         0.00000E+00        -0.49996E+08
 
   -0.49923E+08         0.43208E+05         0.00000E+00
    0.43208E+05        -0.49989E+08         0.00000E+00
    0.00000E+00         0.00000E+00        -0.49996E+08
 
   -0.49925E+08         0.44909E+05         0.00000E+00
    0.44909E+05        -0.49988E+08         0.00000E+00
    0.00000E+00         0.00000E+00        -0.49996E+08
 
   -0.49926E+08         0.46570E+05         0.00000E+00
    0.46570E+05        -0.49987E+08         0.00000E+00
    0.00000E+00         0.00000E+00        -0.49996E+08
 
   -0.49928E+08         0.48190E+05         0.00000E+00
    0.48190E+05        -0.49986E+08         0.00000E+00
    0.00000E+00         0.00000E+00        -0.49996E+08
 
   -0.49930E+08         0.49768E+05         0.00000E+00
    0.49768E+05        -0.49985E+08         0.00000E+00
    0.00000E+00         0.00000E+00        -0.49996E+08
 
   -0.49932E+08         0.51301E+05         0.00000E+00
    0.51301E+05        -0.49984E+08         0.00000E+00
    0.00000E+00         0.00000E+00        -0.49996E+08
 
   -0.49934E+08         0.52789E+05         0.00000E+00
    0.52789E+05        -0.49983E+08         0.00000E+00
    0.00000E+00         0.00000E+00        -0.49996E+08
 
   -0.49936E+08         0.54231E+05         0.00000E+00
    0.54231E+05        -0.49982E+08         0.00000E+00
    0.00000E+00         0.00000E+00        -0.49996E+08
 
   -0.49939E+08         0.55624E+05         0.00000E+00
    0.55624E+05        -0.49981E+08         0.00000E+00
    0.00000E+00         0.00000E+00        -0.49996E+08
 
   -0.49941E+08         0.56968E+05         0.00000E+00
    0.56968E+05        -0.49979E+08         0.00000E+00
    0.00000E+00         0.00000E+00        -0.49996E+08
 
   -0.49943E+08         0.58262E+05         0.00000E+00
    0.58262E+05        -0.49978E+08         0.00000E+00
    0.00000E+00         0.00000E+00        -0.49996E+08
 
   -0.49946E+08         0.59505E+05         0.00000E+00
    0.59505E+05        -0.49977E+08         0.00000E+00
    0.00000E+00         0.00000E+00        -0.49996E+08
 
   -0.49948E+08         0.60694E+05         0.00000E+00
    0.60694E+05        -0.49976E+08         0.00000E+00
    0.00000E+00         0.00000E+00        -0.49996E+08
 
   -0.49951E+08         0.61830E+05         0.00000E+00
    0.61830E+05        -0.49974E+08         0.00000E+00
    0.00000E+00         0.00000E+00        -0.49996E+08
 
   -0.49953E+08         0.62911E+05         0.00000E+00
    0.62911E+05        -0.49973E+08         0.00000E+00
    0.00000E+00         0.00000E+00        -0.49996E+08
 
   -0.49956E+08         0.63935E+05         0.00000E+00
    0.63935E+05        -0.49971E+08         0.00000E+00
    0.00000E+00         0.00000E+00        -0.49996E+08
 
   -0.49959E+08         0.64903E+05         0.00000E+00
    0.64903E+05        -0.49970E+08         0.00000E+00
    0.00000E+00         0.00000E+00        -0.49996E+08
 
   -0.49961E+08         0.65813E+05         0.00000E+00
    0.65813E+05        -0.49969E+08         0.00000E+00
    0.00000E+00         0.00000E+00        -0.49996E+08
 
   -0.49964E+08         0.66664E+05         0.00000E+00
    0.66664E+05        -0.49967E+08         0.00000E+00
    0.00000E+00         0.00000E+00        -0.49996E+08
 
   -0.49967E+08         0.67455E+05         0.00000E+00
    0.67455E+05        -0.49966E+08         0.00000E+00
    0.00000E+00         0.00000E+00        -0.49996E+08
 
   -0.49970E+08         0.68185E+05         0.00000E+00
    0.68185E+05        -0.49964E+08         0.00000E+00
    0.00000E+00         0.00000E+00        -0.49996E+08
 
   -0.49973E+08         0.68854E+05         0.00000E+00
    0.68854E+05        -0.49963E+08         0.00000E+00
    0.00000E+00         0.00000E+00        -0.49996E+08
 
   -0.49976E+08         0.69460E+05         0.00000E+00
    0.69460E+05        -0.49961E+08         0.00000E+00
    0.00000E+00         0.00000E+00        -0.49996E+08
 
   -0.49979E+08         0.70003E+05         0.00000E+00
    0.70003E+05        -0.49960E+08         0.00000E+00
    0.00000E+00         0.00000E+00        -0.49996E+08
 
   -0.49982E+08         0.70482E+05         0.00000E+00
    0.70482E+05        -0.49958E+08         0.00000E+00
    0.00000E+00         0.00000E+00        -0.49996E+08
 
   -0.49985E+08         0.70897E+05         0.00000E+00
    0.70897E+05        -0.49957E+08         0.00000E+00
    0.00000E+00         0.00000E+00        -0.49996E+08
 
   -0.49988E+08         0.71246E+05         0.00000E+00
    0.71246E+05        -0.49955E+08         0.00000E+00
    0.00000E+00         0.00000E+00        -0.49996E+08
 
   -0.49991E+08         0.71530E+05         0.00000E+00
    0.71530E+05        -0.49953E+08         0.00000E+00
    0.00000E+00         0.00000E+00        -0.49996E+08
 
   -0.49994E+08         0.71747E+05         0.00000E+00
    0.71747E+05        -0.49952E+08         0.00000E+00
    0.00000E+00         0.00000E+00        -0.49996E+08
 
   -0.49894E+08         0.12124E+04         0.00000E+00
    0.12124E+04        -0.50000E+08         0.00000E+00
    0.00000E+00         0.00000E+00        -0.49995E+08
 
   -0.49894E+08         0.36303E+04         0.00000E+00
    0.36303E+04        -0.50000E+08         0.00000E+00
    0.00000E+00         0.00000E+00        -0.49995E+08
 
   -0.49894E+08         0.60428E+04         0.00000E+00
    0.60428E+04        -0.50000E+08         0.00000E+00
    0.00000E+00         0.00000E+00        -0.49995E+08
 
   -0.49894E+08         0.84479E+04         0.00000E+00
    0.84479E+04        -0.50000E+08         0.00000E+00
    0.00000E+00         0.00000E+00        -0.49995E+08
 
   -0.49894E+08         0.10844E+05         0.00000E+00
    0.10844E+05        -0.49999E+08         0.00000E+00
    0.00000E+00         0.00000E+00        -0.49995E+08
 
   -0.49895E+08         0.13228E+05         0.00000E+00
    0.13228E+05        -0.49999E+08         0.00000E+00
    0.00000E+00         0.00000E+00        -0.49995E+08
 
   -0.49895E+08         0.15598E+05         0.00000E+00
    0.15598E+05        -0.49999E+08         0.00000E+00
    0.00000E+00         0.00000E+00        -0.49995E+08
 
   -0.49896E+08         0.17953E+05         0.00000E+00
    0.17953E+05        -0.49998E+08         0.00000E+00
    0.00000E+00         0.00000E+00        -0.49995E+08
 
   -0.49896E+08         0.20290E+05         0.00000E+00
    0.20290E+05        -0.49998E+08         0.00000E+00
    0.00000E+00         0.00000E+00        -0.49995E+08
 
   -0.49897E+08         0.22608E+05         0.00000E+00
    0.22608E+05        -0.49998E+08         0.00000E+00
    0.00000E+00         0.00000E+00        -0.49995E+08
 
   -0.49898E+08         0.24904E+05         0.00000E+00
    0.24904E+05        -0.49997E+08         0.00000E+00
    0.00000E+00         0.00000E+00        -0.49995E+08
 
   -0.49899E+08         0.27177E+05         0.00000E+00
    0.27177E+05        -0.49997E+08         0.00000E+00
    0.00000E+00         0.00000E+00        -0.49995E+08
 
   -0.49900E+08         0.29424E+05         0.00000E+00
    0.29424E+05        -0.49996E+08         0.00000E+00
    0.00000E+00         0.00000E+00        -0.49995E+08
 
   -0.49901E+08         0.31645E+05         0.00000E+00
    0.31645E+05        -0.49995E+08         0.00000E+00
    0.00000E+00         0.00000E+00        -0.49995E+08
 
   -0.49902E+08         0.33836E+05         0.00000E+00
    0.33836E+05        -0.49994E+08         0.00000E+00
    0.00000E+00         0.00000E+00        -0.49995E+08
 
   -0.49904E+08         0.35996E+05         0.00000E+00
    0.35996E+05        -0.49994E+08         0.00000E+00
    0.00000E+00         0.00000E+00        -0.49995E+08
 
   -0.49905E+08         0.38124E+05         0.00000E+00
    0.38124E+05        -0.49993E+08         0.00000E+00
    0.00000E+00         0.00000E+00        -0.49995E+08
 
   -0.49907E+08         0.40217E+05         0.00000E+00
    0.40217E+05        -0.49992E+08         0.00000E+00
    0.00000E+00         0.00000E+00        -0.49995E+08
 
   -0.49908E+08         0.42275E+05         0.00000E+00
    0.42275E+05        -0.49991E+08         0.00000E+00
    0.00000E+00         0.00000E+00        -0.49995E+08
 
   -0.49910E+08         0.44294E+05         0.00000E+00
    0.44294E+05        -0.49990E+08         0.00000E+00
    0.00000E+00         0.00000E+00        -0.49995E+08
 
   -0.49912E+08         0.46274E+05         0.00000E+00
    0.46274E+05        -0.49989E+08         0.00000E+00
    0.00000E+00         0.00000E+00        -0.49995E+08
 
   -0.49914E+08         0.48212E+05         0.00000E+00
    0.48212E+05        -0.49988E+08         0.00000E+00
    0.00000E+00         0.00000E+00        -0.49995E+08
 
   -0.49916E+08         0.50108E+05         0.00000E+00
    0.50108E+05        -0.49987E+08         0.00000E+00
    0.00000E+00         0.00000E+00        -0.49995E+08
 
   -0.49918E+08         0.51959E+05         0.00000E+00
    0.51959E+05        -0.49986E+08         0.00000E+00
    0.00000E+00         0.00000E+00        -0.49995E+08
 
   -0.49920E+08         0.53765E+05         0.00000E+00
    0.53765E+05        -0.49985E+08         0.00000E+00
    0.00000E+00         0.00000E+00        -0.49995E+08
 
   -0.49922E+08         0.55522E+05         0.00000E+00
    0.55522E+05        -0.49984E+08         0.00000E+00
    0.00000E+00         0.00000E+00        -0.49995E+08
 
   -0.49924E+08         0.57231E+05         0.00000E+00
    0.57231E+05        -0.49982E+08         0.00000E+00
    0.00000E+00         0.00000E+00        -0.49995E+08
 
   -0.49927E+08         0.58890E+05         0.00000E+00
    0.58890E+05        -0.49981E+08         0.00000E+00
    0.00000E+00         0.00000E+00        -0.49995E+08
 
   -0.49929E+08         0.60496E+05         0.00000E+00
    0.60496E+05        -0.49980E+08         0.00000E+00
    0.00000E+00         0.00000E+00        -0.49995E+08
 
   -0.49931E+08         0.62050E+05         0.00000E+00
    0.62050E+05        -0.49979E+08         0.00000E+00
    0.00000E+00         0.00000E+00        -0.49995E+08
 
   -0.49934E+08         0.63548E+05         0.00000E+00
    0.63548E+05        -0.49977E+08         0.00000E+00
    0.00000E+00         0.00000E+00        -0.49995E+08
 
   -0.49937E+08         0.64991E+05         0.00000E+00
    0.64991E+05        -0.49976E+08         0.00000E+00
    0.00000E+00         0.00000E+00        -0.49995E+08
 
   -0.49939E+08         0.66377E+05         0.00000E+00
    0.66377E+05        -0.49974E+08         0.00000E+00
    0.00000E+00         0.00000E+00        -0.49995E+08
 
   -0.49942E+08         0.67704E+05         0.00000E+00
    0.67704E+05        -0.49973E+08         0.00000E+00
    0.00000E+00         0.00000E+00        -0.49995E+08
 
   -0.49945E+08         0.68971E+05         0.00000E+00
    0.68971E+05        -0.49971E+08         0.00000E+00
    0.00000E+00         0.00000E+00        -0.49995E+08
 
   -0.49948E+08         0.70177E+05         0.00000E+00
    0.70177E+05        -0.49970E+08         0.00000E+00
    0.00000E+00         0.00000E+00        -0.49995E+08
 
   -0.49951E+08         0.71322E+05         0.00000E+00
    0.71322E+05        -0.49968E+08         0.00000E+00
    0.00000E+00         0.00000E+00        -0.49995E+08
 
   -0.49954E+08         0.72403E+05         0.00000E+00
    0.72403E+05        -0.49967E+08         0.00000E+00
    0.00000E+00         0.00000E+00        -0.49995E+08
 
   -0.49957E+08         0.73420E+05         0.00000E+00
    0.73420E+05        -0.49965E+08         0.00000E+00
    0.00000E+00         0.00000E+00        -0.49995E+08
 
   -0.49960E+08         0.74372E+05         0.00000E+00
    0.74372E+05        -0.49964E+08         0.00000E+00
    0.00000E+00         0.00000E+00        -0.49995E+08
 
   -0.49963E+08         0.75258E+05         0.00000E+00
    0.75258E+05        -0.49962E+08         0.00000E+00
    0.00000E+00         0.00000E+00        -0.49995E+08
 
   -0.49966E+08         0.76076E+05         0.00000E+00
    0.76076E+05        -0.49960E+08         0.00000E+00
    0.00000E+00         0.00000E+00        -0.49995E+08
 
   -0.49969E+08         0.76826E+05         0.00000E+00
    0.76826E+05        -0.49959E+08         0.00000E+00
    0.00000E+00         0.00000E+00        -0.49995E+08
 
   -0.49972E+08         0.77507E+05         0.00000E+00
    0.77507E+05        -0.49957E+08         0.00000E+00
    0.00000E+00         0.00000E+00        -0.49995E+08
 
   -0.49976E+08         0.78119E+05         0.00000E+00
    0.78119E+05        -0.49955E+08         0.00000E+00
    0.00000E+00         0.00000E+00        -0.49995E+08
 
   -0.49979E+08         0.78659E+05         0.00000E+00
    0.78659E+05        -0.49953E+08         0.00000E+00
    0.00000E+00         0.00000E+00        -0.49995E+08
 
   -0.49983E+08         0.79128E+05         0.00000E+00
    0.79128E+05        -0.49952E+08         0.00000E+00
    0.00000E+00         0.00000E+00        -0.49995E+08
 
   -0.49986E+08         0.79525E+05         0.00000E+00
    0.79525E+05        -0.49950E+08         0.00000E+00
    0.00000E+00         0.00000E+00        -0.49995E+08
 
   -0.49989E+08         0.79850E+05         0.00000E+00
    0.79850E+05        -0.49948E+08         0.00000E+00
    0.00000E+00         0.00000E+00        -0.49995E+08
 
   -0.49993E+08         0.80100E+05         0.00000E+00
    0.80100E+05        -0.49946E+08         0.00000E+00
    0.00000E+00         0.00000E+00        -0.49995E+08
 
   -0.49881E+08         0.13557E+04         0.00000E+00
    0.13557E+04        -0.50000E+08         0.00000E+00
    0.00000E+00         0.00000E+00        -0.49994E+08
 
   -0.49881E+08         0.40571E+04         0.00000E+00
    0.40571E+04        -0.50000E+08         0.00000E+00
    0.00000E+00         0.00000E+00        -0.49994E+08
 
   -0.49881E+08         0.67518E+04         0.00000E+00
    0.67518E+04        -0.50000E+08         0.00000E+00
    0.00000E+00         0.00000E+00        -0.49994E+08
 
   -0.49881E+08         0.94375E+04         0.00000E+00
    0.94375E+04        -0.50000E+08         0.00000E+00
    0.00000E+00         0.00000E+00        -0.49994E+08
 
   -0.49882E+08         0.12112E+05         0.00000E+00
    0.12112E+05        -0.49999E+08         0.00000E+00
    0.00000E+00         0.00000E+00        -0.49994E+08
 
   -0.49882E+08         0.14773E+05         0.00000E+00
    0.14773E+05        -0.49999E+08         0.00000E+00
    0.00000E+00         0.00000E+00        -0.49994E+08
 
   -0.49883E+08         0.17418E+05         0.00000E+00
    0.17418E+05        -0.49999E+08         0.00000E+00
    0.00000E+00         0.00000E+00        -0.49994E+08
 
   -0.49883E+08         0.20045E+05         0.00000E+00
    0.20045E+05        -0.49998E+08         0.00000E+00
    0.00000E+00         0.00000E+00        -0.49994E+08
 
   -0.49884E+08         0.22652E+05         0.00000E+00
    0.22652E+05        -0.49998E+08         0.00000E+00
    0.00000E+00         0.00000E+00        -0.49994E+08
 
   -0.49885E+08         0.25237E+05         0.00000E+00
    0.25237E+05        -0.49997E+08         0.00000E+00
    0.00000E+00         0.00000E+00        -0.49994E+08
 
   -0.49886E+08         0.27797E+05         0.00000E+00
    0.27797E+05        -0.49997E+08         0.00000E+00
    0.00000E+00         0.00000E+00        -0.49994E+08
 
   -0.49887E+08         0.30331E+05         0.00000E+00
    0.30331E+05        -0.49996E+08         0.00000E+00
    0.00000E+00         0.00000E+00        -0.49994E+08
 
   -0.49888E+08         0.32836E+05         0.00000E+00
    0.32836E+05        -0.49995E+08         0.00000E+00
    0.00000E+00         0.00000E+00        -0.49994E+08
 
   -0.49890E+08         0.35311E+05         0.00000E+00
    0.35311E+05        -0.49995E+08         0.00000E+00
    0.00000E+00         0.00000E+00        -0.49994E+08
 
   -0.49891E+08         0.37753E+05         0.00000E+00
    0.37753E+05        -0.49994E+08         0.00000E+00
    0.00000E+00         0.00000E+00        -0.49994E+08
 
   -0.49892E+08         0.40160E+05         0.00000E+00
    0.40160E+05        -0.49993E+08         0.00000E+00
    0.00000E+00         0.00000E+00        -0.49994E+08
 
   -0.49894E+08         0.42530E+05         0.00000E+00
    0.42530E+05        -0.49992E+08         0.00000E+00
    0.00000E+00         0.00000E+00        -0.49994E+08
 
   -0.49896E+08         0.44862E+05         0.00000E+00
    0.44862E+05        -0.49991E+08         0.00000E+00
    0.00000E+00         0.00000E+00        -0.49994E+08
 
   -0.49898E+08         0.47154E+05         0.00000E+00
    0.47154E+05        -0.49990E+08         0.00000E+00
    0.00000E+00         0.00000E+00        -0.49994E+08
 
   -0.49899E+08         0.49403E+05         0.00000E+00
    0.49403E+05        -0.49989E+08         0.00000E+00
    0.00000E+00         0.00000E+00        -0.49994E+08
 
   -0.49901E+08         0.51608E+05         0.00000E+00
    0.51608E+05        -0.49988E+08         0.00000E+00
    0.00000E+00         0.00000E+00        -0.49994E+08
 
   -0.49904E+08         0.53767E+05         0.00000E+00
    0.53767E+05        -0.49987E+08         0.00000E+00
    0.00000E+00         0.00000E+00        -0.49994E+08
 
   -0.49906E+08         0.55878E+05         0.00000E+00
    0.55878E+05        -0.49986E+08         0.00000E+00
    0.00000E+00         0.00000E+00        -0.49994E+08
 
   -0.49908E+08         0.57940E+05         0.00000E+00
    0.57940E+05        -0.49984E+08         0.00000E+00
    0.00000E+00         0.00000E+00        -0.49994E+08
 
   -0.49910E+08         0.59950E+05         0.00000E+00
    0.59950E+05        -0.49983E+08         0.00000E+00
    0.00000E+00         0.00000E+00        -0.49994E+08
 
   -0.49913E+08         0.61908E+05         0.00000E+00
    0.61908E+05        -0.49982E+08         0.00000E+00
    0.00000E+00         0.00000E+00        -0.49994E+08
 
   -0.49915E+08         0.63812E+05         0.00000E+00
    0.63812E+05        -0.49980E+08         0.00000E+00
    0.00000E+00         0.00000E+00        -0.49994E+08
 
   -0.49918E+08         0.65659E+05         0.00000E+00
    0.65659E+05        -0.49979E+08         0.00000E+00
    0.00000E+00         0.00000E+00        -0.49994E+08
 
   -0.49921E+08         0.67449E+05         0.00000E+00
    0.67449E+05        -0.49978E+08         0.00000E+00
    0.00000E+00         0.00000E+00        -0.49994E+08
 
   -0.49923E+08         0.69180E+05         0.00000E+00
    0.69180E+05        -0.49976E+08         0.00000E+00
    0.00000E+00         0.00000E+00        -0.49994E+08
 
   -0.49926E+08         0.70850E+05         0.00000E+00
    0.70850E+05        -0.49975E+08         0.00000E+00
    0.00000E+00         0.00000E+00        -0.49994E+08
 
   -0.49929E+08         0.72458E+05         0.00000E+00
    0.72458E+05        -0.49973E+08         0.00000E+00
    0.00000E+00         0.00000E+00        -0.49994E+08
 
   -0.49932E+08         0.74002E+05         0.00000E+00
    0.74002E+05        -0.49971E+08         0.00000E+00
    0.00000E+00         0.00000E+00        -0.49994E+08
 
   -0.49935E+08         0.75482E+05         0.00000E+00
    0.75482E+05        -0.49970E+08         0.00000E+00
    0.00000E+00         0.00000E+00        -0.49994E+08
 
   -0.49938E+08         0.76896E+05         0.00000E+00
    0.76896E+05        -0.49968E+08         0.00000E+00
    0.00000E+00         0.00000E+00        -0.49994E+08
 
   -0.49941E+08         0.78242E+05         0.00000E+00
    0.78242E+05        -0.49967E+08         0.00000E+00
    0.00000E+00         0.00000E+00        -0.49994E+08
 
   -0.49945E+08         0.79519E+05         0.00000E+00
    0.79519E+05        -0.49965E+08         0.00000E+00
    0.00000E+00         0.00000E+00        -0.49994E+08
 
   -0.49948E+08         0.80727E+05         0.00000E+00
    0.80727E+05        -0.49963E+08         0.00000E+00
    0.00000E+00         0.00000E+00        -0.49994E+08
 
   -0.49951E+08         0.81864E+05         0.00000E+00
    0.81864E+05        -0.49961E+08         0.00000E+00
    0.00000E+00         0.00000E+00        -0.49994E+08
 
   -0.49955E+08         0.82928E+05         0.00000E+00
    0.82928E+05        -0.49960E+08         0.00000E+00
    0.00000E+00         0.00000E+00        -0.49994E+08
 
   -0.49958E+08         0.83919E+05         0.00000E+00
    0.83919E+05        -0.49958E+08         0.00000E+00
    0.00000E+00         0.00000E+00        -0.49994E+08
 
   -0.49962E+08         0.84836E+05         0.00000E+00
    0.84836E+05        -0.49956E+08         0.00000E+00
    0.00000E+00         0.00000E+00        -0.49994E+08
 
   -0.49965E+08         0.85678E+05         0.00000E+00
    0.85678E+05        -0.49954E+08         0.00000E+00
    0.00000E+00         0.00000E+00        -0.49994E+08
 
   -0.49969E+08         0.86443E+05         0.00000E+00
    0.86443E+05        -0.49952E+08         0.00000E+00
    0.00000E+00         0.00000E+00        -0.49994E+08
 
   -0.49973E+08         0.87131E+05         0.00000E+00
    0.87131E+05        -0.49950E+08         0.00000E+00
    0.00000E+00         0.00000E+00        -0.49994E+08
 
   -0.49976E+08         0.87741E+05         0.00000E+00
    0.87741E+05        -0.49948E+08         0.00000E+00
    0.00000E+00         0.00000E+00        -0.49994E+08
 
   -0.49980E+08         0.88272E+05         0.00000E+00
    0.88272E+05        -0.49946E+08         0.00000E+00
    0.00000E+00         0.00000E+00        -0.49994E+08
 
   -0.49984E+08         0.88723E+05         0.00000E+00
    0.88723E+05        -0.49944E+08         0.00000E+00
    0.00000E+00         0.00000E+00        -0.49994E+08
 
   -0.49988E+08         0.89094E+05         0.00000E+00
    0.89094E+05        -0.49943E+08         0.00000E+00
    0.00000E+00         0.00000E+00        -0.49994E+08
 
   -0.49992E+08         0.89383E+05         0.00000E+00
    0.89383E+05        -0.49941E+08         0.00000E+00
    0.00000E+00         0.00000E+00        -0.49994E+08
 
   -0.49867E+08         0.15151E+04         0.00000E+00
    0.15151E+04        -0.50000E+08         0.00000E+00
    0.00000E+00         0.00000E+00        -0.49993E+08
 
   -0.49867E+08         0.45317E+04         0.00000E+00
    0.45317E+04        -0.50000E+08         0.00000E+00
    0.00000E+00         0.00000E+00        -0.49993E+08
 
   -0.49867E+08         0.75400E+04         0.00000E+00
    0.75400E+04        -0.50000E+08         0.00000E+00
    0.00000E+00         0.00000E+00        -0.49993E+08
 
   -0.49867E+08         0.10537E+05         0.00000E+00
    0.10537E+05        -0.50000E+08         0.00000E+00
    0.00000E+00         0.00000E+00        -0.49993E+08
 
   -0.49867E+08         0.13522E+05         0.00000E+00
    0.13522E+05        -0.49999E+08         0.00000E+00
    0.00000E+00         0.00000E+00        -0.49993E+08
 
   -0.49868E+08         0.16490E+05         0.00000E+00
    0.16490E+05        -0.49999E+08         0.00000E+00
    0.00000E+00         0.00000E+00        -0.49993E+08
 
   -0.49869E+08         0.19440E+05         0.00000E+00
    0.19440E+05        -0.49999E+08         0.00000E+00
    0.00000E+00         0.00000E+00        -0.49993E+08
 
   -0.49869E+08         0.22369E+05         0.00000E+00
    0.22369E+05        -0.49998E+08         0.00000E+00
    0.00000E+00         0.00000E+00        -0.49993E+08
 
   -0.49870E+08         0.25275E+05         0.00000E+00
    0.25275E+05        -0.49998E+08         0.00000E+00
    0.00000E+00         0.00000E+00        -0.49993E+08
 
   -0.49871E+08         0.28156E+05         0.00000E+00
    0.28156E+05        -0.49997E+08         0.00000E+00
    0.00000E+00         0.00000E+00        -0.49993E+08
 
   -0.49872E+08         0.31009E+05         0.00000E+00
    0.31009E+05        -0.49996E+08         0.00000E+00
    0.00000E+00         0.00000E+00        -0.49993E+08
 
   -0.49874E+08         0.33833E+05         0.00000E+00
    0.33833E+05        -0.49996E+08         0.00000E+00
    0.00000E+00         0.00000E+00        -0.49993E+08
 
   -0.49875E+08         0.36623E+05         0.00000E+00
    0.36623E+05        -0.49995E+08         0.00000E+00
    0.00000E+00         0.00000E+00        -0.49993E+08
 
   -0.49877E+08         0.39379E+05         0.00000E+00
    0.39379E+05        -0.49994E+08         0.00000E+00
    0.00000E+00         0.00000E+00        -0.49993E+08
 
   -0.49878E+08         0.42099E+05         0.00000E+00
    0.42099E+05        -0.49993E+08         0.00000E+00
    0.00000E+00         0.00000E+00        -0.49993E+08
 
   -0.49880E+08         0.44779E+05         0.00000E+00
    0.44779E+05        -0.49992E+08         0.00000E+00
    0.00000E+00         0.00000E+00        -0.49993E+08
 
   -0.49882E+08         0.47419E+05         0.00000E+00
    0.47419E+05        -0.49991E+08         0.00000E+00
    0.00000E+00         0.00000E+00        -0.49993E+08
 
   -0.49884E+08         0.50015E+05         0.00000E+00
    0.50015E+05        -0.49990E+08         0.00000E+00
    0.00000E+00         0.00000E+00        -0.49993E+08
 
   -0.49886E+08         0.52566E+05         0.00000E+00
    0.52566E+05        -0.49989E+08         0.00000E+00
    0.00000E+00         0.00000E+00        -0.49993E+08
 
   -0.49888E+08         0.55070E+05         0.00000E+00
    0.55070E+05        -0.49988E+08         0.00000E+00
    0.00000E+00         0.00000E+00        -0.49993E+08
 
   -0.49890E+08         0.57524E+05         0.00000E+00
    0.57524E+05        -0.49987E+08         0.00000E+00
    0.00000E+00         0.00000E+00        -0.49993E+08
 
   -0.49892E+08         0.59927E+05         0.00000E+00
    0.59927E+05        -0.49985E+08         0.00000E+00
    0.00000E+00         0.00000E+00        -0.49993E+08
 
   -0.49895E+08         0.62277E+05         0.00000E+00
    0.62277E+05        -0.49984E+08         0.00000E+00
    0.00000E+00         0.00000E+00        -0.49993E+08
 
   -0.49897E+08         0.64572E+05         0.00000E+00
    0.64572E+05        -0.49983E+08         0.00000E+00
    0.00000E+00         0.00000E+00        -0.49993E+08
 
   -0.49900E+08         0.66810E+05         0.00000E+00
    0.66810E+05        -0.49981E+08         0.00000E+00
    0.00000E+00         0.00000E+00        -0.49993E+08
 
   -0.49903E+08         0.68990E+05         0.00000E+00
    0.68990E+05        -0.49980E+08         0.00000E+00
    0.00000E+00         0.00000E+00        -0.49993E+08
 
   -0.49905E+08         0.71109E+05         0.00000E+00
    0.71109E+05        -0.49978E+08         0.00000E+00
    0.00000E+00         0.00000E+00        -0.49993E+08
 
   -0.49908E+08         0.73165E+05         0.00000E+00
    0.73165E+05        -0.49977E+08         0.00000E+00
    0.00000E+00         0.00000E+00        -0.49993E+08
 
   -0.49911E+08         0.75158E+05         0.00000E+00
    0.75158E+05        -0.49975E+08         0.00000E+00
    0.00000E+00         0.00000E+00        -0.49993E+08
 
   -0.49914E+08         0.77085E+05         0.00000E+00
    0.77085E+05        -0.49974E+08         0.00000E+00
    0.00000E+00         0.00000E+00        -0.49993E+08
 
   -0.49918E+08         0.78946E+05         0.00000E+00
    0.78946E+05        -0.49972E+08         0.00000E+00
    0.00000E+00         0.00000E+00        -0.49993E+08
 
   -0.49921E+08         0.80737E+05         0.00000E+00
    0.80737E+05        -0.49970E+08         0.00000E+00
    0.00000E+00         0.00000E+00        -0.49993E+08
 
   -0.49924E+08         0.82458E+05         0.00000E+00
    0.82458E+05        -0.49968E+08         0.00000E+00
    0.00000E+00         0.00000E+00        -0.49993E+08
 
   -0.49927E+08         0.84107E+05         0.00000E+00
    0.84107E+05        -0.49967E+08         0.00000E+00
    0.00000E+00         0.00000E+00        -0.49993E+08
 
   -0.49931E+08         0.85683E+05         0.00000E+00
    0.85683E+05        -0.49965E+08         0.00000E+00
    0.00000E+00         0.00000E+00        -0.49993E+08
 
   -0.49935E+08         0.87185E+05         0.00000E+00
    0.87185E+05        -0.49963E+08         0.00000E+00
    0.00000E+00         0.00000E+00        -0.49993E+08
 
   -0.49938E+08         0.88611E+05         0.00000E+00
    0.88611E+05        -0.49961E+08         0.00000E+00
    0.00000E+00         0.00000E+00        -0.49993E+08
 
   -0.49942E+08         0.89959E+05         0.00000E+00
    0.89959E+05        -0.49959E+08         0.00000E+00
    0.00000E+00         0.00000E+00        -0.49993E+08
 
   -0.49946E+08         0.91229E+05         0.00000E+00
    0.91229E+05        -0.49957E+08         0.00000E+00
    0.00000E+00         0.00000E+00        -0.49993E+08
 
   -0.49949E+08         0.92419E+05         0.00000E+00
    0.92419E+05        -0.49955E+08         0.00000E+00
    0.00000E+00         0.00000E+00        -0.49993E+08
 
   -0.49953E+08         0.93528E+05         0.00000E+00
    0.93528E+05        -0.49953E+08         0.00000E+00
    0.00000E+00         0.00000E+00        -0.49993E+08
 
   -0.49957E+08         0.94555E+05         0.00000E+00
    0.94555E+05        -0.49951E+08         0.00000E+00
    0.00000E+00         0.00000E+00        -0.49993E+08
 
   -0.49961E+08         0.95498E+05         0.00000E+00
    0.95498E+05        -0.49949E+08         0.00000E+00
    0.00000E+00         0.00000E+00        -0.49993E+08
 
   -0.49965E+08         0.96358E+05         0.00000E+00
    0.96358E+05        -0.49947E+08         0.00000E+00
    0.00000E+00         0.00000E+00        -0.49993E+08
 
   -0.49969E+08         0.97132E+05         0.00000E+00
    0.97132E+05        -0.49945E+08         0.00000E+00
    0.00000E+00         0.00000E+00        -0.49993E+08
 
   -0.49973E+08         0.97820E+05         0.00000E+00
    0.97820E+05        -0.49943E+08         0.00000E+00
    0.00000E+00         0.00000E+00        -0.49993E+08
 
   -0.49978E+08         0.98421E+05         0.00000E+00
    0.98421E+05        -0.49941E+08         0.00000E+00
    0.00000E+00         0.00000E+00        -0.49993E+08
 
   -0.49982E+08         0.98934E+05         0.00000E+00
    0.98934E+05        -0.49938E+08         0.00000E+00
    0.00000E+00         0.00000E+00        -0.49993E+08
 
   -0.49986E+08         0.99358E+05         0.00000E+00
    0.99358E+05        -0.49936E+08         0.00000E+00
    0.00000E+00         0.00000E+00        -0.49993E+08
 
   -0.49990E+08         0.99692E+05         0.00000E+00
    0.99692E+05        -0.49934E+08         0.00000E+00
    0.00000E+00         0.00000E+00        -0.49993E+08
 
   -0.49851E+08         0.16924E+04         0.00000E+00
    0.16924E+04        -0.50000E+08         0.00000E+00
    0.00000E+00         0.00000E+00        -0.49991E+08
 
   -0.49851E+08         0.50591E+04         0.00000E+00
    0.50591E+04        -0.50000E+08         0.00000E+00
    0.00000E+00         0.00000E+00        -0.49991E+08
 
   -0.49851E+08         0.84156E+04         0.00000E+00
    0.84156E+04        -0.50000E+08         0.00000E+00
    0.00000E+00         0.00000E+00        -0.49991E+08
 
   -0.49851E+08         0.11759E+05         0.00000E+00
    0.11759E+05        -0.50000E+08         0.00000E+00
    0.00000E+00         0.00000E+00        -0.49991E+08
 
   -0.49852E+08         0.15087E+05         0.00000E+00
    0.15087E+05        -0.49999E+08         0.00000E+00
    0.00000E+00         0.00000E+00        -0.49991E+08
 
   -0.49852E+08         0.18396E+05         0.00000E+00
    0.18396E+05        -0.49999E+08         0.00000E+00
    0.00000E+00         0.00000E+00        -0.49991E+08
 
   -0.49853E+08         0.21684E+05         0.00000E+00
    0.21684E+05        -0.49998E+08         0.00000E+00
    0.00000E+00         0.00000E+00        -0.49991E+08
 
   -0.49854E+08         0.24949E+05         0.00000E+00
    0.24949E+05        -0.49998E+08         0.00000E+00
    0.00000E+00         0.00000E+00        -0.49991E+08
 
   -0.49855E+08         0.28187E+05         0.00000E+00
    0.28187E+05        -0.49997E+08         0.00000E+00
    0.00000E+00         0.00000E+00        -0.49991E+08
 
   -0.49856E+08         0.31396E+05         0.00000E+00
    0.31396E+05        -0.49997E+08         0.00000E+00
    0.00000E+00         0.00000E+00        -0.49991E+08
 
   -0.49857E+08         0.34573E+05         0.00000E+00
    0.34573E+05        -0.49996E+08         0.00000E+00
    0.00000E+00         0.00000E+00        -0.49991E+08
 
   -0.49859E+08         0.37717E+05         0.00000E+00
    0.37717E+05        -0.49995E+08         0.00000E+00
    0.00000E+00         0.00000E+00        -0.49991E+08
 
   -0.49860E+08         0.40824E+05         0.00000E+00
    0.40824E+05        -0.49994E+08         0.00000E+00
    0.00000E+00         0.00000E+00        -0.49991E+08
 
   -0.49862E+08         0.43892E+05         0.00000E+00
    0.43892E+05        -0.49993E+08         0.00000E+00
    0.00000E+00         0.00000E+00        -0.49991E+08
 
   -0.49864E+08         0.46918E+05         0.00000E+00
    0.46918E+05        -0.49992E+08         0.00000E+00
    0.00000E+00         0.00000E+00        -0.49991E+08
 
   -0.49866E+08         0.49902E+05         0.00000E+00
    0.49902E+05        -0.49991E+08         0.00000E+00
    0.00000E+00         0.00000E+00        -0.49991E+08
 
   -0.49868E+08         0.52839E+05         0.00000E+00
    0.52839E+05        -0.49990E+08         0.00000E+00
    0.00000E+00         0.00000E+00        -0.49991E+08
 
   -0.49870E+08         0.55727E+05         0.00000E+00
    0.55727E+05        -0.49989E+08         0.00000E+00
    0.00000E+00         0.00000E+00        -0.49991E+08
 
   -0.49872E+08         0.58566E+05         0.00000E+00
    0.58566E+05        -0.49988E+08         0.00000E+00
    0.00000E+00         0.00000E+00        -0.49991E+08
 
   -0.49875E+08         0.61351E+05         0.00000E+00
    0.61351E+05        -0.49987E+08         0.00000E+00
    0.00000E+00         0.00000E+00        -0.49991E+08
 
   -0.49877E+08         0.64082E+05         0.00000E+00
    0.64082E+05        -0.49985E+08         0.00000E+00
    0.00000E+00         0.00000E+00        -0.49991E+08
 
   -0.49880E+08         0.66755E+05         0.00000E+00
    0.66755E+05        -0.49984E+08         0.00000E+00
    0.00000E+00         0.00000E+00        -0.49991E+08
 
   -0.49882E+08         0.69369E+05         0.00000E+00
    0.69369E+05        -0.49982E+08         0.00000E+00
    0.00000E+00         0.00000E+00        -0.49991E+08
 
   -0.49885E+08         0.71922E+05         0.00000E+00
    0.71922E+05        -0.49981E+08         0.00000E+00
    0.00000E+00         0.00000E+00        -0.49991E+08
 
   -0.49888E+08         0.74412E+05         0.00000E+00
    0.74412E+05        -0.49979E+08         0.00000E+00
    0.00000E+00         0.00000E+00        -0.49991E+08
 
   -0.49891E+08         0.76836E+05         0.00000E+00
    0.76836E+05        -0.49978E+08         0.00000E+00
    0.00000E+00         0.00000E+00        -0.49991E+08
 
   -0.49894E+08         0.79194E+05         0.00000E+00
    0.79194E+05        -0.49976E+08         0.00000E+00
    0.00000E+00         0.00000E+00        -0.49991E+08
 
   -0.49898E+08         0.81482E+05         0.00000E+00
    0.81482E+05        -0.49974E+08         0.00000E+00
    0.00000E+00         0.00000E+00        -0.49991E+08
 
   -0.49901E+08         0.83700E+05         0.00000E+00
    0.83700E+05        -0.49972E+08         0.00000E+00
    0.00000E+00         0.00000E+00        -0.49991E+08
 
   -0.49904E+08         0.85845E+05         0.00000E+00
    0.85845E+05        -0.49971E+08         0.00000E+00
    0.00000E+00         0.00000E+00        -0.49991E+08
 
   -0.49908E+08         0.87916E+05         0.00000E+00
    0.87916E+05        -0.49969E+08         0.00000E+00
    0.00000E+00         0.00000E+00        -0.49991E+08
 
   -0.49912E+08         0.89910E+05         0.00000E+00
    0.89910E+05        -0.49967E+08         0.00000E+00
    0.00000E+00         0.00000E+00        -0.49991E+08
 
   -0.49915E+08         0.91827E+05         0.00000E+00
    0.91827E+05        -0.49965E+08         0.00000E+00
    0.00000E+00         0.00000E+00        -0.49991E+08
 
   -0.49919E+08         0.93664E+05         0.00000E+00
    0.93664E+05        -0.49963E+08         0.00000E+00
    0.00000E+00         0.00000E+00        -0.49991E+08
 
   -0.49923E+08         0.95421E+05         0.00000E+00
    0.95421E+05        -0.49961E+08         0.00000E+00
    0.00000E+00         0.00000E+00        -0.49991E+08
 
   -0.49927E+08         0.97095E+05         0.00000E+00
    0.97095E+05        -0.49959E+08         0.00000E+00
    0.00000E+00         0.00000E+00        -0.49991E+08
 
   -0.49931E+08         0.98685E+05         0.00000E+00
    0.98685E+05        -0.49957E+08         0.00000E+00
    0.00000E+00         0.00000E+00        -0.49991E+08
 
   -0.49935E+08         0.10019E+06         0.00000E+00
    0.10019E+06        -0.49955E+08         0.00000E+00
    0.00000E+00         0.00000E+00        -0.49991E+08
 
   -0.49939E+08         0.10161E+06         0.00000E+00
    0.10161E+06        -0.49952E+08         0.00000E+00
    0.00000E+00         0.00000E+00        -0.49991E+08
 
   -0.49943E+08         0.10294E+06         0.00000E+00
    0.10294E+06        -0.49950E+08         0.00000E+00
    0.00000E+00         0.00000E+00        -0.49991E+08
 
   -0.49948E+08         0.10418E+06         0.00000E+00
    0.10418E+06        -0.49948E+08         0.00000E+00
    0.00000E+00         0.00000E+00        -0.49991E+08
 
   -0.49952E+08         0.10533E+06         0.00000E+00
    0.10533E+06        -0.49946E+08         0.00000E+00
    0.00000E+00         0.00000E+00        -0.49991E+08
 
   -0.49956E+08         0.10639E+06         0.00000E+00
    0.10639E+06        -0.49943E+08         0.00000E+00
    0.00000E+00         0.00000E+00        -0.49991E+08
 
   -0.49961E+08         0.10735E+06         0.00000E+00
    0.10735E+06        -0.49941E+08         0.00000E+00
    0.00000E+00         0.00000E+00        -0.49991E+08
 
   -0.49965E+08         0.10822E+06         0.00000E+00
    0.10822E+06        -0.49939E+08         0.00000E+00
    0.00000E+00         0.00000E+00        -0.49991E+08
 
   -0.49970E+08         0.10900E+06         0.00000E+00
    0.10900E+06        -0.49937E+08         0.00000E+00
    0.00000E+00         0.00000E+00        -0.49991E+08
 
   -0.49975E+08         0.10968E+06         0.00000E+00
    0.10968E+06        -0.49934E+08         0.00000E+00
    0.00000E+00         0.00000E+00        -0.49991E+08
 
   -0.49979E+08         0.11026E+06         0.00000E+00
    0.11026E+06        -0.49932E+08         0.00000E+00
    0.00000E+00         0.00000E+00        -0.49991E+08
 
   -0.49984E+08         0.11075E+06         0.00000E+00
    0.11075E+06        -0.49929E+08         0.00000E+00
    0.00000E+00         0.00000E+00        -0.49991E+08
 
   -0.49989E+08         0.11113E+06         0.00000E+00
    0.11113E+06        -0.49927E+08         0.00000E+00
    0.00000E+00         0.00000E+00        -0.49991E+08
 
   -0.49833E+08         0.18894E+04         0.00000E+00
    0.18894E+04        -0.50000E+08         0.00000E+00
    0.00000E+00         0.00000E+00        -0.49990E+08
 
   -0.49833E+08         0.56447E+04         0.00000E+00
    0.56447E+04        -0.50000E+08         0.00000E+00
    0.00000E+00         0.00000E+00        -0.49990E+08
 
   -0.49833E+08         0.93875E+04         0.00000E+00
    0.93875E+04        -0.50000E+08         0.00000E+00
    0.00000E+00         0.00000E+00        -0.49990E+08
 
   -0.49834E+08         0.13115E+05         0.00000E+00
    0.13115E+05        -0.49999E+08         0.00000E+00
    0.00000E+00         0.00000E+00        -0.49990E+08
 
   -0.49834E+08         0.16823E+05         0.00000E+00
    0.16823E+05        -0.49999E+08         0.00000E+00
    0.00000E+00         0.00000E+00        -0.49990E+08
 
   -0.49835E+08         0.20511E+05         0.00000E+00
    0.20511E+05        -0.49999E+08         0.00000E+00
    0.00000E+00         0.00000E+00        -0.49990E+08
 
   -0.49836E+08         0.24173E+05         0.00000E+00
    0.24173E+05        -0.49998E+08         0.00000E+00
    0.00000E+00         0.00000E+00        -0.49990E+08
 
   -0.49837E+08         0.27809E+05         0.00000E+00
    0.27809E+05        -0.49998E+08         0.00000E+00
    0.00000E+00         0.00000E+00        -0.49990E+08
 
   -0.49838E+08         0.31414E+05         0.00000E+00
    0.31414E+05        -0.49997E+08         0.00000E+00
    0.00000E+00         0.00000E+00        -0.49990E+08
 
   -0.49839E+08         0.34987E+05         0.00000E+00
    0.34987E+05        -0.49996E+08         0.00000E+00
    0.00000E+00         0.00000E+00        -0.49990E+08
 
   -0.49841E+08         0.38523E+05         0.00000E+00
    0.38523E+05        -0.49996E+08         0.00000E+00
    0.00000E+00         0.00000E+00        -0.49990E+08
 
   -0.49842E+08         0.42021E+05         0.00000E+00
    0.42021E+05        -0.49995E+08         0.00000E+00
    0.00000E+00         0.00000E+00        -0.49990E+08
 
   -0.49844E+08         0.45478E+05         0.00000E+00
    0.45478E+05        -0.49994E+08         0.00000E+00
    0.00000E+00         0.00000E+00        -0.49990E+08
 
   -0.49846E+08         0.48892E+05         0.00000E+00
    0.48892E+05        -0.49993E+08         0.00000E+00
    0.00000E+00         0.00000E+00        -0.49990E+08
 
   -0.49848E+08         0.52258E+05         0.00000E+00
    0.52258E+05        -0.49992E+08         0.00000E+00
    0.00000E+00         0.00000E+00        -0.49990E+08
 
   -0.49850E+08         0.55576E+05         0.00000E+00
    0.55576E+05        -0.49990E+08         0.00000E+00
    0.00000E+00         0.00000E+00        -0.49990E+08
 
   -0.49852E+08         0.58843E+05         0.00000E+00
    0.58843E+05        -0.49989E+08         0.00000E+00
    0.00000E+00         0.00000E+00        -0.49990E+08
 
   -0.49855E+08         0.62055E+05         0.00000E+00
    0.62055E+05        -0.49988E+08         0.00000E+00
    0.00000E+00         0.00000E+00        -0.49990E+08
 
   -0.49857E+08         0.65211E+05         0.00000E+00
    0.65211E+05        -0.49987E+08         0.00000E+00
    0.00000E+00         0.00000E+00        -0.49990E+08
 
   -0.49860E+08         0.68307E+05         0.00000E+00
    0.68307E+05        -0.49985E+08         0.00000E+00
    0.00000E+00         0.00000E+00        -0.49990E+08
 
   -0.49863E+08         0.71343E+05         0.00000E+00
    0.71343E+05        -0.49984E+08         0.00000E+00
    0.00000E+00         0.00000E+00        -0.49990E+08
 
   -0.49866E+08         0.74315E+05         0.00000E+00
    0.74315E+05        -0.49982E+08         0.00000E+00
    0.00000E+00         0.00000E+00        -0.49990E+08
 
   -0.49869E+08         0.77222E+05         0.00000E+00
    0.77222E+05        -0.49980E+08         0.00000E+00
    0.00000E+00         0.00000E+00        -0.49990E+08
 
   -0.49872E+08         0.80060E+05         0.00000E+00
    0.80060E+05        -0.49979E+08         0.00000E+00
    0.00000E+00         0.00000E+00        -0.49990E+08
 
   -0.49875E+08         0.82828E+05         0.00000E+00
    0.82828E+05        -0.49977E+08         0.00000E+00
    0.00000E+00         0.00000E+00        -0.49990E+08
 
   -0.49879E+08         0.85524E+05         0.00000E+00
    0.85524E+05        -0.49975E+08         0.00000E+00
    0.00000E+00         0.00000E+00        -0.49990E+08
 
   -0.49882E+08         0.88145E+05         0.00000E+00
    0.88145E+05        -0.49973E+08         0.00000E+00
    0.00000E+00         0.00000E+00        -0.49990E+08
 
   -0.49886E+08         0.90690E+05         0.00000E+00
    0.90690E+05        -0.49972E+08         0.00000E+00
    0.00000E+00         0.00000E+00        -0.49990E+08
 
   -0.49889E+08         0.93157E+05         0.00000E+00
    0.93157E+05        -0.49970E+08         0.00000E+00
    0.00000E+00         0.00000E+00        -0.49990E+08
 
   -0.49893E+08         0.95543E+05         0.00000E+00
    0.95543E+05        -0.49968E+08         0.00000E+00
    0.00000E+00         0.00000E+00        -0.49990E+08
 
   -0.49897E+08         0.97847E+05         0.00000E+00
    0.97847E+05        -0.49965E+08         0.00000E+00
    0.00000E+00         0.00000E+00        -0.49990E+08
 
   -0.49901E+08         0.10007E+06         0.00000E+00
    0.10007E+06        -0.49963E+08         0.00000E+00
    0.00000E+00         0.00000E+00        -0.49990E+08
 
   -0.49905E+08         0.10220E+06         0.00000E+00
    0.10220E+06        -0.49961E+08         0.00000E+00
    0.00000E+00         0.00000E+00        -0.49990E+08
 
   -0.49909E+08         0.10425E+06         0.00000E+00
    0.10425E+06        -0.49959E+08         0.00000E+00
    0.00000E+00         0.00000E+00        -0.49990E+08
 
   -0.49914E+08         0.10620E+06         0.00000E+00
    0.10620E+06        -0.49957E+08         0.00000E+00
    0.00000E+00         0.00000E+00        -0.49990E+08
 
   -0.49918E+08         0.10807E+06         0.00000E+00
    0.10807E+06        -0.49954E+08         0.00000E+00
    0.00000E+00         0.00000E+00        -0.49990E+08
 
   -0.49923E+08         0.10984E+06         0.00000E+00
    0.10984E+06        -0.49952E+08         0.00000E+00
    0.00000E+00         0.00000E+00        -0.49990E+08
 
   -0.49927E+08         0.11152E+06         0.00000E+00
    0.11152E+06        -0.49950E+08         0.00000E+00
    0.00000E+00         0.00000E+00        -0.49990E+08
 
   -0.49932E+08         0.11310E+06         0.00000E+00
    0.11310E+06        -0.49947E+08         0.00000E+00
    0.00000E+00         0.00000E+00        -0.49990E+08
 
   -0.49936E+08         0.11459E+06         0.00000E+00
    0.11459E+06        -0.49945E+08         0.00000E+00
    0.00000E+00         0.00000E+00        -0.49990E+08
 
   -0.49941E+08         0.11598E+06         0.00000E+00
    0.11598E+06        -0.49942E+08         0.00000E+00
    0.00000E+00         0.00000E+00        -0.49990E+08
 
   -0.49946E+08         0.11726E+06         0.00000E+00
    0.11726E+06        -0.49940E+08         0.00000E+00
    0.00000E+00         0.00000E+00        -0.49990E+08
 
   -0.49951E+08         0.11845E+06         0.00000E+00
    0.11845E+06        -0.49937E+08         0.00000E+00
    0.00000E+00         0.00000E+00        -0.49990E+08
 
   -0.49956E+08         0.11953E+06         0.00000E+00
    0.11953E+06        -0.49935E+08         0.00000E+00
    0.00000E+00         0.00000E+00        -0.49990E+08
 
   -0.49961E+08         0.12051E+06         0.00000E+00
    0.12051E+06        -0.49932E+08         0.00000E+00
    0.00000E+00         0.00000E+00        -0.49990E+08
 
   -0.49966E+08         0.12139E+06         0.00000E+00
    0.12139E+06        -0.49930E+08         0.00000E+00
    0.00000E+00         0.00000E+00        -0.49990E+08
 
   -0.49971E+08         0.12216E+06         0.00000E+00
    0.12216E+06        -0.49927E+08         0.00000E+00
    0.00000E+00         0.00000E+00        -0.49990E+08
 
   -0.49977E+08         0.12282E+06         0.00000E+00
    0.12282E+06        -0.49924E+08         0.00000E+00
    0.00000E+00         0.00000E+00        -0.49990E+08
 
   -0.49982E+08         0.12338E+06         0.00000E+00
    0.12338E+06        -0.49922E+08         0.00000E+00
    0.00000E+00         0.00000E+00        -0.49990E+08
 
   -0.49987E+08         0.12382E+06         0.00000E+00
    0.12382E+06        -0.49919E+08         0.00000E+00
    0.00000E+00         0.00000E+00        -0.49990E+08
 
   -0.49813E+08         0.21080E+04         0.00000E+00
    0.21080E+04        -0.50000E+08         0.00000E+00
    0.00000E+00         0.00000E+00        -0.49988E+08
 
   -0.49813E+08         0.62944E+04         0.00000E+00
    0.62944E+04        -0.50000E+08         0.00000E+00
    0.00000E+00         0.00000E+00        -0.49988E+08
 
   -0.49813E+08         0.10465E+05         0.00000E+00
    0.10465E+05        -0.50000E+08         0.00000E+00
    0.00000E+00         0.00000E+00        -0.49988E+08
 
   -0.49814E+08         0.14618E+05         0.00000E+00
    0.14618E+05        -0.49999E+08         0.00000E+00
    0.00000E+00         0.00000E+00        -0.49988E+08
 
   -0.49815E+08         0.18749E+05         0.00000E+00
    0.18749E+05        -0.49999E+08         0.00000E+00
    0.00000E+00         0.00000E+00        -0.49988E+08
 
   -0.49816E+08         0.22855E+05         0.00000E+00
    0.22855E+05        -0.49999E+08         0.00000E+00
    0.00000E+00         0.00000E+00        -0.49988E+08
 
   -0.49817E+08         0.26932E+05         0.00000E+00
    0.26932E+05        -0.49998E+08         0.00000E+00
    0.00000E+00         0.00000E+00        -0.49988E+08
 
   -0.49818E+08         0.30978E+05         0.00000E+00
    0.30978E+05        -0.49997E+08         0.00000E+00
    0.00000E+00         0.00000E+00        -0.49988E+08
 
   -0.49819E+08         0.34990E+05         0.00000E+00
    0.34990E+05        -0.49997E+08         0.00000E+00
    0.00000E+00         0.00000E+00        -0.49988E+08
 
   -0.49821E+08         0.38964E+05         0.00000E+00
    0.38964E+05        -0.49996E+08         0.00000E+00
    0.00000E+00         0.00000E+00        -0.49988E+08
 
   -0.49822E+08         0.42898E+05         0.00000E+00
    0.42898E+05        -0.49995E+08         0.00000E+00
    0.00000E+00         0.00000E+00        -0.49988E+08
 
   -0.49824E+08         0.46789E+05         0.00000E+00
    0.46789E+05        -0.49994E+08         0.00000E+00
    0.00000E+00         0.00000E+00        -0.49988E+08
 
   -0.49826E+08         0.50633E+05         0.00000E+00
    0.50633E+05        -0.49993E+08         0.00000E+00
    0.00000E+00         0.00000E+00        -0.49988E+08
 
   -0.49828E+08         0.54427E+05         0.00000E+00
    0.54427E+05        -0.49992E+08         0.00000E+00
    0.00000E+00         0.00000E+00        -0.49988E+08
 
   -0.49830E+08         0.58170E+05         0.00000E+00
    0.58170E+05        -0.49991E+08         0.00000E+00
    0.00000E+00         0.00000E+00        -0.49988E+08
 
   -0.49833E+08         0.61857E+05         0.00000E+00
    0.61857E+05        -0.49989E+08         0.00000E+00
    0.00000E+00         0.00000E+00        -0.49988E+08
 
   -0.49835E+08         0.65487E+05         0.00000E+00
    0.65487E+05        -0.49988E+08         0.00000E+00
    0.00000E+00         0.00000E+00        -0.49988E+08
 
   -0.49838E+08         0.69057E+05         0.00000E+00
    0.69057E+05        -0.49987E+08         0.00000E+00
    0.00000E+00         0.00000E+00        -0.49988E+08
 
   -0.49841E+08         0.72564E+05         0.00000E+00
    0.72564E+05        -0.49985E+08         0.00000E+00
    0.00000E+00         0.00000E+00        -0.49988E+08
 
   -0.49844E+08         0.76005E+05         0.00000E+00
    0.76005E+05        -0.49984E+08         0.00000E+00
    0.00000E+00         0.00000E+00        -0.49988E+08
 
   -0.49847E+08         0.79378E+05         0.00000E+00
    0.79378E+05        -0.49982E+08         0.00000E+00
    0.00000E+00         0.00000E+00        -0.49988E+08
 
   -0.49850E+08         0.82680E+05         0.00000E+00
    0.82680E+05        -0.49980E+08         0.00000E+00
    0.00000E+00         0.00000E+00        -0.49988E+08
 
   -0.49854E+08         0.85909E+05         0.00000E+00
    0.85909E+05        -0.49978E+08         0.00000E+00
    0.00000E+00         0.00000E+00        -0.49988E+08
 
   -0.49857E+08         0.89063E+05         0.00000E+00
    0.89063E+05        -0.49977E+08         0.00000E+00
    0.00000E+00         0.00000E+00        -0.49988E+08
 
   -0.49861E+08         0.92138E+05         0.00000E+00
    0.92138E+05        -0.49975E+08         0.00000E+00
    0.00000E+00         0.00000E+00        -0.49988E+08
 
   -0.49865E+08         0.95134E+05         0.00000E+00
    0.95134E+05        -0.49973E+08         0.00000E+00
    0.00000E+00         0.00000E+00        -0.49988E+08
 
   -0.49869E+08         0.98047E+05         0.00000E+00
    0.98047E+05        -0.49971E+08         0.00000E+00
    0.00000E+00         0.00000E+00        -0.49988E+08
 
   -0.49873E+08         0.10088E+06         0.00000E+00
    0.10088E+06        -0.49968E+08         0.00000E+00
    0.00000E+00         0.00000E+00        -0.49988E+08
 
   -0.49877E+08         0.10362E+06         0.00000E+00
    0.10362E+06        -0.49966E+08         0.00000E+00
    0.00000E+00         0.00000E+00        -0.49988E+08
 
   -0.49881E+08         0.10627E+06         0.00000E+00
    0.10627E+06        -0.49964E+08         0.00000E+00
    0.00000E+00         0.00000E+00        -0.49988E+08
 
   -0.49885E+08         0.10883E+06         0.00000E+00
    0.10883E+06        -0.49962E+08         0.00000E+00
    0.00000E+00         0.00000E+00        -0.49988E+08
 
   -0.49890E+08         0.11130E+06         0.00000E+00
    0.11130E+06        -0.49959E+08         0.00000E+00
    0.00000E+00         0.00000E+00        -0.49988E+08
 
   -0.49894E+08         0.11367E+06         0.00000E+00
    0.11367E+06        -0.49957E+08         0.00000E+00
    0.00000E+00         0.00000E+00        -0.49988E+08
 
   -0.49899E+08         0.11595E+06         0.00000E+00
    0.11595E+06        -0.49955E+08         0.00000E+00
    0.00000E+00         0.00000E+00        -0.49988E+08
 
   -0.49904E+08         0.11813E+06         0.00000E+00
    0.11813E+06        -0.49952E+08         0.00000E+00
    0.00000E+00         0.00000E+00        -0.49988E+08
 
   -0.49909E+08         0.12021E+06         0.00000E+00
    0.12021E+06        -0.49950E+08         0.00000E+00
    0.00000E+00         0.00000E+00        -0.49988E+08
 
   -0.49914E+08         0.12218E+06         0.00000E+00
    0.12218E+06        -0.49947E+08         0.00000E+00
    0.00000E+00         0.00000E+00        -0.49988E+08
 
   -0.49919E+08         0.12406E+06         0.00000E+00
    0.12406E+06        -0.49944E+08         0.00000E+00
    0.00000E+00         0.00000E+00        -0.49988E+08
 
   -0.49924E+08         0.12582E+06         0.00000E+00
    0.12582E+06        -0.49942E+08         0.00000E+00
    0.00000E+00         0.00000E+00        -0.49988E+08
 
   -0.49929E+08         0.12748E+06         0.00000E+00
    0.12748E+06        -0.49939E+08         0.00000E+00
    0.00000E+00         0.00000E+00        -0.49988E+08
 
   -0.49934E+08         0.12903E+06         0.00000E+00
    0.12903E+06        -0.49936E+08         0.00000E+00
    0.00000E+00         0.00000E+00        -0.49988E+08
 
   -0.49940E+08         0.13047E+06         0.00000E+00
    0.13047E+06        -0.49934E+08         0.00000E+00
    0.00000E+00         0.00000E+00        -0.49988E+08
 
   -0.49945E+08         0.13180E+06         0.00000E+00
    0.13180E+06        -0.49931E+08         0.00000E+00
    0.00000E+00         0.00000E+00        -0.49988E+08
 
   -0.49951E+08         0.13302E+06         0.00000E+00
    0.13302E+06        -0.49928E+08         0.00000E+00
    0.00000E+00         0.00000E+00        -0.49988E+08
 
   -0.49956E+08         0.13412E+06         0.00000E+00
    0.13412E+06        -0.49925E+08         0.00000E+00
    0.00000E+00         0.00000E+00        -0.49988E+08
 
   -0.49962E+08         0.13511E+06         0.00000E+00
    0.13511E+06        -0.49922E+08         0.00000E+00
    0.00000E+00         0.00000E+00        -0.49988E+08
 
   -0.49967E+08         0.13598E+06         0.00000E+00
    0.13598E+06        -0.49919E+08         0.00000E+00
    0.00000E+00         0.00000E+00        -0.49988E+08
 
   -0.49973E+08         0.13674E+06         0.00000E+00
    0.13674E+06        -0.49916E+08         0.00000E+00
    0.00000E+00         0.00000E+00        -0.49988E+08
 
   -0.49979E+08         0.13737E+06         0.00000E+00
    0.13737E+06        -0.49914E+08         0.00000E+00
    0.00000E+00         0.00000E+00        -0.49988E+08
 
   -0.49985E+08         0.13789E+06         0.00000E+00
    0.13789E+06        -0.49911E+08         0.00000E+00
    0.00000E+00         0.00000E+00        -0.49988E+08
 
   -0.49791E+08         0.23506E+04         0.00000E+00
    0.23506E+04        -0.50000E+08         0.00000E+00
    0.00000E+00         0.00000E+00        -0.49986E+08
 
   -0.49791E+08         0.70144E+04         0.00000E+00
    0.70144E+04        -0.50000E+08         0.00000E+00
    0.00000E+00         0.00000E+00        -0.49986E+08
 
   -0.49791E+08         0.11660E+05         0.00000E+00
    0.11660E+05        -0.50000E+08         0.00000E+00
    0.00000E+00         0.00000E+00        -0.49986E+08
 
   -0.49792E+08         0.16283E+05         0.00000E+00
    0.16283E+05        -0.49999E+08         0.00000E+00
    0.00000E+00         0.00000E+00        -0.49986E+08
 
   -0.49793E+08         0.20881E+05         0.00000E+00
    0.20881E+05        -0.49999E+08         0.00000E+00
    0.00000E+00         0.00000E+00        -0.49986E+08
 
   -0.49794E+08         0.25450E+05         0.00000E+00
    0.25450E+05        -0.49998E+08         0.00000E+00
    0.00000E+00         0.00000E+00        -0.49986E+08
 
   -0.49795E+08         0.29986E+05         0.00000E+00
    0.29986E+05        -0.49998E+08         0.00000E+00
    0.00000E+00         0.00000E+00        -0.49986E+08
 
   -0.49796E+08         0.34487E+05         0.00000E+00
    0.34487E+05        -0.49997E+08         0.00000E+00
    0.00000E+00         0.00000E+00        -0.49986E+08
 
   -0.49798E+08         0.38948E+05         0.00000E+00
    0.38948E+05        -0.49996E+08         0.00000E+00
    0.00000E+00         0.00000E+00        -0.49986E+08
 
   -0.49800E+08         0.43366E+05         0.00000E+00
    0.43366E+05        -0.49996E+08         0.00000E+00
    0.00000E+00         0.00000E+00        -0.49986E+08
 
   -0.49802E+08         0.47739E+05         0.00000E+00
    0.47739E+05        -0.49995E+08         0.00000E+00
    0.00000E+00         0.00000E+00        -0.49986E+08
 
   -0.49804E+08         0.52063E+05         0.00000E+00
    0.52063E+05        -0.49993E+08         0.00000E+00
    0.00000E+00         0.00000E+00        -0.49986E+08
 
   -0.49806E+08         0.56334E+05         0.00000E+00
    0.56334E+05        -0.49992E+08         0.00000E+00
    0.00000E+00         0.00000E+00        -0.49986E+08
 
   -0.49808E+08         0.60550E+05         0.00000E+00
    0.60550E+05        -0.49991E+08         0.00000E+00
    0.00000E+00         0.00000E+00        -0.49986E+08
 
   -0.49811E+08         0.64707E+05         0.00000E+00
    0.64707E+05        -0.49990E+08         0.00000E+00
    0.00000E+00         0.00000E+00        -0.49986E+08
 
   -0.49814E+08         0.68803E+05         0.00000E+00
    0.68803E+05        -0.49988E+08         0.00000E+00
    0.00000E+00         0.00000E+00        -0.49986E+08
 
   -0.49816E+08         0.72835E+05         0.00000E+00
    0.72835E+05        -0.49987E+08         0.00000E+00
    0.00000E+00         0.00000E+00        -0.49986E+08
 
   -0.49819E+08         0.76799E+05         0.00000E+00
    0.76799E+05        -0.49985E+08         0.00000E+00
    0.00000E+00         0.00000E+00        -0.49986E+08
 
   -0.49823E+08         0.80693E+05         0.00000E+00
    0.80693E+05        -0.49984E+08         0.00000E+00
    0.00000E+00         0.00000E+00        -0.49986E+08
 
   -0.49826E+08         0.84514E+05         0.00000E+00
    0.84514E+05        -0.49982E+08         0.00000E+00
    0.00000E+00         0.00000E+00        -0.49986E+08
 
   -0.49829E+08         0.88259E+05         0.00000E+00
    0.88259E+05        -0.49980E+08         0.00000E+00
    0.00000E+00         0.00000E+00        -0.49986E+08
 
   -0.49833E+08         0.91926E+05         0.00000E+00
    0.91926E+05        -0.49978E+08         0.00000E+00
    0.00000E+00         0.00000E+00        -0.49986E+08
 
   -0.49837E+08         0.95511E+05         0.00000E+00
    0.95511E+05        -0.49976E+08         0.00000E+00
    0.00000E+00         0.00000E+00        -0.49986E+08
 
   -0.49841E+08         0.99013E+05         0.00000E+00
    0.99013E+05        -0.49974E+08         0.00000E+00
    0.00000E+00         0.00000E+00        -0.49986E+08
 
   -0.49845E+08         0.10243E+06         0.00000E+00
    0.10243E+06        -0.49972E+08         0.00000E+00
    0.00000E+00         0.00000E+00        -0.49986E+08
 
   -0.49849E+08         0.10575E+06         0.00000E+00
    0.10575E+06        -0.49970E+08         0.00000E+00
    0.00000E+00         0.00000E+00        -0.49986E+08
 
   -0.49853E+08         0.10899E+06         0.00000E+00
    0.10899E+06        -0.49967E+08         0.00000E+00
    0.00000E+00         0.00000E+00        -0.49986E+08
 
   -0.49858E+08         0.11213E+06         0.00000E+00
    0.11213E+06        -0.49965E+08         0.00000E+00
    0.00000E+00         0.00000E+00        -0.49986E+08
 
   -0.49862E+08         0.11518E+06         0.00000E+00
    0.11518E+06        -0.49963E+08         0.00000E+00
    0.00000E+00         0.00000E+00        -0.49986E+08
 
   -0.49867E+08         0.11812E+06         0.00000E+00
    0.11812E+06        -0.49960E+08         0.00000E+00
    0.00000E+00         0.00000E+00        -0.49986E+08
 
   -0.49872E+08         0.12097E+06         0.00000E+00
    0.12097E+06        -0.49958E+08         0.00000E+00
    0.00000E+00         0.00000E+00        -0.49986E+08
 
   -0.49877E+08         0.12372E+06         0.00000E+00
    0.12372E+06        -0.49955E+08         0.00000E+00
    0.00000E+00         0.00000E+00        -0.49986E+08
 
   -0.49882E+08         0.12636E+06         0.00000E+00
    0.12636E+06        -0.49953E+08         0.00000E+00
    0.00000E+00         0.00000E+00        -0.49986E+08
 
   -0.49887E+08         0.12889E+06         0.00000E+00
    0.12889E+06        -0.49950E+08         0.00000E+00
    0.00000E+00         0.00000E+00        -0.49986E+08
 
   -0.49892E+08         0.13131E+06         0.00000E+00
    0.13131E+06        -0.49947E+08         0.00000E+00
    0.00000E+00         0.00000E+00        -0.49986E+08
 
   -0.49898E+08         0.13363E+06         0.00000E+00
    0.13363E+06        -0.49944E+08         0.00000E+00
    0.00000E+00         0.00000E+00        -0.49986E+08
 
   -0.49903E+08         0.13583E+06         0.00000E+00
    0.13583E+06        -0.49941E+08         0.00000E+00
    0.00000E+00         0.00000E+00        -0.49986E+08
 
   -0.49909E+08         0.13792E+06         0.00000E+00
    0.13792E+06        -0.49939E+08         0.00000E+00
    0.00000E+00         0.00000E+00        -0.49986E+08
 
   -0.49915E+08         0.13989E+06         0.00000E+00
    0.13989E+06        -0.49936E+08         0.00000E+00
    0.00000E+00         0.00000E+00        -0.49986E+08
 
   -0.49920E+08         0.14174E+06         0.00000E+00
    0.14174E+06        -0.49933E+08         0.00000E+00
    0.00000E+00         0.00000E+00        -0.49986E+08
 
   -0.49926E+08         0.14347E+06         0.00000E+00
    0.14347E+06        -0.49930E+08         0.00000E+00
    0.00000E+00         0.00000E+00        -0.49986E+08
 
   -0.49932E+08         0.14509E+06         0.00000E+00
    0.14509E+06        -0.49927E+08         0.00000E+00
    0.00000E+00         0.00000E+00        -0.49986E+08
 
   -0.49938E+08         0.14658E+06         0.00000E+00
    0.14658E+06        -0.49924E+08         0.00000E+00
    0.00000E+00         0.00000E+00        -0.49986E+08
 
   -0.49944E+08         0.14794E+06         0.00000E+00
    0.14794E+06        -0.49920E+08         0.00000E+00
    0.00000E+00         0.00000E+00        -0.49986E+08
 
   -0.49951E+08         0.14918E+06         0.00000E+00
    0.14918E+06        -0.49917E+08         0.00000E+00
    0.00000E+00         0.00000E+00        -0.49986E+08
 
   -0.49957E+08         0.15030E+06         0.00000E+00
    0.15030E+06        -0.49914E+08         0.00000E+00
    0.00000E+00         0.00000E+00        -0.49986E+08
 
   -0.49963E+08         0.15128E+06         0.00000E+00
    0.15128E+06        -0.49911E+08         0.00000E+00
    0.00000E+00         0.00000E+00        -0.49986E+08
 
   -0.49970E+08         0.15214E+06         0.00000E+00
    0.15214E+06        -0.49908E+08         0.00000E+00
    0.00000E+00         0.00000E+00        -0.49986E+08
 
   -0.49976E+08         0.15287E+06         0.00000E+00
    0.15287E+06        -0.49904E+08         0.00000E+00
    0.00000E+00         0.00000E+00        -0.49986E+08
 
   -0.49983E+08         0.15346E+06         0.00000E+00
    0.15346E+06        -0.49901E+08         0.00000E+00
    0.00000E+00         0.00000E+00        -0.49986E+08
 
   -0.49766E+08         0.26194E+04         0.00000E+00
    0.26194E+04        -0.50000E+08         0.00000E+00
    0.00000E+00         0.00000E+00        -0.49983E+08
 
   -0.49766E+08         0.78118E+04         0.00000E+00
    0.78118E+04        -0.50000E+08         0.00000E+00
    0.00000E+00         0.00000E+00        -0.49983E+08
 
   -0.49767E+08         0.12982E+05         0.00000E+00
    0.12982E+05        -0.50000E+08         0.00000E+00
    0.00000E+00         0.00000E+00        -0.49983E+08
 
   -0.49768E+08         0.18126E+05         0.00000E+00
    0.18126E+05        -0.49999E+08         0.00000E+00
    0.00000E+00         0.00000E+00        -0.49983E+08
 
   -0.49769E+08         0.23241E+05         0.00000E+00
    0.23241E+05        -0.49999E+08         0.00000E+00
    0.00000E+00         0.00000E+00        -0.49983E+08
 
   -0.49770E+08         0.28321E+05         0.00000E+00
    0.28321E+05        -0.49998E+08         0.00000E+00
    0.00000E+00         0.00000E+00        -0.49983E+08
 
   -0.49771E+08         0.33365E+05         0.00000E+00
    0.33365E+05        -0.49998E+08         0.00000E+00
    0.00000E+00         0.00000E+00        -0.49983E+08
 
   -0.49773E+08         0.38367E+05         0.00000E+00
    0.38367E+05        -0.49997E+08         0.00000E+00
    0.00000E+00         0.00000E+00        -0.49983E+08
 
   -0.49775E+08         0.43324E+05         0.00000E+00
    0.43324E+05        -0.49996E+08         0.00000E+00
    0.00000E+00         0.00000E+00        -0.49983E+08
 
   -0.49777E+08         0.48233E+05         0.00000E+00
    0.48233E+05        -0.49995E+08         0.00000E+00
    0.00000E+00         0.00000E+00        -0.49983E+08
 
   -0.49779E+08         0.53090E+05         0.00000E+00
    0.53090E+05        -0.49994E+08         0.00000E+00
    0.00000E+00         0.00000E+00        -0.49983E+08
 
   -0.49781E+08         0.57892E+05         0.00000E+00
    0.57892E+05        -0.49993E+08         0.00000E+00
    0.00000E+00         0.00000E+00        -0.49983E+08
 
   -0.49784E+08         0.62635E+05         0.00000E+00
    0.62635E+05        -0.49992E+08         0.00000E+00
    0.00000E+00         0.00000E+00        -0.49983E+08
 
   -0.49786E+08         0.67316E+05         0.00000E+00
    0.67316E+05        -0.49990E+08         0.00000E+00
    0.00000E+00         0.00000E+00        -0.49983E+08
 
   -0.49789E+08         0.71931E+05         0.00000E+00
    0.71931E+05        -0.49989E+08         0.00000E+00
    0.00000E+00         0.00000E+00        -0.49983E+08
 
   -0.49792E+08         0.76477E+05         0.00000E+00
    0.76477E+05        -0.49987E+08         0.00000E+00
    0.00000E+00         0.00000E+00        -0.49983E+08
 
   -0.49795E+08         0.80952E+05         0.00000E+00
    0.80952E+05        -0.49985E+08         0.00000E+00
    0.00000E+00         0.00000E+00        -0.49983E+08
 
   -0.49799E+08         0.85351E+05         0.00000E+00
    0.85351E+05        -0.49984E+08         0.00000E+00
    0.00000E+00         0.00000E+00        -0.49983E+08
 
   -0.49802E+08         0.89672E+05         0.00000E+00
    0.89672E+05        -0.49982E+08         0.00000E+00
    0.00000E+00         0.00000E+00        -0.49983E+08
 
   -0.49806E+08         0.93912E+05         0.00000E+00
    0.93912E+05        -0.49980E+08         0.00000E+00
    0.00000E+00         0.00000E+00        -0.49983E+08
 
   -0.49810E+08         0.98067E+05         0.00000E+00
    0.98067E+05        -0.49978E+08         0.00000E+00
    0.00000E+00         0.00000E+00        -0.49983E+08
 
   -0.49814E+08         0.10214E+06         0.00000E+00
    0.10214E+06        -0.49976E+08         0.00000E+00
    0.00000E+00         0.00000E+00        -0.49983E+08
 
   -0.49818E+08         0.10611E+06         0.00000E+00
    0.10611E+06        -0.49974E+08         0.00000E+00
    0.00000E+00         0.00000E+00        -0.49983E+08
 
   -0.49823E+08         0.11000E+06         0.00000E+00
    0.11000E+06        -0.49971E+08         0.00000E+00
    0.00000E+00         0.00000E+00        -0.49983E+08
 
   -0.49827E+08         0.11379E+06         0.00000E+00
    0.11379E+06        -0.49969E+08         0.00000E+00
    0.00000E+00         0.00000E+00        -0.49983E+08
 
   -0.49832E+08         0.11748E+06         0.00000E+00
    0.11748E+06        -0.49967E+08         0.00000E+00
    0.00000E+00         0.00000E+00        -0.49983E+08
 
   -0.49837E+08         0.12107E+06         0.00000E+00
    0.12107E+06        -0.49964E+08         0.00000E+00
    0.00000E+00         0.00000E+00        -0.49983E+08
 
   -0.49842E+08         0.12456E+06         0.00000E+00
    0.12456E+06        -0.49962E+08         0.00000E+00
    0.00000E+00         0.00000E+00        -0.49983E+08
 
   -0.49847E+08         0.12794E+06         0.00000E+00
    0.12794E+06        -0.49959E+08         0.00000E+00
    0.00000E+00         0.00000E+00        -0.49983E+08
 
   -0.49852E+08         0.13121E+06         0.00000E+00
    0.13121E+06        -0.49956E+08         0.00000E+00
    0.00000E+00         0.00000E+00        -0.49983E+08
 
   -0.49857E+08         0.13438E+06         0.00000E+00
    0.13438E+06        -0.49953E+08         0.00000E+00
    0.00000E+00         0.00000E+00        -0.49983E+08
 
   -0.49863E+08         0.13743E+06         0.00000E+00
    0.13743E+06        -0.49951E+08         0.00000E+00
    0.00000E+00         0.00000E+00        -0.49983E+08
 
   -0.49868E+08         0.14036E+06         0.00000E+00
    0.14036E+06        -0.49948E+08         0.00000E+00
    0.00000E+00         0.00000E+00        -0.49983E+08
 
   -0.49874E+08         0.14318E+06         0.00000E+00
    0.14318E+06        -0.49945E+08         0.00000E+00
    0.00000E+00         0.00000E+00        -0.49983E+08
 
   -0.49880E+08         0.14587E+06         0.00000E+00
    0.14587E+06        -0.49942E+08         0.00000E+00
    0.00000E+00         0.00000E+00        -0.49983E+08
 
   -0.49886E+08         0.14845E+06         0.00000E+00
    0.14845E+06        -0.49939E+08         0.00000E+00
    0.00000E+00         0.00000E+00        -0.49983E+08
 
   -0.49892E+08         0.15090E+06         0.00000E+00
    0.15090E+06        -0.49935E+08         0.00000E+00
    0.00000E+00         0.00000E+00        -0.49983E+08
 
   -0.49898E+08         0.15322E+06         0.00000E+00
    0.15322E+06        -0.49932E+08         0.00000E+00
    0.00000E+00         0.00000E+00        -0.49983E+08
 
   -0.49905E+08         0.15542E+06         0.00000E+00
    0.15542E+06        -0.49929E+08         0.00000E+00
    0.00000E+00         0.00000E+00        -0.49983E+08
 
   -0.49911E+08         0.15749E+06         0.00000E+00
    0.15749E+06        -0.49926E+08         0.00000E+00
    0.00000E+00         0.00000E+00        -0.49983E+08
 
   -0.49917E+08         0.15943E+06         0.00000E+00
    0.15943E+06        -0.49922E+08         0.00000E+00
    0.00000E+00         0.00000E+00        -0.49983E+08
 
   -0.49924E+08         0.16123E+06         0.00000E+00
    0.16123E+06        -0.49919E+08         0.00000E+00
    0.00000E+00         0.00000E+00        -0.49983E+08
 
   -0.49931E+08         0.16290E+06         0.00000E+00
    0.16290E+06        -0.49916E+08         0.00000E+00
    0.00000E+00         0.00000E+00        -0.49983E+08
 
   -0.49937E+08         0.16444E+06         0.00000E+00
    0.16444E+06        -0.49912E+08         0.00000E+00
    0.00000E+00         0.00000E+00        -0.49983E+08
 
   -0.49944E+08         0.16583E+06         0.00000E+00
    0.16583E+06        -0.49909E+08         0.00000E+00
    0.00000E+00         0.00000E+00        -0.49983E+08
 
   -0.49951E+08         0.16709E+06         0.00000E+00
    0.16709E+06        -0.49905E+08         0.00000E+00
    0.00000E+00         0.00000E+00        -0.49983E+08
 
   -0.49958E+08         0.16820E+06         0.00000E+00
    0.16820E+06        -0.49902E+08         0.00000E+00
    0.00000E+00         0.00000E+00        -0.49983E+08
 
   -0.49965E+08         0.16918E+06         0.00000E+00
    0.16918E+06        -0.49898E+08         0.00000E+00
    0.00000E+00         0.00000E+00        -0.49983E+08
 
   -0.49972E+08         0.17001E+06         0.00000E+00
    0.17001E+06        -0.49894E+08         0.00000E+00
    0.00000E+00         0.00000E+00        -0.49983E+08
 
   -0.49980E+08         0.17070E+06         0.00000E+00
    0.17070E+06        -0.49891E+08         0.00000E+00
    0.00000E+00         0.00000E+00        -0.49983E+08
 
   -0.49739E+08         0.29169E+04         0.00000E+00
    0.29169E+04        -0.50000E+08         0.00000E+00
    0.00000E+00         0.00000E+00        -0.49980E+08
 
   -0.49739E+08         0.86938E+04         0.00000E+00
    0.86938E+04        -0.50000E+08         0.00000E+00
    0.00000E+00         0.00000E+00        -0.49980E+08
 
   -0.49740E+08         0.14444E+05         0.00000E+00
    0.14444E+05        -0.50000E+08         0.00000E+00
    0.00000E+00         0.00000E+00        -0.49980E+08
 
   -0.49741E+08         0.20164E+05         0.00000E+00
    0.20164E+05        -0.49999E+08         0.00000E+00
    0.00000E+00         0.00000E+00        -0.49980E+08
 
   -0.49742E+08         0.25849E+05         0.00000E+00
    0.25849E+05        -0.49999E+08         0.00000E+00
    0.00000E+00         0.00000E+00        -0.49980E+08
 
   -0.49743E+08         0.31495E+05         0.00000E+00
    0.31495E+05        -0.49998E+08         0.00000E+00
    0.00000E+00         0.00000E+00        -0.49980E+08
 
   -0.49745E+08         0.37098E+05         0.00000E+00
    0.37098E+05        -0.49997E+08         0.00000E+00
    0.00000E+00         0.00000E+00        -0.49980E+08
 
   -0.49747E+08         0.42653E+05         0.00000E+00
    0.42653E+05        -0.49997E+08         0.00000E+00
    0.00000E+00         0.00000E+00        -0.49980E+08
 
   -0.49749E+08         0.48158E+05         0.00000E+00
    0.48158E+05        -0.49996E+08         0.00000E+00
    0.00000E+00         0.00000E+00        -0.49980E+08
 
   -0.49751E+08         0.53608E+05         0.00000E+00
    0.53608E+05        -0.49995E+08         0.00000E+00
    0.00000E+00         0.00000E+00        -0.49980E+08
 
   -0.49753E+08         0.59000E+05         0.00000E+00
    0.59000E+05        -0.49993E+08         0.00000E+00
    0.00000E+00         0.00000E+00        -0.49980E+08
 
   -0.49756E+08         0.64328E+05         0.00000E+00
    0.64328E+05        -0.49992E+08         0.00000E+00
    0.00000E+00         0.00000E+00        -0.49980E+08
 
   -0.49759E+08         0.69591E+05         0.00000E+00
    0.69591E+05        -0.49991E+08         0.00000E+00
    0.00000E+00         0.00000E+00        -0.49980E+08
 
   -0.49762E+08         0.74784E+05         0.00000E+00
    0.74784E+05        -0.49989E+08         0.00000E+00
    0.00000E+00         0.00000E+00        -0.49980E+08
 
   -0.49765E+08         0.79904E+05         0.00000E+00
    0.79904E+05        -0.49988E+08         0.00000E+00
    0.00000E+00         0.00000E+00        -0.49980E+08
 
   -0.49768E+08         0.84946E+05         0.00000E+00
    0.84946E+05        -0.49986E+08         0.00000E+00
    0.00000E+00         0.00000E+00        -0.49980E+08
 
   -0.49772E+08         0.89909E+05         0.00000E+00
    0.89909E+05        -0.49984E+08         0.00000E+00
    0.00000E+00         0.00000E+00        -0.49980E+08
 
   -0.49776E+08         0.94787E+05         0.00000E+00
    0.94787E+05        -0.49982E+08         0.00000E+00
    0.00000E+00         0.00000E+00        -0.49980E+08
 
   -0.49780E+08         0.99579E+05         0.00000E+00
    0.99579E+05        -0.49980E+08         0.00000E+00
    0.00000E+00         0.00000E+00        -0.49980E+08
 
   -0.49784E+08         0.10428E+06         0.00000E+00
    0.10428E+06        -0.49978E+08         0.00000E+00
    0.00000E+00         0.00000E+00        -0.49980E+08
 
   -0.49788E+08         0.10889E+06         0.00000E+00
    0.10889E+06        -0.49976E+08         0.00000E+00
    0.00000E+00         0.00000E+00        -0.49980E+08
 
   -0.49793E+08         0.11340E+06         0.00000E+00
    0.11340E+06        -0.49973E+08         0.00000E+00
    0.00000E+00         0.00000E+00        -0.49980E+08
 
   -0.49797E+08         0.11781E+06         0.00000E+00
    0.11781E+06        -0.49971E+08         0.00000E+00
    0.00000E+00         0.00000E+00        -0.49980E+08
 
   -0.49802E+08         0.12212E+06         0.00000E+00
    0.12212E+06        -0.49968E+08         0.00000E+00
    0.00000E+00         0.00000E+00        -0.49980E+08
 
   -0.49807E+08         0.12632E+06         0.00000E+00
    0.12632E+06        -0.49966E+08         0.00000E+00
    0.00000E+00         0.00000E+00        -0.49980E+08
 
   -0.49813E+08         0.13042E+06         0.00000E+00
    0.13042E+06        -0.49963E+08         0.00000E+00
    0.00000E+00         0.00000E+00        -0.49980E+08
 
   -0.49818E+08         0.13440E+06         0.00000E+00
    0.13440E+06        -0.49960E+08         0.00000E+00
    0.00000E+00         0.00000E+00        -0.49980E+08
 
   -0.49823E+08         0.13827E+06         0.00000E+00
    0.13827E+06        -0.49958E+08         0.00000E+00
    0.00000E+00         0.00000E+00        -0.49980E+08
 
   -0.49829E+08         0.14202E+06         0.00000E+00
    0.14202E+06        -0.49955E+08         0.00000E+00
    0.00000E+00         0.00000E+00        -0.49980E+08
 
   -0.49835E+08         0.14565E+06         0.00000E+00
    0.14565E+06        -0.49952E+08         0.00000E+00
    0.00000E+00         0.00000E+00        -0.49980E+08
 
   -0.49841E+08         0.14916E+06         0.00000E+00
    0.14916E+06        -0.49949E+08         0.00000E+00
    0.00000E+00         0.00000E+00        -0.49980E+08
 
   -0.49847E+08         0.15255E+06         0.00000E+00
    0.15255E+06        -0.49945E+08         0.00000E+00
    0.00000E+00         0.00000E+00        -0.49980E+08
 
   -0.49853E+08         0.15581E+06         0.00000E+00
    0.15581E+06        -0.49942E+08         0.00000E+00
    0.00000E+00         0.00000E+00        -0.49980E+08
 
   -0.49860E+08         0.15894E+06         0.00000E+00
    0.15894E+06        -0.49939E+08         0.00000E+00
    0.00000E+00         0.00000E+00        -0.49980E+08
 
   -0.49866E+08         0.16193E+06         0.00000E+00
    0.16193E+06        -0.49936E+08         0.00000E+00
    0.00000E+00         0.00000E+00        -0.49980E+08
 
   -0.49873E+08         0.16480E+06         0.00000E+00
    0.16480E+06        -0.49932E+08         0.00000E+00
    0.00000E+00         0.00000E+00        -0.49980E+08
 
   -0.49879E+08         0.16753E+06         0.00000E+00
    0.16753E+06        -0.49929E+08         0.00000E+00
    0.00000E+00         0.00000E+00        -0.49980E+08
 
   -0.49886E+08         0.17012E+06         0.00000E+00
    0.17012E+06        -0.49925E+08         0.00000E+00
    0.00000E+00         0.00000E+00        -0.49980E+08
 
   -0.49893E+08         0.17257E+06         0.00000E+00
    0.17257E+06        -0.49922E+08         0.00000E+00
    0.00000E+00         0.00000E+00        -0.49980E+08
 
   -0.49900E+08         0.17488E+06         0.00000E+00
    0.17488E+06        -0.49918E+08         0.00000E+00
    0.00000E+00         0.00000E+00        -0.49980E+08
 
   -0.49908E+08         0.17704E+06         0.00000E+00
    0.17704E+06        -0.49914E+08         0.00000E+00
    0.00000E+00         0.00000E+00        -0.49980E+08
 
   -0.49915E+08         0.17906E+06         0.00000E+00
    0.17906E+06        -0.49911E+08         0.00000E+00
    0.00000E+00         0.00000E+00        -0.49980E+08
 
   -0.49922E+08         0.18093E+06         0.00000E+00
    0.18093E+06        -0.49907E+08         0.00000E+00
    0.00000E+00         0.00000E+00        -0.49980E+08
 
   -0.49930E+08         0.18265E+06         0.00000E+00
    0.18265E+06        -0.49903E+08         0.00000E+00
    0.00000E+00         0.00000E+00        -0.49980E+08
 
   -0.49937E+08         0.18422E+06         0.00000E+00
    0.18422E+06        -0.49899E+08         0.00000E+00
    0.00000E+00         0.00000E+00        -0.49980E+08
 
   -0.49945E+08         0.18564E+06         0.00000E+00
    0.18564E+06        -0.49895E+08         0.00000E+00
    0.00000E+00         0.00000E+00        -0.49980E+08
 
   -0.49953E+08         0.18690E+06         0.00000E+00
    0.18690E+06        -0.49891E+08         0.00000E+00
    0.00000E+00         0.00000E+00        -0.49980E+08
 
   -0.49960E+08         0.18801E+06         0.00000E+00
    0.18801E+06        -0.49888E+08         0.00000E+00
    0.00000E+00         0.00000E+00        -0.49980E+08
 
   -0.49968E+08         0.18896E+06         0.00000E+00
    0.18896E+06        -0.49884E+08         0.00000E+00
    0.00000E+00         0.00000E+00        -0.49980E+08
 
   -0.49976E+08         0.18975E+06         0.00000E+00
    0.18975E+06        -0.49880E+08         0.00000E+00
    0.00000E+00         0.00000E+00        -0.49980E+08
 
   -0.49708E+08         0.32460E+04         0.00000E+00
    0.32460E+04        -0.50000E+08         0.00000E+00
    0.00000E+00         0.00000E+00        -0.49977E+08
 
   -0.49709E+08         0.96684E+04         0.00000E+00
    0.96684E+04        -0.50000E+08         0.00000E+00
    0.00000E+00         0.00000E+00        -0.49977E+08
 
   -0.49710E+08         0.16059E+05         0.00000E+00
    0.16059E+05        -0.50000E+08         0.00000E+00
    0.00000E+00         0.00000E+00        -0.49977E+08
 
   -0.49711E+08         0.22414E+05         0.00000E+00
    0.22414E+05        -0.49999E+08         0.00000E+00
    0.00000E+00         0.00000E+00        -0.49977E+08
 
   -0.49712E+08         0.28729E+05         0.00000E+00
    0.28729E+05        -0.49999E+08         0.00000E+00
    0.00000E+00         0.00000E+00        -0.49977E+08
 
   -0.49714E+08         0.34998E+05         0.00000E+00
    0.34998E+05        -0.49998E+08         0.00000E+00
    0.00000E+00         0.00000E+00        -0.49977E+08
 
   -0.49715E+08         0.41218E+05         0.00000E+00
    0.41218E+05        -0.49997E+08         0.00000E+00
    0.00000E+00         0.00000E+00        -0.49977E+08
 
   -0.49717E+08         0.47384E+05         0.00000E+00
    0.47384E+05        -0.49996E+08         0.00000E+00
    0.00000E+00         0.00000E+00        -0.49977E+08
 
   -0.49720E+08         0.53492E+05         0.00000E+00
    0.53492E+05        -0.49995E+08         0.00000E+00
    0.00000E+00         0.00000E+00        -0.49977E+08
 
   -0.49722E+08         0.59538E+05         0.00000E+00
    0.59538E+05        -0.49994E+08         0.00000E+00
    0.00000E+00         0.00000E+00        -0.49977E+08
 
   -0.49725E+08         0.65518E+05         0.00000E+00
    0.65518E+05        -0.49993E+08         0.00000E+00
    0.00000E+00         0.00000E+00        -0.49977E+08
 
   -0.49728E+08         0.71427E+05         0.00000E+00
    0.71427E+05        -0.49991E+08         0.00000E+00
    0.00000E+00         0.00000E+00        -0.49977E+08
 
   -0.49731E+08         0.77263E+05         0.00000E+00
    0.77263E+05        -0.49990E+08         0.00000E+00
    0.00000E+00         0.00000E+00        -0.49977E+08
 
   -0.49735E+08         0.83020E+05         0.00000E+00
    0.83020E+05        -0.49988E+08         0.00000E+00
    0.00000E+00         0.00000E+00        -0.49977E+08
 
   -0.49738E+08         0.88694E+05         0.00000E+00
    0.88694E+05        -0.49986E+08         0.00000E+00
    0.00000E+00         0.00000E+00        -0.49977E+08
 
   -0.49742E+08         0.94283E+05         0.00000E+00
    0.94283E+05        -0.49984E+08         0.00000E+00
    0.00000E+00         0.00000E+00        -0.49977E+08
 
   -0.49746E+08         0.99783E+05         0.00000E+00
    0.99783E+05        -0.49982E+08         0.00000E+00
    0.00000E+00         0.00000E+00        -0.49977E+08
 
   -0.49750E+08         0.10519E+06         0.00000E+00
    0.10519E+06        -0.49980E+08         0.00000E+00
    0.00000E+00         0.00000E+00        -0.49977E+08
 
   -0.49755E+08         0.11050E+06         0.00000E+00
    0.11050E+06        -0.49978E+08         0.00000E+00
    0.00000E+00         0.00000E+00        -0.49977E+08
 
   -0.49759E+08         0.11571E+06         0.00000E+00
    0.11571E+06        -0.49976E+08         0.00000E+00
    0.00000E+00         0.00000E+00        -0.49977E+08
 
   -0.49764E+08         0.12081E+06         0.00000E+00
    0.12081E+06        -0.49973E+08         0.00000E+00
    0.00000E+00         0.00000E+00        -0.49977E+08
 
   -0.49769E+08         0.12581E+06         0.00000E+00
    0.12581E+06        -0.49971E+08         0.00000E+00
    0.00000E+00         0.00000E+00        -0.49977E+08
 
   -0.49775E+08         0.13070E+06         0.00000E+00
    0.13070E+06        -0.49968E+08         0.00000E+00
    0.00000E+00         0.00000E+00        -0.49977E+08
 
   -0.49780E+08         0.13547E+06         0.00000E+00
    0.13547E+06        -0.49965E+08         0.00000E+00
    0.00000E+00         0.00000E+00        -0.49977E+08
 
   -0.49786E+08         0.14013E+06         0.00000E+00
    0.14013E+06        -0.49962E+08         0.00000E+00
    0.00000E+00         0.00000E+00        -0.49977E+08
 
   -0.49791E+08         0.14467E+06         0.00000E+00
    0.14467E+06        -0.49959E+08         0.00000E+00
    0.00000E+00         0.00000E+00        -0.49977E+08
 
   -0.49797E+08         0.14908E+06         0.00000E+00
    0.14908E+06        -0.49956E+08         0.00000E+00
    0.00000E+00         0.00000E+00        -0.49977E+08
 
   -0.49803E+08         0.15337E+06         0.00000E+00
    0.15337E+06        -0.49953E+08         0.00000E+00
    0.00000E+00         0.00000E+00        -0.49977E+08
 
   -0.49810E+08         0.15753E+06         0.00000E+00
    0.15753E+06        -0.49950E+08         0.00000E+00
    0.00000E+00         0.00000E+00        -0.49977E+08
 
   -0.49816E+08         0.16156E+06         0.00000E+00
    0.16156E+06        -0.49947E+08         0.00000E+00
    0.00000E+00         0.00000E+00        -0.49977E+08
 
   -0.49823E+08         0.16546E+06         0.00000E+00
    0.16546E+06        -0.49943E+08         0.00000E+00
    0.00000E+00         0.00000E+00        -0.49977E+08
 
   -0.49829E+08         0.16921E+06         0.00000E+00
    0.16921E+06        -0.49940E+08         0.00000E+00
    0.00000E+00         0.00000E+00        -0.49977E+08
 
   -0.49836E+08         0.17283E+06         0.00000E+00
    0.17283E+06        -0.49936E+08         0.00000E+00
    0.00000E+00         0.00000E+00        -0.49977E+08
 
   -0.49843E+08         0.17631E+06         0.00000E+00
    0.17631E+06        -0.49933E+08         0.00000E+00
    0.00000E+00         0.00000E+00        -0.49977E+08
 
   -0.49851E+08         0.17964E+06         0.00000E+00
    0.17964E+06        -0.49929E+08         0.00000E+00
    0.00000E+00         0.00000E+00        -0.49977E+08
 
   -0.49858E+08         0.18282E+06         0.00000E+00
    0.18282E+06        -0.49925E+08         0.00000E+00
    0.00000E+00         0.00000E+00        -0.49977E+08
 
   -0.49865E+08         0.18586E+06         0.00000E+00
    0.18586E+06        -0.49922E+08         0.00000E+00
    0.00000E+00         0.00000E+00        -0.49977E+08
 
   -0.49873E+08         0.18874E+06         0.00000E+00
    0.18874E+06        -0.49918E+08         0.00000E+00
    0.00000E+00         0.00000E+00        -0.49977E+08
 
   -0.49881E+08         0.19147E+06         0.00000E+00
    0.19147E+06        -0.49914E+08         0.00000E+00
    0.00000E+00         0.00000E+00        -0.49977E+08
 
   -0.49889E+08         0.19405E+06         0.00000E+00
    0.19405E+06        -0.49910E+08         0.00000E+00
    0.00000E+00         0.00000E+00        -0.49977E+08
 
   -0.49896E+08         0.19646E+06         0.00000E+00
    0.19646E+06        -0.49906E+08         0.00000E+00
    0.00000E+00         0.00000E+00        -0.49977E+08
 
   -0.49905E+08         0.19872E+06         0.00000E+00
    0.19872E+06        -0.49902E+08         0.00000E+00
    0.00000E+00         0.00000E+00        -0.49977E+08
 
   -0.49913E+08         0.20081E+06         0.00000E+00
    0.20081E+06        -0.49897E+08         0.00000E+00
    0.00000E+00         0.00000E+00        -0.49977E+08
 
   -0.49921E+08         0.20274E+06         0.00000E+00
    0.20274E+06        -0.49893E+08         0.00000E+00
    0.00000E+00         0.00000E+00        -0.49977E+08
 
   -0.49929E+08         0.20451E+06         0.00000E+00
    0.20451E+06        -0.49889E+08         0.00000E+00
    0.00000E+00         0.00000E+00        -0.49977E+08
 
   -0.49938E+08         0.20611E+06         0.00000E+00
    0.20611E+06        -0.49885E+08         0.00000E+00
    0.00000E+00         0.00000E+00        -0.49977E+08
 
   -0.49946E+08         0.20754E+06         0.00000E+00
    0.20754E+06        -0.49880E+08         0.00000E+00
    0.00000E+00         0.00000E+00        -0.49977E+08
 
   -0.49955E+08         0.20880E+06         0.00000E+00
    0.20880E+06        -0.49876E+08         0.00000E+00
    0.00000E+00         0.00000E+00        -0.49977E+08
 
   -0.49964E+08         0.20989E+06         0.00000E+00
    0.20989E+06        -0.49872E+08         0.00000E+00
    0.00000E+00         0.00000E+00        -0.49977E+08
 
   -0.49972E+08         0.21080E+06         0.00000E+00
    0.21080E+06        -0.49867E+08         0.00000E+00
    0.00000E+00         0.00000E+00        -0.49977E+08
 
   -0.49674E+08         0.36095E+04         0.00000E+00
    0.36095E+04        -0.50000E+08         0.00000E+00
    0.00000E+00         0.00000E+00        -0.49973E+08
 
   -0.49675E+08         0.10744E+05         0.00000E+00
    0.10744E+05        -0.50000E+08         0.00000E+00
    0.00000E+00         0.00000E+00        -0.49973E+08
 
   -0.49676E+08         0.17842E+05         0.00000E+00
    0.17842E+05        -0.50000E+08         0.00000E+00
    0.00000E+00         0.00000E+00        -0.49973E+08
 
   -0.49677E+08         0.24897E+05         0.00000E+00
    0.24897E+05        -0.49999E+08         0.00000E+00
    0.00000E+00         0.00000E+00        -0.49973E+08
 
   -0.49679E+08         0.31905E+05         0.00000E+00
    0.31905E+05        -0.49998E+08         0.00000E+00
    0.00000E+00         0.00000E+00        -0.49973E+08
 
   -0.49681E+08         0.38861E+05         0.00000E+00
    0.38861E+05        -0.49998E+08         0.00000E+00
    0.00000E+00         0.00000E+00        -0.49973E+08
 
   -0.49683E+08         0.45761E+05         0.00000E+00
    0.45761E+05        -0.49997E+08         0.00000E+00
    0.00000E+00         0.00000E+00        -0.49973E+08
 
   -0.49685E+08         0.52599E+05         0.00000E+00
    0.52599E+05        -0.49996E+08         0.00000E+00
    0.00000E+00         0.00000E+00        -0.49973E+08
 
   -0.49688E+08         0.59371E+05         0.00000E+00
    0.59371E+05        -0.49995E+08         0.00000E+00
    0.00000E+00         0.00000E+00        -0.49973E+08
 
   -0.49691E+08         0.66073E+05         0.00000E+00
    0.66073E+05        -0.49993E+08         0.00000E+00
    0.00000E+00         0.00000E+00        -0.49973E+08
 
   -0.49694E+08         0.72700E+05         0.00000E+00
    0.72700E+05        -0.49992E+08         0.00000E+00
    0.00000E+00         0.00000E+00        -0.49973E+08
 
   -0.49697E+08         0.79248E+05         0.00000E+00
    0.79248E+05        -0.49990E+08         0.00000E+00
    0.00000E+00         0.00000E+00        -0.49973E+08
 
   -0.49701E+08         0.85713E+05         0.00000E+00
    0.85713E+05        -0.49989E+08         0.00000E+00
    0.00000E+00         0.00000E+00        -0.49973E+08
 
   -0.49704E+08         0.92090E+05         0.00000E+00
    0.92090E+05        -0.49987E+08         0.00000E+00
    0.00000E+00         0.00000E+00        -0.49973E+08
 
   -0.49709E+08         0.98375E+05         0.00000E+00
    0.98375E+05        -0.49985E+08         0.00000E+00
    0.00000E+00         0.00000E+00        -0.49973E+08
 
   -0.49713E+08         0.10456E+06         0.00000E+00
    0.10456E+06        -0.49983E+08         0.00000E+00
    0.00000E+00         0.00000E+00        -0.49973E+08
 
   -0.49717E+08         0.11065E+06         0.00000E+00
    0.11065E+06        -0.49981E+08         0.00000E+00
    0.00000E+00         0.00000E+00        -0.49973E+08
 
   -0.49722E+08         0.11664E+06         0.00000E+00
    0.11664E+06        -0.49978E+08         0.00000E+00
    0.00000E+00         0.00000E+00        -0.49973E+08
 
   -0.49727E+08         0.12252E+06         0.00000E+00
    0.12252E+06        -0.49976E+08         0.00000E+00
    0.00000E+00         0.00000E+00        -0.49973E+08
 
   -0.49732E+08         0.12829E+06         0.00000E+00
    0.12829E+06        -0.49973E+08         0.00000E+00
    0.00000E+00         0.00000E+00        -0.49973E+08
 
   -0.49738E+08         0.13394E+06         0.00000E+00
    0.13394E+06        -0.49970E+08         0.00000E+00
    0.00000E+00         0.00000E+00        -0.49973E+08
 
   -0.49743E+08         0.13947E+06         0.00000E+00
    0.13947E+06        -0.49968E+08         0.00000E+00
    0.00000E+00         0.00000E+00        -0.49973E+08
 
   -0.49749E+08         0.14489E+06         0.00000E+00
    0.14489E+06        -0.49965E+08         0.00000E+00
    0.00000E+00         0.00000E+00        -0.49973E+08
 
   -0.49755E+08         0.15017E+06         0.00000E+00
    0.15017E+06        -0.49962E+08         0.00000E+00
    0.00000E+00         0.00000E+00        -0.49973E+08
 
   -0.49761E+08         0.15533E+06         0.00000E+00
    0.15533E+06        -0.49959E+08         0.00000E+00
    0.00000E+00         0.00000E+00        -0.49973E+08
 
   -0.49768E+08         0.16035E+06         0.00000E+00
    0.16035E+06        -0.49955E+08         0.00000E+00
    0.00000E+00         0.00000E+00        -0.49973E+08
 
   -0.49774E+08         0.16524E+06         0.00000E+00
    0.16524E+06        -0.49952E+08         0.00000E+00
    0.00000E+00         0.00000E+00        -0.49973E+08
 
   -0.49781E+08         0.17000E+06         0.00000E+00
    0.17000E+06        -0.49949E+08         0.00000E+00
    0.00000E+00         0.00000E+00        -0.49973E+08
 
   -0.49788E+08         0.17461E+06         0.00000E+00
    0.17461E+06        -0.49945E+08         0.00000E+00
    0.00000E+00         0.00000E+00        -0.49973E+08
 
   -0.49795E+08         0.17907E+06         0.00000E+00
    0.17907E+06        -0.49941E+08         0.00000E+00
    0.00000E+00         0.00000E+00        -0.49973E+08
 
   -0.49803E+08         0.18339E+06         0.00000E+00
    0.18339E+06        -0.49938E+08         0.00000E+00
    0.00000E+00         0.00000E+00        -0.49973E+08
 
   -0.49810E+08         0.18756E+06         0.00000E+00
    0.18756E+06        -0.49934E+08         0.00000E+00
    0.00000E+00         0.00000E+00        -0.49973E+08
 
   -0.49818E+08         0.19157E+06         0.00000E+00
    0.19157E+06        -0.49930E+08         0.00000E+00
    0.00000E+00         0.00000E+00        -0.49973E+08
 
   -0.49825E+08         0.19543E+06         0.00000E+00
    0.19543E+06        -0.49926E+08         0.00000E+00
    0.00000E+00         0.00000E+00        -0.49973E+08
 
   -0.49833E+08         0.19913E+06         0.00000E+00
    0.19913E+06        -0.49922E+08         0.00000E+00
    0.00000E+00         0.00000E+00        -0.49973E+08
 
   -0.49841E+08         0.20267E+06         0.00000E+00
    0.20267E+06        -0.49918E+08         0.00000E+00
    0.00000E+00         0.00000E+00        -0.49973E+08
 
   -0.49850E+08         0.20604E+06         0.00000E+00
    0.20604E+06        -0.49914E+08         0.00000E+00
    0.00000E+00         0.00000E+00        -0.49973E+08
 
   -0.49858E+08         0.20925E+06         0.00000E+00
    0.20925E+06        -0.49909E+08         0.00000E+00
    0.00000E+00         0.00000E+00        -0.49973E+08
 
   -0.49867E+08         0.21229E+06         0.00000E+00
    0.21229E+06        -0.49905E+08         0.00000E+00
    0.00000E+00         0.00000E+00        -0.49973E+08
 
   -0.49875E+08         0.21516E+06         0.00000E+00
    0.21516E+06        -0.49901E+08         0.00000E+00
    0.00000E+00         0.00000E+00        -0.49973E+08
 
   -0.49884E+08         0.21786E+06         0.00000E+00
    0.21786E+06        -0.49896E+08         0.00000E+00
    0.00000E+00         0.00000E+00        -0.49973E+08
 
   -0.49893E+08         0.22038E+06         0.00000E+00
    0.22038E+06        -0.49892E+08         0.00000E+00
    0.00000E+00         0.00000E+00        -0.49973E+08
 
   -0.49902E+08         0.22273E+06         0.00000E+00
    0.22273E+06        -0.49887E+08         0.00000E+00
    0.00000E+00         0.00000E+00        -0.49973E+08
 
   -0.49911E+08         0.22490E+06         0.00000E+00
    0.22490E+06        -0.49882E+08         0.00000E+00
    0.00000E+00         0.00000E+00        -0.49973E+08
 
   -0.49920E+08         0.22688E+06         0.00000E+00
    0.22688E+06        -0.49878E+08         0.00000E+00
    0.00000E+00         0.00000E+00        -0.49973E+08
 
   -0.49930E+08         0.22868E+06         0.00000E+00
    0.22868E+06        -0.49873E+08         0.00000E+00
    0.00000E+00         0.00000E+00        -0.49973E+08
 
   -0.49939E+08         0.23030E+06         0.00000E+00
    0.23030E+06        -0.49868E+08         0.00000E+00
    0.00000E+00         0.00000E+00        -0.49973E+08
 
   -0.49949E+08         0.23174E+06         0.00000E+00
    0.23174E+06        -0.49864E+08         0.00000E+00
    0.00000E+00         0.00000E+00        -0.49973E+08
 
   -0.49958E+08         0.23298E+06         0.00000E+00
    0.23298E+06        -0.49859E+08         0.00000E+00
    0.00000E+00         0.00000E+00        -0.49973E+08
 
   -0.49968E+08         0.23404E+06         0.00000E+00
    0.23404E+06        -0.49854E+08         0.00000E+00
    0.00000E+00         0.00000E+00        -0.49973E+08
 
   -0.49636E+08         0.40106E+04         0.00000E+00
    0.40106E+04        -0.50000E+08         0.00000E+00
    0.00000E+00         0.00000E+00        -0.49968E+08
 
   -0.49637E+08         0.11930E+05         0.00000E+00
    0.11930E+05        -0.50000E+08         0.00000E+00
    0.00000E+00         0.00000E+00        -0.49968E+08
 
   -0.49639E+08         0.19806E+05         0.00000E+00
    0.19806E+05        -0.49999E+08         0.00000E+00
    0.00000E+00         0.00000E+00        -0.49968E+08
 
   -0.49640E+08         0.27632E+05         0.00000E+00
    0.27632E+05        -0.49999E+08         0.00000E+00
    0.00000E+00         0.00000E+00        -0.49968E+08
 
   -0.49642E+08         0.35404E+05         0.00000E+00
    0.35404E+05        -0.49998E+08         0.00000E+00
    0.00000E+00         0.00000E+00        -0.49968E+08
 
   -0.49644E+08         0.43116E+05         0.00000E+00
    0.43116E+05        -0.49998E+08         0.00000E+00
    0.00000E+00         0.00000E+00        -0.49968E+08
 
   -0.49647E+08         0.50763E+05         0.00000E+00
    0.50763E+05        -0.49997E+08         0.00000E+00
    0.00000E+00         0.00000E+00        -0.49968E+08
 
   -0.49649E+08         0.58340E+05         0.00000E+00
    0.58340E+05        -0.49995E+08         0.00000E+00
    0.00000E+00         0.00000E+00        -0.49968E+08
 
   -0.49652E+08         0.65843E+05         0.00000E+00
    0.65843E+05        -0.49994E+08         0.00000E+00
    0.00000E+00         0.00000E+00        -0.49968E+08
 
   -0.49655E+08         0.73266E+05         0.00000E+00
    0.73266E+05        -0.49993E+08         0.00000E+00
    0.00000E+00         0.00000E+00        -0.49968E+08
 
   -0.49659E+08         0.80604E+05         0.00000E+00
    0.80604E+05        -0.49991E+08         0.00000E+00
    0.00000E+00         0.00000E+00        -0.49968E+08
 
   -0.49663E+08         0.87854E+05         0.00000E+00
    0.87854E+05        -0.49989E+08         0.00000E+00
    0.00000E+00         0.00000E+00        -0.49968E+08
 
   -0.49667E+08         0.95010E+05         0.00000E+00
    0.95010E+05        -0.49988E+08         0.00000E+00
    0.00000E+00         0.00000E+00        -0.49968E+08
 
   -0.49671E+08         0.10207E+06         0.00000E+00
    0.10207E+06        -0.49985E+08         0.00000E+00
    0.00000E+00         0.00000E+00        -0.49968E+08
 
   -0.49676E+08         0.10902E+06         0.00000E+00
    0.10902E+06        -0.49983E+08         0.00000E+00
    0.00000E+00         0.00000E+00        -0.49968E+08
 
   -0.49680E+08         0.11587E+06         0.00000E+00
    0.11587E+06        -0.49981E+08         0.00000E+00
    0.00000E+00         0.00000E+00        -0.49968E+08
 
   -0.49686E+08         0.12261E+06         0.00000E+00
    0.12261E+06        -0.49979E+08         0.00000E+00
    0.00000E+00         0.00000E+00        -0.49968E+08
 
   -0.49691E+08         0.12923E+06         0.00000E+00
    0.12923E+06        -0.49976E+08         0.00000E+00
    0.00000E+00         0.00000E+00        -0.49968E+08
 
   -0.49696E+08         0.13574E+06         0.00000E+00
    0.13574E+06        -0.49973E+08         0.00000E+00
    0.00000E+00         0.00000E+00        -0.49968E+08
 
   -0.49702E+08         0.14212E+06         0.00000E+00
    0.14212E+06        -0.49970E+08         0.00000E+00
    0.00000E+00         0.00000E+00        -0.49968E+08
 
   -0.49708E+08         0.14837E+06         0.00000E+00
    0.14837E+06        -0.49968E+08         0.00000E+00
    0.00000E+00         0.00000E+00        -0.49968E+08
 
   -0.49714E+08         0.15449E+06         0.00000E+00
    0.15449E+06        -0.49964E+08         0.00000E+00
    0.00000E+00         0.00000E+00        -0.49968E+08
 
   -0.49721E+08         0.16048E+06         0.00000E+00
    0.16048E+06        -0.49961E+08         0.00000E+00
    0.00000E+00         0.00000E+00        -0.49968E+08
 
   -0.49728E+08         0.16633E+06         0.00000E+00
    0.16633E+06        -0.49958E+08         0.00000E+00
    0.00000E+00         0.00000E+00        -0.49968E+08
 
   -0.49735E+08         0.17204E+06         0.00000E+00
    0.17204E+06        -0.49954E+08         0.00000E+00
    0.00000E+00         0.00000E+00        -0.49968E+08
 
   -0.49742E+08         0.17760E+06         0.00000E+00
    0.17760E+06        -0.49951E+08         0.00000E+00
    0.00000E+00         0.00000E+00        -0.49968E+08
 
   -0.49749E+08         0.18301E+06         0.00000E+00
    0.18301E+06        -0.49947E+08         0.00000E+00
    0.00000E+00         0.00000E+00        -0.49968E+08
 
   -0.49756E+08         0.18827E+06         0.00000E+00
    0.18827E+06        -0.49943E+08         0.00000E+00
    0.00000E+00         0.00000E+00        -0.49968E+08
 
   -0.49764E+08         0.19338E+06         0.00000E+00
    0.19338E+06        -0.49940E+08         0.00000E+00
    0.00000E+00         0.00000E+00        -0.49968E+08
 
   -0.49772E+08         0.19832E+06         0.00000E+00
    0.19832E+06        -0.49936E+08         0.00000E+00
    0.00000E+00         0.00000E+00        -0.49968E+08
 
   -0.49780E+08         0.20311E+06         0.00000E+00
    0.20311E+06        -0.49931E+08         0.00000E+00
    0.00000E+00         0.00000E+00        -0.49968E+08
 
   -0.49788E+08         0.20773E+06         0.00000E+00
    0.20773E+06        -0.49927E+08         0.00000E+00
    0.00000E+00         0.00000E+00        -0.49968E+08
 
   -0.49797E+08         0.21218E+06         0.00000E+00
    0.21218E+06        -0.49923E+08         0.00000E+00
    0.00000E+00         0.00000E+00        -0.49968E+08
 
   -0.49806E+08         0.21646E+06         0.00000E+00
    0.21646E+06        -0.49919E+08         0.00000E+00
    0.00000E+00         0.00000E+00        -0.49968E+08
 
   -0.49814E+08         0.22056E+06         0.00000E+00
    0.22056E+06        -0.49914E+08         0.00000E+00
    0.00000E+00         0.00000E+00        -0.49968E+08
 
   -0.49823E+08         0.22449E+06         0.00000E+00
    0.22449E+06        -0.49910E+08         0.00000E+00
    0.00000E+00         0.00000E+00        -0.49968E+08
 
   -0.49832E+08         0.22825E+06         0.00000E+00
    0.22825E+06        -0.49905E+08         0.00000E+00
    0.00000E+00         0.00000E+00        -0.49968E+08
 
   -0.49842E+08         0.23182E+06         0.00000E+00
    0.23182E+06        -0.49900E+08         0.00000E+00
    0.00000E+00         0.00000E+00        -0.49968E+08
 
   -0.49851E+08         0.23520E+06         0.00000E+00
    0.23520E+06        -0.49896E+08         0.00000E+00
    0.00000E+00         0.00000E+00        -0.49968E+08
 
   -0.49861E+08         0.23840E+06         0.00000E+00
    0.23840E+06        -0.49891E+08         0.00000E+00
    0.00000E+00         0.00000E+00        -0.49968E+08
 
   -0.49870E+08         0.24141E+06         0.00000E+00
    0.24141E+06        -0.49886E+08         0.00000E+00
    0.00000E+00         0.00000E+00        -0.49968E+08
 
   -0.49880E+08         0.24423E+06         0.00000E+00
    0.24423E+06        -0.49881E+08         0.00000E+00
    0.00000E+00         0.00000E+00        -0.49968E+08
 
   -0.49890E+08         0.24686E+06         0.00000E+00
    0.24686E+06        -0.49876E+08         0.00000E+00
    0.00000E+00         0.00000E+00        -0.49968E+08
 
   -0.49900E+08         0.24929E+06         0.00000E+00
    0.24929E+06        -0.49871E+08         0.00000E+00
    0.00000E+00         0.00000E+00        -0.49968E+08
 
   -0.49910E+08         0.25152E+06         0.00000E+00
    0.25152E+06        -0.49866E+08         0.00000E+00
    0.00000E+00         0.00000E+00        -0.49968E+08
 
   -0.49921E+08         0.25355E+06         0.00000E+00
    0.25355E+06        -0.49860E+08         0.00000E+00
    0.00000E+00         0.00000E+00        -0.49968E+08
 
   -0.49931E+08         0.25539E+06         0.00000E+00
    0.25539E+06        -0.49855E+08         0.00000E+00
    0.00000E+00         0.00000E+00        -0.49968E+08
 
   -0.49942E+08         0.25702E+06         0.00000E+00
    0.25702E+06        -0.49850E+08         0.00000E+00
    0.00000E+00         0.00000E+00        -0.49968E+08
 
   -0.49952E+08         0.25844E+06         0.00000E+00
    0.25844E+06        -0.49845E+08         0.00000E+00
    0.00000E+00         0.00000E+00        -0.49968E+08
 
   -0.49963E+08         0.25966E+06         0.00000E+00
    0.25966E+06        -0.49839E+08         0.00000E+00
    0.00000E+00         0.00000E+00        -0.49968E+08
 
   -0.49595E+08         0.44525E+04         0.00000E+00
    0.44525E+04        -0.50000E+08         0.00000E+00
    0.00000E+00         0.00000E+00        -0.49963E+08
 
   -0.49596E+08         0.13236E+05         0.00000E+00
    0.13236E+05        -0.50000E+08         0.00000E+00
    0.00000E+00         0.00000E+00        -0.49963E+08
 
   -0.49597E+08         0.21968E+05         0.00000E+00
    0.21968E+05        -0.49999E+08         0.00000E+00
    0.00000E+00         0.00000E+00        -0.49963E+08
 
   -0.49599E+08         0.30642E+05         0.00000E+00
    0.30642E+05        -0.49999E+08         0.00000E+00
    0.00000E+00         0.00000E+00        -0.49963E+08
 
   -0.49601E+08         0.39254E+05         0.00000E+00
    0.39254E+05        -0.49998E+08         0.00000E+00
    0.00000E+00         0.00000E+00        -0.49963E+08
 
   -0.49604E+08         0.47796E+05         0.00000E+00
    0.47796E+05        -0.49997E+08         0.00000E+00
    0.00000E+00         0.00000E+00        -0.49963E+08
 
   -0.49606E+08         0.56264E+05         0.00000E+00
    0.56264E+05        -0.49996E+08         0.00000E+00
    0.00000E+00         0.00000E+00        -0.49963E+08
 
   -0.49610E+08         0.64653E+05         0.00000E+00
    0.64653E+05        -0.49995E+08         0.00000E+00
    0.00000E+00         0.00000E+00        -0.49963E+08
 
   -0.49613E+08         0.72958E+05         0.00000E+00
    0.72958E+05        -0.49994E+08         0.00000E+00
    0.00000E+00         0.00000E+00        -0.49963E+08
 
   -0.49617E+08         0.81172E+05         0.00000E+00
    0.81172E+05        -0.49992E+08         0.00000E+00
    0.00000E+00         0.00000E+00        -0.49963E+08
 
   -0.49621E+08         0.89292E+05         0.00000E+00
    0.89292E+05        -0.49990E+08         0.00000E+00
    0.00000E+00         0.00000E+00        -0.49963E+08
 
   -0.49625E+08         0.97311E+05         0.00000E+00
    0.97311E+05        -0.49988E+08         0.00000E+00
    0.00000E+00         0.00000E+00        -0.49963E+08
 
   -0.49629E+08         0.10523E+06         0.00000E+00
    0.10523E+06        -0.49986E+08         0.00000E+00
    0.00000E+00         0.00000E+00        -0.49963E+08
 
   -0.49634E+08         0.11303E+06         0.00000E+00
    0.11303E+06        -0.49984E+08         0.00000E+00
    0.00000E+00         0.00000E+00        -0.49963E+08
 
   -0.49639E+08         0.12072E+06         0.00000E+00
    0.12072E+06        -0.49982E+08         0.00000E+00
    0.00000E+00         0.00000E+00        -0.49963E+08
 
   -0.49645E+08         0.12830E+06         0.00000E+00
    0.12830E+06        -0.49979E+08         0.00000E+00
    0.00000E+00         0.00000E+00        -0.49963E+08
 
   -0.49650E+08         0.13574E+06         0.00000E+00
    0.13574E+06        -0.49976E+08         0.00000E+00
    0.00000E+00         0.00000E+00        -0.49963E+08
 
   -0.49656E+08         0.14307E+06         0.00000E+00
    0.14307E+06        -0.49974E+08         0.00000E+00
    0.00000E+00         0.00000E+00        -0.49963E+08
 
   -0.49663E+08         0.15026E+06         0.00000E+00
    0.15026E+06        -0.49971E+08         0.00000E+00
    0.00000E+00         0.00000E+00        -0.49963E+08
 
   -0.49669E+08         0.15731E+06         0.00000E+00
    0.15731E+06        -0.49968E+08         0.00000E+00
    0.00000E+00         0.00000E+00        -0.49963E+08
 
   -0.49676E+08         0.16422E+06         0.00000E+00
    0.16422E+06        -0.49964E+08         0.00000E+00
    0.00000E+00         0.00000E+00        -0.49963E+08
 
   -0.49683E+08         0.17099E+06         0.00000E+00
    0.17099E+06        -0.49961E+08         0.00000E+00
    0.00000E+00         0.00000E+00        -0.49963E+08
 
   -0.49690E+08         0.17761E+06         0.00000E+00
    0.17761E+06        -0.49957E+08         0.00000E+00
    0.00000E+00         0.00000E+00        -0.49963E+08
 
   -0.49697E+08         0.18407E+06         0.00000E+00
    0.18407E+06        -0.49954E+08         0.00000E+00
    0.00000E+00         0.00000E+00        -0.49963E+08
 
   -0.49705E+08         0.19038E+06         0.00000E+00
    0.19038E+06        -0.49950E+08         0.00000E+00
    0.00000E+00         0.00000E+00        -0.49963E+08
 
   -0.49713E+08         0.19653E+06         0.00000E+00
    0.19653E+06        -0.49946E+08         0.00000E+00
    0.00000E+00         0.00000E+00        -0.49963E+08
 
   -0.49721E+08         0.20252E+06         0.00000E+00
    0.20252E+06        -0.49942E+08         0.00000E+00
    0.00000E+00         0.00000E+00        -0.49963E+08
 
   -0.49729E+08         0.20834E+06         0.00000E+00
    0.20834E+06        -0.49938E+08         0.00000E+00
    0.00000E+00         0.00000E+00        -0.49963E+08
 
   -0.49738E+08         0.21399E+06         0.00000E+00
    0.21399E+06        -0.49934E+08         0.00000E+00
    0.00000E+00         0.00000E+00        -0.49963E+08
 
   -0.49746E+08         0.21946E+06         0.00000E+00
    0.21946E+06        -0.49929E+08         0.00000E+00
    0.00000E+00         0.00000E+00        -0.49963E+08
 
   -0.49755E+08         0.22476E+06         0.00000E+00
    0.22476E+06        -0.49925E+08         0.00000E+00
    0.00000E+00         0.00000E+00        -0.49963E+08
 
   -0.49765E+08         0.22988E+06         0.00000E+00
    0.22988E+06        -0.49920E+08         0.00000E+00
    0.00000E+00         0.00000E+00        -0.49963E+08
 
   -0.49774E+08         0.23481E+06         0.00000E+00
    0.23481E+06        -0.49916E+08         0.00000E+00
    0.00000E+00         0.00000E+00        -0.49963E+08
 
   -0.49783E+08         0.23956E+06         0.00000E+00
    0.23956E+06        -0.49911E+08         0.00000E+00
    0.00000E+00         0.00000E+00        -0.49963E+08
 
   -0.49793E+08         0.24411E+06         0.00000E+00
    0.24411E+06        -0.49906E+08         0.00000E+00
    0.00000E+00         0.00000E+00        -0.49963E+08
 
   -0.49803E+08         0.24847E+06         0.00000E+00
    0.24847E+06        -0.49901E+08         0.00000E+00
    0.00000E+00         0.00000E+00        -0.49963E+08
 
   -0.49813E+08         0.25264E+06         0.00000E+00
    0.25264E+06        -0.49896E+08         0.00000E+00
    0.00000E+00         0.00000E+00        -0.49963E+08
 
   -0.49823E+08         0.25661E+06         0.00000E+00
    0.25661E+06        -0.49891E+08         0.00000E+00
    0.00000E+00         0.00000E+00        -0.49963E+08
 
   -0.49834E+08         0.26038E+06         0.00000E+00
    0.26038E+06        -0.49885E+08         0.00000E+00
    0.00000E+00         0.00000E+00        -0.49963E+08
 
   -0.49844E+08         0.26394E+06         0.00000E+00
    0.26394E+06        -0.49880E+08         0.00000E+00
    0.00000E+00         0.00000E+00        -0.49963E+08
 
   -0.49855E+08         0.26730E+06         0.00000E+00
    0.26730E+06        -0.49875E+08         0.00000E+00
    0.00000E+00         0.00000E+00        -0.49963E+08
 
   -0.49866E+08         0.27045E+06         0.00000E+00
    0.27045E+06        -0.49869E+08         0.00000E+00
    0.00000E+00         0.00000E+00        -0.49963E+08
 
   -0.49877E+08         0.27339E+06         0.00000E+00
    0.27339E+06        -0.49864E+08         0.00000E+00
    0.00000E+00         0.00000E+00        -0.49963E+08
 
   -0.49888E+08         0.27612E+06         0.00000E+00
    0.27612E+06        -0.49858E+08         0.00000E+00
    0.00000E+00         0.00000E+00        -0.49963E+08
 
   -0.49899E+08         0.27863E+06         0.00000E+00
    0.27863E+06        -0.49852E+08         0.00000E+00
    0.00000E+00         0.00000E+00        -0.49963E+08
 
   -0.49910E+08         0.28092E+06         0.00000E+00
    0.28092E+06        -0.49847E+08         0.00000E+00
    0.00000E+00         0.00000E+00        -0.49963E+08
 
   -0.49922E+08         0.28299E+06         0.00000E+00
    0.28299E+06        -0.49841E+08         0.00000E+00
    0.00000E+00         0.00000E+00        -0.49963E+08
 
   -0.49933E+08         0.28485E+06         0.00000E+00
    0.28485E+06        -0.49835E+08         0.00000E+00
    0.00000E+00         0.00000E+00        -0.49963E+08
 
   -0.49945E+08         0.28648E+06         0.00000E+00
    0.28648E+06        -0.49829E+08         0.00000E+00
    0.00000E+00         0.00000E+00        -0.49963E+08
 
   -0.49957E+08         0.28788E+06         0.00000E+00
    0.28788E+06        -0.49823E+08         0.00000E+00
    0.00000E+00         0.00000E+00        -0.49963E+08
 
   -0.49548E+08         0.49389E+04         0.00000E+00
    0.49389E+04        -0.50000E+08         0.00000E+00
    0.00000E+00         0.00000E+00        -0.49956E+08
 
   -0.49550E+08         0.14672E+05         0.00000E+00
    0.14672E+05        -0.50000E+08         0.00000E+00
    0.00000E+00         0.00000E+00        -0.49956E+08
 
   -0.49551E+08         0.24345E+05         0.00000E+00
    0.24345E+05        -0.49999E+08         0.00000E+00
    0.00000E+00         0.00000E+00        -0.49956E+08
 
   -0.49554E+08         0.33950E+05         0.00000E+00
    0.33950E+05        -0.49999E+08         0.00000E+00
    0.00000E+00         0.00000E+00        -0.49956E+08
 
   -0.49556E+08         0.43483E+05         0.00000E+00
    0.43483E+05        -0.49998E+08         0.00000E+00
    0.00000E+00         0.00000E+00        -0.49956E+08
 
   -0.49559E+08         0.52937E+05         0.00000E+00
    0.52937E+05        -0.49997E+08         0.00000E+00
    0.00000E+00         0.00000E+00        -0.49956E+08
 
   -0.49562E+08         0.62307E+05         0.00000E+00
    0.62307E+05        -0.49996E+08         0.00000E+00
    0.00000E+00         0.00000E+00        -0.49956E+08
 
   -0.49566E+08         0.71586E+05         0.00000E+00
    0.71586E+05        -0.49994E+08         0.00000E+00
    0.00000E+00         0.00000E+00        -0.49956E+08
 
   -0.49569E+08         0.80770E+05         0.00000E+00
    0.80770E+05        -0.49993E+08         0.00000E+00
    0.00000E+00         0.00000E+00        -0.49956E+08
 
   -0.49574E+08         0.89852E+05         0.00000E+00
    0.89852E+05        -0.49991E+08         0.00000E+00
    0.00000E+00         0.00000E+00        -0.49956E+08
 
   -0.49578E+08         0.98827E+05         0.00000E+00
    0.98827E+05        -0.49989E+08         0.00000E+00
    0.00000E+00         0.00000E+00        -0.49956E+08
 
   -0.49583E+08         0.10769E+06         0.00000E+00
    0.10769E+06        -0.49987E+08         0.00000E+00
    0.00000E+00         0.00000E+00        -0.49956E+08
 
   -0.49588E+08         0.11644E+06         0.00000E+00
    0.11644E+06        -0.49985E+08         0.00000E+00
    0.00000E+00         0.00000E+00        -0.49956E+08
 
   -0.49593E+08         0.12506E+06         0.00000E+00
    0.12506E+06        -0.49982E+08         0.00000E+00
    0.00000E+00         0.00000E+00        -0.49956E+08
 
   -0.49599E+08         0.13356E+06         0.00000E+00
    0.13356E+06        -0.49980E+08         0.00000E+00
    0.00000E+00         0.00000E+00        -0.49956E+08
 
   -0.49605E+08         0.14192E+06         0.00000E+00
    0.14192E+06        -0.49977E+08         0.00000E+00
    0.00000E+00         0.00000E+00        -0.49956E+08
 
   -0.49612E+08         0.15015E+06         0.00000E+00
    0.15015E+06        -0.49974E+08         0.00000E+00
    0.00000E+00         0.00000E+00        -0.49956E+08
 
   -0.49618E+08         0.15824E+06         0.00000E+00
    0.15824E+06        -0.49971E+08         0.00000E+00
    0.00000E+00         0.00000E+00        -0.49956E+08
 
   -0.49625E+08         0.16618E+06         0.00000E+00
    0.16618E+06        -0.49968E+08         0.00000E+00
    0.00000E+00         0.00000E+00        -0.49956E+08
 
   -0.49632E+08         0.17397E+06         0.00000E+00
    0.17397E+06        -0.49964E+08         0.00000E+00
    0.00000E+00         0.00000E+00        -0.49956E+08
 
   -0.49640E+08         0.18160E+06         0.00000E+00
    0.18160E+06        -0.49961E+08         0.00000E+00
    0.00000E+00         0.00000E+00        -0.49956E+08
 
   -0.49647E+08         0.18908E+06         0.00000E+00
    0.18908E+06        -0.49957E+08         0.00000E+00
    0.00000E+00         0.00000E+00        -0.49956E+08
 
   -0.49655E+08         0.19639E+06         0.00000E+00
    0.19639E+06        -0.49953E+08         0.00000E+00
    0.00000E+00         0.00000E+00        -0.49956E+08
 
   -0.49664E+08         0.20353E+06         0.00000E+00
    0.20353E+06        -0.49949E+08         0.00000E+00
    0.00000E+00         0.00000E+00        -0.49956E+08
 
   -0.49672E+08         0.21050E+06         0.00000E+00
    0.21050E+06        -0.49945E+08         0.00000E+00
    0.00000E+00         0.00000E+00        -0.49956E+08
 
   -0.49681E+08         0.21730E+06         0.00000E+00
    0.21730E+06        -0.49941E+08         0.00000E+00
    0.00000E+00         0.00000E+00        -0.49956E+08
 
   -0.49690E+08         0.22392E+06         0.00000E+00
    0.22392E+06        -0.49936E+08         0.00000E+00
    0.00000E+00         0.00000E+00        -0.49956E+08
 
   -0.49699E+08         0.23035E+06         0.00000E+00
    0.23035E+06        -0.49932E+08         0.00000E+00
    0.00000E+00         0.00000E+00        -0.49956E+08
 
   -0.49708E+08         0.23659E+06         0.00000E+00
    0.23659E+06        -0.49927E+08         0.00000E+00
    0.00000E+00         0.00000E+00        -0.49956E+08
 
   -0.49718E+08         0.24265E+06         0.00000E+00
    0.24265E+06        -0.49922E+08         0.00000E+00
    0.00000E+00         0.00000E+00        -0.49956E+08
 
   -0.49728E+08         0.24851E+06         0.00000E+00
    0.24851E+06        -0.49918E+08         0.00000E+00
    0.00000E+00         0.00000E+00        -0.49956E+08
 
   -0.49738E+08         0.25417E+06         0.00000E+00
    0.25417E+06        -0.49913E+08         0.00000E+00
    0.00000E+00         0.00000E+00        -0.49956E+08
 
   -0.49748E+08         0.25964E+06         0.00000E+00
    0.25964E+06        -0.49907E+08         0.00000E+00
    0.00000E+00         0.00000E+00        -0.49956E+08
 
   -0.49759E+08         0.26490E+06         0.00000E+00
    0.26490E+06        -0.49902E+08         0.00000E+00
    0.00000E+00         0.00000E+00        -0.49956E+08
 
   -0.49770E+08         0.26995E+06         0.00000E+00
    0.26995E+06        -0.49897E+08         0.00000E+00
    0.00000E+00         0.00000E+00        -0.49956E+08
 
   -0.49781E+08         0.27479E+06         0.00000E+00
    0.27479E+06        -0.49891E+08         0.00000E+00
    0.00000E+00         0.00000E+00        -0.49956E+08
 
   -0.49792E+08         0.27941E+06         0.00000E+00
    0.27941E+06        -0.49886E+08         0.00000E+00
    0.00000E+00         0.00000E+00        -0.49956E+08
 
   -0.49803E+08         0.28383E+06         0.00000E+00
    0.28383E+06        -0.49880E+08         0.00000E+00
    0.00000E+00         0.00000E+00        -0.49956E+08
 
   -0.49814E+08         0.28802E+06         0.00000E+00
    0.28802E+06        -0.49874E+08         0.00000E+00
    0.00000E+00         0.00000E+00        -0.49956E+08
 
   -0.49826E+08         0.29199E+06         0.00000E+00
    0.29199E+06        -0.49869E+08         0.00000E+00
    0.00000E+00         0.00000E+00        -0.49956E+08
 
   -0.49838E+08         0.29573E+06         0.00000E+00
    0.29573E+06        -0.49863E+08         0.00000E+00
    0.00000E+00         0.00000E+00        -0.49956E+08
 
   -0.49850E+08         0.29925E+06         0.00000E+00
    0.29925E+06        -0.49857E+08         0.00000E+00
    0.00000E+00         0.00000E+00        -0.49956E+08
 
   -0.49862E+08         0.30254E+06         0.00000E+00
    0.30254E+06        -0.49851E+08         0.00000E+00
    0.00000E+00         0.00000E+00        -0.49956E+08
 
   -0.49874E+08         0.30560E+06         0.00000E+00
    0.30560E+06        -0.49844E+08         0.00000E+00
    0.00000E+00         0.00000E+00        -0.49956E+08
 
   -0.49886E+08         0.30842E+06         0.00000E+00
    0.30842E+06        -0.49838E+08         0.00000E+00
    0.00000E+00         0.00000E+00        -0.49956E+08
 
   -0.49899E+08         0.31100E+06         0.00000E+00
    0.31100E+06        -0.49832E+08         0.00000E+00
    0.00000E+00         0.00000E+00        -0.49956E+08
 
   -0.49911E+08         0.31335E+06         0.00000E+00
    0.31335E+06        -0.49826E+08         0.00000E+00
    0.00000E+00         0.00000E+00        -0.49956E+08
 
   -0.49924E+08         0.31546E+06         0.00000E+00
    0.31546E+06        -0.49819E+08         0.00000E+00
    0.00000E+00         0.00000E+00        -0.49956E+08
 
   -0.49937E+08         0.31732E+06         0.00000E+00
    0.31732E+06        -0.49813E+08         0.00000E+00
    0.00000E+00         0.00000E+00        -0.49956E+08
 
   -0.49950E+08         0.31894E+06         0.00000E+00
    0.31894E+06        -0.49806E+08         0.00000E+00
    0.00000E+00         0.00000E+00        -0.49956E+08
 
   -0.49497E+08         0.54734E+04         0.00000E+00
    0.54734E+04        -0.50000E+08         0.00000E+00
    0.00000E+00         0.00000E+00        -0.49949E+08
 
   -0.49499E+08         0.16249E+05         0.00000E+00
    0.16249E+05        -0.50000E+08         0.00000E+00
    0.00000E+00         0.00000E+00        -0.49949E+08
 
   -0.49501E+08         0.26954E+05         0.00000E+00
    0.26954E+05        -0.49999E+08         0.00000E+00
    0.00000E+00         0.00000E+00        -0.49949E+08
 
   -0.49503E+08         0.37581E+05         0.00000E+00
    0.37581E+05        -0.49999E+08         0.00000E+00
    0.00000E+00         0.00000E+00        -0.49949E+08
 
   -0.49506E+08         0.48124E+05         0.00000E+00
    0.48124E+05        -0.49998E+08         0.00000E+00
    0.00000E+00         0.00000E+00        -0.49949E+08
 
   -0.49509E+08         0.58577E+05         0.00000E+00
    0.58577E+05        -0.49997E+08         0.00000E+00
    0.00000E+00         0.00000E+00        -0.49949E+08
 
   -0.49513E+08         0.68934E+05         0.00000E+00
    0.68934E+05        -0.49995E+08         0.00000E+00
    0.00000E+00         0.00000E+00        -0.49949E+08
 
   -0.49517E+08         0.79189E+05         0.00000E+00
    0.79189E+05        -0.49994E+08         0.00000E+00
    0.00000E+00         0.00000E+00        -0.49949E+08
 
   -0.49521E+08         0.89335E+05         0.00000E+00
    0.89335E+05        -0.49992E+08         0.00000E+00
    0.00000E+00         0.00000E+00        -0.49949E+08
 
   -0.49526E+08         0.99367E+05         0.00000E+00
    0.99367E+05        -0.49990E+08         0.00000E+00
    0.00000E+00         0.00000E+00        -0.49949E+08
 
   -0.49531E+08         0.10928E+06         0.00000E+00
    0.10928E+06        -0.49988E+08         0.00000E+00
    0.00000E+00         0.00000E+00        -0.49949E+08
 
   -0.49537E+08         0.11907E+06         0.00000E+00
    0.11907E+06        -0.49986E+08         0.00000E+00
    0.00000E+00         0.00000E+00        -0.49949E+08
 
   -0.49542E+08         0.12872E+06         0.00000E+00
    0.12872E+06        -0.49983E+08         0.00000E+00
    0.00000E+00         0.00000E+00        -0.49949E+08
 
   -0.49548E+08         0.13824E+06         0.00000E+00
    0.13824E+06        -0.49981E+08         0.00000E+00
    0.00000E+00         0.00000E+00        -0.49949E+08
 
   -0.49555E+08         0.14762E+06         0.00000E+00
    0.14762E+06        -0.49978E+08         0.00000E+00
    0.00000E+00         0.00000E+00        -0.49949E+08
 
   -0.49562E+08         0.15685E+06         0.00000E+00
    0.15685E+06        -0.49975E+08         0.00000E+00
    0.00000E+00         0.00000E+00        -0.49949E+08
 
   -0.49569E+08         0.16593E+06         0.00000E+00
    0.16593E+06        -0.49972E+08         0.00000E+00
    0.00000E+00         0.00000E+00        -0.49949E+08
 
   -0.49576E+08         0.17486E+06         0.00000E+00
    0.17486E+06        -0.49968E+08         0.00000E+00
    0.00000E+00         0.00000E+00        -0.49949E+08
 
   -0.49584E+08         0.18362E+06         0.00000E+00
    0.18362E+06        -0.49965E+08         0.00000E+00
    0.00000E+00         0.00000E+00        -0.49949E+08
 
   -0.49592E+08         0.19221E+06         0.00000E+00
    0.19221E+06        -0.49961E+08         0.00000E+00
    0.00000E+00         0.00000E+00        -0.49949E+08
 
   -0.49600E+08         0.20064E+06         0.00000E+00
    0.20064E+06        -0.49957E+08         0.00000E+00
    0.00000E+00         0.00000E+00        -0.49949E+08
 
   -0.49609E+08         0.20889E+06         0.00000E+00
    0.20889E+06        -0.49953E+08         0.00000E+00
    0.00000E+00         0.00000E+00        -0.49949E+08
 
   -0.49617E+08         0.21696E+06         0.00000E+00
    0.21696E+06        -0.49949E+08         0.00000E+00
    0.00000E+00         0.00000E+00        -0.49949E+08
 
   -0.49627E+08         0.22484E+06         0.00000E+00
    0.22484E+06        -0.49944E+08         0.00000E+00
    0.00000E+00         0.00000E+00        -0.49949E+08
 
   -0.49636E+08         0.23254E+06         0.00000E+00
    0.23254E+06        -0.49940E+08         0.00000E+00
    0.00000E+00         0.00000E+00        -0.49949E+08
 
   -0.49646E+08         0.24004E+06         0.00000E+00
    0.24004E+06        -0.49935E+08         0.00000E+00
    0.00000E+00         0.00000E+00        -0.49949E+08
 
   -0.49655E+08         0.24735E+06         0.00000E+00
    0.24735E+06        -0.49930E+08         0.00000E+00
    0.00000E+00         0.00000E+00        -0.49949E+08
 
   -0.49666E+08         0.25445E+06         0.00000E+00
    0.25445E+06        -0.49925E+08         0.00000E+00
    0.00000E+00         0.00000E+00        -0.49949E+08
 
   -0.49676E+08         0.26135E+06         0.00000E+00
    0.26135E+06        -0.49920E+08         0.00000E+00
    0.00000E+00         0.00000E+00        -0.49949E+08
 
   -0.49687E+08         0.26805E+06         0.00000E+00
    0.26805E+06        -0.49915E+08         0.00000E+00
    0.00000E+00         0.00000E+00        -0.49949E+08
 
   -0.49698E+08         0.27453E+06         0.00000E+00
    0.27453E+06        -0.49910E+08         0.00000E+00
    0.00000E+00         0.00000E+00        -0.49949E+08
 
   -0.49709E+08         0.28079E+06         0.00000E+00
    0.28079E+06        -0.49904E+08         0.00000E+00
    0.00000E+00         0.00000E+00        -0.49949E+08
 
   -0.49720E+08         0.28684E+06         0.00000E+00
    0.28684E+06        -0.49899E+08         0.00000E+00
    0.00000E+00         0.00000E+00        -0.49949E+08
 
   -0.49732E+08         0.29266E+06         0.00000E+00
    0.29266E+06        -0.49893E+08         0.00000E+00
    0.00000E+00         0.00000E+00        -0.49949E+08
 
   -0.49744E+08         0.29826E+06         0.00000E+00
    0.29826E+06        -0.49887E+08         0.00000E+00
    0.00000E+00         0.00000E+00        -0.49949E+08
 
   -0.49756E+08         0.30363E+06         0.00000E+00
    0.30363E+06        -0.49881E+08         0.00000E+00
    0.00000E+00         0.00000E+00        -0.49949E+08
 
   -0.49768E+08         0.30876E+06         0.00000E+00
    0.30876E+06        -0.49875E+08         0.00000E+00
    0.00000E+00         0.00000E+00        -0.49949E+08
 
   -0.49780E+08         0.31366E+06         0.00000E+00
    0.31366E+06        -0.49869E+08         0.00000E+00
    0.00000E+00         0.00000E+00        -0.49949E+08
 
   -0.49793E+08         0.31832E+06         0.00000E+00
    0.31832E+06        -0.49862E+08         0.00000E+00
    0.00000E+00         0.00000E+00        -0.49949E+08
 
   -0.49806E+08         0.32274E+06         0.00000E+00
    0.32274E+06        -0.49856E+08         0.00000E+00
    0.00000E+00         0.00000E+00        -0.49949E+08
 
   -0.49818E+08         0.32692E+06         0.00000E+00
    0.32692E+06        -0.49850E+08         0.00000E+00
    0.00000E+00         0.00000E+00        -0.49949E+08
 
   -0.49832E+08         0.33085E+06         0.00000E+00
    0.33085E+06        -0.49843E+08         0.00000E+00
    0.00000E+00         0.00000E+00        -0.49949E+08
 
   -0.49845E+08         0.33452E+06         0.00000E+00
    0.33452E+06        -0.49836E+08         0.00000E+00
    0.00000E+00         0.00000E+00        -0.49949E+08
 
   -0.49858E+08         0.33795E+06         0.00000E+00
    0.33795E+06        -0.49830E+08         0.00000E+00
    0.00000E+00         0.00000E+00        -0.49949E+08
 
   -0.49872E+08         0.34112E+06         0.00000E+00
    0.34112E+06        -0.49823E+08         0.00000E+00
    0.00000E+00         0.00000E+00        -0.49949E+08
 
   -0.49886E+08         0.34404E+06         0.00000E+00
    0.34404E+06        -0.49816E+08         0.00000E+00
    0.00000E+00         0.00000E+00        -0.49949E+08
 
   -0.49899E+08         0.34669E+06         0.00000E+00
    0.34669E+06        -0.49809E+08         0.00000E+00
    0.00000E+00         0.00000E+00        -0.49949E+08
 
   -0.49913E+08         0.34909E+06         0.00000E+00
    0.34909E+06        -0.49802E+08         0.00000E+00
    0.00000E+00         0.00000E+00        -0.49949E+08
 
   -0.49928E+08         0.35122E+06         0.00000E+00
    0.35122E+06        -0.49795E+08         0.00000E+00
    0.00000E+00         0.00000E+00        -0.49949E+08
 
   -0.49942E+08         0.35308E+06         0.00000E+00
    0.35308E+06        -0.49788E+08         0.00000E+00
    0.00000E+00         0.00000E+00        -0.49949E+08
 
   -0.49440E+08         0.60599E+04         0.00000E+00
    0.60599E+04        -0.50000E+08         0.00000E+00
    0.00000E+00         0.00000E+00        -0.49940E+08
 
   -0.49442E+08         0.17978E+05         0.00000E+00
    0.17978E+05        -0.50000E+08         0.00000E+00
    0.00000E+00         0.00000E+00        -0.49940E+08
 
   -0.49445E+08         0.29813E+05         0.00000E+00
    0.29813E+05        -0.49999E+08         0.00000E+00
    0.00000E+00         0.00000E+00        -0.49940E+08
 
   -0.49448E+08         0.41559E+05         0.00000E+00
    0.41559E+05        -0.49999E+08         0.00000E+00
    0.00000E+00         0.00000E+00        -0.49940E+08
 
   -0.49451E+08         0.53208E+05         0.00000E+00
    0.53208E+05        -0.49998E+08         0.00000E+00
    0.00000E+00         0.00000E+00        -0.49940E+08
 
   -0.49455E+08         0.64755E+05         0.00000E+00
    0.64755E+05        -0.49996E+08         0.00000E+00
    0.00000E+00         0.00000E+00        -0.49940E+08
 
   -0.49459E+08         0.76192E+05         0.00000E+00
    0.76192E+05        -0.49995E+08         0.00000E+00
    0.00000E+00         0.00000E+00        -0.49940E+08
 
   -0.49463E+08         0.87513E+05         0.00000E+00
    0.87513E+05        -0.49993E+08         0.00000E+00
    0.00000E+00         0.00000E+00        -0.49940E+08
 
   -0.49468E+08         0.98712E+05         0.00000E+00
    0.98712E+05        -0.49991E+08         0.00000E+00
    0.00000E+00         0.00000E+00        -0.49940E+08
 
   -0.49474E+08         0.10978E+06         0.00000E+00
    0.10978E+06        -0.49989E+08         0.00000E+00
    0.00000E+00         0.00000E+00        -0.49940E+08
 
   -0.49479E+08         0.12072E+06         0.00000E+00
    0.12072E+06        -0.49987E+08         0.00000E+00
    0.00000E+00         0.00000E+00        -0.49940E+08
 
   -0.49486E+08         0.13151E+06         0.00000E+00
    0.13151E+06        -0.49985E+08         0.00000E+00
    0.00000E+00         0.00000E+00        -0.49940E+08
 
   -0.49492E+08         0.14216E+06         0.00000E+00
    0.14216E+06        -0.49982E+08         0.00000E+00
    0.00000E+00         0.00000E+00        -0.49940E+08
 
   -0.49499E+08         0.15266E+06         0.00000E+00
    0.15266E+06        -0.49979E+08         0.00000E+00
    0.00000E+00         0.00000E+00        -0.49940E+08
 
   -0.49506E+08         0.16300E+06         0.00000E+00
    0.16300E+06        -0.49976E+08         0.00000E+00
    0.00000E+00         0.00000E+00        -0.49940E+08
 
   -0.49514E+08         0.17318E+06         0.00000E+00
    0.17318E+06        -0.49973E+08         0.00000E+00
    0.00000E+00         0.00000E+00        -0.49940E+08
 
   -0.49521E+08         0.18319E+06         0.00000E+00
    0.18319E+06        -0.49969E+08         0.00000E+00
    0.00000E+00         0.00000E+00        -0.49940E+08
 
   -0.49530E+08         0.19303E+06         0.00000E+00
    0.19303E+06        -0.49965E+08         0.00000E+00
    0.00000E+00         0.00000E+00        -0.49940E+08
 
   -0.49538E+08         0.20269E+06         0.00000E+00
    0.20269E+06        -0.49961E+08         0.00000E+00
    0.00000E+00         0.00000E+00        -0.49940E+08
 
   -0.49547E+08         0.21217E+06         0.00000E+00
    0.21217E+06        -0.49957E+08         0.00000E+00
    0.00000E+00         0.00000E+00        -0.49940E+08
 
   -0.49556E+08         0.22146E+06         0.00000E+00
    0.22146E+06        -0.49953E+08         0.00000E+00
    0.00000E+00         0.00000E+00        -0.49940E+08
 
   -0.49566E+08         0.23055E+06         0.00000E+00
    0.23055E+06        -0.49949E+08         0.00000E+00
    0.00000E+00         0.00000E+00        -0.49940E+08
 
   -0.49575E+08         0.23945E+06         0.00000E+00
    0.23945E+06        -0.49944E+08         0.00000E+00
    0.00000E+00         0.00000E+00        -0.49940E+08
 
   -0.49586E+08         0.24814E+06         0.00000E+00
    0.24814E+06        -0.49939E+08         0.00000E+00
    0.00000E+00         0.00000E+00        -0.49940E+08
 
   -0.49596E+08         0.25663E+06         0.00000E+00
    0.25663E+06        -0.49934E+08         0.00000E+00
    0.00000E+00         0.00000E+00        -0.49940E+08
 
   -0.49607E+08         0.26491E+06         0.00000E+00
    0.26491E+06        -0.49929E+08         0.00000E+00
    0.00000E+00         0.00000E+00        -0.49940E+08
 
   -0.49618E+08         0.27297E+06         0.00000E+00
    0.27297E+06        -0.49924E+08         0.00000E+00
    0.00000E+00         0.00000E+00        -0.49940E+08
 
   -0.49629E+08         0.28081E+06         0.00000E+00
    0.28081E+06        -0.49919E+08         0.00000E+00
    0.00000E+00         0.00000E+00        -0.49940E+08
 
   -0.49640E+08         0.28843E+06         0.00000E+00
    0.28843E+06        -0.49913E+08         0.00000E+00
    0.00000E+00         0.00000E+00        -0.49940E+08
 
   -0.49652E+08         0.29583E+06         0.00000E+00
    0.29583E+06        -0.49907E+08         0.00000E+00
    0.00000E+00         0.00000E+00        -0.49940E+08
 
   -0.49664E+08         0.30299E+06         0.00000E+00
    0.30299E+06        -0.49901E+08         0.00000E+00
    0.00000E+00         0.00000E+00        -0.49940E+08
 
   -0.49676E+08         0.30991E+06         0.00000E+00
    0.30991E+06        -0.49895E+08         0.00000E+00
    0.00000E+00         0.00000E+00        -0.49940E+08
 
   -0.49689E+08         0.31660E+06         0.00000E+00
    0.31660E+06        -0.49889E+08         0.00000E+00
    0.00000E+00         0.00000E+00        -0.49940E+08
 
   -0.49702E+08         0.32304E+06         0.00000E+00
    0.32304E+06        -0.49883E+08         0.00000E+00
    0.00000E+00         0.00000E+00        -0.49940E+08
 
   -0.49715E+08         0.32924E+06         0.00000E+00
    0.32924E+06        -0.49876E+08         0.00000E+00
    0.00000E+00         0.00000E+00        -0.49940E+08
 
   -0.49728E+08         0.33519E+06         0.00000E+00
    0.33519E+06        -0.49870E+08         0.00000E+00
    0.00000E+00         0.00000E+00        -0.49940E+08
 
   -0.49741E+08         0.34088E+06         0.00000E+00
    0.34088E+06        -0.49863E+08         0.00000E+00
    0.00000E+00         0.00000E+00        -0.49940E+08
 
   -0.49755E+08         0.34632E+06         0.00000E+00
    0.34632E+06        -0.49856E+08         0.00000E+00
    0.00000E+00         0.00000E+00        -0.49940E+08
 
   -0.49769E+08         0.35151E+06         0.00000E+00
    0.35151E+06        -0.49850E+08         0.00000E+00
    0.00000E+00         0.00000E+00        -0.49940E+08
 
   -0.49783E+08         0.35642E+06         0.00000E+00
    0.35642E+06        -0.49843E+08         0.00000E+00
    0.00000E+00         0.00000E+00        -0.49940E+08
 
   -0.49797E+08         0.36108E+06         0.00000E+00
    0.36108E+06        -0.49836E+08         0.00000E+00
    0.00000E+00         0.00000E+00        -0.49940E+08
 
   -0.49811E+08         0.36546E+06         0.00000E+00
    0.36546E+06        -0.49828E+08         0.00000E+00
    0.00000E+00         0.00000E+00        -0.49940E+08
 
   -0.49826E+08         0.36958E+06         0.00000E+00
    0.36958E+06        -0.49821E+08         0.00000E+00
    0.00000E+00         0.00000E+00        -0.49940E+08
 
   -0.49841E+08         0.37342E+06         0.00000E+00
    0.37342E+06        -0.49814E+08         0.00000E+00
    0.00000E+00         0.00000E+00        -0.49940E+08
 
   -0.49856E+08         0.37698E+06         0.00000E+00
    0.37698E+06        -0.49806E+08         0.00000E+00
    0.00000E+00         0.00000E+00        -0.49940E+08
 
   -0.49871E+08         0.38027E+06         0.00000E+00
    0.38027E+06        -0.49799E+08         0.00000E+00
    0.00000E+00         0.00000E+00        -0.49940E+08
 
   -0.49886E+08         0.38327E+06         0.00000E+00
    0.38327E+06        -0.49791E+08         0.00000E+00
    0.00000E+00         0.00000E+00        -0.49940E+08
 
   -0.49901E+08         0.38599E+06         0.00000E+00
    0.38599E+06        -0.49783E+08         0.00000E+00
    0.00000E+00         0.00000E+00        -0.49940E+08
 
   -0.49917E+08         0.38843E+06         0.00000E+00
    0.38843E+06        -0.49776E+08         0.00000E+00
    0.00000E+00         0.00000E+00        -0.49940E+08
 
   -0.49933E+08         0.39057E+06         0.00000E+00
    0.39057E+06        -0.49768E+08         0.00000E+00
    0.00000E+00         0.00000E+00        -0.49940E+08
 
   -0.49377E+08         0.67024E+04         0.00000E+00
    0.67024E+04        -0.50000E+08         0.00000E+00
    0.00000E+00         0.00000E+00        -0.49930E+08
 
   -0.49380E+08         0.19870E+05         0.00000E+00
    0.19870E+05        -0.50000E+08         0.00000E+00
    0.00000E+00         0.00000E+00        -0.49930E+08
 
   -0.49383E+08         0.32943E+05         0.00000E+00
    0.32943E+05        -0.49999E+08         0.00000E+00
    0.00000E+00         0.00000E+00        -0.49930E+08
 
   -0.49386E+08         0.45911E+05         0.00000E+00
    0.45911E+05        -0.49998E+08         0.00000E+00
    0.00000E+00         0.00000E+00        -0.49930E+08
 
   -0.49390E+08         0.58770E+05         0.00000E+00
    0.58770E+05        -0.49997E+08         0.00000E+00
    0.00000E+00         0.00000E+00        -0.49930E+08
 
   -0.49394E+08         0.71511E+05         0.00000E+00
    0.71511E+05        -0.49996E+08         0.00000E+00
    0.00000E+00         0.00000E+00        -0.49930E+08
 
   -0.49399E+08         0.84127E+05         0.00000E+00
    0.84127E+05        -0.49995E+08         0.00000E+00
    0.00000E+00         0.00000E+00        -0.49930E+08
 
   -0.49404E+08         0.96613E+05         0.00000E+00
    0.96613E+05        -0.49993E+08         0.00000E+00
    0.00000E+00         0.00000E+00        -0.49930E+08
 
   -0.49410E+08         0.10896E+06         0.00000E+00
    0.10896E+06        -0.49991E+08         0.00000E+00
    0.00000E+00         0.00000E+00        -0.49930E+08
 
   -0.49416E+08         0.12117E+06         0.00000E+00
    0.12117E+06        -0.49988E+08         0.00000E+00
    0.00000E+00         0.00000E+00        -0.49930E+08
 
   -0.49422E+08         0.13322E+06         0.00000E+00
    0.13322E+06        -0.49986E+08         0.00000E+00
    0.00000E+00         0.00000E+00        -0.49930E+08
 
   -0.49429E+08         0.14512E+06         0.00000E+00
    0.14512E+06        -0.49983E+08         0.00000E+00
    0.00000E+00         0.00000E+00        -0.49930E+08
 
   -0.49436E+08         0.15685E+06         0.00000E+00
    0.15685E+06        -0.49980E+08         0.00000E+00
    0.00000E+00         0.00000E+00        -0.49930E+08
 
   -0.49444E+08         0.16842E+06         0.00000E+00
    0.16842E+06        -0.49977E+08         0.00000E+00
    0.00000E+00         0.00000E+00        -0.49930E+08
 
   -0.49452E+08         0.17981E+06         0.00000E+00
    0.17981E+06        -0.49974E+08         0.00000E+00
    0.00000E+00         0.00000E+00        -0.49930E+08
 
   -0.49461E+08         0.19102E+06         0.00000E+00
    0.19102E+06        -0.49970E+08         0.00000E+00
    0.00000E+00         0.00000E+00        -0.49930E+08
 
   -0.49469E+08         0.20205E+06         0.00000E+00
    0.20205E+06        -0.49966E+08         0.00000E+00
    0.00000E+00         0.00000E+00        -0.49930E+08
 
   -0.49478E+08         0.21288E+06         0.00000E+00
    0.21288E+06        -0.49962E+08         0.00000E+00
    0.00000E+00         0.00000E+00        -0.49930E+08
 
   -0.49488E+08         0.22352E+06         0.00000E+00
    0.22352E+06        -0.49958E+08         0.00000E+00
    0.00000E+00         0.00000E+00        -0.49930E+08
 
   -0.49498E+08         0.23396E+06         0.00000E+00
    0.23396E+06        -0.49954E+08         0.00000E+00
    0.00000E+00         0.00000E+00        -0.49930E+08
 
   -0.49508E+08         0.24419E+06         0.00000E+00
    0.24419E+06        -0.49949E+08         0.00000E+00
    0.00000E+00         0.00000E+00        -0.49930E+08
 
   -0.49518E+08         0.25421E+06         0.00000E+00
    0.25421E+06        -0.49944E+08         0.00000E+00
    0.00000E+00         0.00000E+00        -0.49930E+08
 
   -0.49529E+08         0.26401E+06         0.00000E+00
    0.26401E+06        -0.49939E+08         0.00000E+00
    0.00000E+00         0.00000E+00        -0.49930E+08
 
   -0.49540E+08         0.27359E+06         0.00000E+00
    0.27359E+06        -0.49934E+08         0.00000E+00
    0.00000E+00         0.00000E+00        -0.49930E+08
 
   -0.49552E+08         0.28294E+06         0.00000E+00
    0.28294E+06        -0.49928E+08         0.00000E+00
    0.00000E+00         0.00000E+00        -0.49930E+08
 
   -0.49564E+08         0.29207E+06         0.00000E+00
    0.29207E+06        -0.49923E+08         0.00000E+00
    0.00000E+00         0.00000E+00        -0.49930E+08
 
   -0.49576E+08         0.30095E+06         0.00000E+00
    0.30095E+06        -0.49917E+08         0.00000E+00
    0.00000E+00         0.00000E+00        -0.49930E+08
 
   -0.49588E+08         0.30960E+06         0.00000E+00
    0.30960E+06        -0.49911E+08         0.00000E+00
    0.00000E+00         0.00000E+00        -0.49930E+08
 
   -0.49601E+08         0.31801E+06         0.00000E+00
    0.31801E+06        -0.49905E+08         0.00000E+00
    0.00000E+00         0.00000E+00        -0.49930E+08
 
   -0.49614E+08         0.32617E+06         0.00000E+00
    0.32617E+06        -0.49899E+08         0.00000E+00
    0.00000E+00         0.00000E+00        -0.49930E+08
 
   -0.49627E+08         0.33407E+06         0.00000E+00
    0.33407E+06        -0.49892E+08         0.00000E+00
    0.00000E+00         0.00000E+00        -0.49930E+08
 
   -0.49641E+08         0.34172E+06         0.00000E+00
    0.34172E+06        -0.49886E+08         0.00000E+00
    0.00000E+00         0.00000E+00        -0.49930E+08
 
   -0.49654E+08         0.34911E+06         0.00000E+00
    0.34911E+06        -0.49879E+08         0.00000E+00
    0.00000E+00         0.00000E+00        -0.49930E+08
 
   -0.49668E+08         0.35624E+06         0.00000E+00
    0.35624E+06        -0.49872E+08         0.00000E+00
    0.00000E+00         0.00000E+00        -0.49930E+08
 
   -0.49683E+08         0.36310E+06         0.00000E+00
    0.36310E+06        -0.49865E+08         0.00000E+00
    0.00000E+00         0.00000E+00        -0.49930E+08
 
   -0.49697E+08         0.36969E+06         0.00000E+00
    0.36969E+06        -0.49858E+08         0.00000E+00
    0.00000E+00         0.00000E+00        -0.49930E+08
 
   -0.49712E+08         0.37600E+06         0.00000E+00
    0.37600E+06        -0.49851E+08         0.00000E+00
    0.00000E+00         0.00000E+00        -0.49930E+08
 
   -0.49727E+08         0.38204E+06         0.00000E+00
    0.38204E+06        -0.49843E+08         0.00000E+00
    0.00000E+00         0.00000E+00        -0.49930E+08
 
   -0.49742E+08         0.38779E+06         0.00000E+00
    0.38779E+06        -0.49836E+08         0.00000E+00
    0.00000E+00         0.00000E+00        -0.49930E+08
 
   -0.49758E+08         0.39327E+06         0.00000E+00
    0.39327E+06        -0.49828E+08         0.00000E+00
    0.00000E+00         0.00000E+00        -0.49930E+08
 
   -0.49773E+08         0.39845E+06         0.00000E+00
    0.39845E+06        -0.49820E+08         0.00000E+00
    0.00000E+00         0.00000E+00        -0.49930E+08
 
   -0.49789E+08         0.40334E+06         0.00000E+00
    0.40334E+06        -0.49813E+08         0.00000E+00
    0.00000E+00         0.00000E+00        -0.49930E+08
 
   -0.49805E+08         0.40794E+06         0.00000E+00
    0.40794E+06        -0.49805E+08         0.00000E+00
    0.00000E+00         0.00000E+00        -0.49930E+08
 
   -0.49821E+08         0.41225E+06         0.00000E+00
    0.41225E+06        -0.49797E+08         0.00000E+00
    0.00000E+00         0.00000E+00        -0.49930E+08
 
   -0.49838E+08         0.41625E+06         0.00000E+00
    0.41625E+06        -0.49788E+08         0.00000E+00
    0.00000E+00         0.00000E+00        -0.49930E+08
 
   -0.49854E+08         0.41995E+06         0.00000E+00
    0.41995E+06        -0.49780E+08         0.00000E+00
    0.00000E+00         0.00000E+00        -0.49930E+08
 
   -0.49871E+08         0.42335E+06         0.00000E+00
    0.42335E+06        -0.49772E+08         0.00000E+00
    0.00000E+00         0.00000E+00        -0.49930E+08
 
   -0.49888E+08         0.42644E+06         0.00000E+00
    0.42644E+06        -0.49763E+08         0.00000E+00
    0.00000E+00         0.00000E+00        -0.49930E+08
 
   -0.49905E+08         0.42922E+06         0.00000E+00
    0.42922E+06        -0.49755E+08         0.00000E+00
    0.00000E+00         0.00000E+00        -0.49930E+08
 
   -0.49922E+08         0.43169E+06         0.00000E+00
    0.43169E+06        -0.49746E+08         0.00000E+00
    0.00000E+00         0.00000E+00        -0.49930E+08
 
   -0.49308E+08         0.74052E+04         0.00000E+00
    0.74052E+04        -0.50000E+08         0.00000E+00
    0.00000E+00         0.00000E+00        -0.49919E+08
 
   -0.49311E+08         0.21939E+05         0.00000E+00
    0.21939E+05        -0.50000E+08         0.00000E+00
    0.00000E+00         0.00000E+00        -0.49919E+08
 
   -0.49314E+08         0.36361E+05         0.00000E+00
    0.36361E+05        -0.49999E+08         0.00000E+00
    0.00000E+00         0.00000E+00        -0.49919E+08
 
   -0.49318E+08         0.50665E+05         0.00000E+00
    0.50665E+05        -0.49998E+08         0.00000E+00
    0.00000E+00         0.00000E+00        -0.49919E+08
 
   -0.49323E+08         0.64843E+05         0.00000E+00
    0.64843E+05        -0.49997E+08         0.00000E+00
    0.00000E+00         0.00000E+00        -0.49919E+08
 
   -0.49328E+08         0.78887E+05         0.00000E+00
    0.78887E+05        -0.49996E+08         0.00000E+00
    0.00000E+00         0.00000E+00        -0.49919E+08
 
   -0.49333E+08         0.92790E+05         0.00000E+00
    0.92790E+05        -0.49994E+08         0.00000E+00
    0.00000E+00         0.00000E+00        -0.49919E+08
 
   -0.49339E+08         0.10655E+06         0.00000E+00
    0.10655E+06        -0.49992E+08         0.00000E+00
    0.00000E+00         0.00000E+00        -0.49919E+08
 
   -0.49345E+08         0.12015E+06         0.00000E+00
    0.12015E+06        -0.49990E+08         0.00000E+00
    0.00000E+00         0.00000E+00        -0.49919E+08
 
   -0.49352E+08         0.13359E+06         0.00000E+00
    0.13359E+06        -0.49987E+08         0.00000E+00
    0.00000E+00         0.00000E+00        -0.49919E+08
 
   -0.49360E+08         0.14686E+06         0.00000E+00
    0.14686E+06        -0.49985E+08         0.00000E+00
    0.00000E+00         0.00000E+00        -0.49919E+08
 
   -0.49367E+08         0.15995E+06         0.00000E+00
    0.15995E+06        -0.49982E+08         0.00000E+00
    0.00000E+00         0.00000E+00        -0.49919E+08
 
   -0.49375E+08         0.17287E+06         0.00000E+00
    0.17287E+06        -0.49978E+08         0.00000E+00
    0.00000E+00         0.00000E+00        -0.49919E+08
 
   -0.49384E+08         0.18560E+06         0.00000E+00
    0.18560E+06        -0.49975E+08         0.00000E+00
    0.00000E+00         0.00000E+00        -0.49919E+08
 
   -0.49393E+08         0.19813E+06         0.00000E+00
    0.19813E+06        -0.49971E+08         0.00000E+00
    0.00000E+00         0.00000E+00        -0.49919E+08
 
   -0.49402E+08         0.21047E+06         0.00000E+00
    0.21047E+06        -0.49967E+08         0.00000E+00
    0.00000E+00         0.00000E+00        -0.49919E+08
 
   -0.49412E+08         0.22260E+06         0.00000E+00
    0.22260E+06        -0.49963E+08         0.00000E+00
    0.00000E+00         0.00000E+00        -0.49919E+08
 
   -0.49422E+08         0.23452E+06         0.00000E+00
    0.23452E+06        -0.49959E+08         0.00000E+00
    0.00000E+00         0.00000E+00        -0.49919E+08
 
   -0.49433E+08         0.24623E+06         0.00000E+00
    0.24623E+06        -0.49954E+08         0.00000E+00
    0.00000E+00         0.00000E+00        -0.49919E+08
 
   -0.49443E+08         0.25771E+06         0.00000E+00
    0.25771E+06        -0.49949E+08         0.00000E+00
    0.00000E+00         0.00000E+00        -0.49919E+08
 
   -0.49455E+08         0.26897E+06         0.00000E+00
    0.26897E+06        -0.49944E+08         0.00000E+00
    0.00000E+00         0.00000E+00        -0.49919E+08
 
   -0.49466E+08         0.27999E+06         0.00000E+00
    0.27999E+06        -0.49939E+08         0.00000E+00
    0.00000E+00         0.00000E+00        -0.49919E+08
 
   -0.49478E+08         0.29078E+06         0.00000E+00
    0.29078E+06        -0.49934E+08         0.00000E+00
    0.00000E+00         0.00000E+00        -0.49919E+08
 
   -0.49491E+08         0.30133E+06         0.00000E+00
    0.30133E+06        -0.49928E+08         0.00000E+00
    0.00000E+00         0.00000E+00        -0.49919E+08
 
   -0.49503E+08         0.31163E+06         0.00000E+00
    0.31163E+06        -0.49922E+08         0.00000E+00
    0.00000E+00         0.00000E+00        -0.49919E+08
 
   -0.49516E+08         0.32167E+06         0.00000E+00
    0.32167E+06        -0.49916E+08         0.00000E+00
    0.00000E+00         0.00000E+00        -0.49919E+08
 
   -0.49530E+08         0.33147E+06         0.00000E+00
    0.33147E+06        -0.49910E+08         0.00000E+00
    0.00000E+00         0.00000E+00        -0.49919E+08
 
   -0.49543E+08         0.34100E+06         0.00000E+00
    0.34100E+06        -0.49903E+08         0.00000E+00
    0.00000E+00         0.00000E+00        -0.49919E+08
 
   -0.49557E+08         0.35026E+06         0.00000E+00
    0.35026E+06        -0.49896E+08         0.00000E+00
    0.00000E+00         0.00000E+00        -0.49919E+08
 
   -0.49572E+08         0.35926E+06         0.00000E+00
    0.35926E+06        -0.49890E+08         0.00000E+00
    0.00000E+00         0.00000E+00        -0.49919E+08
 
   -0.49586E+08         0.36798E+06         0.00000E+00
    0.36798E+06        -0.49883E+08         0.00000E+00
    0.00000E+00         0.00000E+00        -0.49919E+08
 
   -0.49601E+08         0.37642E+06         0.00000E+00
    0.37642E+06        -0.49876E+08         0.00000E+00
    0.00000E+00         0.00000E+00        -0.49919E+08
 
   -0.49616E+08         0.38459E+06         0.00000E+00
    0.38459E+06        -0.49868E+08         0.00000E+00
    0.00000E+00         0.00000E+00        -0.49919E+08
 
   -0.49632E+08         0.39246E+06         0.00000E+00
    0.39246E+06        -0.49861E+08         0.00000E+00
    0.00000E+00         0.00000E+00        -0.49919E+08
 
   -0.49647E+08         0.40005E+06         0.00000E+00
    0.40005E+06        -0.49853E+08         0.00000E+00
    0.00000E+00         0.00000E+00        -0.49919E+08
 
   -0.49663E+08         0.40734E+06         0.00000E+00
    0.40734E+06        -0.49845E+08         0.00000E+00
    0.00000E+00         0.00000E+00        -0.49919E+08
 
   -0.49679E+08         0.41434E+06         0.00000E+00
    0.41434E+06        -0.49837E+08         0.00000E+00
    0.00000E+00         0.00000E+00        -0.49919E+08
 
   -0.49696E+08         0.42103E+06         0.00000E+00
    0.42103E+06        -0.49829E+08         0.00000E+00
    0.00000E+00         0.00000E+00        -0.49919E+08
 
   -0.49713E+08         0.42742E+06         0.00000E+00
    0.42742E+06        -0.49821E+08         0.00000E+00
    0.00000E+00         0.00000E+00        -0.49919E+08
 
   -0.49729E+08         0.43351E+06         0.00000E+00
    0.43351E+06        -0.49813E+08         0.00000E+00
    0.00000E+00         0.00000E+00        -0.49919E+08
 
   -0.49747E+08         0.43928E+06         0.00000E+00
    0.43928E+06        -0.49804E+08         0.00000E+00
    0.00000E+00         0.00000E+00        -0.49919E+08
 
   -0.49764E+08         0.44474E+06         0.00000E+00
    0.44474E+06        -0.49796E+08         0.00000E+00
    0.00000E+00         0.00000E+00        -0.49919E+08
 
   -0.49781E+08         0.44988E+06         0.00000E+00
    0.44988E+06        -0.49787E+08         0.00000E+00
    0.00000E+00         0.00000E+00        -0.49919E+08
 
   -0.49799E+08         0.45470E+06         0.00000E+00
    0.45470E+06        -0.49778E+08         0.00000E+00
    0.00000E+00         0.00000E+00        -0.49919E+08
 
   -0.49817E+08         0.45920E+06         0.00000E+00
    0.45920E+06        -0.49769E+08         0.00000E+00
    0.00000E+00         0.00000E+00        -0.49919E+08
 
   -0.49835E+08         0.46337E+06         0.00000E+00
    0.46337E+06        -0.49760E+08         0.00000E+00
    0.00000E+00         0.00000E+00        -0.49919E+08
 
   -0.49853E+08         0.46721E+06         0.00000E+00
    0.46721E+06        -0.49751E+08         0.00000E+00
    0.00000E+00         0.00000E+00        -0.49919E+08
 
   -0.49872E+08         0.47072E+06         0.00000E+00
    0.47072E+06        -0.49742E+08         0.00000E+00
    0.00000E+00         0.00000E+00        -0.49919E+08
 
   -0.49891E+08         0.47390E+06         0.00000E+00
    0.47390E+06        -0.49733E+08         0.00000E+00
    0.00000E+00         0.00000E+00        -0.49919E+08
 
   -0.49909E+08         0.47674E+06         0.00000E+00
    0.47674E+06        -0.49723E+08         0.00000E+00
    0.00000E+00         0.00000E+00        -0.49919E+08
 
   -0.49231E+08         0.81726E+04         0.00000E+00
    0.81726E+04        -0.50000E+08         0.00000E+00
    0.00000E+00         0.00000E+00        -0.49905E+08
 
   -0.49235E+08         0.24195E+05         0.00000E+00
    0.24195E+05        -0.50000E+08         0.00000E+00
    0.00000E+00         0.00000E+00        -0.49905E+08
 
   -0.49239E+08         0.40090E+05         0.00000E+00
    0.40090E+05        -0.49999E+08         0.00000E+00
    0.00000E+00         0.00000E+00        -0.49905E+08
 
   -0.49243E+08         0.55848E+05         0.00000E+00
    0.55848E+05        -0.49998E+08         0.00000E+00
    0.00000E+00         0.00000E+00        -0.49905E+08
 
   -0.49249E+08         0.71463E+05         0.00000E+00
    0.71463E+05        -0.49997E+08         0.00000E+00
    0.00000E+00         0.00000E+00        -0.49905E+08
 
   -0.49254E+08         0.86926E+05         0.00000E+00
    0.86926E+05        -0.49995E+08         0.00000E+00
    0.00000E+00         0.00000E+00        -0.49905E+08
 
   -0.49261E+08         0.10223E+06         0.00000E+00
    0.10223E+06        -0.49993E+08         0.00000E+00
    0.00000E+00         0.00000E+00        -0.49905E+08
 
   -0.49267E+08         0.11737E+06         0.00000E+00
    0.11737E+06        -0.49991E+08         0.00000E+00
    0.00000E+00         0.00000E+00        -0.49905E+08
 
   -0.49275E+08         0.13233E+06         0.00000E+00
    0.13233E+06        -0.49989E+08         0.00000E+00
    0.00000E+00         0.00000E+00        -0.49905E+08
 
   -0.49282E+08         0.14711E+06         0.00000E+00
    0.14711E+06        -0.49986E+08         0.00000E+00
    0.00000E+00         0.00000E+00        -0.49905E+08
 
   -0.49290E+08         0.16171E+06         0.00000E+00
    0.16171E+06        -0.49983E+08         0.00000E+00
    0.00000E+00         0.00000E+00        -0.49905E+08
 
   -0.49299E+08         0.17611E+06         0.00000E+00
    0.17611E+06        -0.49980E+08         0.00000E+00
    0.00000E+00         0.00000E+00        -0.49905E+08
 
   -0.49308E+08         0.19031E+06         0.00000E+00
    0.19031E+06        -0.49977E+08         0.00000E+00
    0.00000E+00         0.00000E+00        -0.49905E+08
 
   -0.49318E+08         0.20430E+06         0.00000E+00
    0.20430E+06        -0.49973E+08         0.00000E+00
    0.00000E+00         0.00000E+00        -0.49905E+08
 
   -0.49328E+08         0.21808E+06         0.00000E+00
    0.21808E+06        -0.49969E+08         0.00000E+00
    0.00000E+00         0.00000E+00        -0.49905E+08
 
   -0.49338E+08         0.23164E+06         0.00000E+00
    0.23164E+06        -0.49964E+08         0.00000E+00
    0.00000E+00         0.00000E+00        -0.49905E+08
 
   -0.49349E+08         0.24498E+06         0.00000E+00
    0.24498E+06        -0.49960E+08         0.00000E+00
    0.00000E+00         0.00000E+00        -0.49905E+08
 
   -0.49360E+08         0.25808E+06         0.00000E+00
    0.25808E+06        -0.49955E+08         0.00000E+00
    0.00000E+00         0.00000E+00        -0.49905E+08
 
   -0.49372E+08         0.27094E+06         0.00000E+00
    0.27094E+06        -0.49950E+08         0.00000E+00
    0.00000E+00         0.00000E+00        -0.49905E+08
 
   -0.49384E+08         0.28357E+06         0.00000E+00
    0.28357E+06        -0.49945E+08         0.00000E+00
    0.00000E+00         0.00000E+00        -0.49905E+08
 
   -0.49396E+08         0.29594E+06         0.00000E+00
    0.29594E+06        -0.49939E+08         0.00000E+00
    0.00000E+00         0.00000E+00        -0.49905E+08
 
   -0.49409E+08         0.30806E+06         0.00000E+00
    0.30806E+06        -0.49934E+08         0.00000E+00
    0.00000E+00         0.00000E+00        -0.49905E+08
 
   -0.49422E+08         0.31992E+06         0.00000E+00
    0.31992E+06        -0.49928E+08         0.00000E+00
    0.00000E+00         0.00000E+00        -0.49905E+08
 
   -0.49436E+08         0.33152E+06         0.00000E+00
    0.33152E+06        -0.49921E+08         0.00000E+00
    0.00000E+00         0.00000E+00        -0.49905E+08
 
   -0.49450E+08         0.34285E+06         0.00000E+00
    0.34285E+06        -0.49915E+08         0.00000E+00
    0.00000E+00         0.00000E+00        -0.49905E+08
 
   -0.49464E+08         0.35390E+06         0.00000E+00
    0.35390E+06        -0.49908E+08         0.00000E+00
    0.00000E+00         0.00000E+00        -0.49905E+08
 
   -0.49479E+08         0.36468E+06         0.00000E+00
    0.36468E+06        -0.49902E+08         0.00000E+00
    0.00000E+00         0.00000E+00        -0.49905E+08
 
   -0.49494E+08         0.37517E+06         0.00000E+00
    0.37517E+06        -0.49895E+08         0.00000E+00
    0.00000E+00         0.00000E+00        -0.49905E+08
 
   -0.49509E+08         0.38538E+06         0.00000E+00
    0.38538E+06        -0.49887E+08         0.00000E+00
    0.00000E+00         0.00000E+00        -0.49905E+08
 
   -0.49525E+08         0.39529E+06         0.00000E+00
    0.39529E+06        -0.49880E+08         0.00000E+00
    0.00000E+00         0.00000E+00        -0.49905E+08
 
   -0.49541E+08         0.40490E+06         0.00000E+00
    0.40490E+06        -0.49872E+08         0.00000E+00
    0.00000E+00         0.00000E+00        -0.49905E+08
 
   -0.49557E+08         0.41422E+06         0.00000E+00
    0.41422E+06        -0.49865E+08         0.00000E+00
    0.00000E+00         0.00000E+00        -0.49905E+08
 
   -0.49574E+08         0.42322E+06         0.00000E+00
    0.42322E+06        -0.49857E+08         0.00000E+00
    0.00000E+00         0.00000E+00        -0.49905E+08
 
   -0.49591E+08         0.43192E+06         0.00000E+00
    0.43192E+06        -0.49848E+08         0.00000E+00
    0.00000E+00         0.00000E+00        -0.49905E+08
 
   -0.49608E+08         0.44031E+06         0.00000E+00
    0.44031E+06        -0.49840E+08         0.00000E+00
    0.00000E+00         0.00000E+00        -0.49905E+08
 
   -0.49626E+08         0.44838E+06         0.00000E+00
    0.44838E+06        -0.49832E+08         0.00000E+00
    0.00000E+00         0.00000E+00        -0.49905E+08
 
   -0.49643E+08         0.45612E+06         0.00000E+00
    0.45612E+06        -0.49823E+08         0.00000E+00
    0.00000E+00         0.00000E+00        -0.49905E+08
 
   -0.49661E+08         0.46354E+06         0.00000E+00
    0.46354E+06        -0.49814E+08         0.00000E+00
    0.00000E+00         0.00000E+00        -0.49905E+08
 
   -0.49680E+08         0.47064E+06         0.00000E+00
    0.47064E+06        -0.49805E+08         0.00000E+00
    0.00000E+00         0.00000E+00        -0.49905E+08
 
   -0.49698E+08         0.47740E+06         0.00000E+00
    0.47740E+06        -0.49796E+08         0.00000E+00
    0.00000E+00         0.00000E+00        -0.49905E+08
 
   -0.49717E+08         0.48383E+06         0.00000E+00
    0.48383E+06        -0.49787E+08         0.00000E+00
    0.00000E+00         0.00000E+00        -0.49905E+08
 
   -0.49736E+08         0.48991E+06         0.00000E+00
    0.48991E+06        -0.49778E+08         0.00000E+00
    0.00000E+00         0.00000E+00        -0.49905E+08
 
   -0.49755E+08         0.49566E+06         0.00000E+00
    0.49566E+06        -0.49768E+08         0.00000E+00
    0.00000E+00         0.00000E+00        -0.49905E+08
 
   -0.49774E+08         0.50106E+06         0.00000E+00
    0.50106E+06        -0.49758E+08         0.00000E+00
    0.00000E+00         0.00000E+00        -0.49905E+08
 
   -0.49794E+08         0.50611E+06         0.00000E+00
    0.50611E+06        -0.49749E+08         0.00000E+00
    0.00000E+00         0.00000E+00        -0.49905E+08
 
   -0.49814E+08         0.51080E+06         0.00000E+00
    0.51080E+06        -0.49739E+08         0.00000E+00
    0.00000E+00         0.00000E+00        -0.49905E+08
 
   -0.49834E+08         0.51515E+06         0.00000E+00
    0.51515E+06        -0.49729E+08         0.00000E+00
    0.00000E+00         0.00000E+00        -0.49905E+08
 
   -0.49854E+08         0.51913E+06         0.00000E+00
    0.51913E+06        -0.49719E+08         0.00000E+00
    0.00000E+00         0.00000E+00        -0.49905E+08
 
   -0.49874E+08         0.52276E+06         0.00000E+00
    0.52276E+06        -0.49709E+08         0.00000E+00
    0.00000E+00         0.00000E+00        -0.49905E+08
 
   -0.49895E+08         0.52602E+06         0.00000E+00
    0.52602E+06        -0.49698E+08         0.00000E+00
    0.00000E+00         0.00000E+00        -0.49905E+08
 
   -0.49147E+08         0.90089E+04         0.00000E+00
    0.90089E+04        -0.50000E+08         0.00000E+00
    0.00000E+00         0.00000E+00        -0.49890E+08
 
   -0.49151E+08         0.26653E+05         0.00000E+00
    0.26653E+05        -0.50000E+08         0.00000E+00
    0.00000E+00         0.00000E+00        -0.49890E+08
 
   -0.49156E+08         0.44149E+05         0.00000E+00
    0.44149E+05        -0.49999E+08         0.00000E+00
    0.00000E+00         0.00000E+00        -0.49890E+08
 
   -0.49161E+08         0.61489E+05         0.00000E+00
    0.61489E+05        -0.49998E+08         0.00000E+00
    0.00000E+00         0.00000E+00        -0.49890E+08
 
   -0.49167E+08         0.78666E+05         0.00000E+00
    0.78666E+05        -0.49997E+08         0.00000E+00
    0.00000E+00         0.00000E+00        -0.49890E+08
 
   -0.49174E+08         0.95671E+05         0.00000E+00
    0.95671E+05        -0.49995E+08         0.00000E+00
    0.00000E+00         0.00000E+00        -0.49890E+08
 
   -0.49181E+08         0.11250E+06         0.00000E+00
    0.11250E+06        -0.49993E+08         0.00000E+00
    0.00000E+00         0.00000E+00        -0.49890E+08
 
   -0.49188E+08         0.12913E+06         0.00000E+00
    0.12913E+06        -0.49991E+08         0.00000E+00
    0.00000E+00         0.00000E+00        -0.49890E+08
 
   -0.49196E+08         0.14558E+06         0.00000E+00
    0.14558E+06        -0.49988E+08         0.00000E+00
    0.00000E+00         0.00000E+00        -0.49890E+08
 
   -0.49205E+08         0.16182E+06         0.00000E+00
    0.16182E+06        -0.49985E+08         0.00000E+00
    0.00000E+00         0.00000E+00        -0.49890E+08
 
   -0.49214E+08         0.17785E+06         0.00000E+00
    0.17785E+06        -0.49982E+08         0.00000E+00
    0.00000E+00         0.00000E+00        -0.49890E+08
 
   -0.49224E+08         0.19367E+06         0.00000E+00
    0.19367E+06        -0.49978E+08         0.00000E+00
    0.00000E+00         0.00000E+00        -0.49890E+08
 
   -0.49234E+08         0.20927E+06         0.00000E+00
    0.20927E+06        -0.49975E+08         0.00000E+00
    0.00000E+00         0.00000E+00        -0.49890E+08
 
   -0.49245E+08         0.22463E+06         0.00000E+00
    0.22463E+06        -0.49970E+08         0.00000E+00
    0.00000E+00         0.00000E+00        -0.49890E+08
 
   -0.49256E+08         0.23976E+06         0.00000E+00
    0.23976E+06        -0.49966E+08         0.00000E+00
    0.00000E+00         0.00000E+00        -0.49890E+08
 
   -0.49267E+08         0.25465E+06         0.00000E+00
    0.25465E+06        -0.49961E+08         0.00000E+00
    0.00000E+00         0.00000E+00        -0.49890E+08
 
   -0.49280E+08         0.26929E+06         0.00000E+00
    0.26929E+06        -0.49957E+08         0.00000E+00
    0.00000E+00         0.00000E+00        -0.49890E+08
 
   -0.49292E+08         0.28367E+06         0.00000E+00
    0.28367E+06        -0.49951E+08         0.00000E+00
    0.00000E+00         0.00000E+00        -0.49890E+08
 
   -0.49305E+08         0.29780E+06         0.00000E+00
    0.29780E+06        -0.49946E+08         0.00000E+00
    0.00000E+00         0.00000E+00        -0.49890E+08
 
   -0.49318E+08         0.31166E+06         0.00000E+00
    0.31166E+06        -0.49940E+08         0.00000E+00
    0.00000E+00         0.00000E+00        -0.49890E+08
 
   -0.49332E+08         0.32525E+06         0.00000E+00
    0.32525E+06        -0.49934E+08         0.00000E+00
    0.00000E+00         0.00000E+00        -0.49890E+08
 
   -0.49346E+08         0.33856E+06         0.00000E+00
    0.33856E+06        -0.49928E+08         0.00000E+00
    0.00000E+00         0.00000E+00        -0.49890E+08
 
   -0.49361E+08         0.35159E+06         0.00000E+00
    0.35159E+06        -0.49921E+08         0.00000E+00
    0.00000E+00         0.00000E+00        -0.49890E+08
 
   -0.49376E+08         0.36433E+06         0.00000E+00
    0.36433E+06        -0.49915E+08         0.00000E+00
    0.00000E+00         0.00000E+00        -0.49890E+08
 
   -0.49391E+08         0.37678E+06         0.00000E+00
    0.37678E+06        -0.49908E+08         0.00000E+00
    0.00000E+00         0.00000E+00        -0.49890E+08
 
   -0.49407E+08         0.38893E+06         0.00000E+00
    0.38893E+06        -0.49901E+08         0.00000E+00
    0.00000E+00         0.00000E+00        -0.49890E+08
 
   -0.49423E+08         0.40077E+06         0.00000E+00
    0.40077E+06        -0.49893E+08         0.00000E+00
    0.00000E+00         0.00000E+00        -0.49890E+08
 
   -0.49440E+08         0.41232E+06         0.00000E+00
    0.41232E+06        -0.49886E+08         0.00000E+00
    0.00000E+00         0.00000E+00        -0.49890E+08
 
   -0.49457E+08         0.42354E+06         0.00000E+00
    0.42354E+06        -0.49878E+08         0.00000E+00
    0.00000E+00         0.00000E+00        -0.49890E+08
 
   -0.49474E+08         0.43446E+06         0.00000E+00
    0.43446E+06        -0.49870E+08         0.00000E+00
    0.00000E+00         0.00000E+00        -0.49890E+08
 
   -0.49491E+08         0.44505E+06         0.00000E+00
    0.44505E+06        -0.49861E+08         0.00000E+00
    0.00000E+00         0.00000E+00        -0.49890E+08
 
   -0.49509E+08         0.45531E+06         0.00000E+00
    0.45531E+06        -0.49853E+08         0.00000E+00
    0.00000E+00         0.00000E+00        -0.49890E+08
 
   -0.49528E+08         0.46524E+06         0.00000E+00
    0.46524E+06        -0.49844E+08         0.00000E+00
    0.00000E+00         0.00000E+00        -0.49890E+08
 
   -0.49546E+08         0.47484E+06         0.00000E+00
    0.47484E+06        -0.49835E+08         0.00000E+00
    0.00000E+00         0.00000E+00        -0.49890E+08
 
   -0.49565E+08         0.48411E+06         0.00000E+00
    0.48411E+06        -0.49826E+08         0.00000E+00
    0.00000E+00         0.00000E+00        -0.49890E+08
 
   -0.49584E+08         0.49303E+06         0.00000E+00
    0.49303E+06        -0.49817E+08         0.00000E+00
    0.00000E+00         0.00000E+00        -0.49890E+08
 
   -0.49603E+08         0.50160E+06         0.00000E+00
    0.50160E+06        -0.49808E+08         0.00000E+00
    0.00000E+00         0.00000E+00        -0.49890E+08
 
   -0.49623E+08         0.50982E+06         0.00000E+00
    0.50982E+06        -0.49798E+08         0.00000E+00
    0.00000E+00         0.00000E+00        -0.49890E+08
 
   -0.49643E+08         0.51769E+06         0.00000E+00
    0.51769E+06        -0.49788E+08         0.00000E+00
    0.00000E+00         0.00000E+00        -0.49890E+08
 
   -0.49663E+08         0.52520E+06         0.00000E+00
    0.52520E+06        -0.49779E+08         0.00000E+00
    0.00000E+00         0.00000E+00        -0.49890E+08
 
   -0.49684E+08         0.53235E+06         0.00000E+00
    0.53235E+06        -0.49769E+08         0.00000E+00
    0.00000E+00         0.00000E+00        -0.49890E+08
 
   -0.49705E+08         0.53914E+06         0.00000E+00
    0.53914E+06        -0.49758E+08         0.00000E+00
    0.00000E+00         0.00000E+00        -0.49890E+08
 
   -0.49726E+08         0.54555E+06         0.00000E+00
    0.54555E+06        -0.49748E+08         0.00000E+00
    0.00000E+00         0.00000E+00        -0.49890E+08
 
   -0.49747E+08         0.55160E+06         0.00000E+00
    0.55160E+06        -0.49738E+08         0.00000E+00
    0.00000E+00         0.00000E+00        -0.49890E+08
 
   -0.49768E+08         0.55726E+06         0.00000E+00
    0.55726E+06        -0.49727E+08         0.00000E+00
    0.00000E+00         0.00000E+00        -0.49890E+08
 
   -0.49790E+08         0.56256E+06         0.00000E+00
    0.56256E+06        -0.49716E+08         0.00000E+00
    0.00000E+00         0.00000E+00        -0.49890E+08
 
   -0.49812E+08         0.56746E+06         0.00000E+00
    0.56746E+06        -0.49705E+08         0.00000E+00
    0.00000E+00         0.00000E+00        -0.49890E+08
 
   -0.49834E+08         0.57199E+06         0.00000E+00
    0.57199E+06        -0.49694E+08         0.00000E+00
    0.00000E+00         0.00000E+00        -0.49890E+08
 
   -0.49856E+08         0.57613E+06         0.00000E+00
    0.57613E+06        -0.49683E+08         0.00000E+00
    0.00000E+00         0.00000E+00        -0.49890E+08
 
   -0.49878E+08         0.57987E+06         0.00000E+00
    0.57987E+06        -0.49672E+08         0.00000E+00
    0.00000E+00         0.00000E+00        -0.49890E+08
 
   -0.49054E+08         0.99185E+04         0.00000E+00
    0.99185E+04        -0.50000E+08         0.00000E+00
    0.00000E+00         0.00000E+00        -0.49872E+08
 
   -0.49059E+08         0.29323E+05         0.00000E+00
    0.29323E+05        -0.50000E+08         0.00000E+00
    0.00000E+00         0.00000E+00        -0.49872E+08
 
   -0.49064E+08         0.48558E+05         0.00000E+00
    0.48558E+05        -0.49999E+08         0.00000E+00
    0.00000E+00         0.00000E+00        -0.49872E+08
 
   -0.49071E+08         0.67616E+05         0.00000E+00
    0.67616E+05        -0.49998E+08         0.00000E+00
    0.00000E+00         0.00000E+00        -0.49872E+08
 
   -0.49077E+08         0.86488E+05         0.00000E+00
    0.86488E+05        -0.49996E+08         0.00000E+00
    0.00000E+00         0.00000E+00        -0.49872E+08
 
   -0.49085E+08         0.10517E+06         0.00000E+00
    0.10517E+06        -0.49994E+08         0.00000E+00
    0.00000E+00         0.00000E+00        -0.49872E+08
 
   -0.49093E+08         0.12364E+06         0.00000E+00
    0.12364E+06        -0.49992E+08         0.00000E+00
    0.00000E+00         0.00000E+00        -0.49872E+08
 
   -0.49102E+08         0.14191E+06         0.00000E+00
    0.14191E+06        -0.49990E+08         0.00000E+00
    0.00000E+00         0.00000E+00        -0.49872E+08
 
   -0.49111E+08         0.15996E+06         0.00000E+00
    0.15996E+06        -0.49987E+08         0.00000E+00
    0.00000E+00         0.00000E+00        -0.49872E+08
 
   -0.49121E+08         0.17778E+06         0.00000E+00
    0.17778E+06        -0.49984E+08         0.00000E+00
    0.00000E+00         0.00000E+00        -0.49872E+08
 
   -0.49131E+08         0.19537E+06         0.00000E+00
    0.19537E+06        -0.49980E+08         0.00000E+00
    0.00000E+00         0.00000E+00        -0.49872E+08
 
   -0.49142E+08         0.21272E+06         0.00000E+00
    0.21272E+06        -0.49977E+08         0.00000E+00
    0.00000E+00         0.00000E+00        -0.49872E+08
 
   -0.49153E+08         0.22983E+06         0.00000E+00
    0.22983E+06        -0.49972E+08         0.00000E+00
    0.00000E+00         0.00000E+00        -0.49872E+08
 
   -0.49165E+08         0.24668E+06         0.00000E+00
    0.24668E+06        -0.49968E+08         0.00000E+00
    0.00000E+00         0.00000E+00        -0.49872E+08
 
   -0.49177E+08         0.26327E+06         0.00000E+00
    0.26327E+06        -0.49963E+08         0.00000E+00
    0.00000E+00         0.00000E+00        -0.49872E+08
 
   -0.49190E+08         0.27960E+06         0.00000E+00
    0.27960E+06        -0.49958E+08         0.00000E+00
    0.00000E+00         0.00000E+00        -0.49872E+08
 
   -0.49203E+08         0.29565E+06         0.00000E+00
    0.29565E+06        -0.49953E+08         0.00000E+00
    0.00000E+00         0.00000E+00        -0.49872E+08
 
   -0.49217E+08         0.31143E+06         0.00000E+00
    0.31143E+06        -0.49947E+08         0.00000E+00
    0.00000E+00         0.00000E+00        -0.49872E+08
 
   -0.49232E+08         0.32692E+06         0.00000E+00
    0.32692E+06        -0.49941E+08         0.00000E+00
    0.00000E+00         0.00000E+00        -0.49872E+08
 
   -0.49246E+08         0.34212E+06         0.00000E+00
    0.34212E+06        -0.49935E+08         0.00000E+00
    0.00000E+00         0.00000E+00        -0.49872E+08
 
   -0.49262E+08         0.35703E+06         0.00000E+00
    0.35703E+06        -0.49929E+08         0.00000E+00
    0.00000E+00         0.00000E+00        -0.49872E+08
 
   -0.49277E+08         0.37163E+06         0.00000E+00
    0.37163E+06        -0.49922E+08         0.00000E+00
    0.00000E+00         0.00000E+00        -0.49872E+08
 
   -0.49293E+08         0.38592E+06         0.00000E+00
    0.38592E+06        -0.49915E+08         0.00000E+00
    0.00000E+00         0.00000E+00        -0.49872E+08
 
   -0.49310E+08         0.39991E+06         0.00000E+00
    0.39991E+06        -0.49908E+08         0.00000E+00
    0.00000E+00         0.00000E+00        -0.49872E+08
 
   -0.49327E+08         0.41357E+06         0.00000E+00
    0.41357E+06        -0.49900E+08         0.00000E+00
    0.00000E+00         0.00000E+00        -0.49872E+08
 
   -0.49344E+08         0.42692E+06         0.00000E+00
    0.42692E+06        -0.49892E+08         0.00000E+00
    0.00000E+00         0.00000E+00        -0.49872E+08
 
   -0.49362E+08         0.43993E+06         0.00000E+00
    0.43993E+06        -0.49884E+08         0.00000E+00
    0.00000E+00         0.00000E+00        -0.49872E+08
 
   -0.49380E+08         0.45261E+06         0.00000E+00
    0.45261E+06        -0.49876E+08         0.00000E+00
    0.00000E+00         0.00000E+00        -0.49872E+08
 
   -0.49399E+08         0.46496E+06         0.00000E+00
    0.46496E+06        -0.49867E+08         0.00000E+00
    0.00000E+00         0.00000E+00        -0.49872E+08
 
   -0.49417E+08         0.47696E+06         0.00000E+00
    0.47696E+06        -0.49859E+08         0.00000E+00
    0.00000E+00         0.00000E+00        -0.49872E+08
 
   -0.49437E+08         0.48861E+06         0.00000E+00
    0.48861E+06        -0.49850E+08         0.00000E+00
    0.00000E+00         0.00000E+00        -0.49872E+08
 
   -0.49456E+08         0.49992E+06         0.00000E+00
    0.49992E+06        -0.49841E+08         0.00000E+00
    0.00000E+00         0.00000E+00        -0.49872E+08
 
   -0.49476E+08         0.51086E+06         0.00000E+00
    0.51086E+06        -0.49831E+08         0.00000E+00
    0.00000E+00         0.00000E+00        -0.49872E+08
 
   -0.49496E+08         0.52145E+06         0.00000E+00
    0.52145E+06        -0.49822E+08         0.00000E+00
    0.00000E+00         0.00000E+00        -0.49872E+08
 
   -0.49517E+08         0.53167E+06         0.00000E+00
    0.53167E+06        -0.49812E+08         0.00000E+00
    0.00000E+00         0.00000E+00        -0.49872E+08
 
   -0.49538E+08         0.54153E+06         0.00000E+00
    0.54153E+06        -0.49802E+08         0.00000E+00
    0.00000E+00         0.00000E+00        -0.49872E+08
 
   -0.49559E+08         0.55101E+06         0.00000E+00
    0.55101E+06        -0.49792E+08         0.00000E+00
    0.00000E+00         0.00000E+00        -0.49872E+08
 
   -0.49581E+08         0.56011E+06         0.00000E+00
    0.56011E+06        -0.49781E+08         0.00000E+00
    0.00000E+00         0.00000E+00        -0.49872E+08
 
   -0.49603E+08         0.56884E+06         0.00000E+00
    0.56884E+06        -0.49771E+08         0.00000E+00
    0.00000E+00         0.00000E+00        -0.49872E+08
 
   -0.49625E+08         0.57718E+06         0.00000E+00
    0.57718E+06        -0.49760E+08         0.00000E+00
    0.00000E+00         0.00000E+00        -0.49872E+08
 
   -0.49647E+08         0.58513E+06         0.00000E+00
    0.58513E+06        -0.49749E+08         0.00000E+00
    0.00000E+00         0.00000E+00        -0.49872E+08
 
   -0.49670E+08         0.59269E+06         0.00000E+00
    0.59269E+06        -0.49738E+08         0.00000E+00
    0.00000E+00         0.00000E+00        -0.49872E+08
 
   -0.49693E+08         0.59985E+06         0.00000E+00
    0.59985E+06        -0.49727E+08         0.00000E+00
    0.00000E+00         0.00000E+00        -0.49872E+08
 
   -0.49716E+08         0.60662E+06         0.00000E+00
    0.60662E+06        -0.49715E+08         0.00000E+00
    0.00000E+00         0.00000E+00        -0.49872E+08
 
   -0.49739E+08         0.61298E+06         0.00000E+00
    0.61298E+06        -0.49704E+08         0.00000E+00
    0.00000E+00         0.00000E+00        -0.49872E+08
 
   -0.49763E+08         0.61893E+06         0.00000E+00
    0.61893E+06        -0.49692E+08         0.00000E+00
    0.00000E+00         0.00000E+00        -0.49872E+08
 
   -0.49787E+08         0.62448E+06         0.00000E+00
    0.62448E+06        -0.49680E+08         0.00000E+00
    0.00000E+00         0.00000E+00        -0.49872E+08
 
   -0.49811E+08         0.62961E+06         0.00000E+00
    0.62961E+06        -0.49668E+08         0.00000E+00
    0.00000E+00         0.00000E+00        -0.49872E+08
 
   -0.49835E+08         0.63433E+06         0.00000E+00
    0.63433E+06        -0.49656E+08         0.00000E+00
    0.00000E+00         0.00000E+00        -0.49872E+08
 
   -0.49859E+08         0.63863E+06         0.00000E+00
    0.63863E+06        -0.49644E+08         0.00000E+00
    0.00000E+00         0.00000E+00        -0.49872E+08
 
   -0.48951E+08         0.10906E+05         0.00000E+00
    0.10906E+05        -0.50000E+08         0.00000E+00
    0.00000E+00         0.00000E+00        -0.49851E+08
 
   -0.48957E+08         0.32219E+05         0.00000E+00
    0.32219E+05        -0.49999E+08         0.00000E+00
    0.00000E+00         0.00000E+00        -0.49851E+08
 
   -0.48964E+08         0.53339E+05         0.00000E+00
    0.53339E+05        -0.49999E+08         0.00000E+00
    0.00000E+00         0.00000E+00        -0.49851E+08
 
   -0.48971E+08         0.74257E+05         0.00000E+00
    0.74257E+05        -0.49998E+08         0.00000E+00
    0.00000E+00         0.00000E+00        -0.49851E+08
 
   -0.48979E+08         0.94965E+05         0.00000E+00
    0.94965E+05        -0.49996E+08         0.00000E+00
    0.00000E+00         0.00000E+00        -0.49851E+08
 
   -0.48988E+08         0.11545E+06         0.00000E+00
    0.11545E+06        -0.49994E+08         0.00000E+00
    0.00000E+00         0.00000E+00        -0.49851E+08
 
   -0.48997E+08         0.13571E+06         0.00000E+00
    0.13571E+06        -0.49992E+08         0.00000E+00
    0.00000E+00         0.00000E+00        -0.49851E+08
 
   -0.49007E+08         0.15574E+06         0.00000E+00
    0.15574E+06        -0.49989E+08         0.00000E+00
    0.00000E+00         0.00000E+00        -0.49851E+08
 
   -0.49017E+08         0.17553E+06         0.00000E+00
    0.17553E+06        -0.49986E+08         0.00000E+00
    0.00000E+00         0.00000E+00        -0.49851E+08
 
   -0.49028E+08         0.19506E+06         0.00000E+00
    0.19506E+06        -0.49982E+08         0.00000E+00
    0.00000E+00         0.00000E+00        -0.49851E+08
 
   -0.49039E+08         0.21433E+06         0.00000E+00
    0.21433E+06        -0.49979E+08         0.00000E+00
    0.00000E+00         0.00000E+00        -0.49851E+08
 
   -0.49051E+08         0.23335E+06         0.00000E+00
    0.23335E+06        -0.49975E+08         0.00000E+00
    0.00000E+00         0.00000E+00        -0.49851E+08
 
   -0.49064E+08         0.25208E+06         0.00000E+00
    0.25208E+06        -0.49970E+08         0.00000E+00
    0.00000E+00         0.00000E+00        -0.49851E+08
 
   -0.49077E+08         0.27054E+06         0.00000E+00
    0.27054E+06        -0.49965E+08         0.00000E+00
    0.00000E+00         0.00000E+00        -0.49851E+08
 
   -0.49091E+08         0.28872E+06         0.00000E+00
    0.28872E+06        -0.49960E+08         0.00000E+00
    0.00000E+00         0.00000E+00        -0.49851E+08
 
   -0.49105E+08         0.30660E+06         0.00000E+00
    0.30660E+06        -0.49955E+08         0.00000E+00
    0.00000E+00         0.00000E+00        -0.49851E+08
 
   -0.49120E+08         0.32419E+06         0.00000E+00
    0.32419E+06        -0.49949E+08         0.00000E+00
    0.00000E+00         0.00000E+00        -0.49851E+08
 
   -0.49135E+08         0.34147E+06         0.00000E+00
    0.34147E+06        -0.49943E+08         0.00000E+00
    0.00000E+00         0.00000E+00        -0.49851E+08
 
   -0.49151E+08         0.35844E+06         0.00000E+00
    0.35844E+06        -0.49937E+08         0.00000E+00
    0.00000E+00         0.00000E+00        -0.49851E+08
 
   -0.49168E+08         0.37509E+06         0.00000E+00
    0.37509E+06        -0.49930E+08         0.00000E+00
    0.00000E+00         0.00000E+00        -0.49851E+08
 
   -0.49184E+08         0.39142E+06         0.00000E+00
    0.39142E+06        -0.49923E+08         0.00000E+00
    0.00000E+00         0.00000E+00        -0.49851E+08
 
   -0.49202E+08         0.40742E+06         0.00000E+00
    0.40742E+06        -0.49916E+08         0.00000E+00
    0.00000E+00         0.00000E+00        -0.49851E+08
 
   -0.49219E+08         0.42309E+06         0.00000E+00
    0.42309E+06        -0.49908E+08         0.00000E+00
    0.00000E+00         0.00000E+00        -0.49851E+08
 
   -0.49237E+08         0.43842E+06         0.00000E+00
    0.43842E+06        -0.49900E+08         0.00000E+00
    0.00000E+00         0.00000E+00        -0.49851E+08
 
   -0.49256E+08         0.45341E+06         0.00000E+00
    0.45341E+06        -0.49892E+08         0.00000E+00
    0.00000E+00         0.00000E+00        -0.49851E+08
 
   -0.49275E+08         0.46804E+06         0.00000E+00
    0.46804E+06        -0.49884E+08         0.00000E+00
    0.00000E+00         0.00000E+00        -0.49851E+08
 
   -0.49295E+08         0.48233E+06         0.00000E+00
    0.48233E+06        -0.49875E+08         0.00000E+00
    0.00000E+00         0.00000E+00        -0.49851E+08
 
   -0.49314E+08         0.49625E+06         0.00000E+00
    0.49625E+06        -0.49866E+08         0.00000E+00
    0.00000E+00         0.00000E+00        -0.49851E+08
 
   -0.49335E+08         0.50981E+06         0.00000E+00
    0.50981E+06        -0.49857E+08         0.00000E+00
    0.00000E+00         0.00000E+00        -0.49851E+08
 
   -0.49355E+08         0.52300E+06         0.00000E+00
    0.52300E+06        -0.49847E+08         0.00000E+00
    0.00000E+00         0.00000E+00        -0.49851E+08
 
   -0.49376E+08         0.53581E+06         0.00000E+00
    0.53581E+06        -0.49838E+08         0.00000E+00
    0.00000E+00         0.00000E+00        -0.49851E+08
 
   -0.49398E+08         0.54825E+06         0.00000E+00
    0.54825E+06        -0.49828E+08         0.00000E+00
    0.00000E+00         0.00000E+00        -0.49851E+08
 
   -0.49420E+08         0.56030E+06         0.00000E+00
    0.56030E+06        -0.49817E+08         0.00000E+00
    0.00000E+00         0.00000E+00        -0.49851E+08
 
   -0.49442E+08         0.57197E+06         0.00000E+00
    0.57197E+06        -0.49807E+08         0.00000E+00
    0.00000E+00         0.00000E+00        -0.49851E+08
 
   -0.49464E+08         0.58324E+06         0.00000E+00
    0.58324E+06        -0.49796E+08         0.00000E+00
    0.00000E+00         0.00000E+00        -0.49851E+08
 
   -0.49487E+08         0.59412E+06         0.00000E+00
    0.59412E+06        -0.49786E+08         0.00000E+00
    0.00000E+00         0.00000E+00        -0.49851E+08
 
   -0.49510E+08         0.60460E+06         0.00000E+00
    0.60460E+06        -0.49775E+08         0.00000E+00
    0.00000E+00         0.00000E+00        -0.49851E+08
 
   -0.49534E+08         0.61468E+06         0.00000E+00
    0.61468E+06        -0.49763E+08         0.00000E+00
    0.00000E+00         0.00000E+00        -0.49851E+08
 
   -0.49558E+08         0.62435E+06         0.00000E+00
    0.62435E+06        -0.49752E+08         0.00000E+00
    0.00000E+00         0.00000E+00        -0.49851E+08
 
   -0.49582E+08         0.63360E+06         0.00000E+00
    0.63360E+06        -0.49740E+08         0.00000E+00
    0.00000E+00         0.00000E+00        -0.49851E+08
 
   -0.49606E+08         0.64244E+06         0.00000E+00
    0.64244E+06        -0.49728E+08         0.00000E+00
    0.00000E+00         0.00000E+00        -0.49851E+08
 
   -0.49631E+08         0.65086E+06         0.00000E+00
    0.65086E+06        -0.49716E+08         0.00000E+00
    0.00000E+00         0.00000E+00        -0.49851E+08
 
   -0.49656E+08         0.65885E+06         0.00000E+00
    0.65885E+06        -0.49704E+08         0.00000E+00
    0.00000E+00         0.00000E+00        -0.49851E+08
 
   -0.49681E+08         0.66642E+06         0.00000E+00
    0.66642E+06        -0.49692E+08         0.00000E+00
    0.00000E+00         0.00000E+00        -0.49851E+08
 
   -0.49706E+08         0.67356E+06         0.00000E+00
    0.67356E+06        -0.49679E+08         0.00000E+00
    0.00000E+00         0.00000E+00        -0.49851E+08
 
   -0.49732E+08         0.68026E+06         0.00000E+00
    0.68026E+06        -0.49666E+08         0.00000E+00
    0.00000E+00         0.00000E+00        -0.49851E+08
 
   -0.49758E+08         0.68652E+06         0.00000E+00
    0.68652E+06        -0.49654E+08         0.00000E+00
    0.00000E+00         0.00000E+00        -0.49851E+08
 
   -0.49784E+08         0.69235E+06         0.00000E+00
    0.69235E+06        -0.49641E+08         0.00000E+00
    0.00000E+00         0.00000E+00        -0.49851E+08
 
   -0.49811E+08         0.69772E+06         0.00000E+00
    0.69772E+06        -0.49627E+08         0.00000E+00
    0.00000E+00         0.00000E+00        -0.49851E+08
 
   -0.49837E+08         0.70265E+06         0.00000E+00
    0.70265E+06        -0.49614E+08         0.00000E+00
    0.00000E+00         0.00000E+00        -0.49851E+08
 
   -0.48839E+08         0.11975E+05         0.00000E+00
    0.11975E+05        -0.50000E+08         0.00000E+00
    0.00000E+00         0.00000E+00        -0.49827E+08
 
   -0.48846E+08         0.35353E+05         0.00000E+00
    0.35353E+05        -0.49999E+08         0.00000E+00
    0.00000E+00         0.00000E+00        -0.49827E+08
 
   -0.48854E+08         0.58511E+05         0.00000E+00
    0.58511E+05        -0.49999E+08         0.00000E+00
    0.00000E+00         0.00000E+00        -0.49827E+08
 
   -0.48862E+08         0.81439E+05         0.00000E+00
    0.81439E+05        -0.49997E+08         0.00000E+00
    0.00000E+00         0.00000E+00        -0.49827E+08
 
   -0.48871E+08         0.10413E+06         0.00000E+00
    0.10413E+06        -0.49996E+08         0.00000E+00
    0.00000E+00         0.00000E+00        -0.49827E+08
 
   -0.48881E+08         0.12657E+06         0.00000E+00
    0.12657E+06        -0.49994E+08         0.00000E+00
    0.00000E+00         0.00000E+00        -0.49827E+08
 
   -0.48891E+08         0.14876E+06         0.00000E+00
    0.14876E+06        -0.49991E+08         0.00000E+00
    0.00000E+00         0.00000E+00        -0.49827E+08
 
   -0.48902E+08         0.17069E+06         0.00000E+00
    0.17069E+06        -0.49988E+08         0.00000E+00
    0.00000E+00         0.00000E+00        -0.49827E+08
 
   -0.48914E+08         0.19235E+06         0.00000E+00
    0.19235E+06        -0.49985E+08         0.00000E+00
    0.00000E+00         0.00000E+00        -0.49827E+08
 
   -0.48926E+08         0.21373E+06         0.00000E+00
    0.21373E+06        -0.49981E+08         0.00000E+00
    0.00000E+00         0.00000E+00        -0.49827E+08
 
   -0.48939E+08         0.23482E+06         0.00000E+00
    0.23482E+06        -0.49977E+08         0.00000E+00
    0.00000E+00         0.00000E+00        -0.49827E+08
 
   -0.48953E+08         0.25563E+06         0.00000E+00
    0.25563E+06        -0.49973E+08         0.00000E+00
    0.00000E+00         0.00000E+00        -0.49827E+08
 
   -0.48967E+08         0.27613E+06         0.00000E+00
    0.27613E+06        -0.49968E+08         0.00000E+00
    0.00000E+00         0.00000E+00        -0.49827E+08
 
   -0.48981E+08         0.29632E+06         0.00000E+00
    0.29632E+06        -0.49963E+08         0.00000E+00
    0.00000E+00         0.00000E+00        -0.49827E+08
 
   -0.48997E+08         0.31621E+06         0.00000E+00
    0.31621E+06        -0.49957E+08         0.00000E+00
    0.00000E+00         0.00000E+00        -0.49827E+08
 
   -0.49013E+08         0.33577E+06         0.00000E+00
    0.33577E+06        -0.49951E+08         0.00000E+00
    0.00000E+00         0.00000E+00        -0.49827E+08
 
   -0.49029E+08         0.35500E+06         0.00000E+00
    0.35500E+06        -0.49945E+08         0.00000E+00
    0.00000E+00         0.00000E+00        -0.49827E+08
 
   -0.49046E+08         0.37391E+06         0.00000E+00
    0.37391E+06        -0.49938E+08         0.00000E+00
    0.00000E+00         0.00000E+00        -0.49827E+08
 
   -0.49063E+08         0.39247E+06         0.00000E+00
    0.39247E+06        -0.49932E+08         0.00000E+00
    0.00000E+00         0.00000E+00        -0.49827E+08
 
   -0.49081E+08         0.41070E+06         0.00000E+00
    0.41070E+06        -0.49924E+08         0.00000E+00
    0.00000E+00         0.00000E+00        -0.49827E+08
 
   -0.49100E+08         0.42857E+06         0.00000E+00
    0.42857E+06        -0.49917E+08         0.00000E+00
    0.00000E+00         0.00000E+00        -0.49827E+08
 
   -0.49119E+08         0.44608E+06         0.00000E+00
    0.44608E+06        -0.49909E+08         0.00000E+00
    0.00000E+00         0.00000E+00        -0.49827E+08
 
   -0.49138E+08         0.46324E+06         0.00000E+00
    0.46324E+06        -0.49901E+08         0.00000E+00
    0.00000E+00         0.00000E+00        -0.49827E+08
 
   -0.49158E+08         0.48003E+06         0.00000E+00
    0.48003E+06        -0.49892E+08         0.00000E+00
    0.00000E+00         0.00000E+00        -0.49827E+08
 
   -0.49178E+08         0.49644E+06         0.00000E+00
    0.49644E+06        -0.49883E+08         0.00000E+00
    0.00000E+00         0.00000E+00        -0.49827E+08
 
   -0.49199E+08         0.51248E+06         0.00000E+00
    0.51248E+06        -0.49874E+08         0.00000E+00
    0.00000E+00         0.00000E+00        -0.49827E+08
 
   -0.49221E+08         0.52814E+06         0.00000E+00
    0.52814E+06        -0.49865E+08         0.00000E+00
    0.00000E+00         0.00000E+00        -0.49827E+08
 
   -0.49242E+08         0.54341E+06         0.00000E+00
    0.54341E+06        -0.49855E+08         0.00000E+00
    0.00000E+00         0.00000E+00        -0.49827E+08
 
   -0.49265E+08         0.55829E+06         0.00000E+00
    0.55829E+06        -0.49845E+08         0.00000E+00
    0.00000E+00         0.00000E+00        -0.49827E+08
 
   -0.49287E+08         0.57277E+06         0.00000E+00
    0.57277E+06        -0.49835E+08         0.00000E+00
    0.00000E+00         0.00000E+00        -0.49827E+08
 
   -0.49310E+08         0.58684E+06         0.00000E+00
    0.58684E+06        -0.49825E+08         0.00000E+00
    0.00000E+00         0.00000E+00        -0.49827E+08
 
   -0.49334E+08         0.60052E+06         0.00000E+00
    0.60052E+06        -0.49814E+08         0.00000E+00
    0.00000E+00         0.00000E+00        -0.49827E+08
 
   -0.49357E+08         0.61378E+06         0.00000E+00
    0.61378E+06        -0.49803E+08         0.00000E+00
    0.00000E+00         0.00000E+00        -0.49827E+08
 
   -0.49382E+08         0.62663E+06         0.00000E+00
    0.62663E+06        -0.49792E+08         0.00000E+00
    0.00000E+00         0.00000E+00        -0.49827E+08
 
   -0.49406E+08         0.63905E+06         0.00000E+00
    0.63905E+06        -0.49780E+08         0.00000E+00
    0.00000E+00         0.00000E+00        -0.49827E+08
 
   -0.49431E+08         0.65106E+06         0.00000E+00
    0.65106E+06        -0.49769E+08         0.00000E+00
    0.00000E+00         0.00000E+00        -0.49827E+08
 
   -0.49456E+08         0.66263E+06         0.00000E+00
    0.66263E+06        -0.49757E+08         0.00000E+00
    0.00000E+00         0.00000E+00        -0.49827E+08
 
   -0.49482E+08         0.67377E+06         0.00000E+00
    0.67377E+06        -0.49744E+08         0.00000E+00
    0.00000E+00         0.00000E+00        -0.49827E+08
 
   -0.49508E+08         0.68448E+06         0.00000E+00
    0.68448E+06        -0.49732E+08         0.00000E+00
    0.00000E+00         0.00000E+00        -0.49827E+08
 
   -0.49534E+08         0.69474E+06         0.00000E+00
    0.69474E+06        -0.49719E+08         0.00000E+00
    0.00000E+00         0.00000E+00        -0.49827E+08
 
   -0.49561E+08         0.70456E+06         0.00000E+00
    0.70456E+06        -0.49707E+08         0.00000E+00
    0.00000E+00         0.00000E+00        -0.49827E+08
 
   -0.49587E+08         0.71394E+06         0.00000E+00
    0.71394E+06        -0.49694E+08         0.00000E+00
    0.00000E+00         0.00000E+00        -0.49827E+08
 
   -0.49615E+08         0.72286E+06         0.00000E+00
    0.72286E+06        -0.49680E+08         0.00000E+00
    0.00000E+00         0.00000E+00        -0.49827E+08
 
   -0.49642E+08         0.73132E+06         0.00000E+00
    0.73132E+06        -0.49667E+08         0.00000E+00
    0.00000E+00         0.00000E+00        -0.49827E+08
 
   -0.49670E+08         0.73932E+06         0.00000E+00
    0.73932E+06        -0.49653E+08         0.00000E+00
    0.00000E+00         0.00000E+00        -0.49827E+08
 
   -0.49698E+08         0.74686E+06         0.00000E+00
    0.74686E+06        -0.49639E+08         0.00000E+00
    0.00000E+00         0.00000E+00        -0.49827E+08
 
   -0.49726E+08         0.75393E+06         0.00000E+00
    0.75393E+06        -0.49626E+08         0.00000E+00
    0.00000E+00         0.00000E+00        -0.49827E+08
 
   -0.49754E+08         0.76053E+06         0.00000E+00
    0.76053E+06        -0.49611E+08         0.00000E+00
    0.00000E+00         0.00000E+00        -0.49827E+08
 
   -0.49783E+08         0.76666E+06         0.00000E+00
    0.76666E+06        -0.49597E+08         0.00000E+00
    0.00000E+00         0.00000E+00        -0.49827E+08
 
   -0.49812E+08         0.77230E+06         0.00000E+00
    0.77230E+06        -0.49583E+08         0.00000E+00
    0.00000E+00         0.00000E+00        -0.49827E+08
 
   -0.48716E+08         0.13130E+05         0.00000E+00
    0.13130E+05        -0.50000E+08         0.00000E+00
    0.00000E+00         0.00000E+00        -0.49799E+08
 
   -0.48724E+08         0.38736E+05         0.00000E+00
    0.38736E+05        -0.49999E+08         0.00000E+00
    0.00000E+00         0.00000E+00        -0.49799E+08
 
   -0.48733E+08         0.64092E+05         0.00000E+00
    0.64092E+05        -0.49998E+08         0.00000E+00
    0.00000E+00         0.00000E+00        -0.49799E+08
 
   -0.48743E+08         0.89188E+05         0.00000E+00
    0.89188E+05        -0.49997E+08         0.00000E+00
    0.00000E+00         0.00000E+00        -0.49799E+08
 
   -0.48753E+08         0.11402E+06         0.00000E+00
    0.11402E+06        -0.49995E+08         0.00000E+00
    0.00000E+00         0.00000E+00        -0.49799E+08
 
   -0.48764E+08         0.13857E+06         0.00000E+00
    0.13857E+06        -0.49993E+08         0.00000E+00
    0.00000E+00         0.00000E+00        -0.49799E+08
 
   -0.48776E+08         0.16284E+06         0.00000E+00
    0.16284E+06        -0.49990E+08         0.00000E+00
    0.00000E+00         0.00000E+00        -0.49799E+08
 
   -0.48788E+08         0.18681E+06         0.00000E+00
    0.18681E+06        -0.49987E+08         0.00000E+00
    0.00000E+00         0.00000E+00        -0.49799E+08
 
   -0.48801E+08         0.21049E+06         0.00000E+00
    0.21049E+06        -0.49984E+08         0.00000E+00
    0.00000E+00         0.00000E+00        -0.49799E+08
 
   -0.48815E+08         0.23386E+06         0.00000E+00
    0.23386E+06        -0.49980E+08         0.00000E+00
    0.00000E+00         0.00000E+00        -0.49799E+08
 
   -0.48830E+08         0.25691E+06         0.00000E+00
    0.25691E+06        -0.49975E+08         0.00000E+00
    0.00000E+00         0.00000E+00        -0.49799E+08
 
   -0.48845E+08         0.27964E+06         0.00000E+00
    0.27964E+06        -0.49970E+08         0.00000E+00
    0.00000E+00         0.00000E+00        -0.49799E+08
 
   -0.48860E+08         0.30204E+06         0.00000E+00
    0.30204E+06        -0.49965E+08         0.00000E+00
    0.00000E+00         0.00000E+00        -0.49799E+08
 
   -0.48877E+08         0.32410E+06         0.00000E+00
    0.32410E+06        -0.49960E+08         0.00000E+00
    0.00000E+00         0.00000E+00        -0.49799E+08
 
   -0.48894E+08         0.34582E+06         0.00000E+00
    0.34582E+06        -0.49954E+08         0.00000E+00
    0.00000E+00         0.00000E+00        -0.49799E+08
 
   -0.48911E+08         0.36720E+06         0.00000E+00
    0.36720E+06        -0.49947E+08         0.00000E+00
    0.00000E+00         0.00000E+00        -0.49799E+08
 
   -0.48929E+08         0.38821E+06         0.00000E+00
    0.38821E+06        -0.49941E+08         0.00000E+00
    0.00000E+00         0.00000E+00        -0.49799E+08
 
   -0.48948E+08         0.40887E+06         0.00000E+00
    0.40887E+06        -0.49934E+08         0.00000E+00
    0.00000E+00         0.00000E+00        -0.49799E+08
 
   -0.48967E+08         0.42915E+06         0.00000E+00
    0.42915E+06        -0.49926E+08         0.00000E+00
    0.00000E+00         0.00000E+00        -0.49799E+08
 
   -0.48987E+08         0.44907E+06         0.00000E+00
    0.44907E+06        -0.49918E+08         0.00000E+00
    0.00000E+00         0.00000E+00        -0.49799E+08
 
   -0.49007E+08         0.46860E+06         0.00000E+00
    0.46860E+06        -0.49910E+08         0.00000E+00
    0.00000E+00         0.00000E+00        -0.49799E+08
 
   -0.49028E+08         0.48775E+06         0.00000E+00
    0.48775E+06        -0.49902E+08         0.00000E+00
    0.00000E+00         0.00000E+00        -0.49799E+08
 
   -0.49049E+08         0.50651E+06         0.00000E+00
    0.50651E+06        -0.49893E+08         0.00000E+00
    0.00000E+00         0.00000E+00        -0.49799E+08
 
   -0.49071E+08         0.52487E+06         0.00000E+00
    0.52487E+06        -0.49884E+08         0.00000E+00
    0.00000E+00         0.00000E+00        -0.49799E+08
 
   -0.49094E+08         0.54284E+06         0.00000E+00
    0.54284E+06        -0.49874E+08         0.00000E+00
    0.00000E+00         0.00000E+00        -0.49799E+08
 
   -0.49116E+08         0.56039E+06         0.00000E+00
    0.56039E+06        -0.49865E+08         0.00000E+00
    0.00000E+00         0.00000E+00        -0.49799E+08
 
   -0.49140E+08         0.57754E+06         0.00000E+00
    0.57754E+06        -0.49855E+08         0.00000E+00
    0.00000E+00         0.00000E+00        -0.49799E+08
 
   -0.49163E+08         0.59427E+06         0.00000E+00
    0.59427E+06        -0.49844E+08         0.00000E+00
    0.00000E+00         0.00000E+00        -0.49799E+08
 
   -0.49188E+08         0.61058E+06         0.00000E+00
    0.61058E+06        -0.49833E+08         0.00000E+00
    0.00000E+00         0.00000E+00        -0.49799E+08
 
   -0.49212E+08         0.62646E+06         0.00000E+00
    0.62646E+06        -0.49822E+08         0.00000E+00
    0.00000E+00         0.00000E+00        -0.49799E+08
 
   -0.49237E+08         0.64191E+06         0.00000E+00
    0.64191E+06        -0.49811E+08         0.00000E+00
    0.00000E+00         0.00000E+00        -0.49799E+08
 
   -0.49263E+08         0.65693E+06         0.00000E+00
    0.65693E+06        -0.49800E+08         0.00000E+00
    0.00000E+00         0.00000E+00        -0.49799E+08
 
   -0.49289E+08         0.67151E+06         0.00000E+00
    0.67151E+06        -0.49788E+08         0.00000E+00
    0.00000E+00         0.00000E+00        -0.49799E+08
 
   -0.49315E+08         0.68564E+06         0.00000E+00
    0.68564E+06        -0.49776E+08         0.00000E+00
    0.00000E+00         0.00000E+00        -0.49799E+08
 
   -0.49342E+08         0.69933E+06         0.00000E+00
    0.69933E+06        -0.49763E+08         0.00000E+00
    0.00000E+00         0.00000E+00        -0.49799E+08
 
   -0.49369E+08         0.71256E+06         0.00000E+00
    0.71256E+06        -0.49751E+08         0.00000E+00
    0.00000E+00         0.00000E+00        -0.49799E+08
 
   -0.49397E+08         0.72534E+06         0.00000E+00
    0.72534E+06        -0.49738E+08         0.00000E+00
    0.00000E+00         0.00000E+00        -0.49799E+08
 
   -0.49424E+08         0.73765E+06         0.00000E+00
    0.73765E+06        -0.49725E+08         0.00000E+00
    0.00000E+00         0.00000E+00        -0.49799E+08
 
   -0.49453E+08         0.74950E+06         0.00000E+00
    0.74950E+06        -0.49711E+08         0.00000E+00
    0.00000E+00         0.00000E+00        -0.49799E+08
 
   -0.49481E+08         0.76088E+06         0.00000E+00
    0.76088E+06        -0.49698E+08         0.00000E+00
    0.00000E+00         0.00000E+00        -0.49799E+08
 
   -0.49510E+08         0.77179E+06         0.00000E+00
    0.77179E+06        -0.49684E+08         0.00000E+00
    0.00000E+00         0.00000E+00        -0.49799E+08
 
   -0.49539E+08         0.78222E+06         0.00000E+00
    0.78222E+06        -0.49670E+08         0.00000E+00
    0.00000E+00         0.00000E+00        -0.49799E+08
 
   -0.49569E+08         0.79216E+06         0.00000E+00
    0.79216E+06        -0.49655E+08         0.00000E+00
    0.00000E+00         0.00000E+00        -0.49799E+08
 
   -0.49598E+08         0.80162E+06         0.00000E+00
    0.80162E+06        -0.49641E+08         0.00000E+00
    0.00000E+00         0.00000E+00        -0.49799E+08
 
   -0.49629E+08         0.81059E+06         0.00000E+00
    0.81059E+06        -0.49626E+08         0.00000E+00
    0.00000E+00         0.00000E+00        -0.49799E+08
 
   -0.49659E+08         0.81907E+06         0.00000E+00
    0.81907E+06        -0.49611E+08         0.00000E+00
    0.00000E+00         0.00000E+00        -0.49799E+08
 
   -0.49690E+08         0.82705E+06         0.00000E+00
    0.82705E+06        -0.49596E+08         0.00000E+00
    0.00000E+00         0.00000E+00        -0.49799E+08
 
   -0.49720E+08         0.83452E+06         0.00000E+00
    0.83452E+06        -0.49581E+08         0.00000E+00
    0.00000E+00         0.00000E+00        -0.49799E+08
 
   -0.49752E+08         0.84150E+06         0.00000E+00
    0.84150E+06        -0.49565E+08         0.00000E+00
    0.00000E+00         0.00000E+00        -0.49799E+08
 
   -0.49783E+08         0.84796E+06         0.00000E+00
    0.84796E+06        -0.49550E+08         0.00000E+00
    0.00000E+00         0.00000E+00        -0.49799E+08
 
   -0.48582E+08         0.14375E+05         0.00000E+00
    0.14375E+05        -0.50000E+08         0.00000E+00
    0.00000E+00         0.00000E+00        -0.49767E+08
 
   -0.48591E+08         0.42379E+05         0.00000E+00
    0.42379E+05        -0.49999E+08         0.00000E+00
    0.00000E+00         0.00000E+00        -0.49767E+08
 
   -0.48601E+08         0.70099E+05         0.00000E+00
    0.70099E+05        -0.49998E+08         0.00000E+00
    0.00000E+00         0.00000E+00        -0.49767E+08
 
   -0.48612E+08         0.97528E+05         0.00000E+00
    0.97528E+05        -0.49997E+08         0.00000E+00
    0.00000E+00         0.00000E+00        -0.49767E+08
 
   -0.48624E+08         0.12466E+06         0.00000E+00
    0.12466E+06        -0.49995E+08         0.00000E+00
    0.00000E+00         0.00000E+00        -0.49767E+08
 
   -0.48636E+08         0.15147E+06         0.00000E+00
    0.15147E+06        -0.49992E+08         0.00000E+00
    0.00000E+00         0.00000E+00        -0.49767E+08
 
   -0.48650E+08         0.17798E+06         0.00000E+00
    0.17798E+06        -0.49990E+08         0.00000E+00
    0.00000E+00         0.00000E+00        -0.49767E+08
 
   -0.48664E+08         0.20415E+06         0.00000E+00
    0.20415E+06        -0.49986E+08         0.00000E+00
    0.00000E+00         0.00000E+00        -0.49767E+08
 
   -0.48678E+08         0.23000E+06         0.00000E+00
    0.23000E+06        -0.49982E+08         0.00000E+00
    0.00000E+00         0.00000E+00        -0.49767E+08
 
   -0.48694E+08         0.25550E+06         0.00000E+00
    0.25550E+06        -0.49978E+08         0.00000E+00
    0.00000E+00         0.00000E+00        -0.49767E+08
 
   -0.48710E+08         0.28065E+06         0.00000E+00
    0.28065E+06        -0.49973E+08         0.00000E+00
    0.00000E+00         0.00000E+00        -0.49767E+08
 
   -0.48727E+08         0.30546E+06         0.00000E+00
    0.30546E+06        -0.49968E+08         0.00000E+00
    0.00000E+00         0.00000E+00        -0.49767E+08
 
   -0.48744E+08         0.32990E+06         0.00000E+00
    0.32990E+06        -0.49963E+08         0.00000E+00
    0.00000E+00         0.00000E+00        -0.49767E+08
 
   -0.48762E+08         0.35397E+06         0.00000E+00
    0.35397E+06        -0.49957E+08         0.00000E+00
    0.00000E+00         0.00000E+00        -0.49767E+08
 
   -0.48781E+08         0.37766E+06         0.00000E+00
    0.37766E+06        -0.49950E+08         0.00000E+00
    0.00000E+00         0.00000E+00        -0.49767E+08
 
   -0.48800E+08         0.40098E+06         0.00000E+00
    0.40098E+06        -0.49944E+08         0.00000E+00
    0.00000E+00         0.00000E+00        -0.49767E+08
 
   -0.48820E+08         0.42391E+06         0.00000E+00
    0.42391E+06        -0.49936E+08         0.00000E+00
    0.00000E+00         0.00000E+00        -0.49767E+08
 
   -0.48841E+08         0.44645E+06         0.00000E+00
    0.44645E+06        -0.49929E+08         0.00000E+00
    0.00000E+00         0.00000E+00        -0.49767E+08
 
   -0.48862E+08         0.46859E+06         0.00000E+00
    0.46859E+06        -0.49921E+08         0.00000E+00
    0.00000E+00         0.00000E+00        -0.49767E+08
 
   -0.48884E+08         0.49032E+06         0.00000E+00
    0.49032E+06        -0.49912E+08         0.00000E+00
    0.00000E+00         0.00000E+00        -0.49767E+08
 
   -0.48906E+08         0.51165E+06         0.00000E+00
    0.51165E+06        -0.49904E+08         0.00000E+00
    0.00000E+00         0.00000E+00        -0.49767E+08
 
   -0.48929E+08         0.53256E+06         0.00000E+00
    0.53256E+06        -0.49895E+08         0.00000E+00
    0.00000E+00         0.00000E+00        -0.49767E+08
 
   -0.48952E+08         0.55305E+06         0.00000E+00
    0.55305E+06        -0.49885E+08         0.00000E+00
    0.00000E+00         0.00000E+00        -0.49767E+08
 
   -0.48976E+08         0.57311E+06         0.00000E+00
    0.57311E+06        -0.49875E+08         0.00000E+00
    0.00000E+00         0.00000E+00        -0.49767E+08
 
   -0.49001E+08         0.59274E+06         0.00000E+00
    0.59274E+06        -0.49865E+08         0.00000E+00
    0.00000E+00         0.00000E+00        -0.49767E+08
 
   -0.49026E+08         0.61194E+06         0.00000E+00
    0.61194E+06        -0.49855E+08         0.00000E+00
    0.00000E+00         0.00000E+00        -0.49767E+08
 
   -0.49051E+08         0.63069E+06         0.00000E+00
    0.63069E+06        -0.49844E+08         0.00000E+00
    0.00000E+00         0.00000E+00        -0.49767E+08
 
   -0.49077E+08         0.64900E+06         0.00000E+00
    0.64900E+06        -0.49833E+08         0.00000E+00
    0.00000E+00         0.00000E+00        -0.49767E+08
 
   -0.49103E+08         0.66686E+06         0.00000E+00
    0.66686E+06        -0.49821E+08         0.00000E+00
    0.00000E+00         0.00000E+00        -0.49767E+08
 
   -0.49130E+08         0.68426E+06         0.00000E+00
    0.68426E+06        -0.49809E+08         0.00000E+00
    0.00000E+00         0.00000E+00        -0.49767E+08
 
   -0.49158E+08         0.70121E+06         0.00000E+00
    0.70121E+06        -0.49797E+08         0.00000E+00
    0.00000E+00         0.00000E+00        -0.49767E+08
 
   -0.49185E+08         0.71769E+06         0.00000E+00
    0.71769E+06        -0.49785E+08         0.00000E+00
    0.00000E+00         0.00000E+00        -0.49767E+08
 
   -0.49214E+08         0.73370E+06         0.00000E+00
    0.73370E+06        -0.49772E+08         0.00000E+00
    0.00000E+00         0.00000E+00        -0.49767E+08
 
   -0.49242E+08         0.74924E+06         0.00000E+00
    0.74924E+06        -0.49759E+08         0.00000E+00
    0.00000E+00         0.00000E+00        -0.49767E+08
 
   -0.49271E+08         0.76430E+06         0.00000E+00
    0.76430E+06        -0.49746E+08         0.00000E+00
    0.00000E+00         0.00000E+00        -0.49767E+08
 
   -0.49301E+08         0.77888E+06         0.00000E+00
    0.77888E+06        -0.49732E+08         0.00000E+00
    0.00000E+00         0.00000E+00        -0.49767E+08
 
   -0.49331E+08         0.79297E+06         0.00000E+00
    0.79297E+06        -0.49718E+08         0.00000E+00
    0.00000E+00         0.00000E+00        -0.49767E+08
 
   -0.49361E+08         0.80657E+06         0.00000E+00
    0.80657E+06        -0.49704E+08         0.00000E+00
    0.00000E+00         0.00000E+00        -0.49767E+08
 
   -0.49391E+08         0.81968E+06         0.00000E+00
    0.81968E+06        -0.49689E+08         0.00000E+00
    0.00000E+00         0.00000E+00        -0.49767E+08
 
   -0.49422E+08         0.83228E+06         0.00000E+00
    0.83228E+06        -0.49675E+08         0.00000E+00
    0.00000E+00         0.00000E+00        -0.49767E+08
 
   -0.49454E+08         0.84439E+06         0.00000E+00
    0.84439E+06        -0.49660E+08         0.00000E+00
    0.00000E+00         0.00000E+00        -0.49767E+08
 
   -0.49485E+08         0.85598E+06         0.00000E+00
    0.85598E+06        -0.49645E+08         0.00000E+00
    0.00000E+00         0.00000E+00        -0.49767E+08
 
   -0.49517E+08         0.86707E+06         0.00000E+00
    0.86707E+06        -0.49629E+08         0.00000E+00
    0.00000E+00         0.00000E+00        -0.49767E+08
 
   -0.49550E+08         0.87764E+06         0.00000E+00
    0.87764E+06        -0.49613E+08         0.00000E+00
    0.00000E+00         0.00000E+00        -0.49767E+08
 
   -0.49582E+08         0.88769E+06         0.00000E+00
    0.88769E+06        -0.49598E+08         0.00000E+00
    0.00000E+00         0.00000E+00        -0.49767E+08
 
   -0.49615E+08         0.89722E+06         0.00000E+00
    0.89722E+06        -0.49581E+08         0.00000E+00
    0.00000E+00         0.00000E+00        -0.49767E+08
 
   -0.49648E+08         0.90621E+06         0.00000E+00
    0.90621E+06        -0.49565E+08         0.00000E+00
    0.00000E+00         0.00000E+00        -0.49767E+08
 
   -0.49682E+08         0.91468E+06         0.00000E+00
    0.91468E+06        -0.49549E+08         0.00000E+00
    0.00000E+00         0.00000E+00        -0.49767E+08
 
   -0.49716E+08         0.92261E+06         0.00000E+00
    0.92261E+06        -0.49532E+08         0.00000E+00
    0.00000E+00         0.00000E+00        -0.49767E+08
 
   -0.49750E+08         0.93000E+06         0.00000E+00
    0.93000E+06        -0.49515E+08         0.00000E+00
    0.00000E+00         0.00000E+00        -0.49767E+08
 
   -0.48434E+08         0.15712E+05         0.00000E+00
    0.15712E+05        -0.50000E+08         0.00000E+00
    0.00000E+00         0.00000E+00        -0.49730E+08
 
   -0.48445E+08         0.46291E+05         0.00000E+00
    0.46291E+05        -0.49999E+08         0.00000E+00
    0.00000E+00         0.00000E+00        -0.49730E+08
 
   -0.48457E+08         0.76550E+05         0.00000E+00
    0.76550E+05        -0.49998E+08         0.00000E+00
    0.00000E+00         0.00000E+00        -0.49730E+08
 
   -0.48470E+08         0.10648E+06         0.00000E+00
    0.10648E+06        -0.49997E+08         0.00000E+00
    0.00000E+00         0.00000E+00        -0.49730E+08
 
   -0.48483E+08         0.13607E+06         0.00000E+00
    0.13607E+06        -0.49995E+08         0.00000E+00
    0.00000E+00         0.00000E+00        -0.49730E+08
 
   -0.48497E+08         0.16532E+06         0.00000E+00
    0.16532E+06        -0.49992E+08         0.00000E+00
    0.00000E+00         0.00000E+00        -0.49730E+08
 
   -0.48512E+08         0.19422E+06         0.00000E+00
    0.19422E+06        -0.49989E+08         0.00000E+00
    0.00000E+00         0.00000E+00        -0.49730E+08
 
   -0.48528E+08         0.22275E+06         0.00000E+00
    0.22275E+06        -0.49985E+08         0.00000E+00
    0.00000E+00         0.00000E+00        -0.49730E+08
 
   -0.48544E+08         0.25092E+06         0.00000E+00
    0.25092E+06        -0.49981E+08         0.00000E+00
    0.00000E+00         0.00000E+00        -0.49730E+08
 
   -0.48562E+08         0.27871E+06         0.00000E+00
    0.27871E+06        -0.49977E+08         0.00000E+00
    0.00000E+00         0.00000E+00        -0.49730E+08
 
   -0.48579E+08         0.30612E+06         0.00000E+00
    0.30612E+06        -0.49972E+08         0.00000E+00
    0.00000E+00         0.00000E+00        -0.49730E+08
 
   -0.48598E+08         0.33314E+06         0.00000E+00
    0.33314E+06        -0.49966E+08         0.00000E+00
    0.00000E+00         0.00000E+00        -0.49730E+08
 
   -0.48617E+08         0.35977E+06         0.00000E+00
    0.35977E+06        -0.49960E+08         0.00000E+00
    0.00000E+00         0.00000E+00        -0.49730E+08
 
   -0.48638E+08         0.38599E+06         0.00000E+00
    0.38599E+06        -0.49954E+08         0.00000E+00
    0.00000E+00         0.00000E+00        -0.49730E+08
 
   -0.48658E+08         0.41181E+06         0.00000E+00
    0.41181E+06        -0.49947E+08         0.00000E+00
    0.00000E+00         0.00000E+00        -0.49730E+08
 
   -0.48680E+08         0.43721E+06         0.00000E+00
    0.43721E+06        -0.49940E+08         0.00000E+00
    0.00000E+00         0.00000E+00        -0.49730E+08
 
   -0.48702E+08         0.46219E+06         0.00000E+00
    0.46219E+06        -0.49932E+08         0.00000E+00
    0.00000E+00         0.00000E+00        -0.49730E+08
 
   -0.48724E+08         0.48675E+06         0.00000E+00
    0.48675E+06        -0.49924E+08         0.00000E+00
    0.00000E+00         0.00000E+00        -0.49730E+08
 
   -0.48747E+08         0.51088E+06         0.00000E+00
    0.51088E+06        -0.49915E+08         0.00000E+00
    0.00000E+00         0.00000E+00        -0.49730E+08
 
   -0.48771E+08         0.53457E+06         0.00000E+00
    0.53457E+06        -0.49906E+08         0.00000E+00
    0.00000E+00         0.00000E+00        -0.49730E+08
 
   -0.48796E+08         0.55782E+06         0.00000E+00
    0.55782E+06        -0.49897E+08         0.00000E+00
    0.00000E+00         0.00000E+00        -0.49730E+08
 
   -0.48821E+08         0.58062E+06         0.00000E+00
    0.58062E+06        -0.49887E+08         0.00000E+00
    0.00000E+00         0.00000E+00        -0.49730E+08
 
   -0.48846E+08         0.60297E+06         0.00000E+00
    0.60297E+06        -0.49877E+08         0.00000E+00
    0.00000E+00         0.00000E+00        -0.49730E+08
 
   -0.48872E+08         0.62486E+06         0.00000E+00
    0.62486E+06        -0.49866E+08         0.00000E+00
    0.00000E+00         0.00000E+00        -0.49730E+08
 
   -0.48899E+08         0.64629E+06         0.00000E+00
    0.64629E+06        -0.49856E+08         0.00000E+00
    0.00000E+00         0.00000E+00        -0.49730E+08
 
   -0.48926E+08         0.66725E+06         0.00000E+00
    0.66725E+06        -0.49844E+08         0.00000E+00
    0.00000E+00         0.00000E+00        -0.49730E+08
 
   -0.48954E+08         0.68775E+06         0.00000E+00
    0.68775E+06        -0.49833E+08         0.00000E+00
    0.00000E+00         0.00000E+00        -0.49730E+08
 
   -0.48982E+08         0.70776E+06         0.00000E+00
    0.70776E+06        -0.49821E+08         0.00000E+00
    0.00000E+00         0.00000E+00        -0.49730E+08
 
   -0.49011E+08         0.72730E+06         0.00000E+00
    0.72730E+06        -0.49808E+08         0.00000E+00
    0.00000E+00         0.00000E+00        -0.49730E+08
 
   -0.49040E+08         0.74635E+06         0.00000E+00
    0.74635E+06        -0.49796E+08         0.00000E+00
    0.00000E+00         0.00000E+00        -0.49730E+08
 
   -0.49070E+08         0.76491E+06         0.00000E+00
    0.76491E+06        -0.49783E+08         0.00000E+00
    0.00000E+00         0.00000E+00        -0.49730E+08
 
   -0.49100E+08         0.78298E+06         0.00000E+00
    0.78298E+06        -0.49769E+08         0.00000E+00
    0.00000E+00         0.00000E+00        -0.49730E+08
 
   -0.49131E+08         0.80055E+06         0.00000E+00
    0.80055E+06        -0.49756E+08         0.00000E+00
    0.00000E+00         0.00000E+00        -0.49730E+08
 
   -0.49162E+08         0.81761E+06         0.00000E+00
    0.81761E+06        -0.49742E+08         0.00000E+00
    0.00000E+00         0.00000E+00        -0.49730E+08
 
   -0.49193E+08         0.83417E+06         0.00000E+00
    0.83417E+06        -0.49727E+08         0.00000E+00
    0.00000E+00         0.00000E+00        -0.49730E+08
 
   -0.49225E+08         0.85022E+06         0.00000E+00
    0.85022E+06        -0.49713E+08         0.00000E+00
    0.00000E+00         0.00000E+00        -0.49730E+08
 
   -0.49258E+08         0.86575E+06         0.00000E+00
    0.86575E+06        -0.49698E+08         0.00000E+00
    0.00000E+00         0.00000E+00        -0.49730E+08
 
   -0.49291E+08         0.88077E+06         0.00000E+00
    0.88077E+06        -0.49682E+08         0.00000E+00
    0.00000E+00         0.00000E+00        -0.49730E+08
 
   -0.49324E+08         0.89525E+06         0.00000E+00
    0.89525E+06        -0.49667E+08         0.00000E+00
    0.00000E+00         0.00000E+00        -0.49730E+08
 
   -0.49357E+08         0.90921E+06         0.00000E+00
    0.90921E+06        -0.49651E+08         0.00000E+00
    0.00000E+00         0.00000E+00        -0.49730E+08
 
   -0.49391E+08         0.92264E+06         0.00000E+00
    0.92264E+06        -0.49635E+08         0.00000E+00
    0.00000E+00         0.00000E+00        -0.49730E+08
 
   -0.49425E+08         0.93553E+06         0.00000E+00
    0.93553E+06        -0.49619E+08         0.00000E+00
    0.00000E+00         0.00000E+00        -0.49730E+08
 
   -0.49460E+08         0.94788E+06         0.00000E+00
    0.94788E+06        -0.49602E+08         0.00000E+00
    0.00000E+00         0.00000E+00        -0.49730E+08
 
   -0.49495E+08         0.95968E+06         0.00000E+00
    0.95968E+06        -0.49585E+08         0.00000E+00
    0.00000E+00         0.00000E+00        -0.49730E+08
 
   -0.49530E+08         0.97094E+06         0.00000E+00
    0.97094E+06        -0.49568E+08         0.00000E+00
    0.00000E+00         0.00000E+00        -0.49730E+08
 
   -0.49566E+08         0.98164E+06         0.00000E+00
    0.98164E+06        -0.49551E+08         0.00000E+00
    0.00000E+00         0.00000E+00        -0.49730E+08
 
   -0.49602E+08         0.99178E+06         0.00000E+00
    0.99178E+06        -0.49533E+08         0.00000E+00
    0.00000E+00         0.00000E+00        -0.49730E+08
 
   -0.49638E+08         0.10014E+07         0.00000E+00
    0.10014E+07        -0.49515E+08         0.00000E+00
    0.00000E+00         0.00000E+00        -0.49730E+08
 
   -0.49675E+08         0.10104E+07         0.00000E+00
    0.10104E+07        -0.49497E+08         0.00000E+00
    0.00000E+00         0.00000E+00        -0.49730E+08
 
   -0.49712E+08         0.10188E+07         0.00000E+00
    0.10188E+07        -0.49479E+08         0.00000E+00
    0.00000E+00         0.00000E+00        -0.49730E+08
 
   -0.48274E+08         0.17146E+05         0.00000E+00
    0.17146E+05        -0.50000E+08         0.00000E+00
    0.00000E+00         0.00000E+00        -0.49688E+08
 
   -0.48286E+08         0.50481E+05         0.00000E+00
    0.50481E+05        -0.49999E+08         0.00000E+00
    0.00000E+00         0.00000E+00        -0.49688E+08
 
   -0.48300E+08         0.83455E+05         0.00000E+00
    0.83455E+05        -0.49998E+08         0.00000E+00
    0.00000E+00         0.00000E+00        -0.49688E+08
 
   -0.48314E+08         0.11606E+06         0.00000E+00
    0.11606E+06        -0.49996E+08         0.00000E+00
    0.00000E+00         0.00000E+00        -0.49688E+08
 
   -0.48329E+08         0.14829E+06         0.00000E+00
    0.14829E+06        -0.49994E+08         0.00000E+00
    0.00000E+00         0.00000E+00        -0.49688E+08
 
   -0.48345E+08         0.18014E+06         0.00000E+00
    0.18014E+06        -0.49991E+08         0.00000E+00
    0.00000E+00         0.00000E+00        -0.49688E+08
 
   -0.48362E+08         0.21159E+06         0.00000E+00
    0.21159E+06        -0.49988E+08         0.00000E+00
    0.00000E+00         0.00000E+00        -0.49688E+08
 
   -0.48380E+08         0.24265E+06         0.00000E+00
    0.24265E+06        -0.49984E+08         0.00000E+00
    0.00000E+00         0.00000E+00        -0.49688E+08
 
   -0.48398E+08         0.27330E+06         0.00000E+00
    0.27330E+06        -0.49980E+08         0.00000E+00
    0.00000E+00         0.00000E+00        -0.49688E+08
 
   -0.48418E+08         0.30354E+06         0.00000E+00
    0.30354E+06        -0.49975E+08         0.00000E+00
    0.00000E+00         0.00000E+00        -0.49688E+08
 
   -0.48437E+08         0.33335E+06         0.00000E+00
    0.33335E+06        -0.49970E+08         0.00000E+00
    0.00000E+00         0.00000E+00        -0.49688E+08
 
   -0.48458E+08         0.36275E+06         0.00000E+00
    0.36275E+06        -0.49964E+08         0.00000E+00
    0.00000E+00         0.00000E+00        -0.49688E+08
 
   -0.48480E+08         0.39171E+06         0.00000E+00
    0.39171E+06        -0.49957E+08         0.00000E+00
    0.00000E+00         0.00000E+00        -0.49688E+08
 
   -0.48502E+08         0.42024E+06         0.00000E+00
    0.42024E+06        -0.49951E+08         0.00000E+00
    0.00000E+00         0.00000E+00        -0.49688E+08
 
   -0.48525E+08         0.44832E+06         0.00000E+00
    0.44832E+06        -0.49943E+08         0.00000E+00
    0.00000E+00         0.00000E+00        -0.49688E+08
 
   -0.48548E+08         0.47595E+06         0.00000E+00
    0.47595E+06        -0.49935E+08         0.00000E+00
    0.00000E+00         0.00000E+00        -0.49688E+08
 
   -0.48572E+08         0.50313E+06         0.00000E+00
    0.50313E+06        -0.49927E+08         0.00000E+00
    0.00000E+00         0.00000E+00        -0.49688E+08
 
   -0.48597E+08         0.52985E+06         0.00000E+00
    0.52985E+06        -0.49919E+08         0.00000E+00
    0.00000E+00         0.00000E+00        -0.49688E+08
 
   -0.48623E+08         0.55611E+06         0.00000E+00
    0.55611E+06        -0.49909E+08         0.00000E+00
    0.00000E+00         0.00000E+00        -0.49688E+08
 
   -0.48649E+08         0.58189E+06         0.00000E+00
    0.58189E+06        -0.49900E+08         0.00000E+00
    0.00000E+00         0.00000E+00        -0.49688E+08
 
   -0.48675E+08         0.60720E+06         0.00000E+00
    0.60720E+06        -0.49890E+08         0.00000E+00
    0.00000E+00         0.00000E+00        -0.49688E+08
 
   -0.48703E+08         0.63204E+06         0.00000E+00
    0.63204E+06        -0.49879E+08         0.00000E+00
    0.00000E+00         0.00000E+00        -0.49688E+08
 
   -0.48731E+08         0.65638E+06         0.00000E+00
    0.65638E+06        -0.49869E+08         0.00000E+00
    0.00000E+00         0.00000E+00        -0.49688E+08
 
   -0.48759E+08         0.68024E+06         0.00000E+00
    0.68024E+06        -0.49857E+08         0.00000E+00
    0.00000E+00         0.00000E+00        -0.49688E+08
 
   -0.48788E+08         0.70361E+06         0.00000E+00
    0.70361E+06        -0.49846E+08         0.00000E+00
    0.00000E+00         0.00000E+00        -0.49688E+08
 
   -0.48818E+08         0.72647E+06         0.00000E+00
    0.72647E+06        -0.49834E+08         0.00000E+00
    0.00000E+00         0.00000E+00        -0.49688E+08
 
   -0.48848E+08         0.74884E+06         0.00000E+00
    0.74884E+06        -0.49821E+08         0.00000E+00
    0.00000E+00         0.00000E+00        -0.49688E+08
 
   -0.48879E+08         0.77070E+06         0.00000E+00
    0.77070E+06        -0.49808E+08         0.00000E+00
    0.00000E+00         0.00000E+00        -0.49688E+08
 
   -0.48910E+08         0.79204E+06         0.00000E+00
    0.79204E+06        -0.49795E+08         0.00000E+00
    0.00000E+00         0.00000E+00        -0.49688E+08
 
   -0.48942E+08         0.81288E+06         0.00000E+00
    0.81288E+06        -0.49782E+08         0.00000E+00
    0.00000E+00         0.00000E+00        -0.49688E+08
 
   -0.48974E+08         0.83319E+06         0.00000E+00
    0.83319E+06        -0.49768E+08         0.00000E+00
    0.00000E+00         0.00000E+00        -0.49688E+08
 
   -0.49007E+08         0.85298E+06         0.00000E+00
    0.85298E+06        -0.49753E+08         0.00000E+00
    0.00000E+00         0.00000E+00        -0.49688E+08
 
   -0.49040E+08         0.87224E+06         0.00000E+00
    0.87224E+06        -0.49739E+08         0.00000E+00
    0.00000E+00         0.00000E+00        -0.49688E+08
 
   -0.49074E+08         0.89097E+06         0.00000E+00
    0.89097E+06        -0.49724E+08         0.00000E+00
    0.00000E+00         0.00000E+00        -0.49688E+08
 
   -0.49108E+08         0.90916E+06         0.00000E+00
    0.90916E+06        -0.49708E+08         0.00000E+00
    0.00000E+00         0.00000E+00        -0.49688E+08
 
   -0.49143E+08         0.92681E+06         0.00000E+00
    0.92681E+06        -0.49693E+08         0.00000E+00
    0.00000E+00         0.00000E+00        -0.49688E+08
 
   -0.49178E+08         0.94391E+06         0.00000E+00
    0.94391E+06        -0.49677E+08         0.00000E+00
    0.00000E+00         0.00000E+00        -0.49688E+08
 
   -0.49213E+08         0.96047E+06         0.00000E+00
    0.96047E+06        -0.49660E+08         0.00000E+00
    0.00000E+00         0.00000E+00        -0.49688E+08
 
   -0.49249E+08         0.97648E+06         0.00000E+00
    0.97648E+06        -0.49644E+08         0.00000E+00
    0.00000E+00         0.00000E+00        -0.49688E+08
 
   -0.49285E+08         0.99192E+06         0.00000E+00
    0.99192E+06        -0.49627E+08         0.00000E+00
    0.00000E+00         0.00000E+00        -0.49688E+08
 
   -0.49322E+08         0.10068E+07         0.00000E+00
    0.10068E+07        -0.49609E+08         0.00000E+00
    0.00000E+00         0.00000E+00        -0.49688E+08
 
   -0.49359E+08         0.10211E+07         0.00000E+00
    0.10211E+07        -0.49592E+08         0.00000E+00
    0.00000E+00         0.00000E+00        -0.49688E+08
 
   -0.49396E+08         0.10349E+07         0.00000E+00
    0.10349E+07        -0.49574E+08         0.00000E+00
    0.00000E+00         0.00000E+00        -0.49688E+08
 
   -0.49434E+08         0.10480E+07         0.00000E+00
    0.10480E+07        -0.49556E+08         0.00000E+00
    0.00000E+00         0.00000E+00        -0.49688E+08
 
   -0.49472E+08         0.10606E+07         0.00000E+00
    0.10606E+07        -0.49537E+08         0.00000E+00
    0.00000E+00         0.00000E+00        -0.49688E+08
 
   -0.49511E+08         0.10727E+07         0.00000E+00
    0.10727E+07        -0.49519E+08         0.00000E+00
    0.00000E+00         0.00000E+00        -0.49688E+08
 
   -0.49550E+08         0.10841E+07         0.00000E+00
    0.10841E+07        -0.49500E+08         0.00000E+00
    0.00000E+00         0.00000E+00        -0.49688E+08
 
   -0.49589E+08         0.10949E+07         0.00000E+00
    0.10949E+07        -0.49480E+08         0.00000E+00
    0.00000E+00         0.00000E+00        -0.49688E+08
 
   -0.49628E+08         0.11051E+07         0.00000E+00
    0.11051E+07        -0.49461E+08         0.00000E+00
    0.00000E+00         0.00000E+00        -0.49688E+08
 
   -0.49668E+08         0.11148E+07         0.00000E+00
    0.11148E+07        -0.49441E+08         0.00000E+00
    0.00000E+00         0.00000E+00        -0.49688E+08
 
   -0.48099E+08         0.18678E+05         0.00000E+00
    0.18678E+05        -0.50000E+08         0.00000E+00
    0.00000E+00         0.00000E+00        -0.49640E+08
 
   -0.48113E+08         0.54953E+05         0.00000E+00
    0.54953E+05        -0.49999E+08         0.00000E+00
    0.00000E+00         0.00000E+00        -0.49640E+08
 
   -0.48129E+08         0.90825E+05         0.00000E+00
    0.90825E+05        -0.49998E+08         0.00000E+00
    0.00000E+00         0.00000E+00        -0.49640E+08
 
   -0.48145E+08         0.12629E+06         0.00000E+00
    0.12629E+06        -0.49996E+08         0.00000E+00
    0.00000E+00         0.00000E+00        -0.49640E+08
 
   -0.48162E+08         0.16133E+06         0.00000E+00
    0.16133E+06        -0.49994E+08         0.00000E+00
    0.00000E+00         0.00000E+00        -0.49640E+08
 
   -0.48180E+08         0.19594E+06         0.00000E+00
    0.19594E+06        -0.49991E+08         0.00000E+00
    0.00000E+00         0.00000E+00        -0.49640E+08
 
   -0.48199E+08         0.23012E+06         0.00000E+00
    0.23012E+06        -0.49987E+08         0.00000E+00
    0.00000E+00         0.00000E+00        -0.49640E+08
 
   -0.48219E+08         0.26387E+06         0.00000E+00
    0.26387E+06        -0.49983E+08         0.00000E+00
    0.00000E+00         0.00000E+00        -0.49640E+08
 
   -0.48240E+08         0.29716E+06         0.00000E+00
    0.29716E+06        -0.49979E+08         0.00000E+00
    0.00000E+00         0.00000E+00        -0.49640E+08
 
   -0.48261E+08         0.33001E+06         0.00000E+00
    0.33001E+06        -0.49973E+08         0.00000E+00
    0.00000E+00         0.00000E+00        -0.49640E+08
 
   -0.48283E+08         0.36239E+06         0.00000E+00
    0.36239E+06        -0.49968E+08         0.00000E+00
    0.00000E+00         0.00000E+00        -0.49640E+08
 
   -0.48306E+08         0.39432E+06         0.00000E+00
    0.39432E+06        -0.49961E+08         0.00000E+00
    0.00000E+00         0.00000E+00        -0.49640E+08
 
   -0.48330E+08         0.42577E+06         0.00000E+00
    0.42577E+06        -0.49955E+08         0.00000E+00
    0.00000E+00         0.00000E+00        -0.49640E+08
 
   -0.48354E+08         0.45675E+06         0.00000E+00
    0.45675E+06        -0.49947E+08         0.00000E+00
    0.00000E+00         0.00000E+00        -0.49640E+08
 
   -0.48379E+08         0.48725E+06         0.00000E+00
    0.48725E+06        -0.49940E+08         0.00000E+00
    0.00000E+00         0.00000E+00        -0.49640E+08
 
   -0.48405E+08         0.51726E+06         0.00000E+00
    0.51726E+06        -0.49931E+08         0.00000E+00
    0.00000E+00         0.00000E+00        -0.49640E+08
 
   -0.48432E+08         0.54679E+06         0.00000E+00
    0.54679E+06        -0.49922E+08         0.00000E+00
    0.00000E+00         0.00000E+00        -0.49640E+08
 
   -0.48459E+08         0.57582E+06         0.00000E+00
    0.57582E+06        -0.49913E+08         0.00000E+00
    0.00000E+00         0.00000E+00        -0.49640E+08
 
   -0.48487E+08         0.60435E+06         0.00000E+00
    0.60435E+06        -0.49904E+08         0.00000E+00
    0.00000E+00         0.00000E+00        -0.49640E+08
 
   -0.48515E+08         0.63237E+06         0.00000E+00
    0.63237E+06        -0.49893E+08         0.00000E+00
    0.00000E+00         0.00000E+00        -0.49640E+08
 
   -0.48545E+08         0.65989E+06         0.00000E+00
    0.65989E+06        -0.49883E+08         0.00000E+00
    0.00000E+00         0.00000E+00        -0.49640E+08
 
   -0.48574E+08         0.68689E+06         0.00000E+00
    0.68689E+06        -0.49872E+08         0.00000E+00
    0.00000E+00         0.00000E+00        -0.49640E+08
 
   -0.48605E+08         0.71338E+06         0.00000E+00
    0.71338E+06        -0.49860E+08         0.00000E+00
    0.00000E+00         0.00000E+00        -0.49640E+08
 
   -0.48636E+08         0.73935E+06         0.00000E+00
    0.73935E+06        -0.49848E+08         0.00000E+00
    0.00000E+00         0.00000E+00        -0.49640E+08
 
   -0.48668E+08         0.76479E+06         0.00000E+00
    0.76479E+06        -0.49836E+08         0.00000E+00
    0.00000E+00         0.00000E+00        -0.49640E+08
 
   -0.48700E+08         0.78970E+06         0.00000E+00
    0.78970E+06        -0.49823E+08         0.00000E+00
    0.00000E+00         0.00000E+00        -0.49640E+08
 
   -0.48733E+08         0.81408E+06         0.00000E+00
    0.81408E+06        -0.49810E+08         0.00000E+00
    0.00000E+00         0.00000E+00        -0.49640E+08
 
   -0.48766E+08         0.83792E+06         0.00000E+00
    0.83792E+06        -0.49796E+08         0.00000E+00
    0.00000E+00         0.00000E+00        -0.49640E+08
 
   -0.48800E+08         0.86122E+06         0.00000E+00
    0.86122E+06        -0.49782E+08         0.00000E+00
    0.00000E+00         0.00000E+00        -0.49640E+08
 
   -0.48834E+08         0.88398E+06         0.00000E+00
    0.88398E+06        -0.49767E+08         0.00000E+00
    0.00000E+00         0.00000E+00        -0.49640E+08
 
   -0.48869E+08         0.90618E+06         0.00000E+00
    0.90618E+06        -0.49752E+08         0.00000E+00
    0.00000E+00         0.00000E+00        -0.49640E+08
 
   -0.48905E+08         0.92783E+06         0.00000E+00
    0.92783E+06        -0.49737E+08         0.00000E+00
    0.00000E+00         0.00000E+00        -0.49640E+08
 
   -0.48941E+08         0.94893E+06         0.00000E+00
    0.94893E+06        -0.49722E+08         0.00000E+00
    0.00000E+00         0.00000E+00        -0.49640E+08
 
   -0.48977E+08         0.96946E+06         0.00000E+00
    0.96946E+06        -0.49705E+08         0.00000E+00
    0.00000E+00         0.00000E+00        -0.49640E+08
 
   -0.49014E+08         0.98943E+06         0.00000E+00
    0.98943E+06        -0.49689E+08         0.00000E+00
    0.00000E+00         0.00000E+00        -0.49640E+08
 
   -0.49051E+08         0.10088E+07         0.00000E+00
    0.10088E+07        -0.49672E+08         0.00000E+00
    0.00000E+00         0.00000E+00        -0.49640E+08
 
   -0.49089E+08         0.10277E+07         0.00000E+00
    0.10277E+07        -0.49655E+08         0.00000E+00
    0.00000E+00         0.00000E+00        -0.49640E+08
 
   -0.49127E+08         0.10459E+07         0.00000E+00
    0.10459E+07        -0.49638E+08         0.00000E+00
    0.00000E+00         0.00000E+00        -0.49640E+08
 
   -0.49166E+08         0.10636E+07         0.00000E+00
    0.10636E+07        -0.49620E+08         0.00000E+00
    0.00000E+00         0.00000E+00        -0.49640E+08
 
   -0.49205E+08         0.10806E+07         0.00000E+00
    0.10806E+07        -0.49602E+08         0.00000E+00
    0.00000E+00         0.00000E+00        -0.49640E+08
 
   -0.49245E+08         0.10971E+07         0.00000E+00
    0.10971E+07        -0.49583E+08         0.00000E+00
    0.00000E+00         0.00000E+00        -0.49640E+08
 
   -0.49285E+08         0.11130E+07         0.00000E+00
    0.11130E+07        -0.49564E+08         0.00000E+00
    0.00000E+00         0.00000E+00        -0.49640E+08
 
   -0.49325E+08         0.11283E+07         0.00000E+00
    0.11283E+07        -0.49545E+08         0.00000E+00
    0.00000E+00         0.00000E+00        -0.49640E+08
 
   -0.49366E+08         0.11430E+07         0.00000E+00
    0.11430E+07        -0.49526E+08         0.00000E+00
    0.00000E+00         0.00000E+00        -0.49640E+08
 
   -0.49407E+08         0.11571E+07         0.00000E+00
    0.11571E+07        -0.49506E+08         0.00000E+00
    0.00000E+00         0.00000E+00        -0.49640E+08
 
   -0.49449E+08         0.11706E+07         0.00000E+00
    0.11706E+07        -0.49486E+08         0.00000E+00
    0.00000E+00         0.00000E+00        -0.49640E+08
 
   -0.49490E+08         0.11834E+07         0.00000E+00
    0.11834E+07        -0.49465E+08         0.00000E+00
    0.00000E+00         0.00000E+00        -0.49640E+08
 
   -0.49533E+08         0.11957E+07         0.00000E+00
    0.11957E+07        -0.49444E+08         0.00000E+00
    0.00000E+00         0.00000E+00        -0.49640E+08
 
   -0.49575E+08         0.12073E+07         0.00000E+00
    0.12073E+07        -0.49423E+08         0.00000E+00
    0.00000E+00         0.00000E+00        -0.49640E+08
 
   -0.49618E+08         0.12183E+07         0.00000E+00
    0.12183E+07        -0.49402E+08         0.00000E+00
    0.00000E+00         0.00000E+00        -0.49640E+08
 
   -0.47909E+08         0.20309E+05         0.00000E+00
    0.20309E+05        -0.50000E+08         0.00000E+00
    0.00000E+00         0.00000E+00        -0.49584E+08
 
   -0.47925E+08         0.59713E+05         0.00000E+00
    0.59713E+05        -0.49999E+08         0.00000E+00
    0.00000E+00         0.00000E+00        -0.49584E+08
 
   -0.47943E+08         0.98666E+05         0.00000E+00
    0.98666E+05        -0.49998E+08         0.00000E+00
    0.00000E+00         0.00000E+00        -0.49584E+08
 
   -0.47961E+08         0.13716E+06         0.00000E+00
    0.13716E+06        -0.49996E+08         0.00000E+00
    0.00000E+00         0.00000E+00        -0.49584E+08
 
   -0.47981E+08         0.17519E+06         0.00000E+00
    0.17519E+06        -0.49993E+08         0.00000E+00
    0.00000E+00         0.00000E+00        -0.49584E+08
 
   -0.48001E+08         0.21275E+06         0.00000E+00
    0.21275E+06        -0.49990E+08         0.00000E+00
    0.00000E+00         0.00000E+00        -0.49584E+08
 
   -0.48022E+08         0.24983E+06         0.00000E+00
    0.24983E+06        -0.49986E+08         0.00000E+00
    0.00000E+00         0.00000E+00        -0.49584E+08
 
   -0.48044E+08         0.28643E+06         0.00000E+00
    0.28643E+06        -0.49982E+08         0.00000E+00
    0.00000E+00         0.00000E+00        -0.49584E+08
 
   -0.48067E+08         0.32253E+06         0.00000E+00
    0.32253E+06        -0.49977E+08         0.00000E+00
    0.00000E+00         0.00000E+00        -0.49584E+08
 
   -0.48091E+08         0.35815E+06         0.00000E+00
    0.35815E+06        -0.49972E+08         0.00000E+00
    0.00000E+00         0.00000E+00        -0.49584E+08
 
   -0.48116E+08         0.39326E+06         0.00000E+00
    0.39326E+06        -0.49966E+08         0.00000E+00
    0.00000E+00         0.00000E+00        -0.49584E+08
 
   -0.48141E+08         0.42787E+06         0.00000E+00
    0.42787E+06        -0.49959E+08         0.00000E+00
    0.00000E+00         0.00000E+00        -0.49584E+08
 
   -0.48167E+08         0.46197E+06         0.00000E+00
    0.46197E+06        -0.49952E+08         0.00000E+00
    0.00000E+00         0.00000E+00        -0.49584E+08
 
   -0.48194E+08         0.49556E+06         0.00000E+00
    0.49556E+06        -0.49944E+08         0.00000E+00
    0.00000E+00         0.00000E+00        -0.49584E+08
 
   -0.48222E+08         0.52863E+06         0.00000E+00
    0.52863E+06        -0.49936E+08         0.00000E+00
    0.00000E+00         0.00000E+00        -0.49584E+08
 
   -0.48250E+08         0.56118E+06         0.00000E+00
    0.56118E+06        -0.49927E+08         0.00000E+00
    0.00000E+00         0.00000E+00        -0.49584E+08
 
   -0.48279E+08         0.59320E+06         0.00000E+00
    0.59320E+06        -0.49918E+08         0.00000E+00
    0.00000E+00         0.00000E+00        -0.49584E+08
 
   -0.48309E+08         0.62469E+06         0.00000E+00
    0.62469E+06        -0.49908E+08         0.00000E+00
    0.00000E+00         0.00000E+00        -0.49584E+08
 
   -0.48339E+08         0.65564E+06         0.00000E+00
    0.65564E+06        -0.49898E+08         0.00000E+00
    0.00000E+00         0.00000E+00        -0.49584E+08
 
   -0.48371E+08         0.68605E+06         0.00000E+00
    0.68605E+06        -0.49887E+08         0.00000E+00
    0.00000E+00         0.00000E+00        -0.49584E+08
 
   -0.48403E+08         0.71593E+06         0.00000E+00
    0.71593E+06        -0.49875E+08         0.00000E+00
    0.00000E+00         0.00000E+00        -0.49584E+08
 
   -0.48435E+08         0.74525E+06         0.00000E+00
    0.74525E+06        -0.49864E+08         0.00000E+00
    0.00000E+00         0.00000E+00        -0.49584E+08
 
   -0.48468E+08         0.77403E+06         0.00000E+00
    0.77403E+06        -0.49851E+08         0.00000E+00
    0.00000E+00         0.00000E+00        -0.49584E+08
 
   -0.48502E+08         0.80225E+06         0.00000E+00
    0.80225E+06        -0.49839E+08         0.00000E+00
    0.00000E+00         0.00000E+00        -0.49584E+08
 
   -0.48536E+08         0.82992E+06         0.00000E+00
    0.82992E+06        -0.49826E+08         0.00000E+00
    0.00000E+00         0.00000E+00        -0.49584E+08
 
   -0.48571E+08         0.85702E+06         0.00000E+00
    0.85702E+06        -0.49812E+08         0.00000E+00
    0.00000E+00         0.00000E+00        -0.49584E+08
 
   -0.48607E+08         0.88356E+06         0.00000E+00
    0.88356E+06        -0.49798E+08         0.00000E+00
    0.00000E+00         0.00000E+00        -0.49584E+08
 
   -0.48643E+08         0.90953E+06         0.00000E+00
    0.90953E+06        -0.49783E+08         0.00000E+00
    0.00000E+00         0.00000E+00        -0.49584E+08
 
   -0.48680E+08         0.93494E+06         0.00000E+00
    0.93494E+06        -0.49768E+08         0.00000E+00
    0.00000E+00         0.00000E+00        -0.49584E+08
 
   -0.48717E+08         0.95976E+06         0.00000E+00
    0.95976E+06        -0.49753E+08         0.00000E+00
    0.00000E+00         0.00000E+00        -0.49584E+08
 
   -0.48755E+08         0.98401E+06         0.00000E+00
    0.98401E+06        -0.49737E+08         0.00000E+00
    0.00000E+00         0.00000E+00        -0.49584E+08
 
   -0.48793E+08         0.10077E+07         0.00000E+00
    0.10077E+07        -0.49721E+08         0.00000E+00
    0.00000E+00         0.00000E+00        -0.49584E+08
 
   -0.48832E+08         0.10308E+07         0.00000E+00
    0.10308E+07        -0.49704E+08         0.00000E+00
    0.00000E+00         0.00000E+00        -0.49584E+08
 
   -0.48871E+08         0.10532E+07         0.00000E+00
    0.10532E+07        -0.49687E+08         0.00000E+00
    0.00000E+00         0.00000E+00        -0.49584E+08
 
   -0.48911E+08         0.10751E+07         0.00000E+00
    0.10751E+07        -0.49669E+08         0.00000E+00
    0.00000E+00         0.00000E+00        -0.49584E+08
 
   -0.48951E+08         0.10964E+07         0.00000E+00
    0.10964E+07        -0.49652E+08         0.00000E+00
    0.00000E+00         0.00000E+00        -0.49584E+08
 
   -0.48992E+08         0.11171E+07         0.00000E+00
    0.11171E+07        -0.49633E+08         0.00000E+00
    0.00000E+00         0.00000E+00        -0.49584E+08
 
   -0.49033E+08         0.11372E+07         0.00000E+00
    0.11372E+07        -0.49615E+08         0.00000E+00
    0.00000E+00         0.00000E+00        -0.49584E+08
 
   -0.49075E+08         0.11567E+07         0.00000E+00
    0.11567E+07        -0.49596E+08         0.00000E+00
    0.00000E+00         0.00000E+00        -0.49584E+08
 
   -0.49117E+08         0.11756E+07         0.00000E+00
    0.11756E+07        -0.49576E+08         0.00000E+00
    0.00000E+00         0.00000E+00        -0.49584E+08
 
   -0.49159E+08         0.11938E+07         0.00000E+00
    0.11938E+07        -0.49556E+08         0.00000E+00
    0.00000E+00         0.00000E+00        -0.49584E+08
 
   -0.49202E+08         0.12115E+07         0.00000E+00
    0.12115E+07        -0.49536E+08         0.00000E+00
    0.00000E+00         0.00000E+00        -0.49584E+08
 
   -0.49246E+08         0.12285E+07         0.00000E+00
    0.12285E+07        -0.49516E+08         0.00000E+00
    0.00000E+00         0.00000E+00        -0.49584E+08
 
   -0.49290E+08         0.12449E+07         0.00000E+00
    0.12449E+07        -0.49495E+08         0.00000E+00
    0.00000E+00         0.00000E+00        -0.49584E+08
 
   -0.49334E+08         0.12606E+07         0.00000E+00
    0.12606E+07        -0.49473E+08         0.00000E+00
    0.00000E+00         0.00000E+00        -0.49584E+08
 
   -0.49379E+08         0.12757E+07         0.00000E+00
    0.12757E+07        -0.49452E+08         0.00000E+00
    0.00000E+00         0.00000E+00        -0.49584E+08
 
   -0.49424E+08         0.12902E+07         0.00000E+00
    0.12902E+07        -0.49430E+08         0.00000E+00
    0.00000E+00         0.00000E+00        -0.49584E+08
 
   -0.49469E+08         0.13040E+07         0.00000E+00
    0.13040E+07        -0.49408E+08         0.00000E+00
    0.00000E+00         0.00000E+00        -0.49584E+08
 
   -0.49515E+08         0.13171E+07         0.00000E+00
    0.13171E+07        -0.49385E+08         0.00000E+00
    0.00000E+00         0.00000E+00        -0.49584E+08
 
   -0.49561E+08         0.13296E+07         0.00000E+00
    0.13296E+07        -0.49362E+08         0.00000E+00
    0.00000E+00         0.00000E+00        -0.49584E+08
 
   -0.47702E+08         0.22040E+05         0.00000E+00
    0.22040E+05        -0.50000E+08         0.00000E+00
    0.00000E+00         0.00000E+00        -0.49521E+08
 
   -0.47721E+08         0.64760E+05         0.00000E+00
    0.64760E+05        -0.49999E+08         0.00000E+00
    0.00000E+00         0.00000E+00        -0.49521E+08
 
   -0.47741E+08         0.10698E+06         0.00000E+00
    0.10698E+06        -0.49998E+08         0.00000E+00
    0.00000E+00         0.00000E+00        -0.49521E+08
 
   -0.47762E+08         0.14869E+06         0.00000E+00
    0.14869E+06        -0.49996E+08         0.00000E+00
    0.00000E+00         0.00000E+00        -0.49521E+08
 
   -0.47784E+08         0.18988E+06         0.00000E+00
    0.18988E+06        -0.49993E+08         0.00000E+00
    0.00000E+00         0.00000E+00        -0.49521E+08
 
   -0.47807E+08         0.23055E+06         0.00000E+00
    0.23055E+06        -0.49990E+08         0.00000E+00
    0.00000E+00         0.00000E+00        -0.49521E+08
 
   -0.47830E+08         0.27070E+06         0.00000E+00
    0.27070E+06        -0.49986E+08         0.00000E+00
    0.00000E+00         0.00000E+00        -0.49521E+08
 
   -0.47855E+08         0.31032E+06         0.00000E+00
    0.31032E+06        -0.49981E+08         0.00000E+00
    0.00000E+00         0.00000E+00        -0.49521E+08
 
   -0.47881E+08         0.34941E+06         0.00000E+00
    0.34941E+06        -0.49976E+08         0.00000E+00
    0.00000E+00         0.00000E+00        -0.49521E+08
 
   -0.47907E+08         0.38796E+06         0.00000E+00
    0.38796E+06        -0.49970E+08         0.00000E+00
    0.00000E+00         0.00000E+00        -0.49521E+08
 
   -0.47934E+08         0.42596E+06         0.00000E+00
    0.42596E+06        -0.49964E+08         0.00000E+00
    0.00000E+00         0.00000E+00        -0.49521E+08
 
   -0.47962E+08         0.46342E+06         0.00000E+00
    0.46342E+06        -0.49957E+08         0.00000E+00
    0.00000E+00         0.00000E+00        -0.49521E+08
 
   -0.47991E+08         0.50033E+06         0.00000E+00
    0.50033E+06        -0.49949E+08         0.00000E+00
    0.00000E+00         0.00000E+00        -0.49521E+08
 
   -0.48021E+08         0.53668E+06         0.00000E+00
    0.53668E+06        -0.49941E+08         0.00000E+00
    0.00000E+00         0.00000E+00        -0.49521E+08
 
   -0.48051E+08         0.57247E+06         0.00000E+00
    0.57247E+06        -0.49932E+08         0.00000E+00
    0.00000E+00         0.00000E+00        -0.49521E+08
 
   -0.48082E+08         0.60771E+06         0.00000E+00
    0.60771E+06        -0.49923E+08         0.00000E+00
    0.00000E+00         0.00000E+00        -0.49521E+08
 
   -0.48114E+08         0.64237E+06         0.00000E+00
    0.64237E+06        -0.49913E+08         0.00000E+00
    0.00000E+00         0.00000E+00        -0.49521E+08
 
   -0.48146E+08         0.67648E+06         0.00000E+00
    0.67648E+06        -0.49903E+08         0.00000E+00
    0.00000E+00         0.00000E+00        -0.49521E+08
 
   -0.48180E+08         0.71001E+06         0.00000E+00
    0.71001E+06        -0.49892E+08         0.00000E+00
    0.00000E+00         0.00000E+00        -0.49521E+08
 
   -0.48214E+08         0.74296E+06         0.00000E+00
    0.74296E+06        -0.49880E+08         0.00000E+00
    0.00000E+00         0.00000E+00        -0.49521E+08
 
   -0.48248E+08         0.77534E+06         0.00000E+00
    0.77534E+06        -0.49868E+08         0.00000E+00
    0.00000E+00         0.00000E+00        -0.49521E+08
 
   -0.48284E+08         0.80714E+06         0.00000E+00
    0.80714E+06        -0.49856E+08         0.00000E+00
    0.00000E+00         0.00000E+00        -0.49521E+08
 
   -0.48320E+08         0.83836E+06         0.00000E+00
    0.83836E+06        -0.49843E+08         0.00000E+00
    0.00000E+00         0.00000E+00        -0.49521E+08
 
   -0.48356E+08         0.86899E+06         0.00000E+00
    0.86899E+06        -0.49829E+08         0.00000E+00
    0.00000E+00         0.00000E+00        -0.49521E+08
 
   -0.48393E+08         0.89903E+06         0.00000E+00
    0.89903E+06        -0.49815E+08         0.00000E+00
    0.00000E+00         0.00000E+00        -0.49521E+08
 
   -0.48431E+08         0.92848E+06         0.00000E+00
    0.92848E+06        -0.49801E+08         0.00000E+00
    0.00000E+00         0.00000E+00        -0.49521E+08
 
   -0.48470E+08         0.95733E+06         0.00000E+00
    0.95733E+06        -0.49786E+08         0.00000E+00
    0.00000E+00         0.00000E+00        -0.49521E+08
 
   -0.48509E+08         0.98559E+06         0.00000E+00
    0.98559E+06        -0.49771E+08         0.00000E+00
    0.00000E+00         0.00000E+00        -0.49521E+08
 
   -0.48548E+08         0.10132E+07         0.00000E+00
    0.10132E+07        -0.49755E+08         0.00000E+00
    0.00000E+00         0.00000E+00        -0.49521E+08
 
   -0.48589E+08         0.10403E+07         0.00000E+00
    0.10403E+07        -0.49738E+08         0.00000E+00
    0.00000E+00         0.00000E+00        -0.49521E+08
 
   -0.48629E+08         0.10667E+07         0.00000E+00
    0.10667E+07        -0.49721E+08         0.00000E+00
    0.00000E+00         0.00000E+00        -0.49521E+08
 
   -0.48671E+08         0.10926E+07         0.00000E+00
    0.10926E+07        -0.49704E+08         0.00000E+00
    0.00000E+00         0.00000E+00        -0.49521E+08
 
   -0.48712E+08         0.11178E+07         0.00000E+00
    0.11178E+07        -0.49687E+08         0.00000E+00
    0.00000E+00         0.00000E+00        -0.49521E+08
 
   -0.48755E+08         0.11424E+07         0.00000E+00
    0.11424E+07        -0.49668E+08         0.00000E+00
    0.00000E+00         0.00000E+00        -0.49521E+08
 
   -0.48798E+08         0.11664E+07         0.00000E+00
    0.11664E+07        -0.49650E+08         0.00000E+00
    0.00000E+00         0.00000E+00        -0.49521E+08
 
   -0.48841E+08         0.11898E+07         0.00000E+00
    0.11898E+07        -0.49631E+08         0.00000E+00
    0.00000E+00         0.00000E+00        -0.49521E+08
 
   -0.48885E+08         0.12125E+07         0.00000E+00
    0.12125E+07        -0.49611E+08         0.00000E+00
    0.00000E+00         0.00000E+00        -0.49521E+08
 
   -0.48929E+08         0.12346E+07         0.00000E+00
    0.12346E+07        -0.49591E+08         0.00000E+00
    0.00000E+00         0.00000E+00        -0.49521E+08
 
   -0.48974E+08         0.12561E+07         0.00000E+00
    0.12561E+07        -0.49571E+08         0.00000E+00
    0.00000E+00         0.00000E+00        -0.49521E+08
 
   -0.49019E+08         0.12769E+07         0.00000E+00
    0.12769E+07        -0.49550E+08         0.00000E+00
    0.00000E+00         0.00000E+00        -0.49521E+08
 
   -0.49065E+08         0.12971E+07         0.00000E+00
    0.12971E+07        -0.49529E+08         0.00000E+00
    0.00000E+00         0.00000E+00        -0.49521E+08
 
   -0.49111E+08         0.13167E+07         0.00000E+00
    0.13167E+07        -0.49508E+08         0.00000E+00
    0.00000E+00         0.00000E+00        -0.49521E+08
 
   -0.49158E+08         0.13356E+07         0.00000E+00
    0.13356E+07        -0.49486E+08         0.00000E+00
    0.00000E+00         0.00000E+00        -0.49521E+08
 
   -0.49205E+08         0.13538E+07         0.00000E+00
    0.13538E+07        -0.49463E+08         0.00000E+00
    0.00000E+00         0.00000E+00        -0.49521E+08
 
   -0.49252E+08         0.13714E+07         0.00000E+00
    0.13714E+07        -0.49441E+08         0.00000E+00
    0.00000E+00         0.00000E+00        -0.49521E+08
 
   -0.49300E+08         0.13883E+07         0.00000E+00
    0.13883E+07        -0.49418E+08         0.00000E+00
    0.00000E+00         0.00000E+00        -0.49521E+08
 
   -0.49349E+08         0.14046E+07         0.00000E+00
    0.14046E+07        -0.49394E+08         0.00000E+00
    0.00000E+00         0.00000E+00        -0.49521E+08
 
   -0.49397E+08         0.14201E+07         0.00000E+00
    0.14201E+07        -0.49370E+08         0.00000E+00
    0.00000E+00         0.00000E+00        -0.49521E+08
 
   -0.49446E+08         0.14350E+07         0.00000E+00
    0.14350E+07        -0.49346E+08         0.00000E+00
    0.00000E+00         0.00000E+00        -0.49521E+08
 
   -0.49496E+08         0.14493E+07         0.00000E+00
    0.14493E+07        -0.49322E+08         0.00000E+00
    0.00000E+00         0.00000E+00        -0.49521E+08
 
   -0.47479E+08         0.23869E+05         0.00000E+00
    0.23869E+05        -0.50000E+08         0.00000E+00
    0.00000E+00         0.00000E+00        -0.49448E+08
 
   -0.47500E+08         0.70091E+05         0.00000E+00
    0.70091E+05        -0.49999E+08         0.00000E+00
    0.00000E+00         0.00000E+00        -0.49448E+08
 
   -0.47523E+08         0.11575E+06         0.00000E+00
    0.11575E+06        -0.49998E+08         0.00000E+00
    0.00000E+00         0.00000E+00        -0.49448E+08
 
   -0.47546E+08         0.16086E+06         0.00000E+00
    0.16086E+06        -0.49995E+08         0.00000E+00
    0.00000E+00         0.00000E+00        -0.49448E+08
 
   -0.47571E+08         0.20539E+06         0.00000E+00
    0.20539E+06        -0.49993E+08         0.00000E+00
    0.00000E+00         0.00000E+00        -0.49448E+08
 
   -0.47597E+08         0.24935E+06         0.00000E+00
    0.24935E+06        -0.49989E+08         0.00000E+00
    0.00000E+00         0.00000E+00        -0.49448E+08
 
   -0.47623E+08         0.29274E+06         0.00000E+00
    0.29274E+06        -0.49985E+08         0.00000E+00
    0.00000E+00         0.00000E+00        -0.49448E+08
 
   -0.47650E+08         0.33555E+06         0.00000E+00
    0.33555E+06        -0.49980E+08         0.00000E+00
    0.00000E+00         0.00000E+00        -0.49448E+08
 
   -0.47679E+08         0.37778E+06         0.00000E+00
    0.37778E+06        -0.49975E+08         0.00000E+00
    0.00000E+00         0.00000E+00        -0.49448E+08
 
   -0.47708E+08         0.41942E+06         0.00000E+00
    0.41942E+06        -0.49968E+08         0.00000E+00
    0.00000E+00         0.00000E+00        -0.49448E+08
 
   -0.47738E+08         0.46047E+06         0.00000E+00
    0.46047E+06        -0.49962E+08         0.00000E+00
    0.00000E+00         0.00000E+00        -0.49448E+08
 
   -0.47769E+08         0.50094E+06         0.00000E+00
    0.50094E+06        -0.49954E+08         0.00000E+00
    0.00000E+00         0.00000E+00        -0.49448E+08
 
   -0.47800E+08         0.54081E+06         0.00000E+00
    0.54081E+06        -0.49946E+08         0.00000E+00
    0.00000E+00         0.00000E+00        -0.49448E+08
 
   -0.47833E+08         0.58008E+06         0.00000E+00
    0.58008E+06        -0.49938E+08         0.00000E+00
    0.00000E+00         0.00000E+00        -0.49448E+08
 
   -0.47866E+08         0.61875E+06         0.00000E+00
    0.61875E+06        -0.49928E+08         0.00000E+00
    0.00000E+00         0.00000E+00        -0.49448E+08
 
   -0.47900E+08         0.65683E+06         0.00000E+00
    0.65683E+06        -0.49919E+08         0.00000E+00
    0.00000E+00         0.00000E+00        -0.49448E+08
 
   -0.47935E+08         0.69430E+06         0.00000E+00
    0.69430E+06        -0.49908E+08         0.00000E+00
    0.00000E+00         0.00000E+00        -0.49448E+08
 
   -0.47970E+08         0.73117E+06         0.00000E+00
    0.73117E+06        -0.49897E+08         0.00000E+00
    0.00000E+00         0.00000E+00        -0.49448E+08
 
   -0.48007E+08         0.76743E+06         0.00000E+00
    0.76743E+06        -0.49886E+08         0.00000E+00
    0.00000E+00         0.00000E+00        -0.49448E+08
 
   -0.48044E+08         0.80308E+06         0.00000E+00
    0.80308E+06        -0.49874E+08         0.00000E+00
    0.00000E+00         0.00000E+00        -0.49448E+08
 
   -0.48081E+08         0.83812E+06         0.00000E+00
    0.83812E+06        -0.49861E+08         0.00000E+00
    0.00000E+00         0.00000E+00        -0.49448E+08
 
   -0.48120E+08         0.87255E+06         0.00000E+00
    0.87255E+06        -0.49848E+08         0.00000E+00
    0.00000E+00         0.00000E+00        -0.49448E+08
 
   -0.48159E+08         0.90636E+06         0.00000E+00
    0.90636E+06        -0.49834E+08         0.00000E+00
    0.00000E+00         0.00000E+00        -0.49448E+08
 
   -0.48198E+08         0.93955E+06         0.00000E+00
    0.93955E+06        -0.49820E+08         0.00000E+00
    0.00000E+00         0.00000E+00        -0.49448E+08
 
   -0.48238E+08         0.97213E+06         0.00000E+00
    0.97213E+06        -0.49805E+08         0.00000E+00
    0.00000E+00         0.00000E+00        -0.49448E+08
 
   -0.48279E+08         0.10041E+07         0.00000E+00
    0.10041E+07        -0.49790E+08         0.00000E+00
    0.00000E+00         0.00000E+00        -0.49448E+08
 
   -0.48321E+08         0.10354E+07         0.00000E+00
    0.10354E+07        -0.49774E+08         0.00000E+00
    0.00000E+00         0.00000E+00        -0.49448E+08
 
   -0.48363E+08         0.10661E+07         0.00000E+00
    0.10661E+07        -0.49758E+08         0.00000E+00
    0.00000E+00         0.00000E+00        -0.49448E+08
 
   -0.48406E+08         0.10962E+07         0.00000E+00
    0.10962E+07        -0.49741E+08         0.00000E+00
    0.00000E+00         0.00000E+00        -0.49448E+08
 
   -0.48449E+08         0.11256E+07         0.00000E+00
    0.11256E+07        -0.49724E+08         0.00000E+00
    0.00000E+00         0.00000E+00        -0.49448E+08
 
   -0.48493E+08         0.11544E+07         0.00000E+00
    0.11544E+07        -0.49706E+08         0.00000E+00
    0.00000E+00         0.00000E+00        -0.49448E+08
 
   -0.48537E+08         0.11826E+07         0.00000E+00
    0.11826E+07        -0.49688E+08         0.00000E+00
    0.00000E+00         0.00000E+00        -0.49448E+08
 
   -0.48582E+08         0.12102E+07         0.00000E+00
    0.12102E+07        -0.49669E+08         0.00000E+00
    0.00000E+00         0.00000E+00        -0.49448E+08
 
   -0.48628E+08         0.12371E+07         0.00000E+00
    0.12371E+07        -0.49650E+08         0.00000E+00
    0.00000E+00         0.00000E+00        -0.49448E+08
 
   -0.48674E+08         0.12633E+07         0.00000E+00
    0.12633E+07        -0.49630E+08         0.00000E+00
    0.00000E+00         0.00000E+00        -0.49448E+08
 
   -0.48720E+08         0.12889E+07         0.00000E+00
    0.12889E+07        -0.49610E+08         0.00000E+00
    0.00000E+00         0.00000E+00        -0.49448E+08
 
   -0.48767E+08         0.13139E+07         0.00000E+00
    0.13139E+07        -0.49589E+08         0.00000E+00
    0.00000E+00         0.00000E+00        -0.49448E+08
 
   -0.48815E+08         0.13382E+07         0.00000E+00
    0.13382E+07        -0.49568E+08         0.00000E+00
    0.00000E+00         0.00000E+00        -0.49448E+08
 
   -0.48863E+08         0.13618E+07         0.00000E+00
    0.13618E+07        -0.49547E+08         0.00000E+00
    0.00000E+00         0.00000E+00        -0.49448E+08
 
   -0.48911E+08         0.13848E+07         0.00000E+00
    0.13848E+07        -0.49525E+08         0.00000E+00
    0.00000E+00         0.00000E+00        -0.49448E+08
 
   -0.48960E+08         0.14071E+07         0.00000E+00
    0.14071E+07        -0.49502E+08         0.00000E+00
    0.00000E+00         0.00000E+00        -0.49448E+08
 
   -0.49010E+08         0.14288E+07         0.00000E+00
    0.14288E+07        -0.49479E+08         0.00000E+00
    0.00000E+00         0.00000E+00        -0.49448E+08
 
   -0.49060E+08         0.14498E+07         0.00000E+00
    0.14498E+07        -0.49456E+08         0.00000E+00
    0.00000E+00         0.00000E+00        -0.49448E+08
 
   -0.49110E+08         0.14701E+07         0.00000E+00
    0.14701E+07        -0.49432E+08         0.00000E+00
    0.00000E+00         0.00000E+00        -0.49448E+08
 
   -0.49161E+08         0.14897E+07         0.00000E+00
    0.14897E+07        -0.49408E+08         0.00000E+00
    0.00000E+00         0.00000E+00        -0.49448E+08
 
   -0.49212E+08         0.15086E+07         0.00000E+00
    0.15086E+07        -0.49383E+08         0.00000E+00
    0.00000E+00         0.00000E+00        -0.49448E+08
 
   -0.49264E+08         0.15269E+07         0.00000E+00
    0.15269E+07        -0.49358E+08         0.00000E+00
    0.00000E+00         0.00000E+00        -0.49448E+08
 
   -0.49316E+08         0.15444E+07         0.00000E+00
    0.15444E+07        -0.49333E+08         0.00000E+00
    0.00000E+00         0.00000E+00        -0.49448E+08
 
   -0.49369E+08         0.15613E+07         0.00000E+00
    0.15613E+07        -0.49307E+08         0.00000E+00
    0.00000E+00         0.00000E+00        -0.49448E+08
 
   -0.49422E+08         0.15774E+07         0.00000E+00
    0.15774E+07        -0.49281E+08         0.00000E+00
    0.00000E+00         0.00000E+00        -0.49448E+08
 
   -0.47237E+08         0.25795E+05         0.00000E+00
    0.25795E+05        -0.50000E+08         0.00000E+00
    0.00000E+00         0.00000E+00        -0.49366E+08
 
   -0.47261E+08         0.75700E+05         0.00000E+00
    0.75700E+05        -0.49999E+08         0.00000E+00
    0.00000E+00         0.00000E+00        -0.49366E+08
 
   -0.47287E+08         0.12499E+06         0.00000E+00
    0.12499E+06        -0.49998E+08         0.00000E+00
    0.00000E+00         0.00000E+00        -0.49366E+08
 
   -0.47314E+08         0.17365E+06         0.00000E+00
    0.17365E+06        -0.49995E+08         0.00000E+00
    0.00000E+00         0.00000E+00        -0.49366E+08
 
   -0.47341E+08         0.22170E+06         0.00000E+00
    0.22170E+06        -0.49992E+08         0.00000E+00
    0.00000E+00         0.00000E+00        -0.49366E+08
 
   -0.47370E+08         0.26912E+06         0.00000E+00
    0.26912E+06        -0.49989E+08         0.00000E+00
    0.00000E+00         0.00000E+00        -0.49366E+08
 
   -0.47399E+08         0.31591E+06         0.00000E+00
    0.31591E+06        -0.49984E+08         0.00000E+00
    0.00000E+00         0.00000E+00        -0.49366E+08
 
   -0.47430E+08         0.36207E+06         0.00000E+00
    0.36207E+06        -0.49979E+08         0.00000E+00
    0.00000E+00         0.00000E+00        -0.49366E+08
 
   -0.47461E+08         0.40760E+06         0.00000E+00
    0.40760E+06        -0.49973E+08         0.00000E+00
    0.00000E+00         0.00000E+00        -0.49366E+08
 
   -0.47493E+08         0.45249E+06         0.00000E+00
    0.45249E+06        -0.49967E+08         0.00000E+00
    0.00000E+00         0.00000E+00        -0.49366E+08
 
   -0.47526E+08         0.49675E+06         0.00000E+00
    0.49675E+06        -0.49960E+08         0.00000E+00
    0.00000E+00         0.00000E+00        -0.49366E+08
 
   -0.47560E+08         0.54038E+06         0.00000E+00
    0.54038E+06        -0.49952E+08         0.00000E+00
    0.00000E+00         0.00000E+00        -0.49366E+08
 
   -0.47595E+08         0.58337E+06         0.00000E+00
    0.58337E+06        -0.49944E+08         0.00000E+00
    0.00000E+00         0.00000E+00        -0.49366E+08
 
   -0.47630E+08         0.62571E+06         0.00000E+00
    0.62571E+06        -0.49935E+08         0.00000E+00
    0.00000E+00         0.00000E+00        -0.49366E+08
 
   -0.47667E+08         0.66742E+06         0.00000E+00
    0.66742E+06        -0.49925E+08         0.00000E+00
    0.00000E+00         0.00000E+00        -0.49366E+08
 
   -0.47704E+08         0.70849E+06         0.00000E+00
    0.70849E+06        -0.49915E+08         0.00000E+00
    0.00000E+00         0.00000E+00        -0.49366E+08
 
   -0.47742E+08         0.74892E+06         0.00000E+00
    0.74892E+06        -0.49904E+08         0.00000E+00
    0.00000E+00         0.00000E+00        -0.49366E+08
 
   -0.47780E+08         0.78871E+06         0.00000E+00
    0.78871E+06        -0.49892E+08         0.00000E+00
    0.00000E+00         0.00000E+00        -0.49366E+08
 
   -0.47820E+08         0.82785E+06         0.00000E+00
    0.82785E+06        -0.49880E+08         0.00000E+00
    0.00000E+00         0.00000E+00        -0.49366E+08
 
   -0.47860E+08         0.86635E+06         0.00000E+00
    0.86635E+06        -0.49868E+08         0.00000E+00
    0.00000E+00         0.00000E+00        -0.49366E+08
 
   -0.47901E+08         0.90421E+06         0.00000E+00
    0.90421E+06        -0.49854E+08         0.00000E+00
    0.00000E+00         0.00000E+00        -0.49366E+08
 
   -0.47942E+08         0.94142E+06         0.00000E+00
    0.94142E+06        -0.49840E+08         0.00000E+00
    0.00000E+00         0.00000E+00        -0.49366E+08
 
   -0.47984E+08         0.97798E+06         0.00000E+00
    0.97798E+06        -0.49826E+08         0.00000E+00
    0.00000E+00         0.00000E+00        -0.49366E+08
 
   -0.48027E+08         0.10139E+07         0.00000E+00
    0.10139E+07        -0.49811E+08         0.00000E+00
    0.00000E+00         0.00000E+00        -0.49366E+08
 
   -0.48070E+08         0.10492E+07         0.00000E+00
    0.10492E+07        -0.49796E+08         0.00000E+00
    0.00000E+00         0.00000E+00        -0.49366E+08
 
   -0.48114E+08         0.10838E+07         0.00000E+00
    0.10838E+07        -0.49780E+08         0.00000E+00
    0.00000E+00         0.00000E+00        -0.49366E+08
 
   -0.48159E+08         0.11178E+07         0.00000E+00
    0.11178E+07        -0.49763E+08         0.00000E+00
    0.00000E+00         0.00000E+00        -0.49366E+08
 
   -0.48204E+08         0.11511E+07         0.00000E+00
    0.11511E+07        -0.49746E+08         0.00000E+00
    0.00000E+00         0.00000E+00        -0.49366E+08
 
   -0.48250E+08         0.11837E+07         0.00000E+00
    0.11837E+07        -0.49728E+08         0.00000E+00
    0.00000E+00         0.00000E+00        -0.49366E+08
 
   -0.48297E+08         0.12157E+07         0.00000E+00
    0.12157E+07        -0.49710E+08         0.00000E+00
    0.00000E+00         0.00000E+00        -0.49366E+08
 
   -0.48344E+08         0.12471E+07         0.00000E+00
    0.12471E+07        -0.49691E+08         0.00000E+00
    0.00000E+00         0.00000E+00        -0.49366E+08
 
   -0.48392E+08         0.12778E+07         0.00000E+00
    0.12778E+07        -0.49672E+08         0.00000E+00
    0.00000E+00         0.00000E+00        -0.49366E+08
 
   -0.48440E+08         0.13078E+07         0.00000E+00
    0.13078E+07        -0.49652E+08         0.00000E+00
    0.00000E+00         0.00000E+00        -0.49366E+08
 
   -0.48489E+08         0.13372E+07         0.00000E+00
    0.13372E+07        -0.49632E+08         0.00000E+00
    0.00000E+00         0.00000E+00        -0.49366E+08
 
   -0.48538E+08         0.13659E+07         0.00000E+00
    0.13659E+07        -0.49611E+08         0.00000E+00
    0.00000E+00         0.00000E+00        -0.49366E+08
 
   -0.48588E+08         0.13939E+07         0.00000E+00
    0.13939E+07        -0.49590E+08         0.00000E+00
    0.00000E+00         0.00000E+00        -0.49366E+08
 
   -0.48638E+08         0.14213E+07         0.00000E+00
    0.14213E+07        -0.49568E+08         0.00000E+00
    0.00000E+00         0.00000E+00        -0.49366E+08
 
   -0.48689E+08         0.14480E+07         0.00000E+00
    0.14480E+07        -0.49545E+08         0.00000E+00
    0.00000E+00         0.00000E+00        -0.49366E+08
 
   -0.48740E+08         0.14740E+07         0.00000E+00
    0.14740E+07        -0.49523E+08         0.00000E+00
    0.00000E+00         0.00000E+00        -0.49366E+08
 
   -0.48792E+08         0.14993E+07         0.00000E+00
    0.14993E+07        -0.49499E+08         0.00000E+00
    0.00000E+00         0.00000E+00        -0.49366E+08
 
   -0.48845E+08         0.15240E+07         0.00000E+00
    0.15240E+07        -0.49475E+08         0.00000E+00
    0.00000E+00         0.00000E+00        -0.49366E+08
 
   -0.48897E+08         0.15480E+07         0.00000E+00
    0.15480E+07        -0.49451E+08         0.00000E+00
    0.00000E+00         0.00000E+00        -0.49366E+08
 
   -0.48951E+08         0.15712E+07         0.00000E+00
    0.15712E+07        -0.49426E+08         0.00000E+00
    0.00000E+00         0.00000E+00        -0.49366E+08
 
   -0.49005E+08         0.15938E+07         0.00000E+00
    0.15938E+07        -0.49401E+08         0.00000E+00
    0.00000E+00         0.00000E+00        -0.49366E+08
 
   -0.49059E+08         0.16157E+07         0.00000E+00
    0.16157E+07        -0.49375E+08         0.00000E+00
    0.00000E+00         0.00000E+00        -0.49366E+08
 
   -0.49114E+08         0.16369E+07         0.00000E+00
    0.16369E+07        -0.49349E+08         0.00000E+00
    0.00000E+00         0.00000E+00        -0.49366E+08
 
   -0.49169E+08         0.16573E+07         0.00000E+00
    0.16573E+07        -0.49322E+08         0.00000E+00
    0.00000E+00         0.00000E+00        -0.49366E+08
 
   -0.49225E+08         0.16771E+07         0.00000E+00
    0.16771E+07        -0.49295E+08         0.00000E+00
    0.00000E+00         0.00000E+00        -0.49366E+08
 
   -0.49281E+08         0.16961E+07         0.00000E+00
    0.16961E+07        -0.49268E+08         0.00000E+00
    0.00000E+00         0.00000E+00        -0.49366E+08
 
   -0.49338E+08         0.17144E+07         0.00000E+00
    0.17144E+07        -0.49240E+08         0.00000E+00
    0.00000E+00         0.00000E+00        -0.49366E+08
 
   -0.46976E+08         0.27813E+05         0.00000E+00
    0.27813E+05        -0.50000E+08         0.00000E+00
    0.00000E+00         0.00000E+00        -0.49272E+08
 
   -0.47004E+08         0.81573E+05         0.00000E+00
    0.81573E+05        -0.49999E+08         0.00000E+00
    0.00000E+00         0.00000E+00        -0.49272E+08
 
   -0.47033E+08         0.13465E+06         0.00000E+00
    0.13465E+06        -0.49997E+08         0.00000E+00
    0.00000E+00         0.00000E+00        -0.49272E+08
 
   -0.47062E+08         0.18705E+06         0.00000E+00
    0.18705E+06        -0.49995E+08         0.00000E+00
    0.00000E+00         0.00000E+00        -0.49272E+08
 
   -0.47093E+08         0.23877E+06         0.00000E+00
    0.23877E+06        -0.49992E+08         0.00000E+00
    0.00000E+00         0.00000E+00        -0.49272E+08
 
   -0.47125E+08         0.28980E+06         0.00000E+00
    0.28980E+06        -0.49988E+08         0.00000E+00
    0.00000E+00         0.00000E+00        -0.49272E+08
 
   -0.47158E+08         0.34015E+06         0.00000E+00
    0.34015E+06        -0.49984E+08         0.00000E+00
    0.00000E+00         0.00000E+00        -0.49272E+08
 
   -0.47192E+08         0.38982E+06         0.00000E+00
    0.38982E+06        -0.49978E+08         0.00000E+00
    0.00000E+00         0.00000E+00        -0.49272E+08
 
   -0.47226E+08         0.43881E+06         0.00000E+00
    0.43881E+06        -0.49972E+08         0.00000E+00
    0.00000E+00         0.00000E+00        -0.49272E+08
 
   -0.47262E+08         0.48711E+06         0.00000E+00
    0.48711E+06        -0.49965E+08         0.00000E+00
    0.00000E+00         0.00000E+00        -0.49272E+08
 
   -0.47298E+08         0.53473E+06         0.00000E+00
    0.53473E+06        -0.49958E+08         0.00000E+00
    0.00000E+00         0.00000E+00        -0.49272E+08
 
   -0.47335E+08         0.58167E+06         0.00000E+00
    0.58167E+06        -0.49950E+08         0.00000E+00
    0.00000E+00         0.00000E+00        -0.49272E+08
 
   -0.47373E+08         0.62792E+06         0.00000E+00
    0.62792E+06        -0.49941E+08         0.00000E+00
    0.00000E+00         0.00000E+00        -0.49272E+08
 
   -0.47412E+08         0.67350E+06         0.00000E+00
    0.67350E+06        -0.49932E+08         0.00000E+00
    0.00000E+00         0.00000E+00        -0.49272E+08
 
   -0.47452E+08         0.71839E+06         0.00000E+00
    0.71839E+06        -0.49922E+08         0.00000E+00
    0.00000E+00         0.00000E+00        -0.49272E+08
 
   -0.47492E+08         0.76261E+06         0.00000E+00
    0.76261E+06        -0.49911E+08         0.00000E+00
    0.00000E+00         0.00000E+00        -0.49272E+08
 
   -0.47534E+08         0.80614E+06         0.00000E+00
    0.80614E+06        -0.49900E+08         0.00000E+00
    0.00000E+00         0.00000E+00        -0.49272E+08
 
   -0.47575E+08         0.84900E+06         0.00000E+00
    0.84900E+06        -0.49888E+08         0.00000E+00
    0.00000E+00         0.00000E+00        -0.49272E+08
 
   -0.47618E+08         0.89118E+06         0.00000E+00
    0.89118E+06        -0.49875E+08         0.00000E+00
    0.00000E+00         0.00000E+00        -0.49272E+08
 
   -0.47661E+08         0.93268E+06         0.00000E+00
    0.93268E+06        -0.49862E+08         0.00000E+00
    0.00000E+00         0.00000E+00        -0.49272E+08
 
   -0.47706E+08         0.97351E+06         0.00000E+00
    0.97351E+06        -0.49848E+08         0.00000E+00
    0.00000E+00         0.00000E+00        -0.49272E+08
 
   -0.47750E+08         0.10137E+07         0.00000E+00
    0.10137E+07        -0.49833E+08         0.00000E+00
    0.00000E+00         0.00000E+00        -0.49272E+08
 
   -0.47796E+08         0.10531E+07         0.00000E+00
    0.10531E+07        -0.49818E+08         0.00000E+00
    0.00000E+00         0.00000E+00        -0.49272E+08
 
   -0.47842E+08         0.10919E+07         0.00000E+00
    0.10919E+07        -0.49803E+08         0.00000E+00
    0.00000E+00         0.00000E+00        -0.49272E+08
 
   -0.47889E+08         0.11301E+07         0.00000E+00
    0.11301E+07        -0.49786E+08         0.00000E+00
    0.00000E+00         0.00000E+00        -0.49272E+08
 
   -0.47936E+08         0.11675E+07         0.00000E+00
    0.11675E+07        -0.49769E+08         0.00000E+00
    0.00000E+00         0.00000E+00        -0.49272E+08
 
   -0.47984E+08         0.12043E+07         0.00000E+00
    0.12043E+07        -0.49752E+08         0.00000E+00
    0.00000E+00         0.00000E+00        -0.49272E+08
 
   -0.48033E+08         0.12404E+07         0.00000E+00
    0.12404E+07        -0.49734E+08         0.00000E+00
    0.00000E+00         0.00000E+00        -0.49272E+08
 
   -0.48082E+08         0.12758E+07         0.00000E+00
    0.12758E+07        -0.49715E+08         0.00000E+00
    0.00000E+00         0.00000E+00        -0.49272E+08
 
   -0.48132E+08         0.13106E+07         0.00000E+00
    0.13106E+07        -0.49696E+08         0.00000E+00
    0.00000E+00         0.00000E+00        -0.49272E+08
 
   -0.48182E+08         0.13446E+07         0.00000E+00
    0.13446E+07        -0.49677E+08         0.00000E+00
    0.00000E+00         0.00000E+00        -0.49272E+08
 
   -0.48233E+08         0.13780E+07         0.00000E+00
    0.13780E+07        -0.49656E+08         0.00000E+00
    0.00000E+00         0.00000E+00        -0.49272E+08
 
   -0.48285E+08         0.14107E+07         0.00000E+00
    0.14107E+07        -0.49636E+08         0.00000E+00
    0.00000E+00         0.00000E+00        -0.49272E+08
 
   -0.48337E+08         0.14428E+07         0.00000E+00
    0.14428E+07        -0.49614E+08         0.00000E+00
    0.00000E+00         0.00000E+00        -0.49272E+08
 
   -0.48389E+08         0.14741E+07         0.00000E+00
    0.14741E+07        -0.49592E+08         0.00000E+00
    0.00000E+00         0.00000E+00        -0.49272E+08
 
   -0.48443E+08         0.15048E+07         0.00000E+00
    0.15048E+07        -0.49570E+08         0.00000E+00
    0.00000E+00         0.00000E+00        -0.49272E+08
 
   -0.48496E+08         0.15348E+07         0.00000E+00
    0.15348E+07        -0.49547E+08         0.00000E+00
    0.00000E+00         0.00000E+00        -0.49272E+08
 
   -0.48551E+08         0.15640E+07         0.00000E+00
    0.15640E+07        -0.49523E+08         0.00000E+00
    0.00000E+00         0.00000E+00        -0.49272E+08
 
   -0.48606E+08         0.15926E+07         0.00000E+00
    0.15926E+07        -0.49499E+08         0.00000E+00
    0.00000E+00         0.00000E+00        -0.49272E+08
 
   -0.48661E+08         0.16205E+07         0.00000E+00
    0.16205E+07        -0.49474E+08         0.00000E+00
    0.00000E+00         0.00000E+00        -0.49272E+08
 
   -0.48717E+08         0.16477E+07         0.00000E+00
    0.16477E+07        -0.49449E+08         0.00000E+00
    0.00000E+00         0.00000E+00        -0.49272E+08
 
   -0.48773E+08         0.16742E+07         0.00000E+00
    0.16742E+07        -0.49424E+08         0.00000E+00
    0.00000E+00         0.00000E+00        -0.49272E+08
 
   -0.48830E+08         0.17000E+07         0.00000E+00
    0.17000E+07        -0.49397E+08         0.00000E+00
    0.00000E+00         0.00000E+00        -0.49272E+08
 
   -0.48887E+08         0.17251E+07         0.00000E+00
    0.17251E+07        -0.49371E+08         0.00000E+00
    0.00000E+00         0.00000E+00        -0.49272E+08
 
   -0.48945E+08         0.17495E+07         0.00000E+00
    0.17495E+07        -0.49343E+08         0.00000E+00
    0.00000E+00         0.00000E+00        -0.49272E+08
 
   -0.49004E+08         0.17732E+07         0.00000E+00
    0.17732E+07        -0.49315E+08         0.00000E+00
    0.00000E+00         0.00000E+00        -0.49272E+08
 
   -0.49062E+08         0.17961E+07         0.00000E+00
    0.17961E+07        -0.49287E+08         0.00000E+00
    0.00000E+00         0.00000E+00        -0.49272E+08
 
   -0.49122E+08         0.18183E+07         0.00000E+00
    0.18183E+07        -0.49258E+08         0.00000E+00
    0.00000E+00         0.00000E+00        -0.49272E+08
 
   -0.49182E+08         0.18398E+07         0.00000E+00
    0.18398E+07        -0.49229E+08         0.00000E+00
    0.00000E+00         0.00000E+00        -0.49272E+08
 
   -0.49242E+08         0.18605E+07         0.00000E+00
    0.18605E+07        -0.49199E+08         0.00000E+00
    0.00000E+00         0.00000E+00        -0.49272E+08
 
   -0.46695E+08         0.29917E+05         0.00000E+00
    0.29917E+05        -0.50000E+08         0.00000E+00
    0.00000E+00         0.00000E+00        -0.49166E+08
 
   -0.46727E+08         0.87695E+05         0.00000E+00
    0.87695E+05        -0.49999E+08         0.00000E+00
    0.00000E+00         0.00000E+00        -0.49166E+08
 
   -0.46759E+08         0.14473E+06         0.00000E+00
    0.14473E+06        -0.49997E+08         0.00000E+00
    0.00000E+00         0.00000E+00        -0.49166E+08
 
   -0.46793E+08         0.20101E+06         0.00000E+00
    0.20101E+06        -0.49995E+08         0.00000E+00
    0.00000E+00         0.00000E+00        -0.49166E+08
 
   -0.46827E+08         0.25655E+06         0.00000E+00
    0.25655E+06        -0.49992E+08         0.00000E+00
    0.00000E+00         0.00000E+00        -0.49166E+08
 
   -0.46862E+08         0.31135E+06         0.00000E+00
    0.31135E+06        -0.49988E+08         0.00000E+00
    0.00000E+00         0.00000E+00        -0.49166E+08
 
   -0.46899E+08         0.36541E+06         0.00000E+00
    0.36541E+06        -0.49983E+08         0.00000E+00
    0.00000E+00         0.00000E+00        -0.49166E+08
 
   -0.46936E+08         0.41873E+06         0.00000E+00
    0.41873E+06        -0.49977E+08         0.00000E+00
    0.00000E+00         0.00000E+00        -0.49166E+08
 
   -0.46974E+08         0.47132E+06         0.00000E+00
    0.47132E+06        -0.49971E+08         0.00000E+00
    0.00000E+00         0.00000E+00        -0.49166E+08
 
   -0.47013E+08         0.52317E+06         0.00000E+00
    0.52317E+06        -0.49964E+08         0.00000E+00
    0.00000E+00         0.00000E+00        -0.49166E+08
 
   -0.47053E+08         0.57429E+06         0.00000E+00
    0.57429E+06        -0.49956E+08         0.00000E+00
    0.00000E+00         0.00000E+00        -0.49166E+08
 
   -0.47094E+08         0.62469E+06         0.00000E+00
    0.62469E+06        -0.49948E+08         0.00000E+00
    0.00000E+00         0.00000E+00        -0.49166E+08
 
   -0.47135E+08         0.67435E+06         0.00000E+00
    0.67435E+06        -0.49939E+08         0.00000E+00
    0.00000E+00         0.00000E+00        -0.49166E+08
 
   -0.47178E+08         0.72330E+06         0.00000E+00
    0.72330E+06        -0.49929E+08         0.00000E+00
    0.00000E+00         0.00000E+00        -0.49166E+08
 
   -0.47221E+08         0.77152E+06         0.00000E+00
    0.77152E+06        -0.49919E+08         0.00000E+00
    0.00000E+00         0.00000E+00        -0.49166E+08
 
   -0.47265E+08         0.81903E+06         0.00000E+00
    0.81903E+06        -0.49907E+08         0.00000E+00
    0.00000E+00         0.00000E+00        -0.49166E+08
 
   -0.47309E+08         0.86582E+06         0.00000E+00
    0.86582E+06        -0.49896E+08         0.00000E+00
    0.00000E+00         0.00000E+00        -0.49166E+08
 
   -0.47355E+08         0.91189E+06         0.00000E+00
    0.91189E+06        -0.49883E+08         0.00000E+00
    0.00000E+00         0.00000E+00        -0.49166E+08
 
   -0.47401E+08         0.95726E+06         0.00000E+00
    0.95726E+06        -0.49870E+08         0.00000E+00
    0.00000E+00         0.00000E+00        -0.49166E+08
 
   -0.47448E+08         0.10019E+07         0.00000E+00
    0.10019E+07        -0.49856E+08         0.00000E+00
    0.00000E+00         0.00000E+00        -0.49166E+08
 
   -0.47495E+08         0.10459E+07         0.00000E+00
    0.10459E+07        -0.49842E+08         0.00000E+00
    0.00000E+00         0.00000E+00        -0.49166E+08
 
   -0.47544E+08         0.10891E+07         0.00000E+00
    0.10891E+07        -0.49827E+08         0.00000E+00
    0.00000E+00         0.00000E+00        -0.49166E+08
 
   -0.47592E+08         0.11317E+07         0.00000E+00
    0.11317E+07        -0.49811E+08         0.00000E+00
    0.00000E+00         0.00000E+00        -0.49166E+08
 
   -0.47642E+08         0.11735E+07         0.00000E+00
    0.11735E+07        -0.49795E+08         0.00000E+00
    0.00000E+00         0.00000E+00        -0.49166E+08
 
   -0.47692E+08         0.12146E+07         0.00000E+00
    0.12146E+07        -0.49778E+08         0.00000E+00
    0.00000E+00         0.00000E+00        -0.49166E+08
 
   -0.47743E+08         0.12551E+07         0.00000E+00
    0.12551E+07        -0.49760E+08         0.00000E+00
    0.00000E+00         0.00000E+00        -0.49166E+08
 
   -0.47794E+08         0.12948E+07         0.00000E+00
    0.12948E+07        -0.49742E+08         0.00000E+00
    0.00000E+00         0.00000E+00        -0.49166E+08
 
   -0.47846E+08         0.13339E+07         0.00000E+00
    0.13339E+07        -0.49723E+08         0.00000E+00
    0.00000E+00         0.00000E+00        -0.49166E+08
 
   -0.47899E+08         0.13723E+07         0.00000E+00
    0.13723E+07        -0.49704E+08         0.00000E+00
    0.00000E+00         0.00000E+00        -0.49166E+08
 
   -0.47952E+08         0.14099E+07         0.00000E+00
    0.14099E+07        -0.49684E+08         0.00000E+00
    0.00000E+00         0.00000E+00        -0.49166E+08
 
   -0.48006E+08         0.14469E+07         0.00000E+00
    0.14469E+07        -0.49663E+08         0.00000E+00
    0.00000E+00         0.00000E+00        -0.49166E+08
 
   -0.48061E+08         0.14832E+07         0.00000E+00
    0.14832E+07        -0.49642E+08         0.00000E+00
    0.00000E+00         0.00000E+00        -0.49166E+08
 
   -0.48116E+08         0.15188E+07         0.00000E+00
    0.15188E+07        -0.49620E+08         0.00000E+00
    0.00000E+00         0.00000E+00        -0.49166E+08
 
   -0.48171E+08         0.15537E+07         0.00000E+00
    0.15537E+07        -0.49598E+08         0.00000E+00
    0.00000E+00         0.00000E+00        -0.49166E+08
 
   -0.48227E+08         0.15879E+07         0.00000E+00
    0.15879E+07        -0.49575E+08         0.00000E+00
    0.00000E+00         0.00000E+00        -0.49166E+08
 
   -0.48284E+08         0.16214E+07         0.00000E+00
    0.16214E+07        -0.49551E+08         0.00000E+00
    0.00000E+00         0.00000E+00        -0.49166E+08
 
   -0.48341E+08         0.16542E+07         0.00000E+00
    0.16542E+07        -0.49527E+08         0.00000E+00
    0.00000E+00         0.00000E+00        -0.49166E+08
 
   -0.48399E+08         0.16863E+07         0.00000E+00
    0.16863E+07        -0.49502E+08         0.00000E+00
    0.00000E+00         0.00000E+00        -0.49166E+08
 
   -0.48457E+08         0.17177E+07         0.00000E+00
    0.17177E+07        -0.49477E+08         0.00000E+00
    0.00000E+00         0.00000E+00        -0.49166E+08
 
   -0.48516E+08         0.17484E+07         0.00000E+00
    0.17484E+07        -0.49451E+08         0.00000E+00
    0.00000E+00         0.00000E+00        -0.49166E+08
 
   -0.48576E+08         0.17784E+07         0.00000E+00
    0.17784E+07        -0.49424E+08         0.00000E+00
    0.00000E+00         0.00000E+00        -0.49166E+08
 
   -0.48635E+08         0.18076E+07         0.00000E+00
    0.18076E+07        -0.49397E+08         0.00000E+00
    0.00000E+00         0.00000E+00        -0.49166E+08
 
   -0.48696E+08         0.18362E+07         0.00000E+00
    0.18362E+07        -0.49369E+08         0.00000E+00
    0.00000E+00         0.00000E+00        -0.49166E+08
 
   -0.48757E+08         0.18641E+07         0.00000E+00
    0.18641E+07        -0.49341E+08         0.00000E+00
    0.00000E+00         0.00000E+00        -0.49166E+08
 
   -0.48818E+08         0.18912E+07         0.00000E+00
    0.18912E+07        -0.49312E+08         0.00000E+00
    0.00000E+00         0.00000E+00        -0.49166E+08
 
   -0.48880E+08         0.19176E+07         0.00000E+00
    0.19176E+07        -0.49283E+08         0.00000E+00
    0.00000E+00         0.00000E+00        -0.49166E+08
 
   -0.48943E+08         0.19432E+07         0.00000E+00
    0.19432E+07        -0.49253E+08         0.00000E+00
    0.00000E+00         0.00000E+00        -0.49166E+08
 
   -0.49006E+08         0.19682E+07         0.00000E+00
    0.19682E+07        -0.49222E+08         0.00000E+00
    0.00000E+00         0.00000E+00        -0.49166E+08
 
   -0.49069E+08         0.19923E+07         0.00000E+00
    0.19923E+07        -0.49191E+08         0.00000E+00
    0.00000E+00         0.00000E+00        -0.49166E+08
 
   -0.49133E+08         0.20158E+07         0.00000E+00
    0.20158E+07        -0.49160E+08         0.00000E+00
    0.00000E+00         0.00000E+00        -0.49166E+08
 
   -0.46394E+08         0.32099E+05         0.00000E+00
    0.32099E+05        -0.50000E+08         0.00000E+00
    0.00000E+00         0.00000E+00        -0.49045E+08
 
   -0.46429E+08         0.94039E+05         0.00000E+00
    0.94039E+05        -0.49999E+08         0.00000E+00
    0.00000E+00         0.00000E+00        -0.49045E+08
 
   -0.46466E+08         0.15516E+06         0.00000E+00
    0.15516E+06        -0.49997E+08         0.00000E+00
    0.00000E+00         0.00000E+00        -0.49045E+08
 
   -0.46503E+08         0.21548E+06         0.00000E+00
    0.21548E+06        -0.49995E+08         0.00000E+00
    0.00000E+00         0.00000E+00        -0.49045E+08
 
   -0.46541E+08         0.27498E+06         0.00000E+00
    0.27498E+06        -0.49991E+08         0.00000E+00
    0.00000E+00         0.00000E+00        -0.49045E+08
 
   -0.46580E+08         0.33368E+06         0.00000E+00
    0.33368E+06        -0.49987E+08         0.00000E+00
    0.00000E+00         0.00000E+00        -0.49045E+08
 
   -0.46621E+08         0.39158E+06         0.00000E+00
    0.39158E+06        -0.49982E+08         0.00000E+00
    0.00000E+00         0.00000E+00        -0.49045E+08
 
   -0.46662E+08         0.44869E+06         0.00000E+00
    0.44869E+06        -0.49977E+08         0.00000E+00
    0.00000E+00         0.00000E+00        -0.49045E+08
 
   -0.46704E+08         0.50501E+06         0.00000E+00
    0.50501E+06        -0.49970E+08         0.00000E+00
    0.00000E+00         0.00000E+00        -0.49045E+08
 
   -0.46747E+08         0.56055E+06         0.00000E+00
    0.56055E+06        -0.49963E+08         0.00000E+00
    0.00000E+00         0.00000E+00        -0.49045E+08
 
   -0.46790E+08         0.61530E+06         0.00000E+00
    0.61530E+06        -0.49955E+08         0.00000E+00
    0.00000E+00         0.00000E+00        -0.49045E+08
 
   -0.46835E+08         0.66928E+06         0.00000E+00
    0.66928E+06        -0.49946E+08         0.00000E+00
    0.00000E+00         0.00000E+00        -0.49045E+08
 
   -0.46880E+08         0.72249E+06         0.00000E+00
    0.72249E+06        -0.49937E+08         0.00000E+00
    0.00000E+00         0.00000E+00        -0.49045E+08
 
   -0.46926E+08         0.77494E+06         0.00000E+00
    0.77494E+06        -0.49927E+08         0.00000E+00
    0.00000E+00         0.00000E+00        -0.49045E+08
 
   -0.46973E+08         0.82663E+06         0.00000E+00
    0.82663E+06        -0.49916E+08         0.00000E+00
    0.00000E+00         0.00000E+00        -0.49045E+08
 
   -0.47020E+08         0.87756E+06         0.00000E+00
    0.87756E+06        -0.49904E+08         0.00000E+00
    0.00000E+00         0.00000E+00        -0.49045E+08
 
   -0.47069E+08         0.92774E+06         0.00000E+00
    0.92774E+06        -0.49892E+08         0.00000E+00
    0.00000E+00         0.00000E+00        -0.49045E+08
 
   -0.47118E+08         0.97717E+06         0.00000E+00
    0.97717E+06        -0.49879E+08         0.00000E+00
    0.00000E+00         0.00000E+00        -0.49045E+08
 
   -0.47168E+08         0.10259E+07         0.00000E+00
    0.10259E+07        -0.49865E+08         0.00000E+00
    0.00000E+00         0.00000E+00        -0.49045E+08
 
   -0.47218E+08         0.10738E+07         0.00000E+00
    0.10738E+07        -0.49851E+08         0.00000E+00
    0.00000E+00         0.00000E+00        -0.49045E+08
 
   -0.47269E+08         0.11211E+07         0.00000E+00
    0.11211E+07        -0.49836E+08         0.00000E+00
    0.00000E+00         0.00000E+00        -0.49045E+08
 
   -0.47321E+08         0.11675E+07         0.00000E+00
    0.11675E+07        -0.49821E+08         0.00000E+00
    0.00000E+00         0.00000E+00        -0.49045E+08
 
   -0.47373E+08         0.12133E+07         0.00000E+00
    0.12133E+07        -0.49804E+08         0.00000E+00
    0.00000E+00         0.00000E+00        -0.49045E+08
 
   -0.47426E+08         0.12584E+07         0.00000E+00
    0.12584E+07        -0.49787E+08         0.00000E+00
    0.00000E+00         0.00000E+00        -0.49045E+08
 
   -0.47480E+08         0.13027E+07         0.00000E+00
    0.13027E+07        -0.49770E+08         0.00000E+00
    0.00000E+00         0.00000E+00        -0.49045E+08
 
   -0.47535E+08         0.13463E+07         0.00000E+00
    0.13463E+07        -0.49751E+08         0.00000E+00
    0.00000E+00         0.00000E+00        -0.49045E+08
 
   -0.47589E+08         0.13892E+07         0.00000E+00
    0.13892E+07        -0.49733E+08         0.00000E+00
    0.00000E+00         0.00000E+00        -0.49045E+08
 
   -0.47645E+08         0.14314E+07         0.00000E+00
    0.14314E+07        -0.49713E+08         0.00000E+00
    0.00000E+00         0.00000E+00        -0.49045E+08
 
   -0.47701E+08         0.14729E+07         0.00000E+00
    0.14729E+07        -0.49693E+08         0.00000E+00
    0.00000E+00         0.00000E+00        -0.49045E+08
 
   -0.47758E+08         0.15137E+07         0.00000E+00
    0.15137E+07        -0.49672E+08         0.00000E+00
    0.00000E+00         0.00000E+00        -0.49045E+08
 
   -0.47815E+08         0.15537E+07         0.00000E+00
    0.15537E+07        -0.49650E+08         0.00000E+00
    0.00000E+00         0.00000E+00        -0.49045E+08
 
   -0.47873E+08         0.15931E+07         0.00000E+00
    0.15931E+07        -0.49628E+08         0.00000E+00
    0.00000E+00         0.00000E+00        -0.49045E+08
 
   -0.47932E+08         0.16318E+07         0.00000E+00
    0.16318E+07        -0.49606E+08         0.00000E+00
    0.00000E+00         0.00000E+00        -0.49045E+08
 
   -0.47991E+08         0.16697E+07         0.00000E+00
    0.16697E+07        -0.49582E+08         0.00000E+00
    0.00000E+00         0.00000E+00        -0.49045E+08
 
   -0.48050E+08         0.17070E+07         0.00000E+00
    0.17070E+07        -0.49558E+08         0.00000E+00
    0.00000E+00         0.00000E+00        -0.49045E+08
 
   -0.48111E+08         0.17435E+07         0.00000E+00
    0.17435E+07        -0.49534E+08         0.00000E+00
    0.00000E+00         0.00000E+00        -0.49045E+08
 
   -0.48171E+08         0.17794E+07         0.00000E+00
    0.17794E+07        -0.49508E+08         0.00000E+00
    0.00000E+00         0.00000E+00        -0.49045E+08
 
   -0.48233E+08         0.18145E+07         0.00000E+00
    0.18145E+07        -0.49482E+08         0.00000E+00
    0.00000E+00         0.00000E+00        -0.49045E+08
 
   -0.48294E+08         0.18490E+07         0.00000E+00
    0.18490E+07        -0.49456E+08         0.00000E+00
    0.00000E+00         0.00000E+00        -0.49045E+08
 
   -0.48357E+08         0.18827E+07         0.00000E+00
    0.18827E+07        -0.49429E+08         0.00000E+00
    0.00000E+00         0.00000E+00        -0.49045E+08
 
   -0.48420E+08         0.19158E+07         0.00000E+00
    0.19158E+07        -0.49401E+08         0.00000E+00
    0.00000E+00         0.00000E+00        -0.49045E+08
 
   -0.48483E+08         0.19481E+07         0.00000E+00
    0.19481E+07        -0.49372E+08         0.00000E+00
    0.00000E+00         0.00000E+00        -0.49045E+08
 
   -0.48547E+08         0.19797E+07         0.00000E+00
    0.19797E+07        -0.49343E+08         0.00000E+00
    0.00000E+00         0.00000E+00        -0.49045E+08
 
   -0.48612E+08         0.20105E+07         0.00000E+00
    0.20105E+07        -0.49313E+08         0.00000E+00
    0.00000E+00         0.00000E+00        -0.49045E+08
 
   -0.48677E+08         0.20407E+07         0.00000E+00
    0.20407E+07        -0.49283E+08         0.00000E+00
    0.00000E+00         0.00000E+00        -0.49045E+08
 
   -0.48743E+08         0.20701E+07         0.00000E+00
    0.20701E+07        -0.49252E+08         0.00000E+00
    0.00000E+00         0.00000E+00        -0.49045E+08
 
   -0.48809E+08         0.20988E+07         0.00000E+00
    0.20988E+07        -0.49220E+08         0.00000E+00
    0.00000E+00         0.00000E+00        -0.49045E+08
 
   -0.48876E+08         0.21267E+07         0.00000E+00
    0.21267E+07        -0.49188E+08         0.00000E+00
    0.00000E+00         0.00000E+00        -0.49045E+08
 
   -0.48943E+08         0.21540E+07         0.00000E+00
    0.21540E+07        -0.49155E+08         0.00000E+00
    0.00000E+00         0.00000E+00        -0.49045E+08
 
   -0.49011E+08         0.21804E+07         0.00000E+00
    0.21804E+07        -0.49122E+08         0.00000E+00
    0.00000E+00         0.00000E+00        -0.49045E+08
 
   -0.46072E+08         0.34348E+05         0.00000E+00
    0.34348E+05        -0.50000E+08         0.00000E+00
    0.00000E+00         0.00000E+00        -0.48908E+08
 
   -0.46111E+08         0.10058E+06         0.00000E+00
    0.10058E+06        -0.49999E+08         0.00000E+00
    0.00000E+00         0.00000E+00        -0.48908E+08
 
   -0.46152E+08         0.16592E+06         0.00000E+00
    0.16592E+06        -0.49997E+08         0.00000E+00
    0.00000E+00         0.00000E+00        -0.48908E+08
 
   -0.46193E+08         0.23038E+06         0.00000E+00
    0.23038E+06        -0.49995E+08         0.00000E+00
    0.00000E+00         0.00000E+00        -0.48908E+08
 
   -0.46236E+08         0.29396E+06         0.00000E+00
    0.29396E+06        -0.49991E+08         0.00000E+00
    0.00000E+00         0.00000E+00        -0.48908E+08
 
   -0.46279E+08         0.35668E+06         0.00000E+00
    0.35668E+06        -0.49987E+08         0.00000E+00
    0.00000E+00         0.00000E+00        -0.48908E+08
 
   -0.46323E+08         0.41854E+06         0.00000E+00
    0.41854E+06        -0.49982E+08         0.00000E+00
    0.00000E+00         0.00000E+00        -0.48908E+08
 
   -0.46368E+08         0.47955E+06         0.00000E+00
    0.47955E+06        -0.49976E+08         0.00000E+00
    0.00000E+00         0.00000E+00        -0.48908E+08
 
   -0.46414E+08         0.53972E+06         0.00000E+00
    0.53972E+06        -0.49969E+08         0.00000E+00
    0.00000E+00         0.00000E+00        -0.48908E+08
 
   -0.46461E+08         0.59906E+06         0.00000E+00
    0.59906E+06        -0.49962E+08         0.00000E+00
    0.00000E+00         0.00000E+00        -0.48908E+08
 
   -0.46509E+08         0.65756E+06         0.00000E+00
    0.65756E+06        -0.49954E+08         0.00000E+00
    0.00000E+00         0.00000E+00        -0.48908E+08
 
   -0.46557E+08         0.71525E+06         0.00000E+00
    0.71525E+06        -0.49945E+08         0.00000E+00
    0.00000E+00         0.00000E+00        -0.48908E+08
 
   -0.46607E+08         0.77212E+06         0.00000E+00
    0.77212E+06        -0.49935E+08         0.00000E+00
    0.00000E+00         0.00000E+00        -0.48908E+08
 
   -0.46657E+08         0.82819E+06         0.00000E+00
    0.82819E+06        -0.49925E+08         0.00000E+00
    0.00000E+00         0.00000E+00        -0.48908E+08
 
   -0.46707E+08         0.88347E+06         0.00000E+00
    0.88347E+06        -0.49914E+08         0.00000E+00
    0.00000E+00         0.00000E+00        -0.48908E+08
 
   -0.46759E+08         0.93795E+06         0.00000E+00
    0.93795E+06        -0.49902E+08         0.00000E+00
    0.00000E+00         0.00000E+00        -0.48908E+08
 
   -0.46811E+08         0.99165E+06         0.00000E+00
    0.99165E+06        -0.49889E+08         0.00000E+00
    0.00000E+00         0.00000E+00        -0.48908E+08
 
   -0.46864E+08         0.10446E+07         0.00000E+00
    0.10446E+07        -0.49876E+08         0.00000E+00
    0.00000E+00         0.00000E+00        -0.48908E+08
 
   -0.46917E+08         0.10967E+07         0.00000E+00
    0.10967E+07        -0.49862E+08         0.00000E+00
    0.00000E+00         0.00000E+00        -0.48908E+08
 
   -0.46972E+08         0.11481E+07         0.00000E+00
    0.11481E+07        -0.49847E+08         0.00000E+00
    0.00000E+00         0.00000E+00        -0.48908E+08
 
   -0.47026E+08         0.11988E+07         0.00000E+00
    0.11988E+07        -0.49832E+08         0.00000E+00
    0.00000E+00         0.00000E+00        -0.48908E+08
 
   -0.47082E+08         0.12487E+07         0.00000E+00
    0.12487E+07        -0.49815E+08         0.00000E+00
    0.00000E+00         0.00000E+00        -0.48908E+08
 
   -0.47138E+08         0.12978E+07         0.00000E+00
    0.12978E+07        -0.49799E+08         0.00000E+00
    0.00000E+00         0.00000E+00        -0.48908E+08
 
   -0.47195E+08         0.13462E+07         0.00000E+00
    0.13462E+07        -0.49781E+08         0.00000E+00
    0.00000E+00         0.00000E+00        -0.48908E+08
 
   -0.47252E+08         0.13939E+07         0.00000E+00
    0.13939E+07        -0.49763E+08         0.00000E+00
    0.00000E+00         0.00000E+00        -0.48908E+08
 
   -0.47310E+08         0.14408E+07         0.00000E+00
    0.14408E+07        -0.49744E+08         0.00000E+00
    0.00000E+00         0.00000E+00        -0.48908E+08
 
   -0.47368E+08         0.14871E+07         0.00000E+00
    0.14871E+07        -0.49725E+08         0.00000E+00
    0.00000E+00         0.00000E+00        -0.48908E+08
 
   -0.47428E+08         0.15326E+07         0.00000E+00
    0.15326E+07        -0.49704E+08         0.00000E+00
    0.00000E+00         0.00000E+00        -0.48908E+08
 
   -0.47487E+08         0.15773E+07         0.00000E+00
    0.15773E+07        -0.49683E+08         0.00000E+00
    0.00000E+00         0.00000E+00        -0.48908E+08
 
   -0.47548E+08         0.16214E+07         0.00000E+00
    0.16214E+07        -0.49662E+08         0.00000E+00
    0.00000E+00         0.00000E+00        -0.48908E+08
 
   -0.47608E+08         0.16648E+07         0.00000E+00
    0.16648E+07        -0.49639E+08         0.00000E+00
    0.00000E+00         0.00000E+00        -0.48908E+08
 
   -0.47670E+08         0.17074E+07         0.00000E+00
    0.17074E+07        -0.49617E+08         0.00000E+00
    0.00000E+00         0.00000E+00        -0.48908E+08
 
   -0.47732E+08         0.17494E+07         0.00000E+00
    0.17494E+07        -0.49593E+08         0.00000E+00
    0.00000E+00         0.00000E+00        -0.48908E+08
 
   -0.47794E+08         0.17906E+07         0.00000E+00
    0.17906E+07        -0.49569E+08         0.00000E+00
    0.00000E+00         0.00000E+00        -0.48908E+08
 
   -0.47858E+08         0.18312E+07         0.00000E+00
    0.18312E+07        -0.49544E+08         0.00000E+00
    0.00000E+00         0.00000E+00        -0.48908E+08
 
   -0.47921E+08         0.18710E+07         0.00000E+00
    0.18710E+07        -0.49518E+08         0.00000E+00
    0.00000E+00         0.00000E+00        -0.48908E+08
 
   -0.47986E+08         0.19102E+07         0.00000E+00
    0.19102E+07        -0.49492E+08         0.00000E+00
    0.00000E+00         0.00000E+00        -0.48908E+08
 
   -0.48050E+08         0.19486E+07         0.00000E+00
    0.19486E+07        -0.49465E+08         0.00000E+00
    0.00000E+00         0.00000E+00        -0.48908E+08
 
   -0.48116E+08         0.19864E+07         0.00000E+00
    0.19864E+07        -0.49437E+08         0.00000E+00
    0.00000E+00         0.00000E+00        -0.48908E+08
 
   -0.48182E+08         0.20234E+07         0.00000E+00
    0.20234E+07        -0.49408E+08         0.00000E+00
    0.00000E+00         0.00000E+00        -0.48908E+08
 
   -0.48248E+08         0.20597E+07         0.00000E+00
    0.20597E+07        -0.49379E+08         0.00000E+00
    0.00000E+00         0.00000E+00        -0.48908E+08
 
   -0.48315E+08         0.20953E+07         0.00000E+00
    0.20953E+07        -0.49350E+08         0.00000E+00
    0.00000E+00         0.00000E+00        -0.48908E+08
 
   -0.48383E+08         0.21303E+07         0.00000E+00
    0.21303E+07        -0.49319E+08         0.00000E+00
    0.00000E+00         0.00000E+00        -0.48908E+08
 
   -0.48451E+08         0.21645E+07         0.00000E+00
    0.21645E+07        -0.49288E+08         0.00000E+00
    0.00000E+00         0.00000E+00        -0.48908E+08
 
   -0.48520E+08         0.21979E+07         0.00000E+00
    0.21979E+07        -0.49256E+08         0.00000E+00
    0.00000E+00         0.00000E+00        -0.48908E+08
 
   -0.48589E+08         0.22307E+07         0.00000E+00
    0.22307E+07        -0.49224E+08         0.00000E+00
    0.00000E+00         0.00000E+00        -0.48908E+08
 
   -0.48659E+08         0.22627E+07         0.00000E+00
    0.22627E+07        -0.49190E+08         0.00000E+00
    0.00000E+00         0.00000E+00        -0.48908E+08
 
   -0.48729E+08         0.22940E+07         0.00000E+00
    0.22940E+07        -0.49156E+08         0.00000E+00
    0.00000E+00         0.00000E+00        -0.48908E+08
 
   -0.48800E+08         0.23246E+07         0.00000E+00
    0.23246E+07        -0.49122E+08         0.00000E+00
    0.00000E+00         0.00000E+00        -0.48908E+08
 
   -0.48872E+08         0.23544E+07         0.00000E+00
    0.23544E+07        -0.49086E+08         0.00000E+00
    0.00000E+00         0.00000E+00        -0.48908E+08
 
   -0.45727E+08         0.36651E+05         0.00000E+00
    0.36651E+05        -0.50000E+08         0.00000E+00
    0.00000E+00         0.00000E+00        -0.48753E+08
 
   -0.45771E+08         0.10727E+06         0.00000E+00
    0.10727E+06        -0.49999E+08         0.00000E+00
    0.00000E+00         0.00000E+00        -0.48753E+08
 
   -0.45816E+08         0.17692E+06         0.00000E+00
    0.17692E+06        -0.49997E+08         0.00000E+00
    0.00000E+00         0.00000E+00        -0.48753E+08
 
   -0.45862E+08         0.24562E+06         0.00000E+00
    0.24562E+06        -0.49994E+08         0.00000E+00
    0.00000E+00         0.00000E+00        -0.48753E+08
 
   -0.45909E+08         0.31338E+06         0.00000E+00
    0.31338E+06        -0.49991E+08         0.00000E+00
    0.00000E+00         0.00000E+00        -0.48753E+08
 
   -0.45957E+08         0.38022E+06         0.00000E+00
    0.38022E+06        -0.49987E+08         0.00000E+00
    0.00000E+00         0.00000E+00        -0.48753E+08
 
   -0.46006E+08         0.44613E+06         0.00000E+00
    0.44613E+06        -0.49981E+08         0.00000E+00
    0.00000E+00         0.00000E+00        -0.48753E+08
 
   -0.46056E+08         0.51114E+06         0.00000E+00
    0.51114E+06        -0.49975E+08         0.00000E+00
    0.00000E+00         0.00000E+00        -0.48753E+08
 
   -0.46106E+08         0.57525E+06         0.00000E+00
    0.57525E+06        -0.49969E+08         0.00000E+00
    0.00000E+00         0.00000E+00        -0.48753E+08
 
   -0.46157E+08         0.63848E+06         0.00000E+00
    0.63848E+06        -0.49961E+08         0.00000E+00
    0.00000E+00         0.00000E+00        -0.48753E+08
 
   -0.46209E+08         0.70083E+06         0.00000E+00
    0.70083E+06        -0.49953E+08         0.00000E+00
    0.00000E+00         0.00000E+00        -0.48753E+08
 
   -0.46262E+08         0.76232E+06         0.00000E+00
    0.76232E+06        -0.49944E+08         0.00000E+00
    0.00000E+00         0.00000E+00        -0.48753E+08
 
   -0.46315E+08         0.82296E+06         0.00000E+00
    0.82296E+06        -0.49934E+08         0.00000E+00
    0.00000E+00         0.00000E+00        -0.48753E+08
 
   -0.46369E+08         0.88276E+06         0.00000E+00
    0.88276E+06        -0.49923E+08         0.00000E+00
    0.00000E+00         0.00000E+00        -0.48753E+08
 
   -0.46424E+08         0.94173E+06         0.00000E+00
    0.94173E+06        -0.49912E+08         0.00000E+00
    0.00000E+00         0.00000E+00        -0.48753E+08
 
   -0.46479E+08         0.99988E+06         0.00000E+00
    0.99988E+06        -0.49900E+08         0.00000E+00
    0.00000E+00         0.00000E+00        -0.48753E+08
 
   -0.46535E+08         0.10572E+07         0.00000E+00
    0.10572E+07        -0.49887E+08         0.00000E+00
    0.00000E+00         0.00000E+00        -0.48753E+08
 
   -0.46592E+08         0.11138E+07         0.00000E+00
    0.11138E+07        -0.49873E+08         0.00000E+00
    0.00000E+00         0.00000E+00        -0.48753E+08
 
   -0.46649E+08         0.11695E+07         0.00000E+00
    0.11695E+07        -0.49859E+08         0.00000E+00
    0.00000E+00         0.00000E+00        -0.48753E+08
 
   -0.46708E+08         0.12245E+07         0.00000E+00
    0.12245E+07        -0.49844E+08         0.00000E+00
    0.00000E+00         0.00000E+00        -0.48753E+08
 
   -0.46766E+08         0.12786E+07         0.00000E+00
    0.12786E+07        -0.49828E+08         0.00000E+00
    0.00000E+00         0.00000E+00        -0.48753E+08
 
   -0.46825E+08         0.13321E+07         0.00000E+00
    0.13321E+07        -0.49811E+08         0.00000E+00
    0.00000E+00         0.00000E+00        -0.48753E+08
 
   -0.46885E+08         0.13847E+07         0.00000E+00
    0.13847E+07        -0.49794E+08         0.00000E+00
    0.00000E+00         0.00000E+00        -0.48753E+08
 
   -0.46946E+08         0.14367E+07         0.00000E+00
    0.14367E+07        -0.49776E+08         0.00000E+00
    0.00000E+00         0.00000E+00        -0.48753E+08
 
   -0.47007E+08         0.14878E+07         0.00000E+00
    0.14878E+07        -0.49757E+08         0.00000E+00
    0.00000E+00         0.00000E+00        -0.48753E+08
 
   -0.47068E+08         0.15383E+07         0.00000E+00
    0.15383E+07        -0.49738E+08         0.00000E+00
    0.00000E+00         0.00000E+00        -0.48753E+08
 
   -0.47130E+08         0.15880E+07         0.00000E+00
    0.15880E+07        -0.49718E+08         0.00000E+00
    0.00000E+00         0.00000E+00        -0.48753E+08
 
   -0.47193E+08         0.16370E+07         0.00000E+00
    0.16370E+07        -0.49697E+08         0.00000E+00
    0.00000E+00         0.00000E+00        -0.48753E+08
 
   -0.47256E+08         0.16853E+07         0.00000E+00
    0.16853E+07        -0.49676E+08         0.00000E+00
    0.00000E+00         0.00000E+00        -0.48753E+08
 
   -0.47320E+08         0.17328E+07         0.00000E+00
    0.17328E+07        -0.49653E+08         0.00000E+00
    0.00000E+00         0.00000E+00        -0.48753E+08
 
   -0.47385E+08         0.17797E+07         0.00000E+00
    0.17797E+07        -0.49630E+08         0.00000E+00
    0.00000E+00         0.00000E+00        -0.48753E+08
 
   -0.47450E+08         0.18258E+07         0.00000E+00
    0.18258E+07        -0.49607E+08         0.00000E+00
    0.00000E+00         0.00000E+00        -0.48753E+08
 
   -0.47515E+08         0.18713E+07         0.00000E+00
    0.18713E+07        -0.49582E+08         0.00000E+00
    0.00000E+00         0.00000E+00        -0.48753E+08
 
   -0.47581E+08         0.19160E+07         0.00000E+00
    0.19160E+07        -0.49557E+08         0.00000E+00
    0.00000E+00         0.00000E+00        -0.48753E+08
 
   -0.47648E+08         0.19601E+07         0.00000E+00
    0.19601E+07        -0.49531E+08         0.00000E+00
    0.00000E+00         0.00000E+00        -0.48753E+08
 
   -0.47715E+08         0.20035E+07         0.00000E+00
    0.20035E+07        -0.49505E+08         0.00000E+00
    0.00000E+00         0.00000E+00        -0.48753E+08
 
   -0.47783E+08         0.20462E+07         0.00000E+00
    0.20462E+07        -0.49477E+08         0.00000E+00
    0.00000E+00         0.00000E+00        -0.48753E+08
 
   -0.47851E+08         0.20881E+07         0.00000E+00
    0.20881E+07        -0.49449E+08         0.00000E+00
    0.00000E+00         0.00000E+00        -0.48753E+08
 
   -0.47920E+08         0.21294E+07         0.00000E+00
    0.21294E+07        -0.49421E+08         0.00000E+00
    0.00000E+00         0.00000E+00        -0.48753E+08
 
   -0.47989E+08         0.21700E+07         0.00000E+00
    0.21700E+07        -0.49391E+08         0.00000E+00
    0.00000E+00         0.00000E+00        -0.48753E+08
 
   -0.48059E+08         0.22100E+07         0.00000E+00
    0.22100E+07        -0.49361E+08         0.00000E+00
    0.00000E+00         0.00000E+00        -0.48753E+08
 
   -0.48130E+08         0.22492E+07         0.00000E+00
    0.22492E+07        -0.49330E+08         0.00000E+00
    0.00000E+00         0.00000E+00        -0.48753E+08
 
   -0.48201E+08         0.22877E+07         0.00000E+00
    0.22877E+07        -0.49298E+08         0.00000E+00
    0.00000E+00         0.00000E+00        -0.48753E+08
 
   -0.48273E+08         0.23255E+07         0.00000E+00
    0.23255E+07        -0.49265E+08         0.00000E+00
    0.00000E+00         0.00000E+00        -0.48753E+08
 
   -0.48345E+08         0.23627E+07         0.00000E+00
    0.23627E+07        -0.49232E+08         0.00000E+00
    0.00000E+00         0.00000E+00        -0.48753E+08
 
   -0.48418E+08         0.23991E+07         0.00000E+00
    0.23991E+07        -0.49198E+08         0.00000E+00
    0.00000E+00         0.00000E+00        -0.48753E+08
 
   -0.48491E+08         0.24348E+07         0.00000E+00
    0.24348E+07        -0.49163E+08         0.00000E+00
    0.00000E+00         0.00000E+00        -0.48753E+08
 
   -0.48565E+08         0.24698E+07         0.00000E+00
    0.24698E+07        -0.49128E+08         0.00000E+00
    0.00000E+00         0.00000E+00        -0.48753E+08
 
   -0.48640E+08         0.25041E+07         0.00000E+00
    0.25041E+07        -0.49091E+08         0.00000E+00
    0.00000E+00         0.00000E+00        -0.48753E+08
 
   -0.48715E+08         0.25376E+07         0.00000E+00
    0.25376E+07        -0.49054E+08         0.00000E+00
    0.00000E+00         0.00000E+00        -0.48753E+08
 
   -0.45360E+08         0.38991E+05         0.00000E+00
    0.38991E+05        -0.50000E+08         0.00000E+00
    0.00000E+00         0.00000E+00        -0.48579E+08
 
   -0.45410E+08         0.11406E+06         0.00000E+00
    0.11406E+06        -0.49999E+08         0.00000E+00
    0.00000E+00         0.00000E+00        -0.48579E+08
 
   -0.45460E+08         0.18810E+06         0.00000E+00
    0.18810E+06        -0.49997E+08         0.00000E+00
    0.00000E+00         0.00000E+00        -0.48579E+08
 
   -0.45511E+08         0.26111E+06         0.00000E+00
    0.26111E+06        -0.49994E+08         0.00000E+00
    0.00000E+00         0.00000E+00        -0.48579E+08
 
   -0.45562E+08         0.33311E+06         0.00000E+00
    0.33311E+06        -0.49991E+08         0.00000E+00
    0.00000E+00         0.00000E+00        -0.48579E+08
 
   -0.45615E+08         0.40412E+06         0.00000E+00
    0.40412E+06        -0.49986E+08         0.00000E+00
    0.00000E+00         0.00000E+00        -0.48579E+08
 
   -0.45668E+08         0.47415E+06         0.00000E+00
    0.47415E+06        -0.49981E+08         0.00000E+00
    0.00000E+00         0.00000E+00        -0.48579E+08
 
   -0.45723E+08         0.54322E+06         0.00000E+00
    0.54322E+06        -0.49975E+08         0.00000E+00
    0.00000E+00         0.00000E+00        -0.48579E+08
 
   -0.45777E+08         0.61135E+06         0.00000E+00
    0.61135E+06        -0.49968E+08         0.00000E+00
    0.00000E+00         0.00000E+00        -0.48579E+08
 
   -0.45833E+08         0.67854E+06         0.00000E+00
    0.67854E+06        -0.49961E+08         0.00000E+00
    0.00000E+00         0.00000E+00        -0.48579E+08
 
   -0.45889E+08         0.74482E+06         0.00000E+00
    0.74482E+06        -0.49952E+08         0.00000E+00
    0.00000E+00         0.00000E+00        -0.48579E+08
 
   -0.45947E+08         0.81019E+06         0.00000E+00
    0.81019E+06        -0.49943E+08         0.00000E+00
    0.00000E+00         0.00000E+00        -0.48579E+08
 
   -0.46004E+08         0.87468E+06         0.00000E+00
    0.87468E+06        -0.49933E+08         0.00000E+00
    0.00000E+00         0.00000E+00        -0.48579E+08
 
   -0.46063E+08         0.93829E+06         0.00000E+00
    0.93829E+06        -0.49922E+08         0.00000E+00
    0.00000E+00         0.00000E+00        -0.48579E+08
 
   -0.46122E+08         0.10010E+07         0.00000E+00
    0.10010E+07        -0.49911E+08         0.00000E+00
    0.00000E+00         0.00000E+00        -0.48579E+08
 
   -0.46181E+08         0.10629E+07         0.00000E+00
    0.10629E+07        -0.49898E+08         0.00000E+00
    0.00000E+00         0.00000E+00        -0.48579E+08
 
   -0.46241E+08         0.11240E+07         0.00000E+00
    0.11240E+07        -0.49885E+08         0.00000E+00
    0.00000E+00         0.00000E+00        -0.48579E+08
 
   -0.46302E+08         0.11843E+07         0.00000E+00
    0.11843E+07        -0.49871E+08         0.00000E+00
    0.00000E+00         0.00000E+00        -0.48579E+08
 
   -0.46363E+08         0.12437E+07         0.00000E+00
    0.12437E+07        -0.49857E+08         0.00000E+00
    0.00000E+00         0.00000E+00        -0.48579E+08
 
   -0.46425E+08         0.13024E+07         0.00000E+00
    0.13024E+07        -0.49842E+08         0.00000E+00
    0.00000E+00         0.00000E+00        -0.48579E+08
 
   -0.46488E+08         0.13602E+07         0.00000E+00
    0.13602E+07        -0.49825E+08         0.00000E+00
    0.00000E+00         0.00000E+00        -0.48579E+08
 
   -0.46551E+08         0.14173E+07         0.00000E+00
    0.14173E+07        -0.49809E+08         0.00000E+00
    0.00000E+00         0.00000E+00        -0.48579E+08
 
   -0.46615E+08         0.14736E+07         0.00000E+00
    0.14736E+07        -0.49791E+08         0.00000E+00
    0.00000E+00         0.00000E+00        -0.48579E+08
 
   -0.46679E+08         0.15292E+07         0.00000E+00
    0.15292E+07        -0.49773E+08         0.00000E+00
    0.00000E+00         0.00000E+00        -0.48579E+08
 
   -0.46743E+08         0.15840E+07         0.00000E+00
    0.15840E+07        -0.49754E+08         0.00000E+00
    0.00000E+00         0.00000E+00        -0.48579E+08
 
   -0.46809E+08         0.16381E+07         0.00000E+00
    0.16381E+07        -0.49734E+08         0.00000E+00
    0.00000E+00         0.00000E+00        -0.48579E+08
 
   -0.46874E+08         0.16915E+07         0.00000E+00
    0.16915E+07        -0.49713E+08         0.00000E+00
    0.00000E+00         0.00000E+00        -0.48579E+08
 
   -0.46941E+08         0.17441E+07         0.00000E+00
    0.17441E+07        -0.49692E+08         0.00000E+00
    0.00000E+00         0.00000E+00        -0.48579E+08
 
   -0.47008E+08         0.17961E+07         0.00000E+00
    0.17961E+07        -0.49670E+08         0.00000E+00
    0.00000E+00         0.00000E+00        -0.48579E+08
 
   -0.47075E+08         0.18473E+07         0.00000E+00
    0.18473E+07        -0.49647E+08         0.00000E+00
    0.00000E+00         0.00000E+00        -0.48579E+08
 
   -0.47143E+08         0.18979E+07         0.00000E+00
    0.18979E+07        -0.49624E+08         0.00000E+00
    0.00000E+00         0.00000E+00        -0.48579E+08
 
   -0.47211E+08         0.19477E+07         0.00000E+00
    0.19477E+07        -0.49599E+08         0.00000E+00
    0.00000E+00         0.00000E+00        -0.48579E+08
 
   -0.47280E+08         0.19969E+07         0.00000E+00
    0.19969E+07        -0.49574E+08         0.00000E+00
    0.00000E+00         0.00000E+00        -0.48579E+08
 
   -0.47350E+08         0.20454E+07         0.00000E+00
    0.20454E+07        -0.49548E+08         0.00000E+00
    0.00000E+00         0.00000E+00        -0.48579E+08
 
   -0.47420E+08         0.20932E+07         0.00000E+00
    0.20932E+07        -0.49522E+08         0.00000E+00
    0.00000E+00         0.00000E+00        -0.48579E+08
 
   -0.47490E+08         0.21404E+07         0.00000E+00
    0.21404E+07        -0.49494E+08         0.00000E+00
    0.00000E+00         0.00000E+00        -0.48579E+08
 
   -0.47562E+08         0.21868E+07         0.00000E+00
    0.21868E+07        -0.49466E+08         0.00000E+00
    0.00000E+00         0.00000E+00        -0.48579E+08
 
   -0.47633E+08         0.22326E+07         0.00000E+00
    0.22326E+07        -0.49437E+08         0.00000E+00
    0.00000E+00         0.00000E+00        -0.48579E+08
 
   -0.47706E+08         0.22778E+07         0.00000E+00
    0.22778E+07        -0.49408E+08         0.00000E+00
    0.00000E+00         0.00000E+00        -0.48579E+08
 
   -0.47778E+08         0.23223E+07         0.00000E+00
    0.23223E+07        -0.49377E+08         0.00000E+00
    0.00000E+00         0.00000E+00        -0.48579E+08
 
   -0.47852E+08         0.23661E+07         0.00000E+00
    0.23661E+07        -0.49346E+08         0.00000E+00
    0.00000E+00         0.00000E+00        -0.48579E+08
 
   -0.47926E+08         0.24092E+07         0.00000E+00
    0.24092E+07        -0.49313E+08         0.00000E+00
    0.00000E+00         0.00000E+00        -0.48579E+08
 
   -0.48000E+08         0.24517E+07         0.00000E+00
    0.24517E+07        -0.49280E+08         0.00000E+00
    0.00000E+00         0.00000E+00        -0.48579E+08
 
   -0.48075E+08         0.24935E+07         0.00000E+00
    0.24935E+07        -0.49247E+08         0.00000E+00
    0.00000E+00         0.00000E+00        -0.48579E+08
 
   -0.48151E+08         0.25346E+07         0.00000E+00
    0.25346E+07        -0.49212E+08         0.00000E+00
    0.00000E+00         0.00000E+00        -0.48579E+08
 
   -0.48228E+08         0.25750E+07         0.00000E+00
    0.25750E+07        -0.49177E+08         0.00000E+00
    0.00000E+00         0.00000E+00        -0.48579E+08
 
   -0.48304E+08         0.26148E+07         0.00000E+00
    0.26148E+07        -0.49140E+08         0.00000E+00
    0.00000E+00         0.00000E+00        -0.48579E+08
 
   -0.48382E+08         0.26538E+07         0.00000E+00
    0.26538E+07        -0.49103E+08         0.00000E+00
    0.00000E+00         0.00000E+00        -0.48579E+08
 
   -0.48460E+08         0.26922E+07         0.00000E+00
    0.26922E+07        -0.49065E+08         0.00000E+00
    0.00000E+00         0.00000E+00        -0.48579E+08
 
   -0.48539E+08         0.27299E+07         0.00000E+00
    0.27299E+07        -0.49026E+08         0.00000E+00
    0.00000E+00         0.00000E+00        -0.48579E+08
 
   -0.44971E+08         0.41347E+05         0.00000E+00
    0.41347E+05        -0.50000E+08         0.00000E+00
    0.00000E+00         0.00000E+00        -0.48383E+08
 
   -0.45026E+08         0.12090E+06         0.00000E+00
    0.12090E+06        -0.49999E+08         0.00000E+00
    0.00000E+00         0.00000E+00        -0.48383E+08
 
   -0.45081E+08         0.19934E+06         0.00000E+00
    0.19934E+06        -0.49997E+08         0.00000E+00
    0.00000E+00         0.00000E+00        -0.48383E+08
 
   -0.45137E+08         0.27669E+06         0.00000E+00
    0.27669E+06        -0.49994E+08         0.00000E+00
    0.00000E+00         0.00000E+00        -0.48383E+08
 
   -0.45194E+08         0.35297E+06         0.00000E+00
    0.35297E+06        -0.49991E+08         0.00000E+00
    0.00000E+00         0.00000E+00        -0.48383E+08
 
   -0.45252E+08         0.42819E+06         0.00000E+00
    0.42819E+06        -0.49986E+08         0.00000E+00
    0.00000E+00         0.00000E+00        -0.48383E+08
 
   -0.45310E+08         0.50237E+06         0.00000E+00
    0.50237E+06        -0.49981E+08         0.00000E+00
    0.00000E+00         0.00000E+00        -0.48383E+08
 
   -0.45369E+08         0.57554E+06         0.00000E+00
    0.57554E+06        -0.49975E+08         0.00000E+00
    0.00000E+00         0.00000E+00        -0.48383E+08
 
   -0.45429E+08         0.64772E+06         0.00000E+00
    0.64772E+06        -0.49968E+08         0.00000E+00
    0.00000E+00         0.00000E+00        -0.48383E+08
 
   -0.45489E+08         0.71892E+06         0.00000E+00
    0.71892E+06        -0.49961E+08         0.00000E+00
    0.00000E+00         0.00000E+00        -0.48383E+08
 
   -0.45550E+08         0.78916E+06         0.00000E+00
    0.78916E+06        -0.49952E+08         0.00000E+00
    0.00000E+00         0.00000E+00        -0.48383E+08
 
   -0.45612E+08         0.85846E+06         0.00000E+00
    0.85846E+06        -0.49943E+08         0.00000E+00
    0.00000E+00         0.00000E+00        -0.48383E+08
 
   -0.45674E+08         0.92685E+06         0.00000E+00
    0.92685E+06        -0.49933E+08         0.00000E+00
    0.00000E+00         0.00000E+00        -0.48383E+08
 
   -0.45737E+08         0.99433E+06         0.00000E+00
    0.99433E+06        -0.49922E+08         0.00000E+00
    0.00000E+00         0.00000E+00        -0.48383E+08
 
   -0.45800E+08         0.10609E+07         0.00000E+00
    0.10609E+07        -0.49910E+08         0.00000E+00
    0.00000E+00         0.00000E+00        -0.48383E+08
 
   -0.45864E+08         0.11267E+07         0.00000E+00
    0.11267E+07        -0.49898E+08         0.00000E+00
    0.00000E+00         0.00000E+00        -0.48383E+08
 
   -0.45928E+08         0.11915E+07         0.00000E+00
    0.11915E+07        -0.49885E+08         0.00000E+00
    0.00000E+00         0.00000E+00        -0.48383E+08
 
   -0.45993E+08         0.12556E+07         0.00000E+00
    0.12556E+07        -0.49871E+08         0.00000E+00
    0.00000E+00         0.00000E+00        -0.48383E+08
 
   -0.46059E+08         0.13188E+07         0.00000E+00
    0.13188E+07        -0.49856E+08         0.00000E+00
    0.00000E+00         0.00000E+00        -0.48383E+08
 
   -0.46125E+08         0.13812E+07         0.00000E+00
    0.13812E+07        -0.49841E+08         0.00000E+00
    0.00000E+00         0.00000E+00        -0.48383E+08
 
   -0.46191E+08         0.14429E+07         0.00000E+00
    0.14429E+07        -0.49825E+08         0.00000E+00
    0.00000E+00         0.00000E+00        -0.48383E+08
 
   -0.46258E+08         0.15037E+07         0.00000E+00
    0.15037E+07        -0.49808E+08         0.00000E+00
    0.00000E+00         0.00000E+00        -0.48383E+08
 
   -0.46325E+08         0.15638E+07         0.00000E+00
    0.15638E+07        -0.49790E+08         0.00000E+00
    0.00000E+00         0.00000E+00        -0.48383E+08
 
   -0.46393E+08         0.16232E+07         0.00000E+00
    0.16232E+07        -0.49771E+08         0.00000E+00
    0.00000E+00         0.00000E+00        -0.48383E+08
 
   -0.46462E+08         0.16818E+07         0.00000E+00
    0.16818E+07        -0.49752E+08         0.00000E+00
    0.00000E+00         0.00000E+00        -0.48383E+08
 
   -0.46530E+08         0.17397E+07         0.00000E+00
    0.17397E+07        -0.49732E+08         0.00000E+00
    0.00000E+00         0.00000E+00        -0.48383E+08
 
   -0.46600E+08         0.17969E+07         0.00000E+00
    0.17969E+07        -0.49711E+08         0.00000E+00
    0.00000E+00         0.00000E+00        -0.48383E+08
 
   -0.46670E+08         0.18534E+07         0.00000E+00
    0.18534E+07        -0.49689E+08         0.00000E+00
    0.00000E+00         0.00000E+00        -0.48383E+08
 
   -0.46740E+08         0.19092E+07         0.00000E+00
    0.19092E+07        -0.49667E+08         0.00000E+00
    0.00000E+00         0.00000E+00        -0.48383E+08
 
   -0.46811E+08         0.19643E+07         0.00000E+00
    0.19643E+07        -0.49644E+08         0.00000E+00
    0.00000E+00         0.00000E+00        -0.48383E+08
 
   -0.46882E+08         0.20187E+07         0.00000E+00
    0.20187E+07        -0.49620E+08         0.00000E+00
    0.00000E+00         0.00000E+00        -0.48383E+08
 
   -0.46954E+08         0.20725E+07         0.00000E+00
    0.20725E+07        -0.49595E+08         0.00000E+00
    0.00000E+00         0.00000E+00        -0.48383E+08
 
   -0.47026E+08         0.21256E+07         0.00000E+00
    0.21256E+07        -0.49570E+08         0.00000E+00
    0.00000E+00         0.00000E+00        -0.48383E+08
 
   -0.47099E+08         0.21781E+07         0.00000E+00
    0.21781E+07        -0.49543E+08         0.00000E+00
    0.00000E+00         0.00000E+00        -0.48383E+08
 
   -0.47172E+08         0.22299E+07         0.00000E+00
    0.22299E+07        -0.49516E+08         0.00000E+00
    0.00000E+00         0.00000E+00        -0.48383E+08
 
   -0.47246E+08         0.22811E+07         0.00000E+00
    0.22811E+07        -0.49488E+08         0.00000E+00
    0.00000E+00         0.00000E+00        -0.48383E+08
 
   -0.47321E+08         0.23316E+07         0.00000E+00
    0.23316E+07        -0.49459E+08         0.00000E+00
    0.00000E+00         0.00000E+00        -0.48383E+08
 
   -0.47396E+08         0.23815E+07         0.00000E+00
    0.23815E+07        -0.49429E+08         0.00000E+00
    0.00000E+00         0.00000E+00        -0.48383E+08
 
   -0.47471E+08         0.24308E+07         0.00000E+00
    0.24308E+07        -0.49399E+08         0.00000E+00
    0.00000E+00         0.00000E+00        -0.48383E+08
 
   -0.47547E+08         0.24794E+07         0.00000E+00
    0.24794E+07        -0.49367E+08         0.00000E+00
    0.00000E+00         0.00000E+00        -0.48383E+08
 
   -0.47624E+08         0.25274E+07         0.00000E+00
    0.25274E+07        -0.49335E+08         0.00000E+00
    0.00000E+00         0.00000E+00        -0.48383E+08
 
   -0.47701E+08         0.25748E+07         0.00000E+00
    0.25748E+07        -0.49302E+08         0.00000E+00
    0.00000E+00         0.00000E+00        -0.48383E+08
 
   -0.47779E+08         0.26215E+07         0.00000E+00
    0.26215E+07        -0.49268E+08         0.00000E+00
    0.00000E+00         0.00000E+00        -0.48383E+08
 
   -0.47857E+08         0.26677E+07         0.00000E+00
    0.26677E+07        -0.49233E+08         0.00000E+00
    0.00000E+00         0.00000E+00        -0.48383E+08
 
   -0.47936E+08         0.27131E+07         0.00000E+00
    0.27131E+07        -0.49197E+08         0.00000E+00
    0.00000E+00         0.00000E+00        -0.48383E+08
 
   -0.48016E+08         0.27580E+07         0.00000E+00
    0.27580E+07        -0.49160E+08         0.00000E+00
    0.00000E+00         0.00000E+00        -0.48383E+08
 
   -0.48096E+08         0.28022E+07         0.00000E+00
    0.28022E+07        -0.49122E+08         0.00000E+00
    0.00000E+00         0.00000E+00        -0.48383E+08
 
   -0.48177E+08         0.28457E+07         0.00000E+00
    0.28457E+07        -0.49084E+08         0.00000E+00
    0.00000E+00         0.00000E+00        -0.48383E+08
 
   -0.48259E+08         0.28886E+07         0.00000E+00
    0.28886E+07        -0.49044E+08         0.00000E+00
    0.00000E+00         0.00000E+00        -0.48383E+08
 
   -0.48341E+08         0.29308E+07         0.00000E+00
    0.29308E+07        -0.49003E+08         0.00000E+00
    0.00000E+00         0.00000E+00        -0.48383E+08
 
   -0.44559E+08         0.43695E+05         0.00000E+00
    0.43695E+05        -0.50000E+08         0.00000E+00
    0.00000E+00         0.00000E+00        -0.48162E+08
 
   -0.44619E+08         0.12772E+06         0.00000E+00
    0.12772E+06        -0.49999E+08         0.00000E+00
    0.00000E+00         0.00000E+00        -0.48162E+08
 
   -0.44681E+08         0.21055E+06         0.00000E+00
    0.21055E+06        -0.49997E+08         0.00000E+00
    0.00000E+00         0.00000E+00        -0.48162E+08
 
   -0.44742E+08         0.29222E+06         0.00000E+00
    0.29222E+06        -0.49994E+08         0.00000E+00
    0.00000E+00         0.00000E+00        -0.48162E+08
 
   -0.44805E+08         0.37276E+06         0.00000E+00
    0.37276E+06        -0.49991E+08         0.00000E+00
    0.00000E+00         0.00000E+00        -0.48162E+08
 
   -0.44868E+08         0.45217E+06         0.00000E+00
    0.45217E+06        -0.49987E+08         0.00000E+00
    0.00000E+00         0.00000E+00        -0.48162E+08
 
   -0.44931E+08         0.53050E+06         0.00000E+00
    0.53050E+06        -0.49981E+08         0.00000E+00
    0.00000E+00         0.00000E+00        -0.48162E+08
 
   -0.44996E+08         0.60777E+06         0.00000E+00
    0.60777E+06        -0.49975E+08         0.00000E+00
    0.00000E+00         0.00000E+00        -0.48162E+08
 
   -0.45060E+08         0.68400E+06         0.00000E+00
    0.68400E+06        -0.49969E+08         0.00000E+00
    0.00000E+00         0.00000E+00        -0.48162E+08
 
   -0.45126E+08         0.75921E+06         0.00000E+00
    0.75921E+06        -0.49961E+08         0.00000E+00
    0.00000E+00         0.00000E+00        -0.48162E+08
 
   -0.45192E+08         0.83343E+06         0.00000E+00
    0.83343E+06        -0.49953E+08         0.00000E+00
    0.00000E+00         0.00000E+00        -0.48162E+08
 
   -0.45258E+08         0.90668E+06         0.00000E+00
    0.90668E+06        -0.49943E+08         0.00000E+00
    0.00000E+00         0.00000E+00        -0.48162E+08
 
   -0.45325E+08         0.97899E+06         0.00000E+00
    0.97899E+06        -0.49933E+08         0.00000E+00
    0.00000E+00         0.00000E+00        -0.48162E+08
 
   -0.45392E+08         0.10504E+07         0.00000E+00
    0.10504E+07        -0.49923E+08         0.00000E+00
    0.00000E+00         0.00000E+00        -0.48162E+08
 
   -0.45460E+08         0.11209E+07         0.00000E+00
    0.11209E+07        -0.49911E+08         0.00000E+00
    0.00000E+00         0.00000E+00        -0.48162E+08
 
   -0.45528E+08         0.11905E+07         0.00000E+00
    0.11905E+07        -0.49899E+08         0.00000E+00
    0.00000E+00         0.00000E+00        -0.48162E+08
 
   -0.45596E+08         0.12592E+07         0.00000E+00
    0.12592E+07        -0.49886E+08         0.00000E+00
    0.00000E+00         0.00000E+00        -0.48162E+08
 
   -0.45665E+08         0.13271E+07         0.00000E+00
    0.13271E+07        -0.49872E+08         0.00000E+00
    0.00000E+00         0.00000E+00        -0.48162E+08
 
   -0.45735E+08         0.13942E+07         0.00000E+00
    0.13942E+07        -0.49857E+08         0.00000E+00
    0.00000E+00         0.00000E+00        -0.48162E+08
 
   -0.45805E+08         0.14605E+07         0.00000E+00
    0.14605E+07        -0.49842E+08         0.00000E+00
    0.00000E+00         0.00000E+00        -0.48162E+08
 
   -0.45875E+08         0.15260E+07         0.00000E+00
    0.15260E+07        -0.49825E+08         0.00000E+00
    0.00000E+00         0.00000E+00        -0.48162E+08
 
   -0.45946E+08         0.15907E+07         0.00000E+00
    0.15907E+07        -0.49808E+08         0.00000E+00
    0.00000E+00         0.00000E+00        -0.48162E+08
 
   -0.46017E+08         0.16547E+07         0.00000E+00
    0.16547E+07        -0.49791E+08         0.00000E+00
    0.00000E+00         0.00000E+00        -0.48162E+08
 
   -0.46088E+08         0.17179E+07         0.00000E+00
    0.17179E+07        -0.49772E+08         0.00000E+00
    0.00000E+00         0.00000E+00        -0.48162E+08
 
   -0.46160E+08         0.17805E+07         0.00000E+00
    0.17805E+07        -0.49753E+08         0.00000E+00
    0.00000E+00         0.00000E+00        -0.48162E+08
 
   -0.46233E+08         0.18423E+07         0.00000E+00
    0.18423E+07        -0.49732E+08         0.00000E+00
    0.00000E+00         0.00000E+00        -0.48162E+08
 
   -0.46306E+08         0.19035E+07         0.00000E+00
    0.19035E+07        -0.49712E+08         0.00000E+00
    0.00000E+00         0.00000E+00        -0.48162E+08
 
   -0.46379E+08         0.19640E+07         0.00000E+00
    0.19640E+07        -0.49690E+08         0.00000E+00
    0.00000E+00         0.00000E+00        -0.48162E+08
 
   -0.46453E+08         0.20238E+07         0.00000E+00
    0.20238E+07        -0.49667E+08         0.00000E+00
    0.00000E+00         0.00000E+00        -0.48162E+08
 
   -0.46527E+08         0.20829E+07         0.00000E+00
    0.20829E+07        -0.49644E+08         0.00000E+00
    0.00000E+00         0.00000E+00        -0.48162E+08
 
   -0.46601E+08         0.21415E+07         0.00000E+00
    0.21415E+07        -0.49619E+08         0.00000E+00
    0.00000E+00         0.00000E+00        -0.48162E+08
 
   -0.46676E+08         0.21994E+07         0.00000E+00
    0.21994E+07        -0.49594E+08         0.00000E+00
    0.00000E+00         0.00000E+00        -0.48162E+08
 
   -0.46752E+08         0.22566E+07         0.00000E+00
    0.22566E+07        -0.49568E+08         0.00000E+00
    0.00000E+00         0.00000E+00        -0.48162E+08
 
   -0.46828E+08         0.23133E+07         0.00000E+00
    0.23133E+07        -0.49542E+08         0.00000E+00
    0.00000E+00         0.00000E+00        -0.48162E+08
 
   -0.46904E+08         0.23694E+07         0.00000E+00
    0.23694E+07        -0.49514E+08         0.00000E+00
    0.00000E+00         0.00000E+00        -0.48162E+08
 
   -0.46981E+08         0.24248E+07         0.00000E+00
    0.24248E+07        -0.49485E+08         0.00000E+00
    0.00000E+00         0.00000E+00        -0.48162E+08
 
   -0.47059E+08         0.24797E+07         0.00000E+00
    0.24797E+07        -0.49456E+08         0.00000E+00
    0.00000E+00         0.00000E+00        -0.48162E+08
 
   -0.47137E+08         0.25340E+07         0.00000E+00
    0.25340E+07        -0.49426E+08         0.00000E+00
    0.00000E+00         0.00000E+00        -0.48162E+08
 
   -0.47215E+08         0.25877E+07         0.00000E+00
    0.25877E+07        -0.49394E+08         0.00000E+00
    0.00000E+00         0.00000E+00        -0.48162E+08
 
   -0.47294E+08         0.26408E+07         0.00000E+00
    0.26408E+07        -0.49362E+08         0.00000E+00
    0.00000E+00         0.00000E+00        -0.48162E+08
 
   -0.47374E+08         0.26933E+07         0.00000E+00
    0.26933E+07        -0.49329E+08         0.00000E+00
    0.00000E+00         0.00000E+00        -0.48162E+08
 
   -0.47454E+08         0.27453E+07         0.00000E+00
    0.27453E+07        -0.49295E+08         0.00000E+00
    0.00000E+00         0.00000E+00        -0.48162E+08
 
   -0.47535E+08         0.27967E+07         0.00000E+00
    0.27967E+07        -0.49260E+08         0.00000E+00
    0.00000E+00         0.00000E+00        -0.48162E+08
 
   -0.47617E+08         0.28475E+07         0.00000E+00
    0.28475E+07        -0.49224E+08         0.00000E+00
    0.00000E+00         0.00000E+00        -0.48162E+08
 
   -0.47699E+08         0.28977E+07         0.00000E+00
    0.28977E+07        -0.49187E+08         0.00000E+00
    0.00000E+00         0.00000E+00        -0.48162E+08
 
   -0.47781E+08         0.29473E+07         0.00000E+00
    0.29473E+07        -0.49149E+08         0.00000E+00
    0.00000E+00         0.00000E+00        -0.48162E+08
 
   -0.47865E+08         0.29964E+07         0.00000E+00
    0.29964E+07        -0.49110E+08         0.00000E+00
    0.00000E+00         0.00000E+00        -0.48162E+08
 
   -0.47949E+08         0.30448E+07         0.00000E+00
    0.30448E+07        -0.49070E+08         0.00000E+00
    0.00000E+00         0.00000E+00        -0.48162E+08
 
   -0.48034E+08         0.30927E+07         0.00000E+00
    0.30927E+07        -0.49029E+08         0.00000E+00
    0.00000E+00         0.00000E+00        -0.48162E+08
 
   -0.48119E+08         0.31399E+07         0.00000E+00
    0.31399E+07        -0.48987E+08         0.00000E+00
    0.00000E+00         0.00000E+00        -0.48162E+08
 
   -0.44125E+08         0.46006E+05         0.00000E+00
    0.46006E+05        -0.50000E+08         0.00000E+00
    0.00000E+00         0.00000E+00        -0.47915E+08
 
   -0.44191E+08         0.13443E+06         0.00000E+00
    0.13443E+06        -0.49999E+08         0.00000E+00
    0.00000E+00         0.00000E+00        -0.47915E+08
 
   -0.44258E+08         0.22159E+06         0.00000E+00
    0.22159E+06        -0.49997E+08         0.00000E+00
    0.00000E+00         0.00000E+00        -0.47915E+08
 
   -0.44326E+08         0.30751E+06         0.00000E+00
    0.30751E+06        -0.49995E+08         0.00000E+00
    0.00000E+00         0.00000E+00        -0.47915E+08
 
   -0.44394E+08         0.39224E+06         0.00000E+00
    0.39224E+06        -0.49991E+08         0.00000E+00
    0.00000E+00         0.00000E+00        -0.47915E+08
 
   -0.44463E+08         0.47580E+06         0.00000E+00
    0.47580E+06        -0.49987E+08         0.00000E+00
    0.00000E+00         0.00000E+00        -0.47915E+08
 
   -0.44532E+08         0.55822E+06         0.00000E+00
    0.55822E+06        -0.49982E+08         0.00000E+00
    0.00000E+00         0.00000E+00        -0.47915E+08
 
   -0.44602E+08         0.63953E+06         0.00000E+00
    0.63953E+06        -0.49976E+08         0.00000E+00
    0.00000E+00         0.00000E+00        -0.47915E+08
 
   -0.44672E+08         0.71977E+06         0.00000E+00
    0.71977E+06        -0.49969E+08         0.00000E+00
    0.00000E+00         0.00000E+00        -0.47915E+08
 
   -0.44742E+08         0.79895E+06         0.00000E+00
    0.79895E+06        -0.49962E+08         0.00000E+00
    0.00000E+00         0.00000E+00        -0.47915E+08
 
   -0.44813E+08         0.87712E+06         0.00000E+00
    0.87712E+06        -0.49954E+08         0.00000E+00
    0.00000E+00         0.00000E+00        -0.47915E+08
 
   -0.44884E+08         0.95429E+06         0.00000E+00
    0.95429E+06        -0.49945E+08         0.00000E+00
    0.00000E+00         0.00000E+00        -0.47915E+08
 
   -0.44956E+08         0.10305E+07         0.00000E+00
    0.10305E+07        -0.49935E+08         0.00000E+00
    0.00000E+00         0.00000E+00        -0.47915E+08
 
   -0.45027E+08         0.11058E+07         0.00000E+00
    0.11058E+07        -0.49924E+08         0.00000E+00
    0.00000E+00         0.00000E+00        -0.47915E+08
 
   -0.45100E+08         0.11801E+07         0.00000E+00
    0.11801E+07        -0.49913E+08         0.00000E+00
    0.00000E+00         0.00000E+00        -0.47915E+08
 
   -0.45172E+08         0.12536E+07         0.00000E+00
    0.12536E+07        -0.49901E+08         0.00000E+00
    0.00000E+00         0.00000E+00        -0.47915E+08
 
   -0.45245E+08         0.13263E+07         0.00000E+00
    0.13263E+07        -0.49888E+08         0.00000E+00
    0.00000E+00         0.00000E+00        -0.47915E+08
 
   -0.45318E+08         0.13980E+07         0.00000E+00
    0.13980E+07        -0.49874E+08         0.00000E+00
    0.00000E+00         0.00000E+00        -0.47915E+08
 
   -0.45392E+08         0.14690E+07         0.00000E+00
    0.14690E+07        -0.49860E+08         0.00000E+00
    0.00000E+00         0.00000E+00        -0.47915E+08
 
   -0.45465E+08         0.15392E+07         0.00000E+00
    0.15392E+07        -0.49844E+08         0.00000E+00
    0.00000E+00         0.00000E+00        -0.47915E+08
 
   -0.45540E+08         0.16086E+07         0.00000E+00
    0.16086E+07        -0.49828E+08         0.00000E+00
    0.00000E+00         0.00000E+00        -0.47915E+08
 
   -0.45614E+08         0.16773E+07         0.00000E+00
    0.16773E+07        -0.49811E+08         0.00000E+00
    0.00000E+00         0.00000E+00        -0.47915E+08
 
   -0.45689E+08         0.17453E+07         0.00000E+00
    0.17453E+07        -0.49794E+08         0.00000E+00
    0.00000E+00         0.00000E+00        -0.47915E+08
 
   -0.45764E+08         0.18125E+07         0.00000E+00
    0.18125E+07        -0.49775E+08         0.00000E+00
    0.00000E+00         0.00000E+00        -0.47915E+08
 
   -0.45839E+08         0.18791E+07         0.00000E+00
    0.18791E+07        -0.49756E+08         0.00000E+00
    0.00000E+00         0.00000E+00        -0.47915E+08
 
   -0.45915E+08         0.19450E+07         0.00000E+00
    0.19450E+07        -0.49736E+08         0.00000E+00
    0.00000E+00         0.00000E+00        -0.47915E+08
 
   -0.45991E+08         0.20103E+07         0.00000E+00
    0.20103E+07        -0.49715E+08         0.00000E+00
    0.00000E+00         0.00000E+00        -0.47915E+08
 
   -0.46068E+08         0.20749E+07         0.00000E+00
    0.20749E+07        -0.49693E+08         0.00000E+00
    0.00000E+00         0.00000E+00        -0.47915E+08
 
   -0.46145E+08         0.21389E+07         0.00000E+00
    0.21389E+07        -0.49671E+08         0.00000E+00
    0.00000E+00         0.00000E+00        -0.47915E+08
 
   -0.46222E+08         0.22023E+07         0.00000E+00
    0.22023E+07        -0.49647E+08         0.00000E+00
    0.00000E+00         0.00000E+00        -0.47915E+08
 
   -0.46299E+08         0.22651E+07         0.00000E+00
    0.22651E+07        -0.49623E+08         0.00000E+00
    0.00000E+00         0.00000E+00        -0.47915E+08
 
   -0.46377E+08         0.23273E+07         0.00000E+00
    0.23273E+07        -0.49598E+08         0.00000E+00
    0.00000E+00         0.00000E+00        -0.47915E+08
 
   -0.46456E+08         0.23890E+07         0.00000E+00
    0.23890E+07        -0.49572E+08         0.00000E+00
    0.00000E+00         0.00000E+00        -0.47915E+08
 
   -0.46535E+08         0.24501E+07         0.00000E+00
    0.24501E+07        -0.49545E+08         0.00000E+00
    0.00000E+00         0.00000E+00        -0.47915E+08
 
   -0.46614E+08         0.25107E+07         0.00000E+00
    0.25107E+07        -0.49517E+08         0.00000E+00
    0.00000E+00         0.00000E+00        -0.47915E+08
 
   -0.46694E+08         0.25707E+07         0.00000E+00
    0.25707E+07        -0.49488E+08         0.00000E+00
    0.00000E+00         0.00000E+00        -0.47915E+08
 
   -0.46774E+08         0.26302E+07         0.00000E+00
    0.26302E+07        -0.49458E+08         0.00000E+00
    0.00000E+00         0.00000E+00        -0.47915E+08
 
   -0.46855E+08         0.26891E+07         0.00000E+00
    0.26891E+07        -0.49428E+08         0.00000E+00
    0.00000E+00         0.00000E+00        -0.47915E+08
 
   -0.46936E+08         0.27476E+07         0.00000E+00
    0.27476E+07        -0.49396E+08         0.00000E+00
    0.00000E+00         0.00000E+00        -0.47915E+08
 
   -0.47018E+08         0.28055E+07         0.00000E+00
    0.28055E+07        -0.49363E+08         0.00000E+00
    0.00000E+00         0.00000E+00        -0.47915E+08
 
   -0.47100E+08         0.28629E+07         0.00000E+00
    0.28629E+07        -0.49330E+08         0.00000E+00
    0.00000E+00         0.00000E+00        -0.47915E+08
 
   -0.47183E+08         0.29198E+07         0.00000E+00
    0.29198E+07        -0.49295E+08         0.00000E+00
    0.00000E+00         0.00000E+00        -0.47915E+08
 
   -0.47267E+08         0.29762E+07         0.00000E+00
    0.29762E+07        -0.49259E+08         0.00000E+00
    0.00000E+00         0.00000E+00        -0.47915E+08
 
   -0.47351E+08         0.30320E+07         0.00000E+00
    0.30320E+07        -0.49222E+08         0.00000E+00
    0.00000E+00         0.00000E+00        -0.47915E+08
 
   -0.47436E+08         0.30874E+07         0.00000E+00
    0.30874E+07        -0.49184E+08         0.00000E+00
    0.00000E+00         0.00000E+00        -0.47915E+08
 
   -0.47522E+08         0.31423E+07         0.00000E+00
    0.31423E+07        -0.49145E+08         0.00000E+00
    0.00000E+00         0.00000E+00        -0.47915E+08
 
   -0.47608E+08         0.31966E+07         0.00000E+00
    0.31966E+07        -0.49105E+08         0.00000E+00
    0.00000E+00         0.00000E+00        -0.47915E+08
 
   -0.47695E+08         0.32504E+07         0.00000E+00
    0.32504E+07        -0.49064E+08         0.00000E+00
    0.00000E+00         0.00000E+00        -0.47915E+08
 
   -0.47782E+08         0.33037E+07         0.00000E+00
    0.33037E+07        -0.49022E+08         0.00000E+00
    0.00000E+00         0.00000E+00        -0.47915E+08
 
   -0.47871E+08         0.33564E+07         0.00000E+00
    0.33564E+07        -0.48979E+08         0.00000E+00
    0.00000E+00         0.00000E+00        -0.47915E+08
 
   -0.43668E+08         0.48247E+05         0.00000E+00
    0.48247E+05        -0.50000E+08         0.00000E+00
    0.00000E+00         0.00000E+00        -0.47639E+08
 
   -0.43742E+08         0.14093E+06         0.00000E+00
    0.14093E+06        -0.49999E+08         0.00000E+00
    0.00000E+00         0.00000E+00        -0.47639E+08
 
   -0.43815E+08         0.23229E+06         0.00000E+00
    0.23229E+06        -0.49997E+08         0.00000E+00
    0.00000E+00         0.00000E+00        -0.47639E+08
 
   -0.43889E+08         0.32234E+06         0.00000E+00
    0.32234E+06        -0.49995E+08         0.00000E+00
    0.00000E+00         0.00000E+00        -0.47639E+08
 
   -0.43963E+08         0.41114E+06         0.00000E+00
    0.41114E+06        -0.49991E+08         0.00000E+00
    0.00000E+00         0.00000E+00        -0.47639E+08
 
   -0.44038E+08         0.49872E+06         0.00000E+00
    0.49872E+06        -0.49987E+08         0.00000E+00
    0.00000E+00         0.00000E+00        -0.47639E+08
 
   -0.44113E+08         0.58512E+06         0.00000E+00
    0.58512E+06        -0.49983E+08         0.00000E+00
    0.00000E+00         0.00000E+00        -0.47639E+08
 
   -0.44188E+08         0.67038E+06         0.00000E+00
    0.67038E+06        -0.49977E+08         0.00000E+00
    0.00000E+00         0.00000E+00        -0.47639E+08
 
   -0.44263E+08         0.75452E+06         0.00000E+00
    0.75452E+06        -0.49970E+08         0.00000E+00
    0.00000E+00         0.00000E+00        -0.47639E+08
 
   -0.44339E+08         0.83760E+06         0.00000E+00
    0.83760E+06        -0.49963E+08         0.00000E+00
    0.00000E+00         0.00000E+00        -0.47639E+08
 
   -0.44415E+08         0.91963E+06         0.00000E+00
    0.91963E+06        -0.49955E+08         0.00000E+00
    0.00000E+00         0.00000E+00        -0.47639E+08
 
   -0.44491E+08         0.10007E+07         0.00000E+00
    0.10007E+07        -0.49947E+08         0.00000E+00
    0.00000E+00         0.00000E+00        -0.47639E+08
 
   -0.44567E+08         0.10807E+07         0.00000E+00
    0.10807E+07        -0.49937E+08         0.00000E+00
    0.00000E+00         0.00000E+00        -0.47639E+08
 
   -0.44644E+08         0.11598E+07         0.00000E+00
    0.11598E+07        -0.49927E+08         0.00000E+00
    0.00000E+00         0.00000E+00        -0.47639E+08
 
   -0.44720E+08         0.12380E+07         0.00000E+00
    0.12380E+07        -0.49916E+08         0.00000E+00
    0.00000E+00         0.00000E+00        -0.47639E+08
 
   -0.44797E+08         0.13154E+07         0.00000E+00
    0.13154E+07        -0.49904E+08         0.00000E+00
    0.00000E+00         0.00000E+00        -0.47639E+08
 
   -0.44874E+08         0.13919E+07         0.00000E+00
    0.13919E+07        -0.49892E+08         0.00000E+00
    0.00000E+00         0.00000E+00        -0.47639E+08
 
   -0.44951E+08         0.14675E+07         0.00000E+00
    0.14675E+07        -0.49878E+08         0.00000E+00
    0.00000E+00         0.00000E+00        -0.47639E+08
 
   -0.45029E+08         0.15424E+07         0.00000E+00
    0.15424E+07        -0.49864E+08         0.00000E+00
    0.00000E+00         0.00000E+00        -0.47639E+08
 
   -0.45106E+08         0.16166E+07         0.00000E+00
    0.16166E+07        -0.49849E+08         0.00000E+00
    0.00000E+00         0.00000E+00        -0.47639E+08
 
   -0.45184E+08         0.16899E+07         0.00000E+00
    0.16899E+07        -0.49834E+08         0.00000E+00
    0.00000E+00         0.00000E+00        -0.47639E+08
 
   -0.45262E+08         0.17626E+07         0.00000E+00
    0.17626E+07        -0.49817E+08         0.00000E+00
    0.00000E+00         0.00000E+00        -0.47639E+08
 
   -0.45340E+08         0.18346E+07         0.00000E+00
    0.18346E+07        -0.49800E+08         0.00000E+00
    0.00000E+00         0.00000E+00        -0.47639E+08
 
   -0.45419E+08         0.19060E+07         0.00000E+00
    0.19060E+07        -0.49782E+08         0.00000E+00
    0.00000E+00         0.00000E+00        -0.47639E+08
 
   -0.45498E+08         0.19766E+07         0.00000E+00
    0.19766E+07        -0.49763E+08         0.00000E+00
    0.00000E+00         0.00000E+00        -0.47639E+08
 
   -0.45577E+08         0.20467E+07         0.00000E+00
    0.20467E+07        -0.49743E+08         0.00000E+00
    0.00000E+00         0.00000E+00        -0.47639E+08
 
   -0.45656E+08         0.21162E+07         0.00000E+00
    0.21162E+07        -0.49723E+08         0.00000E+00
    0.00000E+00         0.00000E+00        -0.47639E+08
 
   -0.45735E+08         0.21851E+07         0.00000E+00
    0.21851E+07        -0.49701E+08         0.00000E+00
    0.00000E+00         0.00000E+00        -0.47639E+08
 
   -0.45815E+08         0.22534E+07         0.00000E+00
    0.22534E+07        -0.49679E+08         0.00000E+00
    0.00000E+00         0.00000E+00        -0.47639E+08
 
   -0.45895E+08         0.23212E+07         0.00000E+00
    0.23212E+07        -0.49656E+08         0.00000E+00
    0.00000E+00         0.00000E+00        -0.47639E+08
 
   -0.45975E+08         0.23885E+07         0.00000E+00
    0.23885E+07        -0.49632E+08         0.00000E+00
    0.00000E+00         0.00000E+00        -0.47639E+08
 
   -0.46056E+08         0.24553E+07         0.00000E+00
    0.24553E+07        -0.49606E+08         0.00000E+00
    0.00000E+00         0.00000E+00        -0.47639E+08
 
   -0.46137E+08         0.25215E+07         0.00000E+00
    0.25215E+07        -0.49580E+08         0.00000E+00
    0.00000E+00         0.00000E+00        -0.47639E+08
 
   -0.46219E+08         0.25873E+07         0.00000E+00
    0.25873E+07        -0.49554E+08         0.00000E+00
    0.00000E+00         0.00000E+00        -0.47639E+08
 
   -0.46301E+08         0.26526E+07         0.00000E+00
    0.26526E+07        -0.49526E+08         0.00000E+00
    0.00000E+00         0.00000E+00        -0.47639E+08
 
   -0.46383E+08         0.27175E+07         0.00000E+00
    0.27175E+07        -0.49497E+08         0.00000E+00
    0.00000E+00         0.00000E+00        -0.47639E+08
 
   -0.46466E+08         0.27818E+07         0.00000E+00
    0.27818E+07        -0.49467E+08         0.00000E+00
    0.00000E+00         0.00000E+00        -0.47639E+08
 
   -0.46549E+08         0.28458E+07         0.00000E+00
    0.28458E+07        -0.49436E+08         0.00000E+00
    0.00000E+00         0.00000E+00        -0.47639E+08
 
   -0.46633E+08         0.29093E+07         0.00000E+00
    0.29093E+07        -0.49404E+08         0.00000E+00
    0.00000E+00         0.00000E+00        -0.47639E+08
 
   -0.46717E+08         0.29723E+07         0.00000E+00
    0.29723E+07        -0.49371E+08         0.00000E+00
    0.00000E+00         0.00000E+00        -0.47639E+08
 
   -0.46802E+08         0.30350E+07         0.00000E+00
    0.30350E+07        -0.49337E+08         0.00000E+00
    0.00000E+00         0.00000E+00        -0.47639E+08
 
   -0.46887E+08         0.30972E+07         0.00000E+00
    0.30972E+07        -0.49302E+08         0.00000E+00
    0.00000E+00         0.00000E+00        -0.47639E+08
 
   -0.46973E+08         0.31590E+07         0.00000E+00
    0.31590E+07        -0.49266E+08         0.00000E+00
    0.00000E+00         0.00000E+00        -0.47639E+08
 
   -0.47059E+08         0.32203E+07         0.00000E+00
    0.32203E+07        -0.49228E+08         0.00000E+00
    0.00000E+00         0.00000E+00        -0.47639E+08
 
   -0.47147E+08         0.32813E+07         0.00000E+00
    0.32813E+07        -0.49190E+08         0.00000E+00
    0.00000E+00         0.00000E+00        -0.47639E+08
 
   -0.47234E+08         0.33418E+07         0.00000E+00
    0.33418E+07        -0.49150E+08         0.00000E+00
    0.00000E+00         0.00000E+00        -0.47639E+08
 
   -0.47323E+08         0.34018E+07         0.00000E+00
    0.34018E+07        -0.49109E+08         0.00000E+00
    0.00000E+00         0.00000E+00        -0.47639E+08
 
   -0.47412E+08         0.34615E+07         0.00000E+00
    0.34615E+07        -0.49067E+08         0.00000E+00
    0.00000E+00         0.00000E+00        -0.47639E+08
 
   -0.47502E+08         0.35207E+07         0.00000E+00
    0.35207E+07        -0.49024E+08         0.00000E+00
    0.00000E+00         0.00000E+00        -0.47639E+08
 
   -0.47593E+08         0.35795E+07         0.00000E+00
    0.35795E+07        -0.48979E+08         0.00000E+00
    0.00000E+00         0.00000E+00        -0.47639E+08
 
   -0.43191E+08         0.50379E+05         0.00000E+00
    0.50379E+05        -0.50000E+08         0.00000E+00
    0.00000E+00         0.00000E+00        -0.47331E+08
 
   -0.43271E+08         0.14712E+06         0.00000E+00
    0.14712E+06        -0.49999E+08         0.00000E+00
    0.00000E+00         0.00000E+00        -0.47331E+08
 
   -0.43352E+08         0.24246E+06         0.00000E+00
    0.24246E+06        -0.49997E+08         0.00000E+00
    0.00000E+00         0.00000E+00        -0.47331E+08
 
   -0.43432E+08         0.33645E+06         0.00000E+00
    0.33645E+06        -0.49995E+08         0.00000E+00
    0.00000E+00         0.00000E+00        -0.47331E+08
 
   -0.43513E+08         0.42914E+06         0.00000E+00
    0.42914E+06        -0.49992E+08         0.00000E+00
    0.00000E+00         0.00000E+00        -0.47331E+08
 
   -0.43593E+08         0.52056E+06         0.00000E+00
    0.52056E+06        -0.49988E+08         0.00000E+00
    0.00000E+00         0.00000E+00        -0.47331E+08
 
   -0.43674E+08         0.61077E+06         0.00000E+00
    0.61077E+06        -0.49984E+08         0.00000E+00
    0.00000E+00         0.00000E+00        -0.47331E+08
 
   -0.43755E+08         0.69980E+06         0.00000E+00
    0.69980E+06        -0.49978E+08         0.00000E+00
    0.00000E+00         0.00000E+00        -0.47331E+08
 
   -0.43836E+08         0.78770E+06         0.00000E+00
    0.78770E+06        -0.49972E+08         0.00000E+00
    0.00000E+00         0.00000E+00        -0.47331E+08
 
   -0.43917E+08         0.87451E+06         0.00000E+00
    0.87451E+06        -0.49965E+08         0.00000E+00
    0.00000E+00         0.00000E+00        -0.47331E+08
 
   -0.43998E+08         0.96028E+06         0.00000E+00
    0.96028E+06        -0.49958E+08         0.00000E+00
    0.00000E+00         0.00000E+00        -0.47331E+08
 
   -0.44079E+08         0.10450E+07         0.00000E+00
    0.10450E+07        -0.49950E+08         0.00000E+00
    0.00000E+00         0.00000E+00        -0.47331E+08
 
   -0.44160E+08         0.11288E+07         0.00000E+00
    0.11288E+07        -0.49941E+08         0.00000E+00
    0.00000E+00         0.00000E+00        -0.47331E+08
 
   -0.44241E+08         0.12117E+07         0.00000E+00
    0.12117E+07        -0.49931E+08         0.00000E+00
    0.00000E+00         0.00000E+00        -0.47331E+08
 
   -0.44322E+08         0.12937E+07         0.00000E+00
    0.12937E+07        -0.49920E+08         0.00000E+00
    0.00000E+00         0.00000E+00        -0.47331E+08
 
   -0.44403E+08         0.13748E+07         0.00000E+00
    0.13748E+07        -0.49909E+08         0.00000E+00
    0.00000E+00         0.00000E+00        -0.47331E+08
 
   -0.44484E+08         0.14551E+07         0.00000E+00
    0.14551E+07        -0.49897E+08         0.00000E+00
    0.00000E+00         0.00000E+00        -0.47331E+08
 
   -0.44565E+08         0.15346E+07         0.00000E+00
    0.15346E+07        -0.49885E+08         0.00000E+00
    0.00000E+00         0.00000E+00        -0.47331E+08
 
   -0.44646E+08         0.16134E+07         0.00000E+00
    0.16134E+07        -0.49871E+08         0.00000E+00
    0.00000E+00         0.00000E+00        -0.47331E+08
 
   -0.44728E+08         0.16914E+07         0.00000E+00
    0.16914E+07        -0.49857E+08         0.00000E+00
    0.00000E+00         0.00000E+00        -0.47331E+08
 
   -0.44809E+08         0.17687E+07         0.00000E+00
    0.17687E+07        -0.49842E+08         0.00000E+00
    0.00000E+00         0.00000E+00        -0.47331E+08
 
   -0.44890E+08         0.18454E+07         0.00000E+00
    0.18454E+07        -0.49826E+08         0.00000E+00
    0.00000E+00         0.00000E+00        -0.47331E+08
 
   -0.44972E+08         0.19215E+07         0.00000E+00
    0.19215E+07        -0.49809E+08         0.00000E+00
    0.00000E+00         0.00000E+00        -0.47331E+08
 
   -0.45053E+08         0.19970E+07         0.00000E+00
    0.19970E+07        -0.49792E+08         0.00000E+00
    0.00000E+00         0.00000E+00        -0.47331E+08
 
   -0.45135E+08         0.20718E+07         0.00000E+00
    0.20718E+07        -0.49774E+08         0.00000E+00
    0.00000E+00         0.00000E+00        -0.47331E+08
 
   -0.45217E+08         0.21462E+07         0.00000E+00
    0.21462E+07        -0.49754E+08         0.00000E+00
    0.00000E+00         0.00000E+00        -0.47331E+08
 
   -0.45299E+08         0.22200E+07         0.00000E+00
    0.22200E+07        -0.49734E+08         0.00000E+00
    0.00000E+00         0.00000E+00        -0.47331E+08
 
   -0.45381E+08         0.22933E+07         0.00000E+00
    0.22933E+07        -0.49714E+08         0.00000E+00
    0.00000E+00         0.00000E+00        -0.47331E+08
 
   -0.45463E+08         0.23661E+07         0.00000E+00
    0.23661E+07        -0.49692E+08         0.00000E+00
    0.00000E+00         0.00000E+00        -0.47331E+08
 
   -0.45546E+08         0.24385E+07         0.00000E+00
    0.24385E+07        -0.49669E+08         0.00000E+00
    0.00000E+00         0.00000E+00        -0.47331E+08
 
   -0.45629E+08         0.25104E+07         0.00000E+00
    0.25104E+07        -0.49645E+08         0.00000E+00
    0.00000E+00         0.00000E+00        -0.47331E+08
 
   -0.45712E+08         0.25819E+07         0.00000E+00
    0.25819E+07        -0.49621E+08         0.00000E+00
    0.00000E+00         0.00000E+00        -0.47331E+08
 
   -0.45795E+08         0.26529E+07         0.00000E+00
    0.26529E+07        -0.49595E+08         0.00000E+00
    0.00000E+00         0.00000E+00        -0.47331E+08
 
   -0.45879E+08         0.27236E+07         0.00000E+00
    0.27236E+07        -0.49569E+08         0.00000E+00
    0.00000E+00         0.00000E+00        -0.47331E+08
 
   -0.45963E+08         0.27939E+07         0.00000E+00
    0.27939E+07        -0.49541E+08         0.00000E+00
    0.00000E+00         0.00000E+00        -0.47331E+08
 
   -0.46047E+08         0.28638E+07         0.00000E+00
    0.28638E+07        -0.49512E+08         0.00000E+00
    0.00000E+00         0.00000E+00        -0.47331E+08
 
   -0.46132E+08         0.29334E+07         0.00000E+00
    0.29334E+07        -0.49483E+08         0.00000E+00
    0.00000E+00         0.00000E+00        -0.47331E+08
 
   -0.46217E+08         0.30026E+07         0.00000E+00
    0.30026E+07        -0.49452E+08         0.00000E+00
    0.00000E+00         0.00000E+00        -0.47331E+08
 
   -0.46303E+08         0.30715E+07         0.00000E+00
    0.30715E+07        -0.49420E+08         0.00000E+00
    0.00000E+00         0.00000E+00        -0.47331E+08
 
   -0.46389E+08         0.31400E+07         0.00000E+00
    0.31400E+07        -0.49387E+08         0.00000E+00
    0.00000E+00         0.00000E+00        -0.47331E+08
 
   -0.46475E+08         0.32083E+07         0.00000E+00
    0.32083E+07        -0.49353E+08         0.00000E+00
    0.00000E+00         0.00000E+00        -0.47331E+08
 
   -0.46563E+08         0.32762E+07         0.00000E+00
    0.32762E+07        -0.49318E+08         0.00000E+00
    0.00000E+00         0.00000E+00        -0.47331E+08
 
   -0.46650E+08         0.33437E+07         0.00000E+00
    0.33437E+07        -0.49281E+08         0.00000E+00
    0.00000E+00         0.00000E+00        -0.47331E+08
 
   -0.46739E+08         0.34110E+07         0.00000E+00
    0.34110E+07        -0.49244E+08         0.00000E+00
    0.00000E+00         0.00000E+00        -0.47331E+08
 
   -0.46828E+08         0.34779E+07         0.00000E+00
    0.34779E+07        -0.49205E+08         0.00000E+00
    0.00000E+00         0.00000E+00        -0.47331E+08
 
   -0.46917E+08         0.35446E+07         0.00000E+00
    0.35446E+07        -0.49165E+08         0.00000E+00
    0.00000E+00         0.00000E+00        -0.47331E+08
 
   -0.47008E+08         0.36109E+07         0.00000E+00
    0.36109E+07        -0.49123E+08         0.00000E+00
    0.00000E+00         0.00000E+00        -0.47331E+08
 
   -0.47099E+08         0.36769E+07         0.00000E+00
    0.36769E+07        -0.49081E+08         0.00000E+00
    0.00000E+00         0.00000E+00        -0.47331E+08
 
   -0.47191E+08         0.37425E+07         0.00000E+00
    0.37425E+07        -0.49036E+08         0.00000E+00
    0.00000E+00         0.00000E+00        -0.47331E+08
 
   -0.47284E+08         0.38079E+07         0.00000E+00
    0.38079E+07        -0.48991E+08         0.00000E+00
    0.00000E+00         0.00000E+00        -0.47331E+08
 
   -0.42694E+08         0.52356E+05         0.00000E+00
    0.52356E+05        -0.50000E+08         0.00000E+00
    0.00000E+00         0.00000E+00        -0.46988E+08
 
   -0.42781E+08         0.15286E+06         0.00000E+00
    0.15286E+06        -0.49999E+08         0.00000E+00
    0.00000E+00         0.00000E+00        -0.46988E+08
 
   -0.42869E+08         0.25191E+06         0.00000E+00
    0.25191E+06        -0.49998E+08         0.00000E+00
    0.00000E+00         0.00000E+00        -0.46988E+08
 
   -0.42956E+08         0.34955E+06         0.00000E+00
    0.34955E+06        -0.49996E+08         0.00000E+00
    0.00000E+00         0.00000E+00        -0.46988E+08
 
   -0.43043E+08         0.44585E+06         0.00000E+00
    0.44585E+06        -0.49993E+08         0.00000E+00
    0.00000E+00         0.00000E+00        -0.46988E+08
 
   -0.43130E+08         0.54085E+06         0.00000E+00
    0.54085E+06        -0.49989E+08         0.00000E+00
    0.00000E+00         0.00000E+00        -0.46988E+08
 
   -0.43217E+08         0.63461E+06         0.00000E+00
    0.63461E+06        -0.49985E+08         0.00000E+00
    0.00000E+00         0.00000E+00        -0.46988E+08
 
   -0.43303E+08         0.72719E+06         0.00000E+00
    0.72719E+06        -0.49980E+08         0.00000E+00
    0.00000E+00         0.00000E+00        -0.46988E+08
 
   -0.43390E+08         0.81862E+06         0.00000E+00
    0.81862E+06        -0.49975E+08         0.00000E+00
    0.00000E+00         0.00000E+00        -0.46988E+08
 
   -0.43476E+08         0.90896E+06         0.00000E+00
    0.90896E+06        -0.49968E+08         0.00000E+00
    0.00000E+00         0.00000E+00        -0.46988E+08
 
   -0.43562E+08         0.99826E+06         0.00000E+00
    0.99826E+06        -0.49961E+08         0.00000E+00
    0.00000E+00         0.00000E+00        -0.46988E+08
 
   -0.43648E+08         0.10866E+07         0.00000E+00
    0.10866E+07        -0.49954E+08         0.00000E+00
    0.00000E+00         0.00000E+00        -0.46988E+08
 
   -0.43734E+08         0.11739E+07         0.00000E+00
    0.11739E+07        -0.49945E+08         0.00000E+00
    0.00000E+00         0.00000E+00        -0.46988E+08
 
   -0.43819E+08         0.12604E+07         0.00000E+00
    0.12604E+07        -0.49936E+08         0.00000E+00
    0.00000E+00         0.00000E+00        -0.46988E+08
 
   -0.43905E+08         0.13460E+07         0.00000E+00
    0.13460E+07        -0.49927E+08         0.00000E+00
    0.00000E+00         0.00000E+00        -0.46988E+08
 
   -0.43990E+08         0.14307E+07         0.00000E+00
    0.14307E+07        -0.49916E+08         0.00000E+00
    0.00000E+00         0.00000E+00        -0.46988E+08
 
   -0.44075E+08         0.15147E+07         0.00000E+00
    0.15147E+07        -0.49905E+08         0.00000E+00
    0.00000E+00         0.00000E+00        -0.46988E+08
 
   -0.44160E+08         0.15980E+07         0.00000E+00
    0.15980E+07        -0.49893E+08         0.00000E+00
    0.00000E+00         0.00000E+00        -0.46988E+08
 
   -0.44245E+08         0.16806E+07         0.00000E+00
    0.16806E+07        -0.49881E+08         0.00000E+00
    0.00000E+00         0.00000E+00        -0.46988E+08
 
   -0.44329E+08         0.17625E+07         0.00000E+00
    0.17625E+07        -0.49867E+08         0.00000E+00
    0.00000E+00         0.00000E+00        -0.46988E+08
 
   -0.44414E+08         0.18437E+07         0.00000E+00
    0.18437E+07        -0.49853E+08         0.00000E+00
    0.00000E+00         0.00000E+00        -0.46988E+08
 
   -0.44498E+08         0.19244E+07         0.00000E+00
    0.19244E+07        -0.49838E+08         0.00000E+00
    0.00000E+00         0.00000E+00        -0.46988E+08
 
   -0.44583E+08         0.20046E+07         0.00000E+00
    0.20046E+07        -0.49823E+08         0.00000E+00
    0.00000E+00         0.00000E+00        -0.46988E+08
 
   -0.44667E+08         0.20842E+07         0.00000E+00
    0.20842E+07        -0.49806E+08         0.00000E+00
    0.00000E+00         0.00000E+00        -0.46988E+08
 
   -0.44751E+08         0.21633E+07         0.00000E+00
    0.21633E+07        -0.49789E+08         0.00000E+00
    0.00000E+00         0.00000E+00        -0.46988E+08
 
   -0.44835E+08         0.22419E+07         0.00000E+00
    0.22419E+07        -0.49770E+08         0.00000E+00
    0.00000E+00         0.00000E+00        -0.46988E+08
 
   -0.44920E+08         0.23202E+07         0.00000E+00
    0.23202E+07        -0.49751E+08         0.00000E+00
    0.00000E+00         0.00000E+00        -0.46988E+08
 
   -0.45004E+08         0.23980E+07         0.00000E+00
    0.23980E+07        -0.49731E+08         0.00000E+00
    0.00000E+00         0.00000E+00        -0.46988E+08
 
   -0.45089E+08         0.24754E+07         0.00000E+00
    0.24754E+07        -0.49710E+08         0.00000E+00
    0.00000E+00         0.00000E+00        -0.46988E+08
 
   -0.45173E+08         0.25524E+07         0.00000E+00
    0.25524E+07        -0.49688E+08         0.00000E+00
    0.00000E+00         0.00000E+00        -0.46988E+08
 
   -0.45258E+08         0.26291E+07         0.00000E+00
    0.26291E+07        -0.49666E+08         0.00000E+00
    0.00000E+00         0.00000E+00        -0.46988E+08
 
   -0.45343E+08         0.27055E+07         0.00000E+00
    0.27055E+07        -0.49642E+08         0.00000E+00
    0.00000E+00         0.00000E+00        -0.46988E+08
 
   -0.45428E+08         0.27816E+07         0.00000E+00
    0.27816E+07        -0.49617E+08         0.00000E+00
    0.00000E+00         0.00000E+00        -0.46988E+08
 
   -0.45513E+08         0.28574E+07         0.00000E+00
    0.28574E+07        -0.49591E+08         0.00000E+00
    0.00000E+00         0.00000E+00        -0.46988E+08
 
   -0.45599E+08         0.29329E+07         0.00000E+00
    0.29329E+07        -0.49564E+08         0.00000E+00
    0.00000E+00         0.00000E+00        -0.46988E+08
 
   -0.45685E+08         0.30082E+07         0.00000E+00
    0.30082E+07        -0.49536E+08         0.00000E+00
    0.00000E+00         0.00000E+00        -0.46988E+08
 
   -0.45771E+08         0.30832E+07         0.00000E+00
    0.30832E+07        -0.49507E+08         0.00000E+00
    0.00000E+00         0.00000E+00        -0.46988E+08
 
   -0.45858E+08         0.31581E+07         0.00000E+00
    0.31581E+07        -0.49477E+08         0.00000E+00
    0.00000E+00         0.00000E+00        -0.46988E+08
 
   -0.45945E+08         0.32326E+07         0.00000E+00
    0.32326E+07        -0.49445E+08         0.00000E+00
    0.00000E+00         0.00000E+00        -0.46988E+08
 
   -0.46032E+08         0.33070E+07         0.00000E+00
    0.33070E+07        -0.49413E+08         0.00000E+00
    0.00000E+00         0.00000E+00        -0.46988E+08
 
   -0.46120E+08         0.33812E+07         0.00000E+00
    0.33812E+07        -0.49379E+08         0.00000E+00
    0.00000E+00         0.00000E+00        -0.46988E+08
 
   -0.46208E+08         0.34552E+07         0.00000E+00
    0.34552E+07        -0.49344E+08         0.00000E+00
    0.00000E+00         0.00000E+00        -0.46988E+08
 
   -0.46297E+08         0.35290E+07         0.00000E+00
    0.35290E+07        -0.49308E+08         0.00000E+00
    0.00000E+00         0.00000E+00        -0.46988E+08
 
   -0.46387E+08         0.36026E+07         0.00000E+00
    0.36026E+07        -0.49270E+08         0.00000E+00
    0.00000E+00         0.00000E+00        -0.46988E+08
 
   -0.46477E+08         0.36760E+07         0.00000E+00
    0.36760E+07        -0.49231E+08         0.00000E+00
    0.00000E+00         0.00000E+00        -0.46988E+08
 
   -0.46568E+08         0.37492E+07         0.00000E+00
    0.37492E+07        -0.49191E+08         0.00000E+00
    0.00000E+00         0.00000E+00        -0.46988E+08
 
   -0.46660E+08         0.38223E+07         0.00000E+00
    0.38223E+07        -0.49149E+08         0.00000E+00
    0.00000E+00         0.00000E+00        -0.46988E+08
 
   -0.46753E+08         0.38951E+07         0.00000E+00
    0.38951E+07        -0.49106E+08         0.00000E+00
    0.00000E+00         0.00000E+00        -0.46988E+08
 
   -0.46846E+08         0.39678E+07         0.00000E+00
    0.39678E+07        -0.49061E+08         0.00000E+00
    0.00000E+00         0.00000E+00        -0.46988E+08
 
   -0.46940E+08         0.40402E+07         0.00000E+00
    0.40402E+07        -0.49015E+08         0.00000E+00
    0.00000E+00         0.00000E+00        -0.46988E+08
 
   -0.42179E+08         0.54125E+05         0.00000E+00
    0.54125E+05        -0.50000E+08         0.00000E+00
    0.00000E+00         0.00000E+00        -0.46607E+08
 
   -0.42274E+08         0.15800E+06         0.00000E+00
    0.15800E+06        -0.49999E+08         0.00000E+00
    0.00000E+00         0.00000E+00        -0.46607E+08
 
   -0.42369E+08         0.26036E+06         0.00000E+00
    0.26036E+06        -0.49998E+08         0.00000E+00
    0.00000E+00         0.00000E+00        -0.46607E+08
 
   -0.42463E+08         0.36129E+06         0.00000E+00
    0.36129E+06        -0.49996E+08         0.00000E+00
    0.00000E+00         0.00000E+00        -0.46607E+08
 
   -0.42556E+08         0.46084E+06         0.00000E+00
    0.46084E+06        -0.49994E+08         0.00000E+00
    0.00000E+00         0.00000E+00        -0.46607E+08
 
   -0.42650E+08         0.55908E+06         0.00000E+00
    0.55908E+06        -0.49991E+08         0.00000E+00
    0.00000E+00         0.00000E+00        -0.46607E+08
 
   -0.42743E+08         0.65606E+06         0.00000E+00
    0.65606E+06        -0.49987E+08         0.00000E+00
    0.00000E+00         0.00000E+00        -0.46607E+08
 
   -0.42835E+08         0.75185E+06         0.00000E+00
    0.75185E+06        -0.49983E+08         0.00000E+00
    0.00000E+00         0.00000E+00        -0.46607E+08
 
   -0.42927E+08         0.84651E+06         0.00000E+00
    0.84651E+06        -0.49978E+08         0.00000E+00
    0.00000E+00         0.00000E+00        -0.46607E+08
 
   -0.43019E+08         0.94009E+06         0.00000E+00
    0.94009E+06        -0.49972E+08         0.00000E+00
    0.00000E+00         0.00000E+00        -0.46607E+08
 
   -0.43110E+08         0.10326E+07         0.00000E+00
    0.10326E+07        -0.49966E+08         0.00000E+00
    0.00000E+00         0.00000E+00        -0.46607E+08
 
   -0.43201E+08         0.11242E+07         0.00000E+00
    0.11242E+07        -0.49959E+08         0.00000E+00
    0.00000E+00         0.00000E+00        -0.46607E+08
 
   -0.43291E+08         0.12149E+07         0.00000E+00
    0.12149E+07        -0.49952E+08         0.00000E+00
    0.00000E+00         0.00000E+00        -0.46607E+08
 
   -0.43381E+08         0.13047E+07         0.00000E+00
    0.13047E+07        -0.49944E+08         0.00000E+00
    0.00000E+00         0.00000E+00        -0.46607E+08
 
   -0.43470E+08         0.13938E+07         0.00000E+00
    0.13938E+07        -0.49935E+08         0.00000E+00
    0.00000E+00         0.00000E+00        -0.46607E+08
 
   -0.43559E+08         0.14820E+07         0.00000E+00
    0.14820E+07        -0.49926E+08         0.00000E+00
    0.00000E+00         0.00000E+00        -0.46607E+08
 
   -0.43648E+08         0.15695E+07         0.00000E+00
    0.15695E+07        -0.49916E+08         0.00000E+00
    0.00000E+00         0.00000E+00        -0.46607E+08
 
   -0.43736E+08         0.16564E+07         0.00000E+00
    0.16564E+07        -0.49905E+08         0.00000E+00
    0.00000E+00         0.00000E+00        -0.46607E+08
 
   -0.43824E+08         0.17427E+07         0.00000E+00
    0.17427E+07        -0.49893E+08         0.00000E+00
    0.00000E+00         0.00000E+00        -0.46607E+08
 
   -0.43912E+08         0.18283E+07         0.00000E+00
    0.18283E+07        -0.49881E+08         0.00000E+00
    0.00000E+00         0.00000E+00        -0.46607E+08
 
   -0.43999E+08         0.19135E+07         0.00000E+00
    0.19135E+07        -0.49868E+08         0.00000E+00
    0.00000E+00         0.00000E+00        -0.46607E+08
 
   -0.44086E+08         0.19981E+07         0.00000E+00
    0.19981E+07        -0.49855E+08         0.00000E+00
    0.00000E+00         0.00000E+00        -0.46607E+08
 
   -0.44173E+08         0.20823E+07         0.00000E+00
    0.20823E+07        -0.49840E+08         0.00000E+00
    0.00000E+00         0.00000E+00        -0.46607E+08
 
   -0.44259E+08         0.21660E+07         0.00000E+00
    0.21660E+07        -0.49825E+08         0.00000E+00
    0.00000E+00         0.00000E+00        -0.46607E+08
 
   -0.44346E+08         0.22494E+07         0.00000E+00
    0.22494E+07        -0.49809E+08         0.00000E+00
    0.00000E+00         0.00000E+00        -0.46607E+08
 
   -0.44432E+08         0.23324E+07         0.00000E+00
    0.23324E+07        -0.49792E+08         0.00000E+00
    0.00000E+00         0.00000E+00        -0.46607E+08
 
   -0.44518E+08         0.24150E+07         0.00000E+00
    0.24150E+07        -0.49774E+08         0.00000E+00
    0.00000E+00         0.00000E+00        -0.46607E+08
 
   -0.44604E+08         0.24974E+07         0.00000E+00
    0.24974E+07        -0.49755E+08         0.00000E+00
    0.00000E+00         0.00000E+00        -0.46607E+08
 
   -0.44691E+08         0.25795E+07         0.00000E+00
    0.25795E+07        -0.49735E+08         0.00000E+00
    0.00000E+00         0.00000E+00        -0.46607E+08
 
   -0.44777E+08         0.26614E+07         0.00000E+00
    0.26614E+07        -0.49715E+08         0.00000E+00
    0.00000E+00         0.00000E+00        -0.46607E+08
 
   -0.44863E+08         0.27430E+07         0.00000E+00
    0.27430E+07        -0.49693E+08         0.00000E+00
    0.00000E+00         0.00000E+00        -0.46607E+08
 
   -0.44949E+08         0.28245E+07         0.00000E+00
    0.28245E+07        -0.49670E+08         0.00000E+00
    0.00000E+00         0.00000E+00        -0.46607E+08
 
   -0.45035E+08         0.29058E+07         0.00000E+00
    0.29058E+07        -0.49647E+08         0.00000E+00
    0.00000E+00         0.00000E+00        -0.46607E+08
 
   -0.45121E+08         0.29869E+07         0.00000E+00
    0.29869E+07        -0.49622E+08         0.00000E+00
    0.00000E+00         0.00000E+00        -0.46607E+08
 
   -0.45208E+08         0.30679E+07         0.00000E+00
    0.30679E+07        -0.49596E+08         0.00000E+00
    0.00000E+00         0.00000E+00        -0.46607E+08
 
   -0.45295E+08         0.31488E+07         0.00000E+00
    0.31488E+07        -0.49569E+08         0.00000E+00
    0.00000E+00         0.00000E+00        -0.46607E+08
 
   -0.45382E+08         0.32296E+07         0.00000E+00
    0.32296E+07        -0.49541E+08         0.00000E+00
    0.00000E+00         0.00000E+00        -0.46607E+08
 
   -0.45469E+08         0.33103E+07         0.00000E+00
    0.33103E+07        -0.49511E+08         0.00000E+00
    0.00000E+00         0.00000E+00        -0.46607E+08
 
   -0.45557E+08         0.33909E+07         0.00000E+00
    0.33909E+07        -0.49481E+08         0.00000E+00
    0.00000E+00         0.00000E+00        -0.46607E+08
 
   -0.45645E+08         0.34715E+07         0.00000E+00
    0.34715E+07        -0.49449E+08         0.00000E+00
    0.00000E+00         0.00000E+00        -0.46607E+08
 
   -0.45734E+08         0.35520E+07         0.00000E+00
    0.35520E+07        -0.49416E+08         0.00000E+00
    0.00000E+00         0.00000E+00        -0.46607E+08
 
   -0.45823E+08         0.36324E+07         0.00000E+00
    0.36324E+07        -0.49381E+08         0.00000E+00
    0.00000E+00         0.00000E+00        -0.46607E+08
 
   -0.45912E+08         0.37129E+07         0.00000E+00
    0.37129E+07        -0.49345E+08         0.00000E+00
    0.00000E+00         0.00000E+00        -0.46607E+08
 
   -0.46002E+08         0.37932E+07         0.00000E+00
    0.37932E+07        -0.49308E+08         0.00000E+00
    0.00000E+00         0.00000E+00        -0.46607E+08
 
   -0.46093E+08         0.38736E+07         0.00000E+00
    0.38736E+07        -0.49270E+08         0.00000E+00
    0.00000E+00         0.00000E+00        -0.46607E+08
 
   -0.46185E+08         0.39539E+07         0.00000E+00
    0.39539E+07        -0.49230E+08         0.00000E+00
    0.00000E+00         0.00000E+00        -0.46607E+08
 
   -0.46277E+08         0.40342E+07         0.00000E+00
    0.40342E+07        -0.49188E+08         0.00000E+00
    0.00000E+00         0.00000E+00        -0.46607E+08
 
   -0.46370E+08         0.41145E+07         0.00000E+00
    0.41145E+07        -0.49145E+08         0.00000E+00
    0.00000E+00         0.00000E+00        -0.46607E+08
 
   -0.46464E+08         0.41947E+07         0.00000E+00
    0.41947E+07        -0.49100E+08         0.00000E+00
    0.00000E+00         0.00000E+00        -0.46607E+08
 
   -0.46559E+08         0.42748E+07         0.00000E+00
    0.42748E+07        -0.49054E+08         0.00000E+00
    0.00000E+00         0.00000E+00        -0.46607E+08
 
   -0.41648E+08         0.55625E+05         0.00000E+00
    0.55625E+05        -0.50000E+08         0.00000E+00
    0.00000E+00         0.00000E+00        -0.46185E+08
 
   -0.41751E+08         0.16236E+06         0.00000E+00
    0.16236E+06        -0.49999E+08         0.00000E+00
    0.00000E+00         0.00000E+00        -0.46185E+08
 
   -0.41853E+08         0.26755E+06         0.00000E+00
    0.26755E+06        -0.49998E+08         0.00000E+00
    0.00000E+00         0.00000E+00        -0.46185E+08
 
   -0.41954E+08         0.37128E+06         0.00000E+00
    0.37128E+06        -0.49997E+08         0.00000E+00
    0.00000E+00         0.00000E+00        -0.46185E+08
 
   -0.42055E+08         0.47361E+06         0.00000E+00
    0.47361E+06        -0.49995E+08         0.00000E+00
    0.00000E+00         0.00000E+00        -0.46185E+08
 
   -0.42155E+08         0.57463E+06         0.00000E+00
    0.57463E+06        -0.49992E+08         0.00000E+00
    0.00000E+00         0.00000E+00        -0.46185E+08
 
   -0.42254E+08         0.67440E+06         0.00000E+00
    0.67440E+06        -0.49989E+08         0.00000E+00
    0.00000E+00         0.00000E+00        -0.46185E+08
 
   -0.42352E+08         0.77299E+06         0.00000E+00
    0.77299E+06        -0.49986E+08         0.00000E+00
    0.00000E+00         0.00000E+00        -0.46185E+08
 
   -0.42449E+08         0.87047E+06         0.00000E+00
    0.87047E+06        -0.49982E+08         0.00000E+00
    0.00000E+00         0.00000E+00        -0.46185E+08
 
   -0.42546E+08         0.96691E+06         0.00000E+00
    0.96691E+06        -0.49977E+08         0.00000E+00
    0.00000E+00         0.00000E+00        -0.46185E+08
 
   -0.42642E+08         0.10624E+07         0.00000E+00
    0.10624E+07        -0.49972E+08         0.00000E+00
    0.00000E+00         0.00000E+00        -0.46185E+08
 
   -0.42737E+08         0.11569E+07         0.00000E+00
    0.11569E+07        -0.49966E+08         0.00000E+00
    0.00000E+00         0.00000E+00        -0.46185E+08
 
   -0.42832E+08         0.12506E+07         0.00000E+00
    0.12506E+07        -0.49960E+08         0.00000E+00
    0.00000E+00         0.00000E+00        -0.46185E+08
 
   -0.42926E+08         0.13435E+07         0.00000E+00
    0.13435E+07        -0.49953E+08         0.00000E+00
    0.00000E+00         0.00000E+00        -0.46185E+08
 
   -0.43019E+08         0.14357E+07         0.00000E+00
    0.14357E+07        -0.49946E+08         0.00000E+00
    0.00000E+00         0.00000E+00        -0.46185E+08
 
   -0.43111E+08         0.15271E+07         0.00000E+00
    0.15271E+07        -0.49938E+08         0.00000E+00
    0.00000E+00         0.00000E+00        -0.46185E+08
 
   -0.43203E+08         0.16180E+07         0.00000E+00
    0.16180E+07        -0.49929E+08         0.00000E+00
    0.00000E+00         0.00000E+00        -0.46185E+08
 
   -0.43294E+08         0.17083E+07         0.00000E+00
    0.17083E+07        -0.49920E+08         0.00000E+00
    0.00000E+00         0.00000E+00        -0.46185E+08
 
   -0.43385E+08         0.17980E+07         0.00000E+00
    0.17980E+07        -0.49910E+08         0.00000E+00
    0.00000E+00         0.00000E+00        -0.46185E+08
 
   -0.43475E+08         0.18873E+07         0.00000E+00
    0.18873E+07        -0.49899E+08         0.00000E+00
    0.00000E+00         0.00000E+00        -0.46185E+08
 
   -0.43565E+08         0.19762E+07         0.00000E+00
    0.19762E+07        -0.49888E+08         0.00000E+00
    0.00000E+00         0.00000E+00        -0.46185E+08
 
   -0.43654E+08         0.20646E+07         0.00000E+00
    0.20646E+07        -0.49876E+08         0.00000E+00
    0.00000E+00         0.00000E+00        -0.46185E+08
 
   -0.43743E+08         0.21528E+07         0.00000E+00
    0.21528E+07        -0.49863E+08         0.00000E+00
    0.00000E+00         0.00000E+00        -0.46185E+08
 
   -0.43831E+08         0.22406E+07         0.00000E+00
    0.22406E+07        -0.49849E+08         0.00000E+00
    0.00000E+00         0.00000E+00        -0.46185E+08
 
   -0.43919E+08         0.23282E+07         0.00000E+00
    0.23282E+07        -0.49835E+08         0.00000E+00
    0.00000E+00         0.00000E+00        -0.46185E+08
 
   -0.44007E+08         0.24155E+07         0.00000E+00
    0.24155E+07        -0.49819E+08         0.00000E+00
    0.00000E+00         0.00000E+00        -0.46185E+08
 
   -0.44094E+08         0.25027E+07         0.00000E+00
    0.25027E+07        -0.49803E+08         0.00000E+00
    0.00000E+00         0.00000E+00        -0.46185E+08
 
   -0.44181E+08         0.25897E+07         0.00000E+00
    0.25897E+07        -0.49786E+08         0.00000E+00
    0.00000E+00         0.00000E+00        -0.46185E+08
 
   -0.44268E+08         0.26765E+07         0.00000E+00
    0.26765E+07        -0.49768E+08         0.00000E+00
    0.00000E+00         0.00000E+00        -0.46185E+08
 
   -0.44355E+08         0.27633E+07         0.00000E+00
    0.27633E+07        -0.49749E+08         0.00000E+00
    0.00000E+00         0.00000E+00        -0.46185E+08
 
   -0.44442E+08         0.28501E+07         0.00000E+00
    0.28501E+07        -0.49729E+08         0.00000E+00
    0.00000E+00         0.00000E+00        -0.46185E+08
 
   -0.44528E+08         0.29367E+07         0.00000E+00
    0.29367E+07        -0.49708E+08         0.00000E+00
    0.00000E+00         0.00000E+00        -0.46185E+08
 
   -0.44615E+08         0.30234E+07         0.00000E+00
    0.30234E+07        -0.49686E+08         0.00000E+00
    0.00000E+00         0.00000E+00        -0.46185E+08
 
   -0.44702E+08         0.31101E+07         0.00000E+00
    0.31101E+07        -0.49662E+08         0.00000E+00
    0.00000E+00         0.00000E+00        -0.46185E+08
 
   -0.44789E+08         0.31968E+07         0.00000E+00
    0.31968E+07        -0.49638E+08         0.00000E+00
    0.00000E+00         0.00000E+00        -0.46185E+08
 
   -0.44876E+08         0.32835E+07         0.00000E+00
    0.32835E+07        -0.49612E+08         0.00000E+00
    0.00000E+00         0.00000E+00        -0.46185E+08
 
   -0.44963E+08         0.33703E+07         0.00000E+00
    0.33703E+07        -0.49586E+08         0.00000E+00
    0.00000E+00         0.00000E+00        -0.46185E+08
 
   -0.45050E+08         0.34572E+07         0.00000E+00
    0.34572E+07        -0.49557E+08         0.00000E+00
    0.00000E+00         0.00000E+00        -0.46185E+08
 
   -0.45138E+08         0.35442E+07         0.00000E+00
    0.35442E+07        -0.49528E+08         0.00000E+00
    0.00000E+00         0.00000E+00        -0.46185E+08
 
   -0.45226E+08         0.36313E+07         0.00000E+00
    0.36313E+07        -0.49497E+08         0.00000E+00
    0.00000E+00         0.00000E+00        -0.46185E+08
 
   -0.45314E+08         0.37185E+07         0.00000E+00
    0.37185E+07        -0.49465E+08         0.00000E+00
    0.00000E+00         0.00000E+00        -0.46185E+08
 
   -0.45403E+08         0.38059E+07         0.00000E+00
    0.38059E+07        -0.49432E+08         0.00000E+00
    0.00000E+00         0.00000E+00        -0.46185E+08
 
   -0.45492E+08         0.38934E+07         0.00000E+00
    0.38934E+07        -0.49397E+08         0.00000E+00
    0.00000E+00         0.00000E+00        -0.46185E+08
 
   -0.45582E+08         0.39810E+07         0.00000E+00
    0.39810E+07        -0.49361E+08         0.00000E+00
    0.00000E+00         0.00000E+00        -0.46185E+08
 
   -0.45673E+08         0.40687E+07         0.00000E+00
    0.40687E+07        -0.49323E+08         0.00000E+00
    0.00000E+00         0.00000E+00        -0.46185E+08
 
   -0.45764E+08         0.41566E+07         0.00000E+00
    0.41566E+07        -0.49283E+08         0.00000E+00
    0.00000E+00         0.00000E+00        -0.46185E+08
 
   -0.45856E+08         0.42447E+07         0.00000E+00
    0.42447E+07        -0.49242E+08         0.00000E+00
    0.00000E+00         0.00000E+00        -0.46185E+08
 
   -0.45949E+08         0.43329E+07         0.00000E+00
    0.43329E+07        -0.49200E+08         0.00000E+00
    0.00000E+00         0.00000E+00        -0.46185E+08
 
   -0.46043E+08         0.44212E+07         0.00000E+00
    0.44212E+07        -0.49155E+08         0.00000E+00
    0.00000E+00         0.00000E+00        -0.46185E+08
 
   -0.46137E+08         0.45097E+07         0.00000E+00
    0.45097E+07        -0.49109E+08         0.00000E+00
    0.00000E+00         0.00000E+00        -0.46185E+08
 
   -0.41104E+08         0.56785E+05         0.00000E+00
    0.56785E+05        -0.50000E+08         0.00000E+00
    0.00000E+00         0.00000E+00        -0.45719E+08
 
   -0.41215E+08         0.16574E+06         0.00000E+00
    0.16574E+06        -0.50000E+08         0.00000E+00
    0.00000E+00         0.00000E+00        -0.45719E+08
 
   -0.41325E+08         0.27313E+06         0.00000E+00
    0.27313E+06        -0.49999E+08         0.00000E+00
    0.00000E+00         0.00000E+00        -0.45719E+08
 
   -0.41433E+08         0.37905E+06         0.00000E+00
    0.37905E+06        -0.49998E+08         0.00000E+00
    0.00000E+00         0.00000E+00        -0.45719E+08
 
   -0.41541E+08         0.48358E+06         0.00000E+00
    0.48358E+06        -0.49996E+08         0.00000E+00
    0.00000E+00         0.00000E+00        -0.45719E+08
 
   -0.41647E+08         0.58681E+06         0.00000E+00
    0.58681E+06        -0.49994E+08         0.00000E+00
    0.00000E+00         0.00000E+00        -0.45719E+08
 
   -0.41752E+08         0.68881E+06         0.00000E+00
    0.68881E+06        -0.49992E+08         0.00000E+00
    0.00000E+00         0.00000E+00        -0.45719E+08
 
   -0.41856E+08         0.78968E+06         0.00000E+00
    0.78968E+06        -0.49990E+08         0.00000E+00
    0.00000E+00         0.00000E+00        -0.45719E+08
 
   -0.41958E+08         0.88948E+06         0.00000E+00
    0.88948E+06        -0.49987E+08         0.00000E+00
    0.00000E+00         0.00000E+00        -0.45719E+08
 
   -0.42060E+08         0.98830E+06         0.00000E+00
    0.98830E+06        -0.49983E+08         0.00000E+00
    0.00000E+00         0.00000E+00        -0.45719E+08
 
   -0.42160E+08         0.10862E+07         0.00000E+00
    0.10862E+07        -0.49979E+08         0.00000E+00
    0.00000E+00         0.00000E+00        -0.45719E+08
 
   -0.42260E+08         0.11833E+07         0.00000E+00
    0.11833E+07        -0.49975E+08         0.00000E+00
    0.00000E+00         0.00000E+00        -0.45719E+08
 
   -0.42358E+08         0.12796E+07         0.00000E+00
    0.12796E+07        -0.49970E+08         0.00000E+00
    0.00000E+00         0.00000E+00        -0.45719E+08
 
   -0.42456E+08         0.13752E+07         0.00000E+00
    0.13752E+07        -0.49965E+08         0.00000E+00
    0.00000E+00         0.00000E+00        -0.45719E+08
 
   -0.42552E+08         0.14701E+07         0.00000E+00
    0.14701E+07        -0.49959E+08         0.00000E+00
    0.00000E+00         0.00000E+00        -0.45719E+08
 
   -0.42648E+08         0.15645E+07         0.00000E+00
    0.15645E+07        -0.49953E+08         0.00000E+00
    0.00000E+00         0.00000E+00        -0.45719E+08
 
   -0.42742E+08         0.16584E+07         0.00000E+00
    0.16584E+07        -0.49946E+08         0.00000E+00
    0.00000E+00         0.00000E+00        -0.45719E+08
 
   -0.42836E+08         0.17518E+07         0.00000E+00
    0.17518E+07        -0.49938E+08         0.00000E+00
    0.00000E+00         0.00000E+00        -0.45719E+08
 
   -0.42929E+08         0.18448E+07         0.00000E+00
    0.18448E+07        -0.49930E+08         0.00000E+00
    0.00000E+00         0.00000E+00        -0.45719E+08
 
   -0.43021E+08         0.19375E+07         0.00000E+00
    0.19375E+07        -0.49922E+08         0.00000E+00
    0.00000E+00         0.00000E+00        -0.45719E+08
 
   -0.43112E+08         0.20299E+07         0.00000E+00
    0.20299E+07        -0.49912E+08         0.00000E+00
    0.00000E+00         0.00000E+00        -0.45719E+08
 
   -0.43203E+08         0.21221E+07         0.00000E+00
    0.21221E+07        -0.49902E+08         0.00000E+00
    0.00000E+00         0.00000E+00        -0.45719E+08
 
   -0.43293E+08         0.22141E+07         0.00000E+00
    0.22141E+07        -0.49891E+08         0.00000E+00
    0.00000E+00         0.00000E+00        -0.45719E+08
 
   -0.43382E+08         0.23059E+07         0.00000E+00
    0.23059E+07        -0.49880E+08         0.00000E+00
    0.00000E+00         0.00000E+00        -0.45719E+08
 
   -0.43471E+08         0.23976E+07         0.00000E+00
    0.23976E+07        -0.49867E+08         0.00000E+00
    0.00000E+00         0.00000E+00        -0.45719E+08
 
   -0.43559E+08         0.24893E+07         0.00000E+00
    0.24893E+07        -0.49854E+08         0.00000E+00
    0.00000E+00         0.00000E+00        -0.45719E+08
 
   -0.43647E+08         0.25809E+07         0.00000E+00
    0.25809E+07        -0.49840E+08         0.00000E+00
    0.00000E+00         0.00000E+00        -0.45719E+08
 
   -0.43735E+08         0.26726E+07         0.00000E+00
    0.26726E+07        -0.49825E+08         0.00000E+00
    0.00000E+00         0.00000E+00        -0.45719E+08
 
   -0.43822E+08         0.27643E+07         0.00000E+00
    0.27643E+07        -0.49809E+08         0.00000E+00
    0.00000E+00         0.00000E+00        -0.45719E+08
 
   -0.43909E+08         0.28561E+07         0.00000E+00
    0.28561E+07        -0.49792E+08         0.00000E+00
    0.00000E+00         0.00000E+00        -0.45719E+08
 
   -0.43995E+08         0.29480E+07         0.00000E+00
    0.29480E+07        -0.49774E+08         0.00000E+00
    0.00000E+00         0.00000E+00        -0.45719E+08
 
   -0.44081E+08         0.30400E+07         0.00000E+00
    0.30400E+07        -0.49755E+08         0.00000E+00
    0.00000E+00         0.00000E+00        -0.45719E+08
 
   -0.44168E+08         0.31322E+07         0.00000E+00
    0.31322E+07        -0.49735E+08         0.00000E+00
    0.00000E+00         0.00000E+00        -0.45719E+08
 
   -0.44254E+08         0.32246E+07         0.00000E+00
    0.32246E+07        -0.49714E+08         0.00000E+00
    0.00000E+00         0.00000E+00        -0.45719E+08
 
   -0.44340E+08         0.33172E+07         0.00000E+00
    0.33172E+07        -0.49691E+08         0.00000E+00
    0.00000E+00         0.00000E+00        -0.45719E+08
 
   -0.44426E+08         0.34101E+07         0.00000E+00
    0.34101E+07        -0.49668E+08         0.00000E+00
    0.00000E+00         0.00000E+00        -0.45719E+08
 
   -0.44512E+08         0.35032E+07         0.00000E+00
    0.35032E+07        -0.49643E+08         0.00000E+00
    0.00000E+00         0.00000E+00        -0.45719E+08
 
   -0.44599E+08         0.35966E+07         0.00000E+00
    0.35966E+07        -0.49616E+08         0.00000E+00
    0.00000E+00         0.00000E+00        -0.45719E+08
 
   -0.44685E+08         0.36903E+07         0.00000E+00
    0.36903E+07        -0.49589E+08         0.00000E+00
    0.00000E+00         0.00000E+00        -0.45719E+08
 
   -0.44772E+08         0.37842E+07         0.00000E+00
    0.37842E+07        -0.49560E+08         0.00000E+00
    0.00000E+00         0.00000E+00        -0.45719E+08
 
   -0.44860E+08         0.38785E+07         0.00000E+00
    0.38785E+07        -0.49529E+08         0.00000E+00
    0.00000E+00         0.00000E+00        -0.45719E+08
 
   -0.44947E+08         0.39732E+07         0.00000E+00
    0.39732E+07        -0.49497E+08         0.00000E+00
    0.00000E+00         0.00000E+00        -0.45719E+08
 
   -0.45036E+08         0.40681E+07         0.00000E+00
    0.40681E+07        -0.49464E+08         0.00000E+00
    0.00000E+00         0.00000E+00        -0.45719E+08
 
   -0.45124E+08         0.41634E+07         0.00000E+00
    0.41634E+07        -0.49429E+08         0.00000E+00
    0.00000E+00         0.00000E+00        -0.45719E+08
 
   -0.45214E+08         0.42591E+07         0.00000E+00
    0.42591E+07        -0.49392E+08         0.00000E+00
    0.00000E+00         0.00000E+00        -0.45719E+08
 
   -0.45304E+08         0.43551E+07         0.00000E+00
    0.43551E+07        -0.49354E+08         0.00000E+00
    0.00000E+00         0.00000E+00        -0.45719E+08
 
   -0.45395E+08         0.44514E+07         0.00000E+00
    0.44514E+07        -0.49314E+08         0.00000E+00
    0.00000E+00         0.00000E+00        -0.45719E+08
 
   -0.45486E+08         0.45481E+07         0.00000E+00
    0.45481E+07        -0.49272E+08         0.00000E+00
    0.00000E+00         0.00000E+00        -0.45719E+08
 
   -0.45579E+08         0.46452E+07         0.00000E+00
    0.46452E+07        -0.49229E+08         0.00000E+00
    0.00000E+00         0.00000E+00        -0.45719E+08
 
   -0.45672E+08         0.47426E+07         0.00000E+00
    0.47426E+07        -0.49184E+08         0.00000E+00
    0.00000E+00         0.00000E+00        -0.45719E+08
 
   -0.40552E+08         0.57521E+05         0.00000E+00
    0.57521E+05        -0.50000E+08         0.00000E+00
    0.00000E+00         0.00000E+00        -0.45206E+08
 
   -0.40670E+08         0.16789E+06         0.00000E+00
    0.16789E+06        -0.50000E+08         0.00000E+00
    0.00000E+00         0.00000E+00        -0.45206E+08
 
   -0.40788E+08         0.27671E+06         0.00000E+00
    0.27671E+06        -0.49999E+08         0.00000E+00
    0.00000E+00         0.00000E+00        -0.45206E+08
 
   -0.40903E+08         0.38406E+06         0.00000E+00
    0.38406E+06        -0.49999E+08         0.00000E+00
    0.00000E+00         0.00000E+00        -0.45206E+08
 
   -0.41017E+08         0.49005E+06         0.00000E+00
    0.49005E+06        -0.49998E+08         0.00000E+00
    0.00000E+00         0.00000E+00        -0.45206E+08
 
   -0.41129E+08         0.59478E+06         0.00000E+00
    0.59478E+06        -0.49997E+08         0.00000E+00
    0.00000E+00         0.00000E+00        -0.45206E+08
 
   -0.41240E+08         0.69835E+06         0.00000E+00
    0.69835E+06        -0.49996E+08         0.00000E+00
    0.00000E+00         0.00000E+00        -0.45206E+08
 
   -0.41349E+08         0.80084E+06         0.00000E+00
    0.80084E+06        -0.49994E+08         0.00000E+00
    0.00000E+00         0.00000E+00        -0.45206E+08
 
   -0.41457E+08         0.90234E+06         0.00000E+00
    0.90234E+06        -0.49993E+08         0.00000E+00
    0.00000E+00         0.00000E+00        -0.45206E+08
 
   -0.41563E+08         0.10029E+07         0.00000E+00
    0.10029E+07        -0.49991E+08         0.00000E+00
    0.00000E+00         0.00000E+00        -0.45206E+08
 
   -0.41668E+08         0.11027E+07         0.00000E+00
    0.11027E+07        -0.49988E+08         0.00000E+00
    0.00000E+00         0.00000E+00        -0.45206E+08
 
   -0.41771E+08         0.12018E+07         0.00000E+00
    0.12018E+07        -0.49986E+08         0.00000E+00
    0.00000E+00         0.00000E+00        -0.45206E+08
 
   -0.41873E+08         0.13002E+07         0.00000E+00
    0.13002E+07        -0.49983E+08         0.00000E+00
    0.00000E+00         0.00000E+00        -0.45206E+08
 
   -0.41973E+08         0.13980E+07         0.00000E+00
    0.13980E+07        -0.49979E+08         0.00000E+00
    0.00000E+00         0.00000E+00        -0.45206E+08
 
   -0.42072E+08         0.14954E+07         0.00000E+00
    0.14954E+07        -0.49976E+08         0.00000E+00
    0.00000E+00         0.00000E+00        -0.45206E+08
 
   -0.42170E+08         0.15923E+07         0.00000E+00
    0.15923E+07        -0.49971E+08         0.00000E+00
    0.00000E+00         0.00000E+00        -0.45206E+08
 
   -0.42267E+08         0.16888E+07         0.00000E+00
    0.16888E+07        -0.49967E+08         0.00000E+00
    0.00000E+00         0.00000E+00        -0.45206E+08
 
   -0.42362E+08         0.17850E+07         0.00000E+00
    0.17850E+07        -0.49961E+08         0.00000E+00
    0.00000E+00         0.00000E+00        -0.45206E+08
 
   -0.42457E+08         0.18810E+07         0.00000E+00
    0.18810E+07        -0.49956E+08         0.00000E+00
    0.00000E+00         0.00000E+00        -0.45206E+08
 
   -0.42550E+08         0.19769E+07         0.00000E+00
    0.19769E+07        -0.49949E+08         0.00000E+00
    0.00000E+00         0.00000E+00        -0.45206E+08
 
   -0.42642E+08         0.20726E+07         0.00000E+00
    0.20726E+07        -0.49942E+08         0.00000E+00
    0.00000E+00         0.00000E+00        -0.45206E+08
 
   -0.42733E+08         0.21682E+07         0.00000E+00
    0.21682E+07        -0.49935E+08         0.00000E+00
    0.00000E+00         0.00000E+00        -0.45206E+08
 
   -0.42824E+08         0.22639E+07         0.00000E+00
    0.22639E+07        -0.49927E+08         0.00000E+00
    0.00000E+00         0.00000E+00        -0.45206E+08
 
   -0.42913E+08         0.23596E+07         0.00000E+00
    0.23596E+07        -0.49918E+08         0.00000E+00
    0.00000E+00         0.00000E+00        -0.45206E+08
 
   -0.43002E+08         0.24553E+07         0.00000E+00
    0.24553E+07        -0.49908E+08         0.00000E+00
    0.00000E+00         0.00000E+00        -0.45206E+08
 
   -0.43090E+08         0.25513E+07         0.00000E+00
    0.25513E+07        -0.49897E+08         0.00000E+00
    0.00000E+00         0.00000E+00        -0.45206E+08
 
   -0.43178E+08         0.26473E+07         0.00000E+00
    0.26473E+07        -0.49886E+08         0.00000E+00
    0.00000E+00         0.00000E+00        -0.45206E+08
 
   -0.43264E+08         0.27436E+07         0.00000E+00
    0.27436E+07        -0.49873E+08         0.00000E+00
    0.00000E+00         0.00000E+00        -0.45206E+08
 
   -0.43351E+08         0.28402E+07         0.00000E+00
    0.28402E+07        -0.49860E+08         0.00000E+00
    0.00000E+00         0.00000E+00        -0.45206E+08
 
   -0.43436E+08         0.29370E+07         0.00000E+00
    0.29370E+07        -0.49846E+08         0.00000E+00
    0.00000E+00         0.00000E+00        -0.45206E+08
 
   -0.43522E+08         0.30342E+07         0.00000E+00
    0.30342E+07        -0.49830E+08         0.00000E+00
    0.00000E+00         0.00000E+00        -0.45206E+08
 
   -0.43607E+08         0.31317E+07         0.00000E+00
    0.31317E+07        -0.49814E+08         0.00000E+00
    0.00000E+00         0.00000E+00        -0.45206E+08
 
   -0.43691E+08         0.32296E+07         0.00000E+00
    0.32296E+07        -0.49796E+08         0.00000E+00
    0.00000E+00         0.00000E+00        -0.45206E+08
 
   -0.43776E+08         0.33279E+07         0.00000E+00
    0.33279E+07        -0.49777E+08         0.00000E+00
    0.00000E+00         0.00000E+00        -0.45206E+08
 
   -0.43861E+08         0.34267E+07         0.00000E+00
    0.34267E+07        -0.49757E+08         0.00000E+00
    0.00000E+00         0.00000E+00        -0.45206E+08
 
   -0.43945E+08         0.35259E+07         0.00000E+00
    0.35259E+07        -0.49736E+08         0.00000E+00
    0.00000E+00         0.00000E+00        -0.45206E+08
 
   -0.44029E+08         0.36255E+07         0.00000E+00
    0.36255E+07        -0.49714E+08         0.00000E+00
    0.00000E+00         0.00000E+00        -0.45206E+08
 
   -0.44114E+08         0.37257E+07         0.00000E+00
    0.37257E+07        -0.49690E+08         0.00000E+00
    0.00000E+00         0.00000E+00        -0.45206E+08
 
   -0.44198E+08         0.38264E+07         0.00000E+00
    0.38264E+07        -0.49664E+08         0.00000E+00
    0.00000E+00         0.00000E+00        -0.45206E+08
 
   -0.44283E+08         0.39276E+07         0.00000E+00
    0.39276E+07        -0.49638E+08         0.00000E+00
    0.00000E+00         0.00000E+00        -0.45206E+08
 
   -0.44368E+08         0.40293E+07         0.00000E+00
    0.40293E+07        -0.49609E+08         0.00000E+00
    0.00000E+00         0.00000E+00        -0.45206E+08
 
   -0.44454E+08         0.41316E+07         0.00000E+00
    0.41316E+07        -0.49579E+08         0.00000E+00
    0.00000E+00         0.00000E+00        -0.45206E+08
 
   -0.44540E+08         0.42345E+07         0.00000E+00
    0.42345E+07        -0.49548E+08         0.00000E+00
    0.00000E+00         0.00000E+00        -0.45206E+08
 
   -0.44626E+08         0.43379E+07         0.00000E+00
    0.43379E+07        -0.49515E+08         0.00000E+00
    0.00000E+00         0.00000E+00        -0.45206E+08
 
   -0.44713E+08         0.44420E+07         0.00000E+00
    0.44420E+07        -0.49480E+08         0.00000E+00
    0.00000E+00         0.00000E+00        -0.45206E+08
 
   -0.44801E+08         0.45465E+07         0.00000E+00
    0.45465E+07        -0.49444E+08         0.00000E+00
    0.00000E+00         0.00000E+00        -0.45206E+08
 
   -0.44890E+08         0.46517E+07         0.00000E+00
    0.46517E+07        -0.49405E+08         0.00000E+00
    0.00000E+00         0.00000E+00        -0.45206E+08
 
   -0.44979E+08         0.47575E+07         0.00000E+00
    0.47575E+07        -0.49365E+08         0.00000E+00
    0.00000E+00         0.00000E+00        -0.45206E+08
 
   -0.45069E+08         0.48638E+07         0.00000E+00
    0.48638E+07        -0.49323E+08         0.00000E+00
    0.00000E+00         0.00000E+00        -0.45206E+08
 
   -0.45160E+08         0.49708E+07         0.00000E+00
    0.49708E+07        -0.49279E+08         0.00000E+00
    0.00000E+00         0.00000E+00        -0.45206E+08
 
   -0.39994E+08         0.57733E+05         0.00000E+00
    0.57733E+05        -0.50000E+08         0.00000E+00
    0.00000E+00         0.00000E+00        -0.44642E+08
 
   -0.40121E+08         0.16854E+06         0.00000E+00
    0.16854E+06        -0.50000E+08         0.00000E+00
    0.00000E+00         0.00000E+00        -0.44642E+08
 
   -0.40245E+08         0.27782E+06         0.00000E+00
    0.27782E+06        -0.50000E+08         0.00000E+00
    0.00000E+00         0.00000E+00        -0.44642E+08
 
   -0.40368E+08         0.38568E+06         0.00000E+00
    0.38568E+06        -0.50000E+08         0.00000E+00
    0.00000E+00         0.00000E+00        -0.44642E+08
 
   -0.40488E+08         0.49224E+06         0.00000E+00
    0.49224E+06        -0.50000E+08         0.00000E+00
    0.00000E+00         0.00000E+00        -0.44642E+08
 
   -0.40606E+08         0.59761E+06         0.00000E+00
    0.59761E+06        -0.50000E+08         0.00000E+00
    0.00000E+00         0.00000E+00        -0.44642E+08
 
   -0.40723E+08         0.70190E+06         0.00000E+00
    0.70190E+06        -0.50000E+08         0.00000E+00
    0.00000E+00         0.00000E+00        -0.44642E+08
 
   -0.40837E+08         0.80521E+06         0.00000E+00
    0.80521E+06        -0.50000E+08         0.00000E+00
    0.00000E+00         0.00000E+00        -0.44642E+08
 
   -0.40949E+08         0.90765E+06         0.00000E+00
    0.90765E+06        -0.50000E+08         0.00000E+00
    0.00000E+00         0.00000E+00        -0.44642E+08
 
   -0.41059E+08         0.10093E+07         0.00000E+00
    0.10093E+07        -0.50000E+08         0.00000E+00
    0.00000E+00         0.00000E+00        -0.44642E+08
 
   -0.41167E+08         0.11103E+07         0.00000E+00
    0.11103E+07        -0.49999E+08         0.00000E+00
    0.00000E+00         0.00000E+00        -0.44642E+08
 
   -0.41273E+08         0.12107E+07         0.00000E+00
    0.12107E+07        -0.49999E+08         0.00000E+00
    0.00000E+00         0.00000E+00        -0.44642E+08
 
   -0.41378E+08         0.13106E+07         0.00000E+00
    0.13106E+07        -0.49998E+08         0.00000E+00
    0.00000E+00         0.00000E+00        -0.44642E+08
 
   -0.41481E+08         0.14101E+07         0.00000E+00
    0.14101E+07        -0.49997E+08         0.00000E+00
    0.00000E+00         0.00000E+00        -0.44642E+08
 
   -0.41582E+08         0.15093E+07         0.00000E+00
    0.15093E+07        -0.49996E+08         0.00000E+00
    0.00000E+00         0.00000E+00        -0.44642E+08
 
   -0.41681E+08         0.16082E+07         0.00000E+00
    0.16082E+07        -0.49994E+08         0.00000E+00
    0.00000E+00         0.00000E+00        -0.44642E+08
 
   -0.41779E+08         0.17070E+07         0.00000E+00
    0.17070E+07        -0.49992E+08         0.00000E+00
    0.00000E+00         0.00000E+00        -0.44642E+08
 
   -0.41875E+08         0.18056E+07         0.00000E+00
    0.18056E+07        -0.49989E+08         0.00000E+00
    0.00000E+00         0.00000E+00        -0.44642E+08
 
   -0.41970E+08         0.19042E+07         0.00000E+00
    0.19042E+07        -0.49986E+08         0.00000E+00
    0.00000E+00         0.00000E+00        -0.44642E+08
 
   -0.42064E+08         0.20029E+07         0.00000E+00
    0.20029E+07        -0.49983E+08         0.00000E+00
    0.00000E+00         0.00000E+00        -0.44642E+08
 
   -0.42156E+08         0.21016E+07         0.00000E+00
    0.21016E+07        -0.49979E+08         0.00000E+00
    0.00000E+00         0.00000E+00        -0.44642E+08
 
   -0.42247E+08         0.22005E+07         0.00000E+00
    0.22005E+07        -0.49974E+08         0.00000E+00
    0.00000E+00         0.00000E+00        -0.44642E+08
 
   -0.42336E+08         0.22996E+07         0.00000E+00
    0.22996E+07        -0.49969E+08         0.00000E+00
    0.00000E+00         0.00000E+00        -0.44642E+08
 
   -0.42425E+08         0.23990E+07         0.00000E+00
    0.23990E+07        -0.49963E+08         0.00000E+00
    0.00000E+00         0.00000E+00        -0.44642E+08
 
   -0.42513E+08         0.24987E+07         0.00000E+00
    0.24987E+07        -0.49957E+08         0.00000E+00
    0.00000E+00         0.00000E+00        -0.44642E+08
 
   -0.42599E+08         0.25988E+07         0.00000E+00
    0.25988E+07        -0.49949E+08         0.00000E+00
    0.00000E+00         0.00000E+00        -0.44642E+08
 
   -0.42685E+08         0.26992E+07         0.00000E+00
    0.26992E+07        -0.49941E+08         0.00000E+00
    0.00000E+00         0.00000E+00        -0.44642E+08
 
   -0.42770E+08         0.28002E+07         0.00000E+00
    0.28002E+07        -0.49932E+08         0.00000E+00
    0.00000E+00         0.00000E+00        -0.44642E+08
 
   -0.42854E+08         0.29016E+07         0.00000E+00
    0.29016E+07        -0.49922E+08         0.00000E+00
    0.00000E+00         0.00000E+00        -0.44642E+08
 
   -0.42938E+08         0.30035E+07         0.00000E+00
    0.30035E+07        -0.49910E+08         0.00000E+00
    0.00000E+00         0.00000E+00        -0.44642E+08
 
   -0.43021E+08         0.31060E+07         0.00000E+00
    0.31060E+07        -0.49898E+08         0.00000E+00
    0.00000E+00         0.00000E+00        -0.44642E+08
 
   -0.43104E+08         0.32091E+07         0.00000E+00
    0.32091E+07        -0.49885E+08         0.00000E+00
    0.00000E+00         0.00000E+00        -0.44642E+08
 
   -0.43186E+08         0.33129E+07         0.00000E+00
    0.33129E+07        -0.49871E+08         0.00000E+00
    0.00000E+00         0.00000E+00        -0.44642E+08
 
   -0.43268E+08         0.34172E+07         0.00000E+00
    0.34172E+07        -0.49855E+08         0.00000E+00
    0.00000E+00         0.00000E+00        -0.44642E+08
 
   -0.43349E+08         0.35223E+07         0.00000E+00
    0.35223E+07        -0.49838E+08         0.00000E+00
    0.00000E+00         0.00000E+00        -0.44642E+08
 
   -0.43431E+08         0.36280E+07         0.00000E+00
    0.36280E+07        -0.49820E+08         0.00000E+00
    0.00000E+00         0.00000E+00        -0.44642E+08
 
   -0.43512E+08         0.37345E+07         0.00000E+00
    0.37345E+07        -0.49800E+08         0.00000E+00
    0.00000E+00         0.00000E+00        -0.44642E+08
 
   -0.43594E+08         0.38418E+07         0.00000E+00
    0.38418E+07        -0.49779E+08         0.00000E+00
    0.00000E+00         0.00000E+00        -0.44642E+08
 
   -0.43675E+08         0.39498E+07         0.00000E+00
    0.39498E+07        -0.49757E+08         0.00000E+00
    0.00000E+00         0.00000E+00        -0.44642E+08
 
   -0.43757E+08         0.40585E+07         0.00000E+00
    0.40585E+07        -0.49733E+08         0.00000E+00
    0.00000E+00         0.00000E+00        -0.44642E+08
 
   -0.43838E+08         0.41681E+07         0.00000E+00
    0.41681E+07        -0.49707E+08         0.00000E+00
    0.00000E+00         0.00000E+00        -0.44642E+08
 
   -0.43921E+08         0.42785E+07         0.00000E+00
    0.42785E+07        -0.49680E+08         0.00000E+00
    0.00000E+00         0.00000E+00        -0.44642E+08
 
   -0.44003E+08         0.43896E+07         0.00000E+00
    0.43896E+07        -0.49651E+08         0.00000E+00
    0.00000E+00         0.00000E+00        -0.44642E+08
 
   -0.44086E+08         0.45016E+07         0.00000E+00
    0.45016E+07        -0.49621E+08         0.00000E+00
    0.00000E+00         0.00000E+00        -0.44642E+08
 
   -0.44170E+08         0.46145E+07         0.00000E+00
    0.46145E+07        -0.49588E+08         0.00000E+00
    0.00000E+00         0.00000E+00        -0.44642E+08
 
   -0.44254E+08         0.47282E+07         0.00000E+00
    0.47282E+07        -0.49554E+08         0.00000E+00
    0.00000E+00         0.00000E+00        -0.44642E+08
 
   -0.44339E+08         0.48427E+07         0.00000E+00
    0.48427E+07        -0.49518E+08         0.00000E+00
    0.00000E+00         0.00000E+00        -0.44642E+08
 
   -0.44424E+08         0.49581E+07         0.00000E+00
    0.49581E+07        -0.49480E+08         0.00000E+00
    0.00000E+00         0.00000E+00        -0.44642E+08
 
   -0.44511E+08         0.50743E+07         0.00000E+00
    0.50743E+07        -0.49440E+08         0.00000E+00
    0.00000E+00         0.00000E+00        -0.44642E+08
 
   -0.44598E+08         0.51913E+07         0.00000E+00
    0.51913E+07        -0.49398E+08         0.00000E+00
    0.00000E+00         0.00000E+00        -0.44642E+08
 
   -0.39437E+08         0.57302E+05         0.00000E+00
    0.57302E+05        -0.50000E+08         0.00000E+00
    0.00000E+00         0.00000E+00        -0.44025E+08
 
   -0.39572E+08         0.16735E+06         0.00000E+00
    0.16735E+06        -0.50000E+08         0.00000E+00
    0.00000E+00         0.00000E+00        -0.44025E+08
 
   -0.39704E+08         0.27592E+06         0.00000E+00
    0.27592E+06        -0.50001E+08         0.00000E+00
    0.00000E+00         0.00000E+00        -0.44025E+08
 
   -0.39833E+08         0.38316E+06         0.00000E+00
    0.38316E+06        -0.50002E+08         0.00000E+00
    0.00000E+00         0.00000E+00        -0.44025E+08
 
   -0.39959E+08         0.48919E+06         0.00000E+00
    0.48919E+06        -0.50003E+08         0.00000E+00
    0.00000E+00         0.00000E+00        -0.44025E+08
 
   -0.40083E+08         0.59415E+06         0.00000E+00
    0.59415E+06        -0.50004E+08         0.00000E+00
    0.00000E+00         0.00000E+00        -0.44025E+08
 
   -0.40204E+08         0.69816E+06         0.00000E+00
    0.69816E+06        -0.50006E+08         0.00000E+00
    0.00000E+00         0.00000E+00        -0.44025E+08
 
   -0.40322E+08         0.80134E+06         0.00000E+00
    0.80134E+06        -0.50007E+08         0.00000E+00
    0.00000E+00         0.00000E+00        -0.44025E+08
 
   -0.40438E+08         0.90381E+06         0.00000E+00
    0.90381E+06        -0.50009E+08         0.00000E+00
    0.00000E+00         0.00000E+00        -0.44025E+08
 
   -0.40551E+08         0.10057E+07         0.00000E+00
    0.10057E+07        -0.50011E+08         0.00000E+00
    0.00000E+00         0.00000E+00        -0.44025E+08
 
   -0.40662E+08         0.11070E+07         0.00000E+00
    0.11070E+07        -0.50013E+08         0.00000E+00
    0.00000E+00         0.00000E+00        -0.44025E+08
 
   -0.40771E+08         0.12080E+07         0.00000E+00
    0.12080E+07        -0.50015E+08         0.00000E+00
    0.00000E+00         0.00000E+00        -0.44025E+08
 
   -0.40877E+08         0.13087E+07         0.00000E+00
    0.13087E+07        -0.50017E+08         0.00000E+00
    0.00000E+00         0.00000E+00        -0.44025E+08
 
   -0.40981E+08         0.14092E+07         0.00000E+00
    0.14092E+07        -0.50018E+08         0.00000E+00
    0.00000E+00         0.00000E+00        -0.44025E+08
 
   -0.41083E+08         0.15096E+07         0.00000E+00
    0.15096E+07        -0.50020E+08         0.00000E+00
    0.00000E+00         0.00000E+00        -0.44025E+08
 
   -0.41183E+08         0.16100E+07         0.00000E+00
    0.16100E+07        -0.50021E+08         0.00000E+00
    0.00000E+00         0.00000E+00        -0.44025E+08
 
   -0.41281E+08         0.17104E+07         0.00000E+00
    0.17104E+07        -0.50022E+08         0.00000E+00
    0.00000E+00         0.00000E+00        -0.44025E+08
 
   -0.41377E+08         0.18110E+07         0.00000E+00
    0.18110E+07        -0.50023E+08         0.00000E+00
    0.00000E+00         0.00000E+00        -0.44025E+08
 
   -0.41471E+08         0.19118E+07         0.00000E+00
    0.19118E+07        -0.50024E+08         0.00000E+00
    0.00000E+00         0.00000E+00        -0.44025E+08
 
   -0.41563E+08         0.20128E+07         0.00000E+00
    0.20128E+07        -0.50024E+08         0.00000E+00
    0.00000E+00         0.00000E+00        -0.44025E+08
 
   -0.41654E+08         0.21143E+07         0.00000E+00
    0.21143E+07        -0.50023E+08         0.00000E+00
    0.00000E+00         0.00000E+00        -0.44025E+08
 
   -0.41744E+08         0.22161E+07         0.00000E+00
    0.22161E+07        -0.50022E+08         0.00000E+00
    0.00000E+00         0.00000E+00        -0.44025E+08
 
   -0.41831E+08         0.23185E+07         0.00000E+00
    0.23185E+07        -0.50021E+08         0.00000E+00
    0.00000E+00         0.00000E+00        -0.44025E+08
 
   -0.41918E+08         0.24213E+07         0.00000E+00
    0.24213E+07        -0.50018E+08         0.00000E+00
    0.00000E+00         0.00000E+00        -0.44025E+08
 
   -0.42003E+08         0.25248E+07         0.00000E+00
    0.25248E+07        -0.50016E+08         0.00000E+00
    0.00000E+00         0.00000E+00        -0.44025E+08
 
   -0.42087E+08         0.26289E+07         0.00000E+00
    0.26289E+07        -0.50012E+08         0.00000E+00
    0.00000E+00         0.00000E+00        -0.44025E+08
 
   -0.42170E+08         0.27336E+07         0.00000E+00
    0.27336E+07        -0.50007E+08         0.00000E+00
    0.00000E+00         0.00000E+00        -0.44025E+08
 
   -0.42252E+08         0.28391E+07         0.00000E+00
    0.28391E+07        -0.50002E+08         0.00000E+00
    0.00000E+00         0.00000E+00        -0.44025E+08
 
   -0.42333E+08         0.29454E+07         0.00000E+00
    0.29454E+07        -0.49996E+08         0.00000E+00
    0.00000E+00         0.00000E+00        -0.44025E+08
 
   -0.42414E+08         0.30525E+07         0.00000E+00
    0.30525E+07        -0.49988E+08         0.00000E+00
    0.00000E+00         0.00000E+00        -0.44025E+08
 
   -0.42493E+08         0.31604E+07         0.00000E+00
    0.31604E+07        -0.49980E+08         0.00000E+00
    0.00000E+00         0.00000E+00        -0.44025E+08
 
   -0.42572E+08         0.32691E+07         0.00000E+00
    0.32691E+07        -0.49971E+08         0.00000E+00
    0.00000E+00         0.00000E+00        -0.44025E+08
 
   -0.42650E+08         0.33788E+07         0.00000E+00
    0.33788E+07        -0.49960E+08         0.00000E+00
    0.00000E+00         0.00000E+00        -0.44025E+08
 
   -0.42728E+08         0.34894E+07         0.00000E+00
    0.34894E+07        -0.49948E+08         0.00000E+00
    0.00000E+00         0.00000E+00        -0.44025E+08
 
   -0.42806E+08         0.36010E+07         0.00000E+00
    0.36010E+07        -0.49935E+08         0.00000E+00
    0.00000E+00         0.00000E+00        -0.44025E+08
 
   -0.42883E+08         0.37135E+07         0.00000E+00
    0.37135E+07        -0.49920E+08         0.00000E+00
    0.00000E+00         0.00000E+00        -0.44025E+08
 
   -0.42960E+08         0.38271E+07         0.00000E+00
    0.38271E+07        -0.49904E+08         0.00000E+00
    0.00000E+00         0.00000E+00        -0.44025E+08
 
   -0.43037E+08         0.39416E+07         0.00000E+00
    0.39416E+07        -0.49887E+08         0.00000E+00
    0.00000E+00         0.00000E+00        -0.44025E+08
 
   -0.43114E+08         0.40572E+07         0.00000E+00
    0.40572E+07        -0.49868E+08         0.00000E+00
    0.00000E+00         0.00000E+00        -0.44025E+08
 
   -0.43191E+08         0.41739E+07         0.00000E+00
    0.41739E+07        -0.49848E+08         0.00000E+00
    0.00000E+00         0.00000E+00        -0.44025E+08
 
   -0.43268E+08         0.42916E+07         0.00000E+00
    0.42916E+07        -0.49826E+08         0.00000E+00
    0.00000E+00         0.00000E+00        -0.44025E+08
 
   -0.43345E+08         0.44104E+07         0.00000E+00
    0.44104E+07        -0.49802E+08         0.00000E+00
    0.00000E+00         0.00000E+00        -0.44025E+08
 
   -0.43423E+08         0.45303E+07         0.00000E+00
    0.45303E+07        -0.49776E+08         0.00000E+00
    0.00000E+00         0.00000E+00        -0.44025E+08
 
   -0.43501E+08         0.46513E+07         0.00000E+00
    0.46513E+07        -0.49749E+08         0.00000E+00
    0.00000E+00         0.00000E+00        -0.44025E+08
 
   -0.43580E+08         0.47735E+07         0.00000E+00
    0.47735E+07        -0.49719E+08         0.00000E+00
    0.00000E+00         0.00000E+00        -0.44025E+08
 
   -0.43659E+08         0.48967E+07         0.00000E+00
    0.48967E+07        -0.49688E+08         0.00000E+00
    0.00000E+00         0.00000E+00        -0.44025E+08
 
   -0.43739E+08         0.50211E+07         0.00000E+00
    0.50211E+07        -0.49655E+08         0.00000E+00
    0.00000E+00         0.00000E+00        -0.44025E+08
 
   -0.43819E+08         0.51466E+07         0.00000E+00
    0.51466E+07        -0.49620E+08         0.00000E+00
    0.00000E+00         0.00000E+00        -0.44025E+08
 
   -0.43901E+08         0.52732E+07         0.00000E+00
    0.52732E+07        -0.49583E+08         0.00000E+00
    0.00000E+00         0.00000E+00        -0.44025E+08
 
   -0.43984E+08         0.54010E+07         0.00000E+00
    0.54010E+07        -0.49543E+08         0.00000E+00
    0.00000E+00         0.00000E+00        -0.44025E+08
 
   -0.38888E+08         0.56083E+05         0.00000E+00
    0.56083E+05        -0.50000E+08         0.00000E+00
    0.00000E+00         0.00000E+00        -0.43352E+08
 
   -0.39030E+08         0.16390E+06         0.00000E+00
    0.16390E+06        -0.50001E+08         0.00000E+00
    0.00000E+00         0.00000E+00        -0.43352E+08
 
   -0.39169E+08         0.27036E+06         0.00000E+00
    0.27036E+06        -0.50002E+08         0.00000E+00
    0.00000E+00         0.00000E+00        -0.43352E+08
 
   -0.39304E+08         0.37561E+06         0.00000E+00
    0.37561E+06        -0.50004E+08         0.00000E+00
    0.00000E+00         0.00000E+00        -0.43352E+08
 
   -0.39435E+08         0.47981E+06         0.00000E+00
    0.47981E+06        -0.50006E+08         0.00000E+00
    0.00000E+00         0.00000E+00        -0.43352E+08
 
   -0.39564E+08         0.58311E+06         0.00000E+00
    0.58311E+06        -0.50009E+08         0.00000E+00
    0.00000E+00         0.00000E+00        -0.43352E+08
 
   -0.39689E+08         0.68563E+06         0.00000E+00
    0.68563E+06        -0.50012E+08         0.00000E+00
    0.00000E+00         0.00000E+00        -0.43352E+08
 
   -0.39810E+08         0.78753E+06         0.00000E+00
    0.78753E+06        -0.50016E+08         0.00000E+00
    0.00000E+00         0.00000E+00        -0.43352E+08
 
   -0.39929E+08         0.88894E+06         0.00000E+00
    0.88894E+06        -0.50020E+08         0.00000E+00
    0.00000E+00         0.00000E+00        -0.43352E+08
 
   -0.40044E+08         0.98997E+06         0.00000E+00
    0.98997E+06        -0.50024E+08         0.00000E+00
    0.00000E+00         0.00000E+00        -0.43352E+08
 
   -0.40157E+08         0.10907E+07         0.00000E+00
    0.10907E+07        -0.50029E+08         0.00000E+00
    0.00000E+00         0.00000E+00        -0.43352E+08
 
   -0.40266E+08         0.11914E+07         0.00000E+00
    0.11914E+07        -0.50034E+08         0.00000E+00
    0.00000E+00         0.00000E+00        -0.43352E+08
 
   -0.40373E+08         0.12920E+07         0.00000E+00
    0.12920E+07        -0.50039E+08         0.00000E+00
    0.00000E+00         0.00000E+00        -0.43352E+08
 
   -0.40477E+08         0.13927E+07         0.00000E+00
    0.13927E+07        -0.50044E+08         0.00000E+00
    0.00000E+00         0.00000E+00        -0.43352E+08
 
   -0.40579E+08         0.14936E+07         0.00000E+00
    0.14936E+07        -0.50049E+08         0.00000E+00
    0.00000E+00         0.00000E+00        -0.43352E+08
 
   -0.40678E+08         0.15947E+07         0.00000E+00
    0.15947E+07        -0.50054E+08         0.00000E+00
    0.00000E+00         0.00000E+00        -0.43352E+08
 
   -0.40775E+08         0.16962E+07         0.00000E+00
    0.16962E+07        -0.50059E+08         0.00000E+00
    0.00000E+00         0.00000E+00        -0.43352E+08
 
   -0.40869E+08         0.17982E+07         0.00000E+00
    0.17982E+07        -0.50063E+08         0.00000E+00
    0.00000E+00         0.00000E+00        -0.43352E+08
 
   -0.40961E+08         0.19007E+07         0.00000E+00
    0.19007E+07        -0.50068E+08         0.00000E+00
    0.00000E+00         0.00000E+00        -0.43352E+08
 
   -0.41051E+08         0.20037E+07         0.00000E+00
    0.20037E+07        -0.50072E+08         0.00000E+00
    0.00000E+00         0.00000E+00        -0.43352E+08
 
   -0.41140E+08         0.21075E+07         0.00000E+00
    0.21075E+07        -0.50076E+08         0.00000E+00
    0.00000E+00         0.00000E+00        -0.43352E+08
 
   -0.41226E+08         0.22119E+07         0.00000E+00
    0.22119E+07        -0.50079E+08         0.00000E+00
    0.00000E+00         0.00000E+00        -0.43352E+08
 
   -0.41311E+08         0.23172E+07         0.00000E+00
    0.23172E+07        -0.50082E+08         0.00000E+00
    0.00000E+00         0.00000E+00        -0.43352E+08
 
   -0.41393E+08         0.24233E+07         0.00000E+00
    0.24233E+07        -0.50084E+08         0.00000E+00
    0.00000E+00         0.00000E+00        -0.43352E+08
 
   -0.41475E+08         0.25303E+07         0.00000E+00
    0.25303E+07        -0.50086E+08         0.00000E+00
    0.00000E+00         0.00000E+00        -0.43352E+08
 
   -0.41555E+08         0.26383E+07         0.00000E+00
    0.26383E+07        -0.50086E+08         0.00000E+00
    0.00000E+00         0.00000E+00        -0.43352E+08
 
   -0.41634E+08         0.27473E+07         0.00000E+00
    0.27473E+07        -0.50086E+08         0.00000E+00
    0.00000E+00         0.00000E+00        -0.43352E+08
 
   -0.41711E+08         0.28573E+07         0.00000E+00
    0.28573E+07        -0.50085E+08         0.00000E+00
    0.00000E+00         0.00000E+00        -0.43352E+08
 
   -0.41787E+08         0.29684E+07         0.00000E+00
    0.29684E+07        -0.50084E+08         0.00000E+00
    0.00000E+00         0.00000E+00        -0.43352E+08
 
   -0.41863E+08         0.30806E+07         0.00000E+00
    0.30806E+07        -0.50081E+08         0.00000E+00
    0.00000E+00         0.00000E+00        -0.43352E+08
 
   -0.41937E+08         0.31939E+07         0.00000E+00
    0.31939E+07        -0.50077E+08         0.00000E+00
    0.00000E+00         0.00000E+00        -0.43352E+08
 
   -0.42011E+08         0.33085E+07         0.00000E+00
    0.33085E+07        -0.50072E+08         0.00000E+00
    0.00000E+00         0.00000E+00        -0.43352E+08
 
   -0.42084E+08         0.34242E+07         0.00000E+00
    0.34242E+07        -0.50066E+08         0.00000E+00
    0.00000E+00         0.00000E+00        -0.43352E+08
 
   -0.42156E+08         0.35412E+07         0.00000E+00
    0.35412E+07        -0.50058E+08         0.00000E+00
    0.00000E+00         0.00000E+00        -0.43352E+08
 
   -0.42228E+08         0.36594E+07         0.00000E+00
    0.36594E+07        -0.50050E+08         0.00000E+00
    0.00000E+00         0.00000E+00        -0.43352E+08
 
   -0.42300E+08         0.37790E+07         0.00000E+00
    0.37790E+07        -0.50040E+08         0.00000E+00
    0.00000E+00         0.00000E+00        -0.43352E+08
 
   -0.42371E+08         0.38998E+07         0.00000E+00
    0.38998E+07        -0.50028E+08         0.00000E+00
    0.00000E+00         0.00000E+00        -0.43352E+08
 
   -0.42442E+08         0.40220E+07         0.00000E+00
    0.40220E+07        -0.50015E+08         0.00000E+00
    0.00000E+00         0.00000E+00        -0.43352E+08
 
   -0.42513E+08         0.41455E+07         0.00000E+00
    0.41455E+07        -0.50000E+08         0.00000E+00
    0.00000E+00         0.00000E+00        -0.43352E+08
 
   -0.42584E+08         0.42703E+07         0.00000E+00
    0.42703E+07        -0.49984E+08         0.00000E+00
    0.00000E+00         0.00000E+00        -0.43352E+08
 
   -0.42655E+08         0.43965E+07         0.00000E+00
    0.43965E+07        -0.49966E+08         0.00000E+00
    0.00000E+00         0.00000E+00        -0.43352E+08
 
   -0.42726E+08         0.45242E+07         0.00000E+00
    0.45242E+07        -0.49946E+08         0.00000E+00
    0.00000E+00         0.00000E+00        -0.43352E+08
 
   -0.42797E+08         0.46532E+07         0.00000E+00
    0.46532E+07        -0.49924E+08         0.00000E+00
    0.00000E+00         0.00000E+00        -0.43352E+08
 
   -0.42869E+08         0.47836E+07         0.00000E+00
    0.47836E+07        -0.49901E+08         0.00000E+00
    0.00000E+00         0.00000E+00        -0.43352E+08
 
   -0.42941E+08         0.49154E+07         0.00000E+00
    0.49154E+07        -0.49875E+08         0.00000E+00
    0.00000E+00         0.00000E+00        -0.43352E+08
 
   -0.43014E+08         0.50487E+07         0.00000E+00
    0.50487E+07        -0.49848E+08         0.00000E+00
    0.00000E+00         0.00000E+00        -0.43352E+08
 
   -0.43088E+08         0.51834E+07         0.00000E+00
    0.51834E+07        -0.49818E+08         0.00000E+00
    0.00000E+00         0.00000E+00        -0.43352E+08
 
   -0.43162E+08         0.53196E+07         0.00000E+00
    0.53196E+07        -0.49787E+08         0.00000E+00
    0.00000E+00         0.00000E+00        -0.43352E+08
 
   -0.43237E+08         0.54572E+07         0.00000E+00
    0.54572E+07        -0.49753E+08         0.00000E+00
    0.00000E+00         0.00000E+00        -0.43352E+08
 
   -0.43313E+08         0.55962E+07         0.00000E+00
    0.55962E+07        -0.49717E+08         0.00000E+00
    0.00000E+00         0.00000E+00        -0.43352E+08
 
   -0.38354E+08         0.53903E+05         0.00000E+00
    0.53903E+05        -0.50000E+08         0.00000E+00
    0.00000E+00         0.00000E+00        -0.42619E+08
 
   -0.38503E+08         0.15774E+06         0.00000E+00
    0.15774E+06        -0.50001E+08         0.00000E+00
    0.00000E+00         0.00000E+00        -0.42619E+08
 
   -0.38648E+08         0.26038E+06         0.00000E+00
    0.26038E+06        -0.50003E+08         0.00000E+00
    0.00000E+00         0.00000E+00        -0.42619E+08
 
   -0.38788E+08         0.36201E+06         0.00000E+00
    0.36201E+06        -0.50006E+08         0.00000E+00
    0.00000E+00         0.00000E+00        -0.42619E+08
 
   -0.38924E+08         0.46280E+06         0.00000E+00
    0.46280E+06        -0.50010E+08         0.00000E+00
    0.00000E+00         0.00000E+00        -0.42619E+08
 
   -0.39056E+08         0.56293E+06         0.00000E+00
    0.56293E+06        -0.50015E+08         0.00000E+00
    0.00000E+00         0.00000E+00        -0.42619E+08
 
   -0.39184E+08         0.66255E+06         0.00000E+00
    0.66255E+06        -0.50020E+08         0.00000E+00
    0.00000E+00         0.00000E+00        -0.42619E+08
 
   -0.39308E+08         0.76182E+06         0.00000E+00
    0.76182E+06        -0.50026E+08         0.00000E+00
    0.00000E+00         0.00000E+00        -0.42619E+08
 
   -0.39428E+08         0.86088E+06         0.00000E+00
    0.86088E+06        -0.50033E+08         0.00000E+00
    0.00000E+00         0.00000E+00        -0.42619E+08
 
   -0.39544E+08         0.95987E+06         0.00000E+00
    0.95987E+06        -0.50041E+08         0.00000E+00
    0.00000E+00         0.00000E+00        -0.42619E+08
 
   -0.39657E+08         0.10589E+07         0.00000E+00
    0.10589E+07        -0.50048E+08         0.00000E+00
    0.00000E+00         0.00000E+00        -0.42619E+08
 
   -0.39766E+08         0.11582E+07         0.00000E+00
    0.11582E+07        -0.50057E+08         0.00000E+00
    0.00000E+00         0.00000E+00        -0.42619E+08
 
   -0.39872E+08         0.12578E+07         0.00000E+00
    0.12578E+07        -0.50065E+08         0.00000E+00
    0.00000E+00         0.00000E+00        -0.42619E+08
 
   -0.39974E+08         0.13577E+07         0.00000E+00
    0.13577E+07        -0.50074E+08         0.00000E+00
    0.00000E+00         0.00000E+00        -0.42619E+08
 
   -0.40074E+08         0.14583E+07         0.00000E+00
    0.14583E+07        -0.50083E+08         0.00000E+00
    0.00000E+00         0.00000E+00        -0.42619E+08
 
   -0.40171E+08         0.15594E+07         0.00000E+00
    0.15594E+07        -0.50093E+08         0.00000E+00
    0.00000E+00         0.00000E+00        -0.42619E+08
 
   -0.40264E+08         0.16613E+07         0.00000E+00
    0.16613E+07        -0.50102E+08         0.00000E+00
    0.00000E+00         0.00000E+00        -0.42619E+08
 
   -0.40355E+08         0.17640E+07         0.00000E+00
    0.17640E+07        -0.50111E+08         0.00000E+00
    0.00000E+00         0.00000E+00        -0.42619E+08
 
   -0.40444E+08         0.18676E+07         0.00000E+00
    0.18676E+07        -0.50120E+08         0.00000E+00
    0.00000E+00         0.00000E+00        -0.42619E+08
 
   -0.40530E+08         0.19721E+07         0.00000E+00
    0.19721E+07        -0.50129E+08         0.00000E+00
    0.00000E+00         0.00000E+00        -0.42619E+08
 
   -0.40614E+08         0.20777E+07         0.00000E+00
    0.20777E+07        -0.50138E+08         0.00000E+00
    0.00000E+00         0.00000E+00        -0.42619E+08
 
   -0.40695E+08         0.21844E+07         0.00000E+00
    0.21844E+07        -0.50146E+08         0.00000E+00
    0.00000E+00         0.00000E+00        -0.42619E+08
 
   -0.40775E+08         0.22923E+07         0.00000E+00
    0.22923E+07        -0.50154E+08         0.00000E+00
    0.00000E+00         0.00000E+00        -0.42619E+08
 
   -0.40853E+08         0.24014E+07         0.00000E+00
    0.24014E+07        -0.50161E+08         0.00000E+00
    0.00000E+00         0.00000E+00        -0.42619E+08
 
   -0.40928E+08         0.25118E+07         0.00000E+00
    0.25118E+07        -0.50168E+08         0.00000E+00
    0.00000E+00         0.00000E+00        -0.42619E+08
 
   -0.41003E+08         0.26235E+07         0.00000E+00
    0.26235E+07        -0.50174E+08         0.00000E+00
    0.00000E+00         0.00000E+00        -0.42619E+08
 
   -0.41075E+08         0.27365E+07         0.00000E+00
    0.27365E+07        -0.50179E+08         0.00000E+00
    0.00000E+00         0.00000E+00        -0.42619E+08
 
   -0.41147E+08         0.28510E+07         0.00000E+00
    0.28510E+07        -0.50184E+08         0.00000E+00
    0.00000E+00         0.00000E+00        -0.42619E+08
 
   -0.41217E+08         0.29669E+07         0.00000E+00
    0.29669E+07        -0.50187E+08         0.00000E+00
    0.00000E+00         0.00000E+00        -0.42619E+08
 
   -0.41285E+08         0.30843E+07         0.00000E+00
    0.30843E+07        -0.50190E+08         0.00000E+00
    0.00000E+00         0.00000E+00        -0.42619E+08
 
   -0.41353E+08         0.32031E+07         0.00000E+00
    0.32031E+07        -0.50191E+08         0.00000E+00
    0.00000E+00         0.00000E+00        -0.42619E+08
 
   -0.41420E+08         0.33235E+07         0.00000E+00
    0.33235E+07        -0.50191E+08         0.00000E+00
    0.00000E+00         0.00000E+00        -0.42619E+08
 
   -0.41486E+08         0.34455E+07         0.00000E+00
    0.34455E+07        -0.50190E+08         0.00000E+00
    0.00000E+00         0.00000E+00        -0.42619E+08
 
   -0.41551E+08         0.35690E+07         0.00000E+00
    0.35690E+07        -0.50188E+08         0.00000E+00
    0.00000E+00         0.00000E+00        -0.42619E+08
 
   -0.41616E+08         0.36941E+07         0.00000E+00
    0.36941E+07        -0.50184E+08         0.00000E+00
    0.00000E+00         0.00000E+00        -0.42619E+08
 
   -0.41680E+08         0.38209E+07         0.00000E+00
    0.38209E+07        -0.50179E+08         0.00000E+00
    0.00000E+00         0.00000E+00        -0.42619E+08
 
   -0.41744E+08         0.39492E+07         0.00000E+00
    0.39492E+07        -0.50173E+08         0.00000E+00
    0.00000E+00         0.00000E+00        -0.42619E+08
 
   -0.41808E+08         0.40792E+07         0.00000E+00
    0.40792E+07        -0.50165E+08         0.00000E+00
    0.00000E+00         0.00000E+00        -0.42619E+08
 
   -0.41871E+08         0.42109E+07         0.00000E+00
    0.42109E+07        -0.50155E+08         0.00000E+00
    0.00000E+00         0.00000E+00        -0.42619E+08
 
   -0.41934E+08         0.43442E+07         0.00000E+00
    0.43442E+07        -0.50144E+08         0.00000E+00
    0.00000E+00         0.00000E+00        -0.42619E+08
 
   -0.41998E+08         0.44793E+07         0.00000E+00
    0.44793E+07        -0.50130E+08         0.00000E+00
    0.00000E+00         0.00000E+00        -0.42619E+08
 
   -0.42061E+08         0.46160E+07         0.00000E+00
    0.46160E+07        -0.50115E+08         0.00000E+00
    0.00000E+00         0.00000E+00        -0.42619E+08
 
   -0.42125E+08         0.47545E+07         0.00000E+00
    0.47545E+07        -0.50099E+08         0.00000E+00
    0.00000E+00         0.00000E+00        -0.42619E+08
 
   -0.42189E+08         0.48947E+07         0.00000E+00
    0.48947E+07        -0.50080E+08         0.00000E+00
    0.00000E+00         0.00000E+00        -0.42619E+08
 
   -0.42253E+08         0.50367E+07         0.00000E+00
    0.50367E+07        -0.50059E+08         0.00000E+00
    0.00000E+00         0.00000E+00        -0.42619E+08
 
   -0.42318E+08         0.51804E+07         0.00000E+00
    0.51804E+07        -0.50036E+08         0.00000E+00
    0.00000E+00         0.00000E+00        -0.42619E+08
 
   -0.42383E+08         0.53258E+07         0.00000E+00
    0.53258E+07        -0.50011E+08         0.00000E+00
    0.00000E+00         0.00000E+00        -0.42619E+08
 
   -0.42450E+08         0.54731E+07         0.00000E+00
    0.54731E+07        -0.49983E+08         0.00000E+00
    0.00000E+00         0.00000E+00        -0.42619E+08
 
   -0.42517E+08         0.56221E+07         0.00000E+00
    0.56221E+07        -0.49954E+08         0.00000E+00
    0.00000E+00         0.00000E+00        -0.42619E+08
 
   -0.42585E+08         0.57729E+07         0.00000E+00
    0.57729E+07        -0.49922E+08         0.00000E+00
    0.00000E+00         0.00000E+00        -0.42619E+08
 
   -0.37846E+08         0.50551E+05         0.00000E+00
    0.50551E+05        -0.50001E+08         0.00000E+00
    0.00000E+00         0.00000E+00        -0.41824E+08
 
   -0.38001E+08         0.14828E+06         0.00000E+00
    0.14828E+06        -0.50002E+08         0.00000E+00
    0.00000E+00         0.00000E+00        -0.41824E+08
 
   -0.38151E+08         0.24507E+06         0.00000E+00
    0.24507E+06        -0.50005E+08         0.00000E+00
    0.00000E+00         0.00000E+00        -0.41824E+08
 
   -0.38295E+08         0.34114E+06         0.00000E+00
    0.34114E+06        -0.50009E+08         0.00000E+00
    0.00000E+00         0.00000E+00        -0.41824E+08
 
   -0.38434E+08         0.43668E+06         0.00000E+00
    0.43668E+06        -0.50015E+08         0.00000E+00
    0.00000E+00         0.00000E+00        -0.41824E+08
 
   -0.38568E+08         0.53188E+06         0.00000E+00
    0.53188E+06        -0.50022E+08         0.00000E+00
    0.00000E+00         0.00000E+00        -0.41824E+08
 
   -0.38697E+08         0.62692E+06         0.00000E+00
    0.62692E+06        -0.50030E+08         0.00000E+00
    0.00000E+00         0.00000E+00        -0.41824E+08
 
   -0.38821E+08         0.72198E+06         0.00000E+00
    0.72198E+06        -0.50039E+08         0.00000E+00
    0.00000E+00         0.00000E+00        -0.41824E+08
 
   -0.38941E+08         0.81721E+06         0.00000E+00
    0.81721E+06        -0.50049E+08         0.00000E+00
    0.00000E+00         0.00000E+00        -0.41824E+08
 
   -0.39056E+08         0.91277E+06         0.00000E+00
    0.91277E+06        -0.50060E+08         0.00000E+00
    0.00000E+00         0.00000E+00        -0.41824E+08
 
   -0.39167E+08         0.10088E+07         0.00000E+00
    0.10088E+07        -0.50071E+08         0.00000E+00
    0.00000E+00         0.00000E+00        -0.41824E+08
 
   -0.39274E+08         0.11055E+07         0.00000E+00
    0.11055E+07        -0.50084E+08         0.00000E+00
    0.00000E+00         0.00000E+00        -0.41824E+08
 
   -0.39377E+08         0.12028E+07         0.00000E+00
    0.12028E+07        -0.50097E+08         0.00000E+00
    0.00000E+00         0.00000E+00        -0.41824E+08
 
   -0.39476E+08         0.13011E+07         0.00000E+00
    0.13011E+07        -0.50110E+08         0.00000E+00
    0.00000E+00         0.00000E+00        -0.41824E+08
 
   -0.39572E+08         0.14003E+07         0.00000E+00
    0.14003E+07        -0.50124E+08         0.00000E+00
    0.00000E+00         0.00000E+00        -0.41824E+08
 
   -0.39664E+08         0.15006E+07         0.00000E+00
    0.15006E+07        -0.50138E+08         0.00000E+00
    0.00000E+00         0.00000E+00        -0.41824E+08
 
   -0.39753E+08         0.16021E+07         0.00000E+00
    0.16021E+07        -0.50153E+08         0.00000E+00
    0.00000E+00         0.00000E+00        -0.41824E+08
 
   -0.39839E+08         0.17048E+07         0.00000E+00
    0.17048E+07        -0.50167E+08         0.00000E+00
    0.00000E+00         0.00000E+00        -0.41824E+08
 
   -0.39921E+08         0.18088E+07         0.00000E+00
    0.18088E+07        -0.50182E+08         0.00000E+00
    0.00000E+00         0.00000E+00        -0.41824E+08
 
   -0.40001E+08         0.19143E+07         0.00000E+00
    0.19143E+07        -0.50197E+08         0.00000E+00
    0.00000E+00         0.00000E+00        -0.41824E+08
 
   -0.40079E+08         0.20213E+07         0.00000E+00
    0.20213E+07        -0.50211E+08         0.00000E+00
    0.00000E+00         0.00000E+00        -0.41824E+08
 
   -0.40153E+08         0.21298E+07         0.00000E+00
    0.21298E+07        -0.50225E+08         0.00000E+00
    0.00000E+00         0.00000E+00        -0.41824E+08
 
   -0.40226E+08         0.22400E+07         0.00000E+00
    0.22400E+07        -0.50239E+08         0.00000E+00
    0.00000E+00         0.00000E+00        -0.41824E+08
 
   -0.40296E+08         0.23518E+07         0.00000E+00
    0.23518E+07        -0.50252E+08         0.00000E+00
    0.00000E+00         0.00000E+00        -0.41824E+08
 
   -0.40365E+08         0.24653E+07         0.00000E+00
    0.24653E+07        -0.50265E+08         0.00000E+00
    0.00000E+00         0.00000E+00        -0.41824E+08
 
   -0.40431E+08         0.25806E+07         0.00000E+00
    0.25806E+07        -0.50277E+08         0.00000E+00
    0.00000E+00         0.00000E+00        -0.41824E+08
 
   -0.40496E+08         0.26976E+07         0.00000E+00
    0.26976E+07        -0.50288E+08         0.00000E+00
    0.00000E+00         0.00000E+00        -0.41824E+08
 
   -0.40559E+08         0.28165E+07         0.00000E+00
    0.28165E+07        -0.50298E+08         0.00000E+00
    0.00000E+00         0.00000E+00        -0.41824E+08
 
   -0.40621E+08         0.29372E+07         0.00000E+00
    0.29372E+07        -0.50308E+08         0.00000E+00
    0.00000E+00         0.00000E+00        -0.41824E+08
 
   -0.40681E+08         0.30597E+07         0.00000E+00
    0.30597E+07        -0.50316E+08         0.00000E+00
    0.00000E+00         0.00000E+00        -0.41824E+08
 
   -0.40741E+08         0.31842E+07         0.00000E+00
    0.31842E+07        -0.50324E+08         0.00000E+00
    0.00000E+00         0.00000E+00        -0.41824E+08
 
   -0.40799E+08         0.33106E+07         0.00000E+00
    0.33106E+07        -0.50330E+08         0.00000E+00
    0.00000E+00         0.00000E+00        -0.41824E+08
 
   -0.40856E+08         0.34389E+07         0.00000E+00
    0.34389E+07        -0.50335E+08         0.00000E+00
    0.00000E+00         0.00000E+00        -0.41824E+08
 
   -0.40913E+08         0.35691E+07         0.00000E+00
    0.35691E+07        -0.50339E+08         0.00000E+00
    0.00000E+00         0.00000E+00        -0.41824E+08
 
   -0.40968E+08         0.37013E+07         0.00000E+00
    0.37013E+07        -0.50341E+08         0.00000E+00
    0.00000E+00         0.00000E+00        -0.41824E+08
 
   -0.41024E+08         0.38354E+07         0.00000E+00
    0.38354E+07        -0.50342E+08         0.00000E+00
    0.00000E+00         0.00000E+00        -0.41824E+08
 
   -0.41078E+08         0.39716E+07         0.00000E+00
    0.39716E+07        -0.50341E+08         0.00000E+00
    0.00000E+00         0.00000E+00        -0.41824E+08
 
   -0.41133E+08         0.41097E+07         0.00000E+00
    0.41097E+07        -0.50339E+08         0.00000E+00
    0.00000E+00         0.00000E+00        -0.41824E+08
 
   -0.41187E+08         0.42498E+07         0.00000E+00
    0.42498E+07        -0.50335E+08         0.00000E+00
    0.00000E+00         0.00000E+00        -0.41824E+08
 
   -0.41241E+08         0.43919E+07         0.00000E+00
    0.43919E+07        -0.50329E+08         0.00000E+00
    0.00000E+00         0.00000E+00        -0.41824E+08
 
   -0.41295E+08         0.45361E+07         0.00000E+00
    0.45361E+07        -0.50322E+08         0.00000E+00
    0.00000E+00         0.00000E+00        -0.41824E+08
 
   -0.41349E+08         0.46822E+07         0.00000E+00
    0.46822E+07        -0.50312E+08         0.00000E+00
    0.00000E+00         0.00000E+00        -0.41824E+08
 
   -0.41403E+08         0.48305E+07         0.00000E+00
    0.48305E+07        -0.50301E+08         0.00000E+00
    0.00000E+00         0.00000E+00        -0.41824E+08
 
   -0.41458E+08         0.49808E+07         0.00000E+00
    0.49808E+07        -0.50287E+08         0.00000E+00
    0.00000E+00         0.00000E+00        -0.41824E+08
 
   -0.41512E+08         0.51332E+07         0.00000E+00
    0.51332E+07        -0.50272E+08         0.00000E+00
    0.00000E+00         0.00000E+00        -0.41824E+08
 
   -0.41567E+08         0.52877E+07         0.00000E+00
    0.52877E+07        -0.50254E+08         0.00000E+00
    0.00000E+00         0.00000E+00        -0.41824E+08
 
   -0.41623E+08         0.54442E+07         0.00000E+00
    0.54442E+07        -0.50234E+08         0.00000E+00
    0.00000E+00         0.00000E+00        -0.41824E+08
 
   -0.41680E+08         0.56030E+07         0.00000E+00
    0.56030E+07        -0.50212E+08         0.00000E+00
    0.00000E+00         0.00000E+00        -0.41824E+08
 
   -0.41737E+08         0.57639E+07         0.00000E+00
    0.57639E+07        -0.50188E+08         0.00000E+00
    0.00000E+00         0.00000E+00        -0.41824E+08
 
   -0.41795E+08         0.59269E+07         0.00000E+00
    0.59269E+07        -0.50161E+08         0.00000E+00
    0.00000E+00         0.00000E+00        -0.41824E+08
 
   -0.37376E+08         0.45786E+05         0.00000E+00
    0.45786E+05        -0.50001E+08         0.00000E+00
    0.00000E+00         0.00000E+00        -0.40966E+08
 
   -0.37535E+08         0.13489E+06         0.00000E+00
    0.13489E+06        -0.50003E+08         0.00000E+00
    0.00000E+00         0.00000E+00        -0.40966E+08
 
   -0.37688E+08         0.22344E+06         0.00000E+00
    0.22344E+06        -0.50007E+08         0.00000E+00
    0.00000E+00         0.00000E+00        -0.40966E+08
 
   -0.37834E+08         0.31167E+06         0.00000E+00
    0.31167E+06        -0.50013E+08         0.00000E+00
    0.00000E+00         0.00000E+00        -0.40966E+08
 
   -0.37974E+08         0.39979E+06         0.00000E+00
    0.39979E+06        -0.50020E+08         0.00000E+00
    0.00000E+00         0.00000E+00        -0.40966E+08
 
   -0.38108E+08         0.48802E+06         0.00000E+00
    0.48802E+06        -0.50030E+08         0.00000E+00
    0.00000E+00         0.00000E+00        -0.40966E+08
 
   -0.38237E+08         0.57655E+06         0.00000E+00
    0.57655E+06        -0.50041E+08         0.00000E+00
    0.00000E+00         0.00000E+00        -0.40966E+08
 
   -0.38359E+08         0.66558E+06         0.00000E+00
    0.66558E+06        -0.50053E+08         0.00000E+00
    0.00000E+00         0.00000E+00        -0.40966E+08
 
   -0.38477E+08         0.75528E+06         0.00000E+00
    0.75528E+06        -0.50067E+08         0.00000E+00
    0.00000E+00         0.00000E+00        -0.40966E+08
 
   -0.38589E+08         0.84581E+06         0.00000E+00
    0.84581E+06        -0.50082E+08         0.00000E+00
    0.00000E+00         0.00000E+00        -0.40966E+08
 
   -0.38696E+08         0.93734E+06         0.00000E+00
    0.93734E+06        -0.50098E+08         0.00000E+00
    0.00000E+00         0.00000E+00        -0.40966E+08
 
   -0.38798E+08         0.10300E+07         0.00000E+00
    0.10300E+07        -0.50115E+08         0.00000E+00
    0.00000E+00         0.00000E+00        -0.40966E+08
 
   -0.38896E+08         0.11239E+07         0.00000E+00
    0.11239E+07        -0.50133E+08         0.00000E+00
    0.00000E+00         0.00000E+00        -0.40966E+08
 
   -0.38989E+08         0.12192E+07         0.00000E+00
    0.12192E+07        -0.50152E+08         0.00000E+00
    0.00000E+00         0.00000E+00        -0.40966E+08
 
   -0.39078E+08         0.13161E+07         0.00000E+00
    0.13161E+07        -0.50171E+08         0.00000E+00
    0.00000E+00         0.00000E+00        -0.40966E+08
 
   -0.39163E+08         0.14145E+07         0.00000E+00
    0.14145E+07        -0.50191E+08         0.00000E+00
    0.00000E+00         0.00000E+00        -0.40966E+08
 
   -0.39245E+08         0.15147E+07         0.00000E+00
    0.15147E+07        -0.50212E+08         0.00000E+00
    0.00000E+00         0.00000E+00        -0.40966E+08
 
   -0.39323E+08         0.16166E+07         0.00000E+00
    0.16166E+07        -0.50232E+08         0.00000E+00
    0.00000E+00         0.00000E+00        -0.40966E+08
 
   -0.39397E+08         0.17205E+07         0.00000E+00
    0.17205E+07        -0.50253E+08         0.00000E+00
    0.00000E+00         0.00000E+00        -0.40966E+08
 
   -0.39468E+08         0.18263E+07         0.00000E+00
    0.18263E+07        -0.50274E+08         0.00000E+00
    0.00000E+00         0.00000E+00        -0.40966E+08
 
   -0.39537E+08         0.19341E+07         0.00000E+00
    0.19341E+07        -0.50295E+08         0.00000E+00
    0.00000E+00         0.00000E+00        -0.40966E+08
 
   -0.39603E+08         0.20440E+07         0.00000E+00
    0.20440E+07        -0.50316E+08         0.00000E+00
    0.00000E+00         0.00000E+00        -0.40966E+08
 
   -0.39666E+08         0.21560E+07         0.00000E+00
    0.21560E+07        -0.50336E+08         0.00000E+00
    0.00000E+00         0.00000E+00        -0.40966E+08
 
   -0.39726E+08         0.22702E+07         0.00000E+00
    0.22702E+07        -0.50356E+08         0.00000E+00
    0.00000E+00         0.00000E+00        -0.40966E+08
 
   -0.39785E+08         0.23866E+07         0.00000E+00
    0.23866E+07        -0.50376E+08         0.00000E+00
    0.00000E+00         0.00000E+00        -0.40966E+08
 
   -0.39841E+08         0.25052E+07         0.00000E+00
    0.25052E+07        -0.50395E+08         0.00000E+00
    0.00000E+00         0.00000E+00        -0.40966E+08
 
   -0.39896E+08         0.26261E+07         0.00000E+00
    0.26261E+07        -0.50413E+08         0.00000E+00
    0.00000E+00         0.00000E+00        -0.40966E+08
 
   -0.39949E+08         0.27493E+07         0.00000E+00
    0.27493E+07        -0.50430E+08         0.00000E+00
    0.00000E+00         0.00000E+00        -0.40966E+08
 
   -0.40000E+08         0.28749E+07         0.00000E+00
    0.28749E+07        -0.50447E+08         0.00000E+00
    0.00000E+00         0.00000E+00        -0.40966E+08
 
   -0.40050E+08         0.30027E+07         0.00000E+00
    0.30027E+07        -0.50462E+08         0.00000E+00
    0.00000E+00         0.00000E+00        -0.40966E+08
 
   -0.40099E+08         0.31329E+07         0.00000E+00
    0.31329E+07        -0.50477E+08         0.00000E+00
    0.00000E+00         0.00000E+00        -0.40966E+08
 
   -0.40146E+08         0.32653E+07         0.00000E+00
    0.32653E+07        -0.50490E+08         0.00000E+00
    0.00000E+00         0.00000E+00        -0.40966E+08
 
   -0.40193E+08         0.34002E+07         0.00000E+00
    0.34002E+07        -0.50502E+08         0.00000E+00
    0.00000E+00         0.00000E+00        -0.40966E+08
 
   -0.40239E+08         0.35374E+07         0.00000E+00
    0.35374E+07        -0.50513E+08         0.00000E+00
    0.00000E+00         0.00000E+00        -0.40966E+08
 
   -0.40284E+08         0.36769E+07         0.00000E+00
    0.36769E+07        -0.50522E+08         0.00000E+00
    0.00000E+00         0.00000E+00        -0.40966E+08
 
   -0.40328E+08         0.38187E+07         0.00000E+00
    0.38187E+07        -0.50529E+08         0.00000E+00
    0.00000E+00         0.00000E+00        -0.40966E+08
 
   -0.40372E+08         0.39629E+07         0.00000E+00
    0.39629E+07        -0.50535E+08         0.00000E+00
    0.00000E+00         0.00000E+00        -0.40966E+08
 
   -0.40416E+08         0.41094E+07         0.00000E+00
    0.41094E+07        -0.50539E+08         0.00000E+00
    0.00000E+00         0.00000E+00        -0.40966E+08
 
   -0.40459E+08         0.42582E+07         0.00000E+00
    0.42582E+07        -0.50542E+08         0.00000E+00
    0.00000E+00         0.00000E+00        -0.40966E+08
 
   -0.40502E+08         0.44094E+07         0.00000E+00
    0.44094E+07        -0.50543E+08         0.00000E+00
    0.00000E+00         0.00000E+00        -0.40966E+08
 
   -0.40545E+08         0.45629E+07         0.00000E+00
    0.45629E+07        -0.50542E+08         0.00000E+00
    0.00000E+00         0.00000E+00        -0.40966E+08
 
   -0.40588E+08         0.47188E+07         0.00000E+00
    0.47188E+07        -0.50538E+08         0.00000E+00
    0.00000E+00         0.00000E+00        -0.40966E+08
 
   -0.40631E+08         0.48770E+07         0.00000E+00
    0.48770E+07        -0.50533E+08         0.00000E+00
    0.00000E+00         0.00000E+00        -0.40966E+08
 
   -0.40674E+08         0.50377E+07         0.00000E+00
    0.50377E+07        -0.50526E+08         0.00000E+00
    0.00000E+00         0.00000E+00        -0.40966E+08
 
   -0.40718E+08         0.52008E+07         0.00000E+00
    0.52008E+07        -0.50517E+08         0.00000E+00
    0.00000E+00         0.00000E+00        -0.40966E+08
 
   -0.40762E+08         0.53663E+07         0.00000E+00
    0.53663E+07        -0.50506E+08         0.00000E+00
    0.00000E+00         0.00000E+00        -0.40966E+08
 
   -0.40806E+08         0.55343E+07         0.00000E+00
    0.55343E+07        -0.50492E+08         0.00000E+00
    0.00000E+00         0.00000E+00        -0.40966E+08
 
   -0.40851E+08         0.57048E+07         0.00000E+00
    0.57048E+07        -0.50476E+08         0.00000E+00
    0.00000E+00         0.00000E+00        -0.40966E+08
 
   -0.40896E+08         0.58777E+07         0.00000E+00
    0.58777E+07        -0.50457E+08         0.00000E+00
    0.00000E+00         0.00000E+00        -0.40966E+08
 
   -0.40943E+08         0.60534E+07         0.00000E+00
    0.60534E+07        -0.50437E+08         0.00000E+00
    0.00000E+00         0.00000E+00        -0.40966E+08
 
   -0.36957E+08         0.39341E+05         0.00000E+00
    0.39341E+05        -0.50001E+08         0.00000E+00
    0.00000E+00         0.00000E+00        -0.40042E+08
 
   -0.37118E+08         0.11691E+06         0.00000E+00
    0.11691E+06        -0.50004E+08         0.00000E+00
    0.00000E+00         0.00000E+00        -0.40042E+08
 
   -0.37272E+08         0.19444E+06         0.00000E+00
    0.19444E+06        -0.50009E+08         0.00000E+00
    0.00000E+00         0.00000E+00        -0.40042E+08
 
   -0.37418E+08         0.27220E+06         0.00000E+00
    0.27220E+06        -0.50017E+08         0.00000E+00
    0.00000E+00         0.00000E+00        -0.40042E+08
 
   -0.37556E+08         0.35044E+06         0.00000E+00
    0.35044E+06        -0.50027E+08         0.00000E+00
    0.00000E+00         0.00000E+00        -0.40042E+08
 
   -0.37688E+08         0.42937E+06         0.00000E+00
    0.42937E+06        -0.50039E+08         0.00000E+00
    0.00000E+00         0.00000E+00        -0.40042E+08
 
   -0.37813E+08         0.50921E+06         0.00000E+00
    0.50921E+06        -0.50053E+08         0.00000E+00
    0.00000E+00         0.00000E+00        -0.40042E+08
 
   -0.37931E+08         0.59016E+06         0.00000E+00
    0.59016E+06        -0.50070E+08         0.00000E+00
    0.00000E+00         0.00000E+00        -0.40042E+08
 
   -0.38043E+08         0.67241E+06         0.00000E+00
    0.67241E+06        -0.50088E+08         0.00000E+00
    0.00000E+00         0.00000E+00        -0.40042E+08
 
   -0.38149E+08         0.75613E+06         0.00000E+00
    0.75613E+06        -0.50107E+08         0.00000E+00
    0.00000E+00         0.00000E+00        -0.40042E+08
 
   -0.38249E+08         0.84147E+06         0.00000E+00
    0.84147E+06        -0.50128E+08         0.00000E+00
    0.00000E+00         0.00000E+00        -0.40042E+08
 
   -0.38344E+08         0.92859E+06         0.00000E+00
    0.92859E+06        -0.50151E+08         0.00000E+00
    0.00000E+00         0.00000E+00        -0.40042E+08
 
   -0.38433E+08         0.10176E+07         0.00000E+00
    0.10176E+07        -0.50175E+08         0.00000E+00
    0.00000E+00         0.00000E+00        -0.40042E+08
 
   -0.38518E+08         0.11087E+07         0.00000E+00
    0.11087E+07        -0.50199E+08         0.00000E+00
    0.00000E+00         0.00000E+00        -0.40042E+08
 
   -0.38598E+08         0.12019E+07         0.00000E+00
    0.12019E+07        -0.50225E+08         0.00000E+00
    0.00000E+00         0.00000E+00        -0.40042E+08
 
   -0.38673E+08         0.12974E+07         0.00000E+00
    0.12974E+07        -0.50251E+08         0.00000E+00
    0.00000E+00         0.00000E+00        -0.40042E+08
 
   -0.38744E+08         0.13952E+07         0.00000E+00
    0.13952E+07        -0.50278E+08         0.00000E+00
    0.00000E+00         0.00000E+00        -0.40042E+08
 
   -0.38811E+08         0.14955E+07         0.00000E+00
    0.14955E+07        -0.50306E+08         0.00000E+00
    0.00000E+00         0.00000E+00        -0.40042E+08
 
   -0.38875E+08         0.15983E+07         0.00000E+00
    0.15983E+07        -0.50334E+08         0.00000E+00
    0.00000E+00         0.00000E+00        -0.40042E+08
 
   -0.38935E+08         0.17036E+07         0.00000E+00
    0.17036E+07        -0.50362E+08         0.00000E+00
    0.00000E+00         0.00000E+00        -0.40042E+08
 
   -0.38991E+08         0.18116E+07         0.00000E+00
    0.18116E+07        -0.50390E+08         0.00000E+00
    0.00000E+00         0.00000E+00        -0.40042E+08
 
   -0.39045E+08         0.19223E+07         0.00000E+00
    0.19223E+07        -0.50419E+08         0.00000E+00
    0.00000E+00         0.00000E+00        -0.40042E+08
 
   -0.39096E+08         0.20357E+07         0.00000E+00
    0.20357E+07        -0.50447E+08         0.00000E+00
    0.00000E+00         0.00000E+00        -0.40042E+08
 
   -0.39144E+08         0.21519E+07         0.00000E+00
    0.21519E+07        -0.50474E+08         0.00000E+00
    0.00000E+00         0.00000E+00        -0.40042E+08
 
   -0.39190E+08         0.22709E+07         0.00000E+00
    0.22709E+07        -0.50502E+08         0.00000E+00
    0.00000E+00         0.00000E+00        -0.40042E+08
 
   -0.39234E+08         0.23927E+07         0.00000E+00
    0.23927E+07        -0.50529E+08         0.00000E+00
    0.00000E+00         0.00000E+00        -0.40042E+08
 
   -0.39275E+08         0.25173E+07         0.00000E+00
    0.25173E+07        -0.50555E+08         0.00000E+00
    0.00000E+00         0.00000E+00        -0.40042E+08
 
   -0.39315E+08         0.26448E+07         0.00000E+00
    0.26448E+07        -0.50580E+08         0.00000E+00
    0.00000E+00         0.00000E+00        -0.40042E+08
 
   -0.39354E+08         0.27751E+07         0.00000E+00
    0.27751E+07        -0.50605E+08         0.00000E+00
    0.00000E+00         0.00000E+00        -0.40042E+08
 
   -0.39391E+08         0.29082E+07         0.00000E+00
    0.29082E+07        -0.50628E+08         0.00000E+00
    0.00000E+00         0.00000E+00        -0.40042E+08
 
   -0.39427E+08         0.30442E+07         0.00000E+00
    0.30442E+07        -0.50651E+08         0.00000E+00
    0.00000E+00         0.00000E+00        -0.40042E+08
 
   -0.39462E+08         0.31829E+07         0.00000E+00
    0.31829E+07        -0.50672E+08         0.00000E+00
    0.00000E+00         0.00000E+00        -0.40042E+08
 
   -0.39495E+08         0.33245E+07         0.00000E+00
    0.33245E+07        -0.50692E+08         0.00000E+00
    0.00000E+00         0.00000E+00        -0.40042E+08
 
   -0.39528E+08         0.34689E+07         0.00000E+00
    0.34689E+07        -0.50711E+08         0.00000E+00
    0.00000E+00         0.00000E+00        -0.40042E+08
 
   -0.39561E+08         0.36160E+07         0.00000E+00
    0.36160E+07        -0.50727E+08         0.00000E+00
    0.00000E+00         0.00000E+00        -0.40042E+08
 
   -0.39593E+08         0.37659E+07         0.00000E+00
    0.37659E+07        -0.50743E+08         0.00000E+00
    0.00000E+00         0.00000E+00        -0.40042E+08
 
   -0.39624E+08         0.39185E+07         0.00000E+00
    0.39185E+07        -0.50757E+08         0.00000E+00
    0.00000E+00         0.00000E+00        -0.40042E+08
 
   -0.39655E+08         0.40737E+07         0.00000E+00
    0.40737E+07        -0.50768E+08         0.00000E+00
    0.00000E+00         0.00000E+00        -0.40042E+08
 
   -0.39686E+08         0.42317E+07         0.00000E+00
    0.42317E+07        -0.50779E+08         0.00000E+00
    0.00000E+00         0.00000E+00        -0.40042E+08
 
   -0.39717E+08         0.43922E+07         0.00000E+00
    0.43922E+07        -0.50787E+08         0.00000E+00
    0.00000E+00         0.00000E+00        -0.40042E+08
 
   -0.39747E+08         0.45554E+07         0.00000E+00
    0.45554E+07        -0.50793E+08         0.00000E+00
    0.00000E+00         0.00000E+00        -0.40042E+08
 
   -0.39777E+08         0.47213E+07         0.00000E+00
    0.47213E+07        -0.50797E+08         0.00000E+00
    0.00000E+00         0.00000E+00        -0.40042E+08
 
   -0.39808E+08         0.48898E+07         0.00000E+00
    0.48898E+07        -0.50799E+08         0.00000E+00
    0.00000E+00         0.00000E+00        -0.40042E+08
 
   -0.39838E+08         0.50609E+07         0.00000E+00
    0.50609E+07        -0.50800E+08         0.00000E+00
    0.00000E+00         0.00000E+00        -0.40042E+08
 
   -0.39869E+08         0.52348E+07         0.00000E+00
    0.52348E+07        -0.50797E+08         0.00000E+00
    0.00000E+00         0.00000E+00        -0.40042E+08
 
   -0.39899E+08         0.54114E+07         0.00000E+00
    0.54114E+07        -0.50793E+08         0.00000E+00
    0.00000E+00         0.00000E+00        -0.40042E+08
 
   -0.39930E+08         0.55909E+07         0.00000E+00
    0.55909E+07        -0.50787E+08         0.00000E+00
    0.00000E+00         0.00000E+00        -0.40042E+08
 
   -0.39961E+08         0.57735E+07         0.00000E+00
    0.57735E+07        -0.50778E+08         0.00000E+00
    0.00000E+00         0.00000E+00        -0.40042E+08
 
   -0.39993E+08         0.59590E+07         0.00000E+00
    0.59590E+07        -0.50767E+08         0.00000E+00
    0.00000E+00         0.00000E+00        -0.40042E+08
 
   -0.40025E+08         0.61471E+07         0.00000E+00
    0.61471E+07        -0.50752E+08         0.00000E+00
    0.00000E+00         0.00000E+00        -0.40042E+08
 
   -0.36605E+08         0.30956E+05         0.00000E+00
    0.30956E+05        -0.50001E+08         0.00000E+00
    0.00000E+00         0.00000E+00        -0.39050E+08
 
   -0.36765E+08         0.93673E+05         0.00000E+00
    0.93673E+05        -0.50005E+08         0.00000E+00
    0.00000E+00         0.00000E+00        -0.39050E+08
 
   -0.36917E+08         0.15709E+06         0.00000E+00
    0.15709E+06        -0.50011E+08         0.00000E+00
    0.00000E+00         0.00000E+00        -0.39050E+08
 
   -0.37059E+08         0.22147E+06         0.00000E+00
    0.22147E+06        -0.50021E+08         0.00000E+00
    0.00000E+00         0.00000E+00        -0.39050E+08
 
   -0.37193E+08         0.28708E+06         0.00000E+00
    0.28708E+06        -0.50034E+08         0.00000E+00
    0.00000E+00         0.00000E+00        -0.39050E+08
 
   -0.37319E+08         0.35415E+06         0.00000E+00
    0.35415E+06        -0.50049E+08         0.00000E+00
    0.00000E+00         0.00000E+00        -0.39050E+08
 
   -0.37437E+08         0.42289E+06         0.00000E+00
    0.42289E+06        -0.50068E+08         0.00000E+00
    0.00000E+00         0.00000E+00        -0.39050E+08
 
   -0.37547E+08         0.49352E+06         0.00000E+00
    0.49352E+06        -0.50088E+08         0.00000E+00
    0.00000E+00         0.00000E+00        -0.39050E+08
 
   -0.37650E+08         0.56622E+06         0.00000E+00
    0.56622E+06        -0.50111E+08         0.00000E+00
    0.00000E+00         0.00000E+00        -0.39050E+08
 
   -0.37747E+08         0.64115E+06         0.00000E+00
    0.64115E+06        -0.50135E+08         0.00000E+00
    0.00000E+00         0.00000E+00        -0.39050E+08
 
   -0.37837E+08         0.71849E+06         0.00000E+00
    0.71849E+06        -0.50162E+08         0.00000E+00
    0.00000E+00         0.00000E+00        -0.39050E+08
 
   -0.37920E+08         0.79837E+06         0.00000E+00
    0.79837E+06        -0.50190E+08         0.00000E+00
    0.00000E+00         0.00000E+00        -0.39050E+08
 
   -0.37998E+08         0.88092E+06         0.00000E+00
    0.88092E+06        -0.50220E+08         0.00000E+00
    0.00000E+00         0.00000E+00        -0.39050E+08
 
   -0.38070E+08         0.96627E+06         0.00000E+00
    0.96627E+06        -0.50251E+08         0.00000E+00
    0.00000E+00         0.00000E+00        -0.39050E+08
 
   -0.38137E+08         0.10545E+07         0.00000E+00
    0.10545E+07        -0.50283E+08         0.00000E+00
    0.00000E+00         0.00000E+00        -0.39050E+08
 
   -0.38199E+08         0.11458E+07         0.00000E+00
    0.11458E+07        -0.50317E+08         0.00000E+00
    0.00000E+00         0.00000E+00        -0.39050E+08
 
   -0.38256E+08         0.12401E+07         0.00000E+00
    0.12401E+07        -0.50351E+08         0.00000E+00
    0.00000E+00         0.00000E+00        -0.39050E+08
 
   -0.38309E+08         0.13376E+07         0.00000E+00
    0.13376E+07        -0.50386E+08         0.00000E+00
    0.00000E+00         0.00000E+00        -0.39050E+08
 
   -0.38358E+08         0.14384E+07         0.00000E+00
    0.14384E+07        -0.50422E+08         0.00000E+00
    0.00000E+00         0.00000E+00        -0.39050E+08
 
   -0.38403E+08         0.15424E+07         0.00000E+00
    0.15424E+07        -0.50458E+08         0.00000E+00
    0.00000E+00         0.00000E+00        -0.39050E+08
 
   -0.38445E+08         0.16498E+07         0.00000E+00
    0.16498E+07        -0.50495E+08         0.00000E+00
    0.00000E+00         0.00000E+00        -0.39050E+08
 
   -0.38483E+08         0.17605E+07         0.00000E+00
    0.17605E+07        -0.50531E+08         0.00000E+00
    0.00000E+00         0.00000E+00        -0.39050E+08
 
   -0.38519E+08         0.18747E+07         0.00000E+00
    0.18747E+07        -0.50568E+08         0.00000E+00
    0.00000E+00         0.00000E+00        -0.39050E+08
 
   -0.38552E+08         0.19923E+07         0.00000E+00
    0.19923E+07        -0.50604E+08         0.00000E+00
    0.00000E+00         0.00000E+00        -0.39050E+08
 
   -0.38582E+08         0.21133E+07         0.00000E+00
    0.21133E+07        -0.50641E+08         0.00000E+00
    0.00000E+00         0.00000E+00        -0.39050E+08
 
   -0.38610E+08         0.22378E+07         0.00000E+00
    0.22378E+07        -0.50676E+08         0.00000E+00
    0.00000E+00         0.00000E+00        -0.39050E+08
 
   -0.38636E+08         0.23658E+07         0.00000E+00
    0.23658E+07        -0.50712E+08         0.00000E+00
    0.00000E+00         0.00000E+00        -0.39050E+08
 
   -0.38660E+08         0.24972E+07         0.00000E+00
    0.24972E+07        -0.50746E+08         0.00000E+00
    0.00000E+00         0.00000E+00        -0.39050E+08
 
   -0.38683E+08         0.26321E+07         0.00000E+00
    0.26321E+07        -0.50780E+08         0.00000E+00
    0.00000E+00         0.00000E+00        -0.39050E+08
 
   -0.38705E+08         0.27704E+07         0.00000E+00
    0.27704E+07        -0.50813E+08         0.00000E+00
    0.00000E+00         0.00000E+00        -0.39050E+08
 
   -0.38725E+08         0.29121E+07         0.00000E+00
    0.29121E+07        -0.50845E+08         0.00000E+00
    0.00000E+00         0.00000E+00        -0.39050E+08
 
   -0.38744E+08         0.30572E+07         0.00000E+00
    0.30572E+07        -0.50875E+08         0.00000E+00
    0.00000E+00         0.00000E+00        -0.39050E+08
 
   -0.38763E+08         0.32056E+07         0.00000E+00
    0.32056E+07        -0.50904E+08         0.00000E+00
    0.00000E+00         0.00000E+00        -0.39050E+08
 
   -0.38781E+08         0.33573E+07         0.00000E+00
    0.33573E+07        -0.50932E+08         0.00000E+00
    0.00000E+00         0.00000E+00        -0.39050E+08
 
   -0.38798E+08         0.35123E+07         0.00000E+00
    0.35123E+07        -0.50959E+08         0.00000E+00
    0.00000E+00         0.00000E+00        -0.39050E+08
 
   -0.38815E+08         0.36705E+07         0.00000E+00
    0.36705E+07        -0.50984E+08         0.00000E+00
    0.00000E+00         0.00000E+00        -0.39050E+08
 
   -0.38832E+08         0.38319E+07         0.00000E+00
    0.38319E+07        -0.51007E+08         0.00000E+00
    0.00000E+00         0.00000E+00        -0.39050E+08
 
   -0.38849E+08         0.39964E+07         0.00000E+00
    0.39964E+07        -0.51028E+08         0.00000E+00
    0.00000E+00         0.00000E+00        -0.39050E+08
 
   -0.38865E+08         0.41639E+07         0.00000E+00
    0.41639E+07        -0.51047E+08         0.00000E+00
    0.00000E+00         0.00000E+00        -0.39050E+08
 
   -0.38882E+08         0.43345E+07         0.00000E+00
    0.43345E+07        -0.51064E+08         0.00000E+00
    0.00000E+00         0.00000E+00        -0.39050E+08
 
   -0.38899E+08         0.45079E+07         0.00000E+00
    0.45079E+07        -0.51079E+08         0.00000E+00
    0.00000E+00         0.00000E+00        -0.39050E+08
 
   -0.38915E+08         0.46842E+07         0.00000E+00
    0.46842E+07        -0.51093E+08         0.00000E+00
    0.00000E+00         0.00000E+00        -0.39050E+08
 
   -0.38932E+08         0.48633E+07         0.00000E+00
    0.48633E+07        -0.51103E+08         0.00000E+00
    0.00000E+00         0.00000E+00        -0.39050E+08
 
   -0.38948E+08         0.50453E+07         0.00000E+00
    0.50453E+07        -0.51112E+08         0.00000E+00
    0.00000E+00         0.00000E+00        -0.39050E+08
 
   -0.38964E+08         0.52303E+07         0.00000E+00
    0.52303E+07        -0.51118E+08         0.00000E+00
    0.00000E+00         0.00000E+00        -0.39050E+08
 
   -0.38981E+08         0.54182E+07         0.00000E+00
    0.54182E+07        -0.51122E+08         0.00000E+00
    0.00000E+00         0.00000E+00        -0.39050E+08
 
   -0.38997E+08         0.56089E+07         0.00000E+00
    0.56089E+07        -0.51123E+08         0.00000E+00
    0.00000E+00         0.00000E+00        -0.39050E+08
 
   -0.39012E+08         0.58020E+07         0.00000E+00
    0.58020E+07        -0.51122E+08         0.00000E+00
    0.00000E+00         0.00000E+00        -0.39050E+08
 
   -0.39027E+08         0.59990E+07         0.00000E+00
    0.59990E+07        -0.51121E+08         0.00000E+00
    0.00000E+00         0.00000E+00        -0.39050E+08
 
   -0.39042E+08         0.62014E+07         0.00000E+00
    0.62014E+07        -0.51119E+08         0.00000E+00
    0.00000E+00         0.00000E+00        -0.39050E+08
 
   -0.36338E+08         0.20418E+05         0.00000E+00
    0.20418E+05        -0.50001E+08         0.00000E+00
    0.00000E+00         0.00000E+00        -0.37991E+08
 
   -0.36494E+08         0.64705E+05         0.00000E+00
    0.64705E+05        -0.50006E+08         0.00000E+00
    0.00000E+00         0.00000E+00        -0.37991E+08
 
   -0.36638E+08         0.11066E+06         0.00000E+00
    0.11066E+06        -0.50014E+08         0.00000E+00
    0.00000E+00         0.00000E+00        -0.37991E+08
 
   -0.36773E+08         0.15855E+06         0.00000E+00
    0.15855E+06        -0.50026E+08         0.00000E+00
    0.00000E+00         0.00000E+00        -0.37991E+08
 
   -0.36898E+08         0.20862E+06         0.00000E+00
    0.20862E+06        -0.50042E+08         0.00000E+00
    0.00000E+00         0.00000E+00        -0.37991E+08
 
   -0.37014E+08         0.26111E+06         0.00000E+00
    0.26111E+06        -0.50060E+08         0.00000E+00
    0.00000E+00         0.00000E+00        -0.37991E+08
 
   -0.37120E+08         0.31623E+06         0.00000E+00
    0.31623E+06        -0.50082E+08         0.00000E+00
    0.00000E+00         0.00000E+00        -0.37991E+08
 
   -0.37219E+08         0.37417E+06         0.00000E+00
    0.37417E+06        -0.50107E+08         0.00000E+00
    0.00000E+00         0.00000E+00        -0.37991E+08
 
   -0.37309E+08         0.43511E+06         0.00000E+00
    0.43511E+06        -0.50135E+08         0.00000E+00
    0.00000E+00         0.00000E+00        -0.37991E+08
 
   -0.37391E+08         0.49921E+06         0.00000E+00
    0.49921E+06        -0.50164E+08         0.00000E+00
    0.00000E+00         0.00000E+00        -0.37991E+08
 
   -0.37467E+08         0.56660E+06         0.00000E+00
    0.56660E+06        -0.50197E+08         0.00000E+00
    0.00000E+00         0.00000E+00        -0.37991E+08
 
   -0.37535E+08         0.63744E+06         0.00000E+00
    0.63744E+06        -0.50231E+08         0.00000E+00
    0.00000E+00         0.00000E+00        -0.37991E+08
 
   -0.37597E+08         0.71182E+06         0.00000E+00
    0.71182E+06        -0.50267E+08         0.00000E+00
    0.00000E+00         0.00000E+00        -0.37991E+08
 
   -0.37653E+08         0.78987E+06         0.00000E+00
    0.78987E+06        -0.50305E+08         0.00000E+00
    0.00000E+00         0.00000E+00        -0.37991E+08
 
   -0.37703E+08         0.87167E+06         0.00000E+00
    0.87167E+06        -0.50345E+08         0.00000E+00
    0.00000E+00         0.00000E+00        -0.37991E+08
 
   -0.37748E+08         0.95730E+06         0.00000E+00
    0.95730E+06        -0.50385E+08         0.00000E+00
    0.00000E+00         0.00000E+00        -0.37991E+08
 
   -0.37787E+08         0.10468E+07         0.00000E+00
    0.10468E+07        -0.50427E+08         0.00000E+00
    0.00000E+00         0.00000E+00        -0.37991E+08
 
   -0.37822E+08         0.11404E+07         0.00000E+00
    0.11404E+07        -0.50470E+08         0.00000E+00
    0.00000E+00         0.00000E+00        -0.37991E+08
 
   -0.37853E+08         0.12379E+07         0.00000E+00
    0.12379E+07        -0.50514E+08         0.00000E+00
    0.00000E+00         0.00000E+00        -0.37991E+08
 
   -0.37880E+08         0.13395E+07         0.00000E+00
    0.13395E+07        -0.50559E+08         0.00000E+00
    0.00000E+00         0.00000E+00        -0.37991E+08
 
   -0.37903E+08         0.14452E+07         0.00000E+00
    0.14452E+07        -0.50604E+08         0.00000E+00
    0.00000E+00         0.00000E+00        -0.37991E+08
 
   -0.37922E+08         0.15550E+07         0.00000E+00
    0.15550E+07        -0.50649E+08         0.00000E+00
    0.00000E+00         0.00000E+00        -0.37991E+08
 
   -0.37939E+08         0.16690E+07         0.00000E+00
    0.16690E+07        -0.50695E+08         0.00000E+00
    0.00000E+00         0.00000E+00        -0.37991E+08
 
   -0.37953E+08         0.17871E+07         0.00000E+00
    0.17871E+07        -0.50741E+08         0.00000E+00
    0.00000E+00         0.00000E+00        -0.37991E+08
 
   -0.37964E+08         0.19094E+07         0.00000E+00
    0.19094E+07        -0.50786E+08         0.00000E+00
    0.00000E+00         0.00000E+00        -0.37991E+08
 
   -0.37973E+08         0.20359E+07         0.00000E+00
    0.20359E+07        -0.50832E+08         0.00000E+00
    0.00000E+00         0.00000E+00        -0.37991E+08
 
   -0.37980E+08         0.21664E+07         0.00000E+00
    0.21664E+07        -0.50877E+08         0.00000E+00
    0.00000E+00         0.00000E+00        -0.37991E+08
 
   -0.37986E+08         0.23011E+07         0.00000E+00
    0.23011E+07        -0.50922E+08         0.00000E+00
    0.00000E+00         0.00000E+00        -0.37991E+08
 
   -0.37990E+08         0.24399E+07         0.00000E+00
    0.24399E+07        -0.50966E+08         0.00000E+00
    0.00000E+00         0.00000E+00        -0.37991E+08
 
   -0.37993E+08         0.25828E+07         0.00000E+00
    0.25828E+07        -0.51009E+08         0.00000E+00
    0.00000E+00         0.00000E+00        -0.37991E+08
 
   -0.37994E+08         0.27297E+07         0.00000E+00
    0.27297E+07        -0.51052E+08         0.00000E+00
    0.00000E+00         0.00000E+00        -0.37991E+08
 
   -0.37996E+08         0.28805E+07         0.00000E+00
    0.28805E+07        -0.51093E+08         0.00000E+00
    0.00000E+00         0.00000E+00        -0.37991E+08
 
   -0.37996E+08         0.30353E+07         0.00000E+00
    0.30353E+07        -0.51133E+08         0.00000E+00
    0.00000E+00         0.00000E+00        -0.37991E+08
 
   -0.37996E+08         0.31940E+07         0.00000E+00
    0.31940E+07        -0.51172E+08         0.00000E+00
    0.00000E+00         0.00000E+00        -0.37991E+08
 
   -0.37996E+08         0.33566E+07         0.00000E+00
    0.33566E+07        -0.51210E+08         0.00000E+00
    0.00000E+00         0.00000E+00        -0.37991E+08
 
   -0.37996E+08         0.35229E+07         0.00000E+00
    0.35229E+07        -0.51247E+08         0.00000E+00
    0.00000E+00         0.00000E+00        -0.37991E+08
 
   -0.37996E+08         0.36929E+07         0.00000E+00
    0.36929E+07        -0.51281E+08         0.00000E+00
    0.00000E+00         0.00000E+00        -0.37991E+08
 
   -0.37996E+08         0.38665E+07         0.00000E+00
    0.38665E+07        -0.51315E+08         0.00000E+00
    0.00000E+00         0.00000E+00        -0.37991E+08
 
   -0.37996E+08         0.40436E+07         0.00000E+00
    0.40436E+07        -0.51346E+08         0.00000E+00
    0.00000E+00         0.00000E+00        -0.37991E+08
 
   -0.37996E+08         0.42242E+07         0.00000E+00
    0.42242E+07        -0.51375E+08         0.00000E+00
    0.00000E+00         0.00000E+00        -0.37991E+08
 
   -0.37997E+08         0.44085E+07         0.00000E+00
    0.44085E+07        -0.51403E+08         0.00000E+00
    0.00000E+00         0.00000E+00        -0.37991E+08
 
   -0.37998E+08         0.45961E+07         0.00000E+00
    0.45961E+07        -0.51428E+08         0.00000E+00
    0.00000E+00         0.00000E+00        -0.37991E+08
 
   -0.38000E+08         0.47870E+07         0.00000E+00
    0.47870E+07        -0.51452E+08         0.00000E+00
    0.00000E+00         0.00000E+00        -0.37991E+08
 
   -0.38002E+08         0.49807E+07         0.00000E+00
    0.49807E+07        -0.51472E+08         0.00000E+00
    0.00000E+00         0.00000E+00        -0.37991E+08
 
   -0.38003E+08         0.51767E+07         0.00000E+00
    0.51767E+07        -0.51490E+08         0.00000E+00
    0.00000E+00         0.00000E+00        -0.37991E+08
 
   -0.38004E+08         0.53758E+07         0.00000E+00
    0.53758E+07        -0.51507E+08         0.00000E+00
    0.00000E+00         0.00000E+00        -0.37991E+08
 
   -0.38003E+08         0.55789E+07         0.00000E+00
    0.55789E+07        -0.51522E+08         0.00000E+00
    0.00000E+00         0.00000E+00        -0.37991E+08
 
   -0.38001E+08         0.57878E+07         0.00000E+00
    0.57878E+07        -0.51535E+08         0.00000E+00
    0.00000E+00         0.00000E+00        -0.37991E+08
 
   -0.38000E+08         0.59977E+07         0.00000E+00
    0.59977E+07        -0.51536E+08         0.00000E+00
    0.00000E+00         0.00000E+00        -0.37991E+08
 
   -0.37995E+08         0.62072E+07         0.00000E+00
    0.62072E+07        -0.51529E+08         0.00000E+00
    0.00000E+00         0.00000E+00        -0.37991E+08
 
   -0.36176E+08         0.76279E+04         0.00000E+00
    0.76279E+04        -0.50002E+08         0.00000E+00
    0.00000E+00         0.00000E+00        -0.36865E+08
 
   -0.36320E+08         0.29825E+05         0.00000E+00
    0.29825E+05        -0.50007E+08         0.00000E+00
    0.00000E+00         0.00000E+00        -0.36865E+08
 
   -0.36453E+08         0.54929E+05         0.00000E+00
    0.54929E+05        -0.50016E+08         0.00000E+00
    0.00000E+00         0.00000E+00        -0.36865E+08
 
   -0.36575E+08         0.83186E+05         0.00000E+00
    0.83186E+05        -0.50031E+08         0.00000E+00
    0.00000E+00         0.00000E+00        -0.36865E+08
 
   -0.36685E+08         0.11482E+06         0.00000E+00
    0.11482E+06        -0.50049E+08         0.00000E+00
    0.00000E+00         0.00000E+00        -0.36865E+08
 
   -0.36786E+08         0.15004E+06         0.00000E+00
    0.15004E+06        -0.50071E+08         0.00000E+00
    0.00000E+00         0.00000E+00        -0.36865E+08
 
   -0.36876E+08         0.18902E+06         0.00000E+00
    0.18902E+06        -0.50097E+08         0.00000E+00
    0.00000E+00         0.00000E+00        -0.36865E+08
 
   -0.36957E+08         0.23194E+06         0.00000E+00
    0.23194E+06        -0.50126E+08         0.00000E+00
    0.00000E+00         0.00000E+00        -0.36865E+08
 
   -0.37029E+08         0.27894E+06         0.00000E+00
    0.27894E+06        -0.50158E+08         0.00000E+00
    0.00000E+00         0.00000E+00        -0.36865E+08
 
   -0.37093E+08         0.33016E+06         0.00000E+00
    0.33016E+06        -0.50193E+08         0.00000E+00
    0.00000E+00         0.00000E+00        -0.36865E+08
 
   -0.37149E+08         0.38570E+06         0.00000E+00
    0.38570E+06        -0.50231E+08         0.00000E+00
    0.00000E+00         0.00000E+00        -0.36865E+08
 
   -0.37197E+08         0.44569E+06         0.00000E+00
    0.44569E+06        -0.50271E+08         0.00000E+00
    0.00000E+00         0.00000E+00        -0.36865E+08
 
   -0.37239E+08         0.51021E+06         0.00000E+00
    0.51021E+06        -0.50313E+08         0.00000E+00
    0.00000E+00         0.00000E+00        -0.36865E+08
 
   -0.37274E+08         0.57934E+06         0.00000E+00
    0.57934E+06        -0.50358E+08         0.00000E+00
    0.00000E+00         0.00000E+00        -0.36865E+08
 
   -0.37303E+08         0.65316E+06         0.00000E+00
    0.65316E+06        -0.50404E+08         0.00000E+00
    0.00000E+00         0.00000E+00        -0.36865E+08
 
   -0.37326E+08         0.73171E+06         0.00000E+00
    0.73171E+06        -0.50452E+08         0.00000E+00
    0.00000E+00         0.00000E+00        -0.36865E+08
 
   -0.37344E+08         0.81505E+06         0.00000E+00
    0.81505E+06        -0.50501E+08         0.00000E+00
    0.00000E+00         0.00000E+00        -0.36865E+08
 
   -0.37357E+08         0.90322E+06         0.00000E+00
    0.90322E+06        -0.50552E+08         0.00000E+00
    0.00000E+00         0.00000E+00        -0.36865E+08
 
   -0.37365E+08         0.99624E+06         0.00000E+00
    0.99624E+06        -0.50604E+08         0.00000E+00
    0.00000E+00         0.00000E+00        -0.36865E+08
 
   -0.37370E+08         0.10941E+07         0.00000E+00
    0.10941E+07        -0.50656E+08         0.00000E+00
    0.00000E+00         0.00000E+00        -0.36865E+08
 
   -0.37370E+08         0.11969E+07         0.00000E+00
    0.11969E+07        -0.50710E+08         0.00000E+00
    0.00000E+00         0.00000E+00        -0.36865E+08
 
   -0.37367E+08         0.13046E+07         0.00000E+00
    0.13046E+07        -0.50764E+08         0.00000E+00
    0.00000E+00         0.00000E+00        -0.36865E+08
 
   -0.37361E+08         0.14172E+07         0.00000E+00
    0.14172E+07        -0.50819E+08         0.00000E+00
    0.00000E+00         0.00000E+00        -0.36865E+08
 
   -0.37353E+08         0.15347E+07         0.00000E+00
    0.15347E+07        -0.50874E+08         0.00000E+00
    0.00000E+00         0.00000E+00        -0.36865E+08
 
   -0.37341E+08         0.16570E+07         0.00000E+00
    0.16570E+07        -0.50929E+08         0.00000E+00
    0.00000E+00         0.00000E+00        -0.36865E+08
 
   -0.37328E+08         0.17841E+07         0.00000E+00
    0.17841E+07        -0.50984E+08         0.00000E+00
    0.00000E+00         0.00000E+00        -0.36865E+08
 
   -0.37313E+08         0.19161E+07         0.00000E+00
    0.19161E+07        -0.51040E+08         0.00000E+00
    0.00000E+00         0.00000E+00        -0.36865E+08
 
   -0.37296E+08         0.20528E+07         0.00000E+00
    0.20528E+07        -0.51095E+08         0.00000E+00
    0.00000E+00         0.00000E+00        -0.36865E+08
 
   -0.37278E+08         0.21943E+07         0.00000E+00
    0.21943E+07        -0.51149E+08         0.00000E+00
    0.00000E+00         0.00000E+00        -0.36865E+08
 
   -0.37260E+08         0.23404E+07         0.00000E+00
    0.23404E+07        -0.51204E+08         0.00000E+00
    0.00000E+00         0.00000E+00        -0.36865E+08
 
   -0.37240E+08         0.24911E+07         0.00000E+00
    0.24911E+07        -0.51257E+08         0.00000E+00
    0.00000E+00         0.00000E+00        -0.36865E+08
 
   -0.37220E+08         0.26464E+07         0.00000E+00
    0.26464E+07        -0.51311E+08         0.00000E+00
    0.00000E+00         0.00000E+00        -0.36865E+08
 
   -0.37200E+08         0.28062E+07         0.00000E+00
    0.28062E+07        -0.51363E+08         0.00000E+00
    0.00000E+00         0.00000E+00        -0.36865E+08
 
   -0.37179E+08         0.29703E+07         0.00000E+00
    0.29703E+07        -0.51414E+08         0.00000E+00
    0.00000E+00         0.00000E+00        -0.36865E+08
 
   -0.37159E+08         0.31387E+07         0.00000E+00
    0.31387E+07        -0.51465E+08         0.00000E+00
    0.00000E+00         0.00000E+00        -0.36865E+08
 
   -0.37139E+08         0.33113E+07         0.00000E+00
    0.33113E+07        -0.51515E+08         0.00000E+00
    0.00000E+00         0.00000E+00        -0.36865E+08
 
   -0.37119E+08         0.34882E+07         0.00000E+00
    0.34882E+07        -0.51564E+08         0.00000E+00
    0.00000E+00         0.00000E+00        -0.36865E+08
 
   -0.37100E+08         0.36691E+07         0.00000E+00
    0.36691E+07        -0.51611E+08         0.00000E+00
    0.00000E+00         0.00000E+00        -0.36865E+08
 
   -0.37082E+08         0.38541E+07         0.00000E+00
    0.38541E+07        -0.51658E+08         0.00000E+00
    0.00000E+00         0.00000E+00        -0.36865E+08
 
   -0.37065E+08         0.40428E+07         0.00000E+00
    0.40428E+07        -0.51703E+08         0.00000E+00
    0.00000E+00         0.00000E+00        -0.36865E+08
 
   -0.37048E+08         0.42345E+07         0.00000E+00
    0.42345E+07        -0.51746E+08         0.00000E+00
    0.00000E+00         0.00000E+00        -0.36865E+08
 
   -0.37031E+08         0.44299E+07         0.00000E+00
    0.44299E+07        -0.51790E+08         0.00000E+00
    0.00000E+00         0.00000E+00        -0.36865E+08
 
   -0.37014E+08         0.46293E+07         0.00000E+00
    0.46293E+07        -0.51834E+08         0.00000E+00
    0.00000E+00         0.00000E+00        -0.36865E+08
 
   -0.36998E+08         0.48342E+07         0.00000E+00
    0.48342E+07        -0.51877E+08         0.00000E+00
    0.00000E+00         0.00000E+00        -0.36865E+08
 
   -0.36984E+08         0.50450E+07         0.00000E+00
    0.50450E+07        -0.51918E+08         0.00000E+00
    0.00000E+00         0.00000E+00        -0.36865E+08
 
   -0.36973E+08         0.52579E+07         0.00000E+00
    0.52579E+07        -0.51948E+08         0.00000E+00
    0.00000E+00         0.00000E+00        -0.36865E+08
 
   -0.36964E+08         0.54688E+07         0.00000E+00
    0.54688E+07        -0.51977E+08         0.00000E+00
    0.00000E+00         0.00000E+00        -0.36865E+08
 
   -0.36948E+08         0.56715E+07         0.00000E+00
    0.56715E+07        -0.52009E+08         0.00000E+00
    0.00000E+00         0.00000E+00        -0.36865E+08
 
   -0.36920E+08         0.58853E+07         0.00000E+00
    0.58853E+07        -0.52079E+08         0.00000E+00
    0.00000E+00         0.00000E+00        -0.36865E+08
 
   -0.36921E+08         0.60895E+07         0.00000E+00
    0.60895E+07        -0.52160E+08         0.00000E+00
    0.00000E+00         0.00000E+00        -0.36902E+08
 
   -0.36136E+08        -0.73339E+04         0.00000E+00
   -0.73339E+04        -0.50002E+08         0.00000E+00
    0.00000E+00         0.00000E+00        -0.35671E+08
 
   -0.36263E+08        -0.10664E+05         0.00000E+00
   -0.10664E+05        -0.50008E+08         0.00000E+00
    0.00000E+00         0.00000E+00        -0.35671E+08
 
   -0.36377E+08        -0.95608E+04         0.00000E+00
   -0.95608E+04        -0.50019E+08         0.00000E+00
    0.00000E+00         0.00000E+00        -0.35671E+08
 
   -0.36479E+08        -0.38291E+04         0.00000E+00
   -0.38291E+04        -0.50035E+08         0.00000E+00
    0.00000E+00         0.00000E+00        -0.35671E+08
 
   -0.36568E+08         0.67043E+04         0.00000E+00
    0.67043E+04        -0.50056E+08         0.00000E+00
    0.00000E+00         0.00000E+00        -0.35671E+08
 
   -0.36647E+08         0.22193E+05         0.00000E+00
    0.22193E+05        -0.50081E+08         0.00000E+00
    0.00000E+00         0.00000E+00        -0.35671E+08
 
   -0.36715E+08         0.42773E+05         0.00000E+00
    0.42773E+05        -0.50110E+08         0.00000E+00
    0.00000E+00         0.00000E+00        -0.35671E+08
 
   -0.36773E+08         0.68562E+05         0.00000E+00
    0.68562E+05        -0.50142E+08         0.00000E+00
    0.00000E+00         0.00000E+00        -0.35671E+08
 
   -0.36821E+08         0.99664E+05         0.00000E+00
    0.99664E+05        -0.50179E+08         0.00000E+00
    0.00000E+00         0.00000E+00        -0.35671E+08
 
   -0.36861E+08         0.13617E+06         0.00000E+00
    0.13617E+06        -0.50218E+08         0.00000E+00
    0.00000E+00         0.00000E+00        -0.35671E+08
 
   -0.36892E+08         0.17815E+06         0.00000E+00
    0.17815E+06        -0.50260E+08         0.00000E+00
    0.00000E+00         0.00000E+00        -0.35671E+08
 
   -0.36916E+08         0.22567E+06         0.00000E+00
    0.22567E+06        -0.50306E+08         0.00000E+00
    0.00000E+00         0.00000E+00        -0.35671E+08
 
   -0.36932E+08         0.27878E+06         0.00000E+00
    0.27878E+06        -0.50353E+08         0.00000E+00
    0.00000E+00         0.00000E+00        -0.35671E+08
 
   -0.36941E+08         0.33752E+06         0.00000E+00
    0.33752E+06        -0.50403E+08         0.00000E+00
    0.00000E+00         0.00000E+00        -0.35671E+08
 
   -0.36944E+08         0.40192E+06         0.00000E+00
    0.40192E+06        -0.50455E+08         0.00000E+00
    0.00000E+00         0.00000E+00        -0.35671E+08
 
   -0.36941E+08         0.47201E+06         0.00000E+00
    0.47201E+06        -0.50509E+08         0.00000E+00
    0.00000E+00         0.00000E+00        -0.35671E+08
 
   -0.36933E+08         0.54780E+06         0.00000E+00
    0.54780E+06        -0.50565E+08         0.00000E+00
    0.00000E+00         0.00000E+00        -0.35671E+08
 
   -0.36920E+08         0.62928E+06         0.00000E+00
    0.62928E+06        -0.50623E+08         0.00000E+00
    0.00000E+00         0.00000E+00        -0.35671E+08
 
   -0.36902E+08         0.71647E+06         0.00000E+00
    0.71647E+06        -0.50681E+08         0.00000E+00
    0.00000E+00         0.00000E+00        -0.35671E+08
 
   -0.36880E+08         0.80935E+06         0.00000E+00
    0.80935E+06        -0.50741E+08         0.00000E+00
    0.00000E+00         0.00000E+00        -0.35671E+08
 
   -0.36854E+08         0.90791E+06         0.00000E+00
    0.90791E+06        -0.50802E+08         0.00000E+00
    0.00000E+00         0.00000E+00        -0.35671E+08
 
   -0.36825E+08         0.10121E+07         0.00000E+00
    0.10121E+07        -0.50864E+08         0.00000E+00
    0.00000E+00         0.00000E+00        -0.35671E+08
 
   -0.36792E+08         0.11219E+07         0.00000E+00
    0.11219E+07        -0.50926E+08         0.00000E+00
    0.00000E+00         0.00000E+00        -0.35671E+08
 
   -0.36758E+08         0.12373E+07         0.00000E+00
    0.12373E+07        -0.50990E+08         0.00000E+00
    0.00000E+00         0.00000E+00        -0.35671E+08
 
   -0.36721E+08         0.13583E+07         0.00000E+00
    0.13583E+07        -0.51053E+08         0.00000E+00
    0.00000E+00         0.00000E+00        -0.35671E+08
 
   -0.36682E+08         0.14847E+07         0.00000E+00
    0.14847E+07        -0.51117E+08         0.00000E+00
    0.00000E+00         0.00000E+00        -0.35671E+08
 
   -0.36641E+08         0.16165E+07         0.00000E+00
    0.16165E+07        -0.51182E+08         0.00000E+00
    0.00000E+00         0.00000E+00        -0.35671E+08
 
   -0.36599E+08         0.17537E+07         0.00000E+00
    0.17537E+07        -0.51246E+08         0.00000E+00
    0.00000E+00         0.00000E+00        -0.35671E+08
 
   -0.36557E+08         0.18962E+07         0.00000E+00
    0.18962E+07        -0.51310E+08         0.00000E+00
    0.00000E+00         0.00000E+00        -0.35671E+08
 
   -0.36513E+08         0.20438E+07         0.00000E+00
    0.20438E+07        -0.51375E+08         0.00000E+00
    0.00000E+00         0.00000E+00        -0.35671E+08
 
   -0.36470E+08         0.21965E+07         0.00000E+00
    0.21965E+07        -0.51439E+08         0.00000E+00
    0.00000E+00         0.00000E+00        -0.35671E+08
 
   -0.36426E+08         0.23542E+07         0.00000E+00
    0.23542E+07        -0.51503E+08         0.00000E+00
    0.00000E+00         0.00000E+00        -0.35671E+08
 
   -0.36383E+08         0.25167E+07         0.00000E+00
    0.25167E+07        -0.51566E+08         0.00000E+00
    0.00000E+00         0.00000E+00        -0.35671E+08
 
   -0.36340E+08         0.26841E+07         0.00000E+00
    0.26841E+07        -0.51630E+08         0.00000E+00
    0.00000E+00         0.00000E+00        -0.35671E+08
 
   -0.36298E+08         0.28561E+07         0.00000E+00
    0.28561E+07        -0.51692E+08         0.00000E+00
    0.00000E+00         0.00000E+00        -0.35671E+08
 
   -0.36257E+08         0.30325E+07         0.00000E+00
    0.30325E+07        -0.51754E+08         0.00000E+00
    0.00000E+00         0.00000E+00        -0.35671E+08
 
   -0.36217E+08         0.32125E+07         0.00000E+00
    0.32125E+07        -0.51816E+08         0.00000E+00
    0.00000E+00         0.00000E+00        -0.35671E+08
 
   -0.36178E+08         0.33964E+07         0.00000E+00
    0.33964E+07        -0.51877E+08         0.00000E+00
    0.00000E+00         0.00000E+00        -0.35671E+08
 
   -0.36140E+08         0.35842E+07         0.00000E+00
    0.35842E+07        -0.51939E+08         0.00000E+00
    0.00000E+00         0.00000E+00        -0.35671E+08
 
   -0.36102E+08         0.37769E+07         0.00000E+00
    0.37769E+07        -0.52002E+08         0.00000E+00
    0.00000E+00         0.00000E+00        -0.35671E+08
 
   -0.36068E+08         0.39755E+07         0.00000E+00
    0.39755E+07        -0.52064E+08         0.00000E+00
    0.00000E+00         0.00000E+00        -0.35671E+08
 
   -0.36038E+08         0.41765E+07         0.00000E+00
    0.41765E+07        -0.52118E+08         0.00000E+00
    0.00000E+00         0.00000E+00        -0.35671E+08
 
   -0.36012E+08         0.43780E+07         0.00000E+00
    0.43780E+07        -0.52170E+08         0.00000E+00
    0.00000E+00         0.00000E+00        -0.35671E+08
 
   -0.35987E+08         0.45734E+07         0.00000E+00
    0.45734E+07        -0.52222E+08         0.00000E+00
    0.00000E+00         0.00000E+00        -0.35671E+08
 
   -0.35953E+08         0.47635E+07         0.00000E+00
    0.47635E+07        -0.52286E+08         0.00000E+00
    0.00000E+00         0.00000E+00        -0.35671E+08
 
   -0.35917E+08         0.49598E+07         0.00000E+00
    0.49598E+07        -0.52391E+08         0.00000E+00
    0.00000E+00         0.00000E+00        -0.35679E+08
 
   -0.35929E+08         0.51411E+07         0.00000E+00
    0.51411E+07        -0.52489E+08         0.00000E+00
    0.00000E+00         0.00000E+00        -0.35744E+08
 
   -0.35958E+08         0.53161E+07         0.00000E+00
    0.53161E+07        -0.52588E+08         0.00000E+00
    0.00000E+00         0.00000E+00        -0.35825E+08
 
   -0.36052E+08         0.54647E+07         0.00000E+00
    0.54647E+07        -0.52664E+08         0.00000E+00
    0.00000E+00         0.00000E+00        -0.35973E+08
 
   -0.36180E+08         0.55979E+07         0.00000E+00
    0.55979E+07        -0.52754E+08         0.00000E+00
    0.00000E+00         0.00000E+00        -0.36155E+08
 
   -0.36236E+08        -0.24156E+05         0.00000E+00
   -0.24156E+05        -0.50002E+08         0.00000E+00
    0.00000E+00         0.00000E+00        -0.34412E+08
 
   -0.36337E+08        -0.55866E+05         0.00000E+00
   -0.55866E+05        -0.50008E+08         0.00000E+00
    0.00000E+00         0.00000E+00        -0.34412E+08
 
   -0.36424E+08        -0.81343E+05         0.00000E+00
   -0.81343E+05        -0.50021E+08         0.00000E+00
    0.00000E+00         0.00000E+00        -0.34412E+08
 
   -0.36498E+08        -0.10047E+06         0.00000E+00
   -0.10047E+06        -0.50038E+08         0.00000E+00
    0.00000E+00         0.00000E+00        -0.34412E+08
 
   -0.36559E+08        -0.11317E+06         0.00000E+00
   -0.11317E+06        -0.50061E+08         0.00000E+00
    0.00000E+00         0.00000E+00        -0.34412E+08
 
   -0.36609E+08        -0.11934E+06         0.00000E+00
   -0.11934E+06        -0.50088E+08         0.00000E+00
    0.00000E+00         0.00000E+00        -0.34412E+08
 
   -0.36647E+08        -0.11892E+06         0.00000E+00
   -0.11892E+06        -0.50119E+08         0.00000E+00
    0.00000E+00         0.00000E+00        -0.34412E+08
 
   -0.36676E+08        -0.11188E+06         0.00000E+00
   -0.11188E+06        -0.50155E+08         0.00000E+00
    0.00000E+00         0.00000E+00        -0.34412E+08
 
   -0.36694E+08        -0.98161E+05         0.00000E+00
   -0.98161E+05        -0.50194E+08         0.00000E+00
    0.00000E+00         0.00000E+00        -0.34412E+08
 
   -0.36703E+08        -0.77750E+05         0.00000E+00
   -0.77750E+05        -0.50236E+08         0.00000E+00
    0.00000E+00         0.00000E+00        -0.34412E+08
 
   -0.36704E+08        -0.50631E+05         0.00000E+00
   -0.50631E+05        -0.50282E+08         0.00000E+00
    0.00000E+00         0.00000E+00        -0.34412E+08
 
   -0.36697E+08        -0.16800E+05         0.00000E+00
   -0.16800E+05        -0.50331E+08         0.00000E+00
    0.00000E+00         0.00000E+00        -0.34412E+08
 
   -0.36682E+08         0.23739E+05         0.00000E+00
    0.23739E+05        -0.50382E+08         0.00000E+00
    0.00000E+00         0.00000E+00        -0.34412E+08
 
   -0.36661E+08         0.70971E+05         0.00000E+00
    0.70971E+05        -0.50436E+08         0.00000E+00
    0.00000E+00         0.00000E+00        -0.34412E+08
 
   -0.36633E+08         0.12488E+06         0.00000E+00
    0.12488E+06        -0.50493E+08         0.00000E+00
    0.00000E+00         0.00000E+00        -0.34412E+08
 
   -0.36599E+08         0.18543E+06         0.00000E+00
    0.18543E+06        -0.50551E+08         0.00000E+00
    0.00000E+00         0.00000E+00        -0.34412E+08
 
   -0.36560E+08         0.25259E+06         0.00000E+00
    0.25259E+06        -0.50611E+08         0.00000E+00
    0.00000E+00         0.00000E+00        -0.34412E+08
 
   -0.36516E+08         0.32632E+06         0.00000E+00
    0.32632E+06        -0.50673E+08         0.00000E+00
    0.00000E+00         0.00000E+00        -0.34412E+08
 
   -0.36468E+08         0.40659E+06         0.00000E+00
    0.40659E+06        -0.50736E+08         0.00000E+00
    0.00000E+00         0.00000E+00        -0.34412E+08
 
   -0.36416E+08         0.49333E+06         0.00000E+00
    0.49333E+06        -0.50801E+08         0.00000E+00
    0.00000E+00         0.00000E+00        -0.34412E+08
 
   -0.36360E+08         0.58649E+06         0.00000E+00
    0.58649E+06        -0.50867E+08         0.00000E+00
    0.00000E+00         0.00000E+00        -0.34412E+08
 
   -0.36301E+08         0.68601E+06         0.00000E+00
    0.68601E+06        -0.50934E+08         0.00000E+00
    0.00000E+00         0.00000E+00        -0.34412E+08
 
   -0.36239E+08         0.79184E+06         0.00000E+00
    0.79184E+06        -0.51003E+08         0.00000E+00
    0.00000E+00         0.00000E+00        -0.34412E+08
 
   -0.36175E+08         0.90391E+06         0.00000E+00
    0.90391E+06        -0.51072E+08         0.00000E+00
    0.00000E+00         0.00000E+00        -0.34412E+08
 
   -0.36109E+08         0.10221E+07         0.00000E+00
    0.10221E+07        -0.51141E+08         0.00000E+00
    0.00000E+00         0.00000E+00        -0.34412E+08
 
   -0.36041E+08         0.11464E+07         0.00000E+00
    0.11464E+07        -0.51212E+08         0.00000E+00
    0.00000E+00         0.00000E+00        -0.34412E+08
 
   -0.35972E+08         0.12767E+07         0.00000E+00
    0.12767E+07        -0.51282E+08         0.00000E+00
    0.00000E+00         0.00000E+00        -0.34412E+08
 
   -0.35903E+08         0.14128E+07         0.00000E+00
    0.14128E+07        -0.51353E+08         0.00000E+00
    0.00000E+00         0.00000E+00        -0.34412E+08
 
   -0.35833E+08         0.15547E+07         0.00000E+00
    0.15547E+07        -0.51425E+08         0.00000E+00
    0.00000E+00         0.00000E+00        -0.34412E+08
 
   -0.35763E+08         0.17024E+07         0.00000E+00
    0.17024E+07        -0.51497E+08         0.00000E+00
    0.00000E+00         0.00000E+00        -0.34412E+08
 
   -0.35693E+08         0.18556E+07         0.00000E+00
    0.18556E+07        -0.51568E+08         0.00000E+00
    0.00000E+00         0.00000E+00        -0.34412E+08
 
   -0.35624E+08         0.20142E+07         0.00000E+00
    0.20142E+07        -0.51640E+08         0.00000E+00
    0.00000E+00         0.00000E+00        -0.34412E+08
 
   -0.35556E+08         0.21777E+07         0.00000E+00
    0.21777E+07        -0.51711E+08         0.00000E+00
    0.00000E+00         0.00000E+00        -0.34412E+08
 
   -0.35490E+08         0.23458E+07         0.00000E+00
    0.23458E+07        -0.51782E+08         0.00000E+00
    0.00000E+00         0.00000E+00        -0.34412E+08
 
   -0.35424E+08         0.25187E+07         0.00000E+00
    0.25187E+07        -0.51855E+08         0.00000E+00
    0.00000E+00         0.00000E+00        -0.34412E+08
 
   -0.35360E+08         0.26969E+07         0.00000E+00
    0.26969E+07        -0.51927E+08         0.00000E+00
    0.00000E+00         0.00000E+00        -0.34412E+08
 
   -0.35299E+08         0.28814E+07         0.00000E+00
    0.28814E+07        -0.52000E+08         0.00000E+00
    0.00000E+00         0.00000E+00        -0.34412E+08
 
   -0.35242E+08         0.30706E+07         0.00000E+00
    0.30706E+07        -0.52067E+08         0.00000E+00
    0.00000E+00         0.00000E+00        -0.34412E+08
 
   -0.35192E+08         0.32620E+07         0.00000E+00
    0.32620E+07        -0.52129E+08         0.00000E+00
    0.00000E+00         0.00000E+00        -0.34412E+08
 
   -0.35145E+08         0.34503E+07         0.00000E+00
    0.34503E+07        -0.52190E+08         0.00000E+00
    0.00000E+00         0.00000E+00        -0.34412E+08
 
   -0.35094E+08         0.36326E+07         0.00000E+00
    0.36326E+07        -0.52254E+08         0.00000E+00
    0.00000E+00         0.00000E+00        -0.34412E+08
 
   -0.35040E+08         0.38207E+07         0.00000E+00
    0.38207E+07        -0.52357E+08         0.00000E+00
    0.00000E+00         0.00000E+00        -0.34414E+08
 
   -0.35008E+08         0.40029E+07         0.00000E+00
    0.40029E+07        -0.52463E+08         0.00000E+00
    0.00000E+00         0.00000E+00        -0.34451E+08
 
   -0.35008E+08         0.41800E+07         0.00000E+00
    0.41800E+07        -0.52561E+08         0.00000E+00
    0.00000E+00         0.00000E+00        -0.34529E+08
 
   -0.35022E+08         0.43537E+07         0.00000E+00
    0.43537E+07        -0.52652E+08         0.00000E+00
    0.00000E+00         0.00000E+00        -0.34627E+08
 
   -0.35105E+08         0.45054E+07         0.00000E+00
    0.45054E+07        -0.52721E+08         0.00000E+00
    0.00000E+00         0.00000E+00        -0.34800E+08
 
   -0.35203E+08         0.46538E+07         0.00000E+00
    0.46538E+07        -0.52813E+08         0.00000E+00
    0.00000E+00         0.00000E+00        -0.34991E+08
 
   -0.35308E+08         0.47919E+07         0.00000E+00
    0.47919E+07        -0.52916E+08         0.00000E+00
    0.00000E+00         0.00000E+00        -0.35182E+08
 
   -0.35425E+08         0.49215E+07         0.00000E+00
    0.49215E+07        -0.53028E+08         0.00000E+00
    0.00000E+00         0.00000E+00        -0.35366E+08
 
   -0.35553E+08         0.50505E+07         0.00000E+00
    0.50505E+07        -0.53135E+08         0.00000E+00
    0.00000E+00         0.00000E+00        -0.35537E+08
 
   -0.36487E+08        -0.42287E+05         0.00000E+00
   -0.42287E+05        -0.50002E+08         0.00000E+00
    0.00000E+00         0.00000E+00        -0.33089E+08
 
   -0.36552E+08        -0.10426E+06         0.00000E+00
   -0.10426E+06        -0.50009E+08         0.00000E+00
    0.00000E+00         0.00000E+00        -0.33089E+08
 
   -0.36603E+08        -0.15799E+06         0.00000E+00
   -0.15799E+06        -0.50021E+08         0.00000E+00
    0.00000E+00         0.00000E+00        -0.33089E+08
 
   -0.36641E+08        -0.20344E+06         0.00000E+00
   -0.20344E+06        -0.50040E+08         0.00000E+00
    0.00000E+00         0.00000E+00        -0.33089E+08
 
   -0.36665E+08        -0.24063E+06         0.00000E+00
   -0.24063E+06        -0.50063E+08         0.00000E+00
    0.00000E+00         0.00000E+00        -0.33089E+08
 
   -0.36678E+08        -0.26957E+06         0.00000E+00
   -0.26957E+06        -0.50091E+08         0.00000E+00
    0.00000E+00         0.00000E+00        -0.33089E+08
 
   -0.36680E+08        -0.29029E+06         0.00000E+00
   -0.29029E+06        -0.50124E+08         0.00000E+00
    0.00000E+00         0.00000E+00        -0.33089E+08
 
   -0.36671E+08        -0.30284E+06         0.00000E+00
   -0.30284E+06        -0.50161E+08         0.00000E+00
    0.00000E+00         0.00000E+00        -0.33089E+08
 
   -0.36652E+08        -0.30725E+06         0.00000E+00
   -0.30725E+06        -0.50201E+08         0.00000E+00
    0.00000E+00         0.00000E+00        -0.33089E+08
 
   -0.36625E+08        -0.30359E+06         0.00000E+00
   -0.30359E+06        -0.50245E+08         0.00000E+00
    0.00000E+00         0.00000E+00        -0.33089E+08
 
   -0.36589E+08        -0.29191E+06         0.00000E+00
   -0.29191E+06        -0.50292E+08         0.00000E+00
    0.00000E+00         0.00000E+00        -0.33089E+08
 
   -0.36545E+08        -0.27231E+06         0.00000E+00
   -0.27231E+06        -0.50343E+08         0.00000E+00
    0.00000E+00         0.00000E+00        -0.33089E+08
 
   -0.36494E+08        -0.24484E+06         0.00000E+00
   -0.24484E+06        -0.50396E+08         0.00000E+00
    0.00000E+00         0.00000E+00        -0.33089E+08
 
   -0.36437E+08        -0.20960E+06         0.00000E+00
   -0.20960E+06        -0.50451E+08         0.00000E+00
    0.00000E+00         0.00000E+00        -0.33089E+08
 
   -0.36373E+08        -0.16667E+06         0.00000E+00
   -0.16667E+06        -0.50509E+08         0.00000E+00
    0.00000E+00         0.00000E+00        -0.33089E+08
 
   -0.36304E+08        -0.11616E+06         0.00000E+00
   -0.11616E+06        -0.50568E+08         0.00000E+00
    0.00000E+00         0.00000E+00        -0.33089E+08
 
   -0.36230E+08        -0.58136E+05         0.00000E+00
   -0.58136E+05        -0.50630E+08         0.00000E+00
    0.00000E+00         0.00000E+00        -0.33089E+08
 
   -0.36151E+08         0.72894E+04         0.00000E+00
    0.72894E+04        -0.50694E+08         0.00000E+00
    0.00000E+00         0.00000E+00        -0.33089E+08
 
   -0.36069E+08         0.80031E+05         0.00000E+00
    0.80031E+05        -0.50759E+08         0.00000E+00
    0.00000E+00         0.00000E+00        -0.33089E+08
 
   -0.35982E+08         0.16000E+06         0.00000E+00
    0.16000E+06        -0.50825E+08         0.00000E+00
    0.00000E+00         0.00000E+00        -0.33089E+08
 
   -0.35893E+08         0.24707E+06         0.00000E+00
    0.24707E+06        -0.50893E+08         0.00000E+00
    0.00000E+00         0.00000E+00        -0.33089E+08
 
   -0.35800E+08         0.34115E+06         0.00000E+00
    0.34115E+06        -0.50962E+08         0.00000E+00
    0.00000E+00         0.00000E+00        -0.33089E+08
 
   -0.35706E+08         0.44215E+06         0.00000E+00
    0.44215E+06        -0.51032E+08         0.00000E+00
    0.00000E+00         0.00000E+00        -0.33089E+08
 
   -0.35609E+08         0.54994E+06         0.00000E+00
    0.54994E+06        -0.51103E+08         0.00000E+00
    0.00000E+00         0.00000E+00        -0.33089E+08
 
   -0.35511E+08         0.66443E+06         0.00000E+00
    0.66443E+06        -0.51175E+08         0.00000E+00
    0.00000E+00         0.00000E+00        -0.33089E+08
 
   -0.35412E+08         0.78562E+06         0.00000E+00
    0.78562E+06        -0.51248E+08         0.00000E+00
    0.00000E+00         0.00000E+00        -0.33089E+08
 
   -0.35312E+08         0.91344E+06         0.00000E+00
    0.91344E+06        -0.51321E+08         0.00000E+00
    0.00000E+00         0.00000E+00        -0.33089E+08
 
   -0.35212E+08         0.10477E+07         0.00000E+00
    0.10477E+07        -0.51395E+08         0.00000E+00
    0.00000E+00         0.00000E+00        -0.33089E+08
 
   -0.35113E+08         0.11881E+07         0.00000E+00
    0.11881E+07        -0.51469E+08         0.00000E+00
    0.00000E+00         0.00000E+00        -0.33089E+08
 
   -0.35014E+08         0.13342E+07         0.00000E+00
    0.13342E+07        -0.51543E+08         0.00000E+00
    0.00000E+00         0.00000E+00        -0.33089E+08
 
   -0.34916E+08         0.14861E+07         0.00000E+00
    0.14861E+07        -0.51618E+08         0.00000E+00
    0.00000E+00         0.00000E+00        -0.33089E+08
 
   -0.34818E+08         0.16443E+07         0.00000E+00
    0.16443E+07        -0.51694E+08         0.00000E+00
    0.00000E+00         0.00000E+00        -0.33089E+08
 
   -0.34723E+08         0.18096E+07         0.00000E+00
    0.18096E+07        -0.51770E+08         0.00000E+00
    0.00000E+00         0.00000E+00        -0.33089E+08
 
   -0.34631E+08         0.19818E+07         0.00000E+00
    0.19818E+07        -0.51845E+08         0.00000E+00
    0.00000E+00         0.00000E+00        -0.33089E+08
 
   -0.34546E+08         0.21588E+07         0.00000E+00
    0.21588E+07        -0.51912E+08         0.00000E+00
    0.00000E+00         0.00000E+00        -0.33089E+08
 
   -0.34465E+08         0.23359E+07         0.00000E+00
    0.23359E+07        -0.51979E+08         0.00000E+00
    0.00000E+00         0.00000E+00        -0.33089E+08
 
   -0.34384E+08         0.25101E+07         0.00000E+00
    0.25101E+07        -0.52046E+08         0.00000E+00
    0.00000E+00         0.00000E+00        -0.33089E+08
 
   -0.34298E+08         0.26871E+07         0.00000E+00
    0.26871E+07        -0.52141E+08         0.00000E+00
    0.00000E+00         0.00000E+00        -0.33089E+08
 
   -0.34228E+08         0.28647E+07         0.00000E+00
    0.28647E+07        -0.52247E+08         0.00000E+00
    0.00000E+00         0.00000E+00        -0.33117E+08
 
   -0.34183E+08         0.30420E+07         0.00000E+00
    0.30420E+07        -0.52345E+08         0.00000E+00
    0.00000E+00         0.00000E+00        -0.33185E+08
 
   -0.34143E+08         0.32230E+07         0.00000E+00
    0.32230E+07        -0.52439E+08         0.00000E+00
    0.00000E+00         0.00000E+00        -0.33269E+08
 
   -0.34162E+08         0.33929E+07         0.00000E+00
    0.33929E+07        -0.52505E+08         0.00000E+00
    0.00000E+00         0.00000E+00        -0.33428E+08
 
   -0.34203E+08         0.35569E+07         0.00000E+00
    0.35569E+07        -0.52577E+08         0.00000E+00
    0.00000E+00         0.00000E+00        -0.33615E+08
 
   -0.34258E+08         0.37160E+07         0.00000E+00
    0.37160E+07        -0.52668E+08         0.00000E+00
    0.00000E+00         0.00000E+00        -0.33814E+08
 
   -0.34323E+08         0.38638E+07         0.00000E+00
    0.38638E+07        -0.52765E+08         0.00000E+00
    0.00000E+00         0.00000E+00        -0.34008E+08
 
   -0.34406E+08         0.40075E+07         0.00000E+00
    0.40075E+07        -0.52866E+08         0.00000E+00
    0.00000E+00         0.00000E+00        -0.34194E+08
 
   -0.34498E+08         0.41512E+07         0.00000E+00
    0.41512E+07        -0.52963E+08         0.00000E+00
    0.00000E+00         0.00000E+00        -0.34365E+08
 
   -0.34604E+08         0.42965E+07         0.00000E+00
    0.42965E+07        -0.53056E+08         0.00000E+00
    0.00000E+00         0.00000E+00        -0.34528E+08
 
   -0.34719E+08         0.44458E+07         0.00000E+00
    0.44458E+07        -0.53143E+08         0.00000E+00
    0.00000E+00         0.00000E+00        -0.34684E+08
 
   -0.34843E+08         0.45977E+07         0.00000E+00
    0.45977E+07        -0.53226E+08         0.00000E+00
    0.00000E+00         0.00000E+00        -0.34834E+08
 
   -0.36898E+08        -0.60980E+05         0.00000E+00
   -0.60980E+05        -0.50002E+08         0.00000E+00
    0.00000E+00         0.00000E+00        -0.31707E+08
 
   -0.36916E+08        -0.15387E+06         0.00000E+00
   -0.15387E+06        -0.50009E+08         0.00000E+00
    0.00000E+00         0.00000E+00        -0.31707E+08
 
   -0.36921E+08        -0.23628E+06         0.00000E+00
   -0.23628E+06        -0.50022E+08         0.00000E+00
    0.00000E+00         0.00000E+00        -0.31707E+08
 
   -0.36912E+08        -0.30835E+06         0.00000E+00
   -0.30835E+06        -0.50040E+08         0.00000E+00
    0.00000E+00         0.00000E+00        -0.31707E+08
 
   -0.36890E+08        -0.37020E+06         0.00000E+00
   -0.37020E+06        -0.50063E+08         0.00000E+00
    0.00000E+00         0.00000E+00        -0.31707E+08
 
   -0.36857E+08        -0.42195E+06         0.00000E+00
   -0.42195E+06        -0.50091E+08         0.00000E+00
    0.00000E+00         0.00000E+00        -0.31707E+08
 
   -0.36814E+08        -0.46372E+06         0.00000E+00
   -0.46372E+06        -0.50123E+08         0.00000E+00
    0.00000E+00         0.00000E+00        -0.31707E+08
 
   -0.36760E+08        -0.49567E+06         0.00000E+00
   -0.49567E+06        -0.50159E+08         0.00000E+00
    0.00000E+00         0.00000E+00        -0.31707E+08
 
   -0.36698E+08        -0.51793E+06         0.00000E+00
   -0.51793E+06        -0.50199E+08         0.00000E+00
    0.00000E+00         0.00000E+00        -0.31707E+08
 
   -0.36626E+08        -0.53068E+06         0.00000E+00
   -0.53068E+06        -0.50242E+08         0.00000E+00
    0.00000E+00         0.00000E+00        -0.31707E+08
 
   -0.36547E+08        -0.53406E+06         0.00000E+00
   -0.53406E+06        -0.50289E+08         0.00000E+00
    0.00000E+00         0.00000E+00        -0.31707E+08
 
   -0.36461E+08        -0.52825E+06         0.00000E+00
   -0.52825E+06        -0.50338E+08         0.00000E+00
    0.00000E+00         0.00000E+00        -0.31707E+08
 
   -0.36368E+08        -0.51340E+06         0.00000E+00
   -0.51340E+06        -0.50389E+08         0.00000E+00
    0.00000E+00         0.00000E+00        -0.31707E+08
 
   -0.36270E+08        -0.48970E+06         0.00000E+00
   -0.48970E+06        -0.50443E+08         0.00000E+00
    0.00000E+00         0.00000E+00        -0.31707E+08
 
   -0.36166E+08        -0.45730E+06         0.00000E+00
   -0.45730E+06        -0.50499E+08         0.00000E+00
    0.00000E+00         0.00000E+00        -0.31707E+08
 
   -0.36057E+08        -0.41640E+06         0.00000E+00
   -0.41640E+06        -0.50556E+08         0.00000E+00
    0.00000E+00         0.00000E+00        -0.31707E+08
 
   -0.35943E+08        -0.36716E+06         0.00000E+00
   -0.36716E+06        -0.50616E+08         0.00000E+00
    0.00000E+00         0.00000E+00        -0.31707E+08
 
   -0.35826E+08        -0.30978E+06         0.00000E+00
   -0.30978E+06        -0.50677E+08         0.00000E+00
    0.00000E+00         0.00000E+00        -0.31707E+08
 
   -0.35705E+08        -0.24441E+06         0.00000E+00
   -0.24441E+06        -0.50739E+08         0.00000E+00
    0.00000E+00         0.00000E+00        -0.31707E+08
 
   -0.35581E+08        -0.17121E+06         0.00000E+00
   -0.17121E+06        -0.50803E+08         0.00000E+00
    0.00000E+00         0.00000E+00        -0.31707E+08
 
   -0.35455E+08        -0.90259E+05         0.00000E+00
   -0.90259E+05        -0.50868E+08         0.00000E+00
    0.00000E+00         0.00000E+00        -0.31707E+08
 
   -0.35326E+08        -0.16826E+04         0.00000E+00
   -0.16826E+04        -0.50934E+08         0.00000E+00
    0.00000E+00         0.00000E+00        -0.31707E+08
 
   -0.35196E+08         0.94338E+05         0.00000E+00
    0.94338E+05        -0.51002E+08         0.00000E+00
    0.00000E+00         0.00000E+00        -0.31707E+08
 
   -0.35065E+08         0.19772E+06         0.00000E+00
    0.19772E+06        -0.51070E+08         0.00000E+00
    0.00000E+00         0.00000E+00        -0.31707E+08
 
   -0.34932E+08         0.30826E+06         0.00000E+00
    0.30826E+06        -0.51139E+08         0.00000E+00
    0.00000E+00         0.00000E+00        -0.31707E+08
 
   -0.34799E+08         0.42551E+06         0.00000E+00
    0.42551E+06        -0.51208E+08         0.00000E+00
    0.00000E+00         0.00000E+00        -0.31707E+08
 
   -0.34666E+08         0.54937E+06         0.00000E+00
    0.54937E+06        -0.51278E+08         0.00000E+00
    0.00000E+00         0.00000E+00        -0.31707E+08
 
   -0.34532E+08         0.68048E+06         0.00000E+00
    0.68048E+06        -0.51350E+08         0.00000E+00
    0.00000E+00         0.00000E+00        -0.31707E+08
 
   -0.34399E+08         0.81925E+06         0.00000E+00
    0.81925E+06        -0.51423E+08         0.00000E+00
    0.00000E+00         0.00000E+00        -0.31707E+08
 
   -0.34268E+08         0.96617E+06         0.00000E+00
    0.96617E+06        -0.51496E+08         0.00000E+00
    0.00000E+00         0.00000E+00        -0.31707E+08
 
   -0.34142E+08         0.11202E+07         0.00000E+00
    0.11202E+07        -0.51564E+08         0.00000E+00
    0.00000E+00         0.00000E+00        -0.31707E+08
 
   -0.34019E+08         0.12775E+07         0.00000E+00
    0.12775E+07        -0.51631E+08         0.00000E+00
    0.00000E+00         0.00000E+00        -0.31707E+08
 
   -0.33897E+08         0.14351E+07         0.00000E+00
    0.14351E+07        -0.51698E+08         0.00000E+00
    0.00000E+00         0.00000E+00        -0.31707E+08
 
   -0.33772E+08         0.15947E+07         0.00000E+00
    0.15947E+07        -0.51776E+08         0.00000E+00
    0.00000E+00         0.00000E+00        -0.31707E+08
 
   -0.33652E+08         0.17591E+07         0.00000E+00
    0.17591E+07        -0.51879E+08         0.00000E+00
    0.00000E+00         0.00000E+00        -0.31726E+08
 
   -0.33556E+08         0.19275E+07         0.00000E+00
    0.19275E+07        -0.51972E+08         0.00000E+00
    0.00000E+00         0.00000E+00        -0.31787E+08
 
   -0.33463E+08         0.21033E+07         0.00000E+00
    0.21033E+07        -0.52061E+08         0.00000E+00
    0.00000E+00         0.00000E+00        -0.31868E+08
 
   -0.33406E+08         0.22796E+07         0.00000E+00
    0.22796E+07        -0.52128E+08         0.00000E+00
    0.00000E+00         0.00000E+00        -0.32005E+08
 
   -0.33384E+08         0.24527E+07         0.00000E+00
    0.24527E+07        -0.52190E+08         0.00000E+00
    0.00000E+00         0.00000E+00        -0.32191E+08
 
   -0.33374E+08         0.26227E+07         0.00000E+00
    0.26227E+07        -0.52268E+08         0.00000E+00
    0.00000E+00         0.00000E+00        -0.32391E+08
 
   -0.33378E+08         0.27840E+07         0.00000E+00
    0.27840E+07        -0.52354E+08         0.00000E+00
    0.00000E+00         0.00000E+00        -0.32592E+08
 
   -0.33400E+08         0.29392E+07         0.00000E+00
    0.29392E+07        -0.52446E+08         0.00000E+00
    0.00000E+00         0.00000E+00        -0.32790E+08
 
   -0.33438E+08         0.30936E+07         0.00000E+00
    0.30936E+07        -0.52540E+08         0.00000E+00
    0.00000E+00         0.00000E+00        -0.32976E+08
 
   -0.33491E+08         0.32485E+07         0.00000E+00
    0.32485E+07        -0.52629E+08         0.00000E+00
    0.00000E+00         0.00000E+00        -0.33152E+08
 
   -0.33558E+08         0.34063E+07         0.00000E+00
    0.34063E+07        -0.52716E+08         0.00000E+00
    0.00000E+00         0.00000E+00        -0.33320E+08
 
   -0.33635E+08         0.35676E+07         0.00000E+00
    0.35676E+07        -0.52798E+08         0.00000E+00
    0.00000E+00         0.00000E+00        -0.33480E+08
 
   -0.33725E+08         0.37294E+07         0.00000E+00
    0.37294E+07        -0.52877E+08         0.00000E+00
    0.00000E+00         0.00000E+00        -0.33633E+08
 
   -0.33826E+08         0.38917E+07         0.00000E+00
    0.38917E+07        -0.52955E+08         0.00000E+00
    0.00000E+00         0.00000E+00        -0.33778E+08
 
   -0.33937E+08         0.40526E+07         0.00000E+00
    0.40526E+07        -0.53030E+08         0.00000E+00
    0.00000E+00         0.00000E+00        -0.33917E+08
 
   -0.34055E+08         0.42146E+07         0.00000E+00
    0.42146E+07        -0.53102E+08         0.00000E+00
    0.00000E+00         0.00000E+00        -0.34050E+08
 
   -0.37468E+08        -0.79481E+05         0.00000E+00
   -0.79481E+05        -0.50002E+08         0.00000E+00
    0.00000E+00         0.00000E+00        -0.30269E+08
 
   -0.37428E+08        -0.20242E+06         0.00000E+00
   -0.20242E+06        -0.50008E+08         0.00000E+00
    0.00000E+00         0.00000E+00        -0.30269E+08
 
   -0.37374E+08        -0.31271E+06         0.00000E+00
   -0.31271E+06        -0.50021E+08         0.00000E+00
    0.00000E+00         0.00000E+00        -0.30269E+08
 
   -0.37309E+08        -0.41042E+06         0.00000E+00
   -0.41042E+06        -0.50038E+08         0.00000E+00
    0.00000E+00         0.00000E+00        -0.30269E+08
 
   -0.37231E+08        -0.49578E+06         0.00000E+00
   -0.49578E+06        -0.50060E+08         0.00000E+00
    0.00000E+00         0.00000E+00        -0.30269E+08
 
   -0.37143E+08        -0.56906E+06         0.00000E+00
   -0.56906E+06        -0.50086E+08         0.00000E+00
    0.00000E+00         0.00000E+00        -0.30269E+08
 
   -0.37046E+08        -0.63051E+06         0.00000E+00
   -0.63051E+06        -0.50117E+08         0.00000E+00
    0.00000E+00         0.00000E+00        -0.30269E+08
 
   -0.36940E+08        -0.68040E+06         0.00000E+00
   -0.68040E+06        -0.50150E+08         0.00000E+00
    0.00000E+00         0.00000E+00        -0.30269E+08
 
   -0.36825E+08        -0.71898E+06         0.00000E+00
   -0.71898E+06        -0.50187E+08         0.00000E+00
    0.00000E+00         0.00000E+00        -0.30269E+08
 
   -0.36703E+08        -0.74654E+06         0.00000E+00
   -0.74654E+06        -0.50227E+08         0.00000E+00
    0.00000E+00         0.00000E+00        -0.30269E+08
 
   -0.36574E+08        -0.76334E+06         0.00000E+00
   -0.76334E+06        -0.50270E+08         0.00000E+00
    0.00000E+00         0.00000E+00        -0.30269E+08
 
   -0.36439E+08        -0.76966E+06         0.00000E+00
   -0.76966E+06        -0.50314E+08         0.00000E+00
    0.00000E+00         0.00000E+00        -0.30269E+08
 
   -0.36299E+08        -0.76579E+06         0.00000E+00
   -0.76579E+06        -0.50361E+08         0.00000E+00
    0.00000E+00         0.00000E+00        -0.30269E+08
 
   -0.36154E+08        -0.75199E+06         0.00000E+00
   -0.75199E+06        -0.50409E+08         0.00000E+00
    0.00000E+00         0.00000E+00        -0.30269E+08
 
   -0.36005E+08        -0.72854E+06         0.00000E+00
   -0.72854E+06        -0.50460E+08         0.00000E+00
    0.00000E+00         0.00000E+00        -0.30269E+08
 
   -0.35851E+08        -0.69568E+06         0.00000E+00
   -0.69568E+06        -0.50511E+08         0.00000E+00
    0.00000E+00         0.00000E+00        -0.30269E+08
 
   -0.35695E+08        -0.65365E+06         0.00000E+00
   -0.65365E+06        -0.50564E+08         0.00000E+00
    0.00000E+00         0.00000E+00        -0.30269E+08
 
   -0.35535E+08        -0.60273E+06         0.00000E+00
   -0.60273E+06        -0.50618E+08         0.00000E+00
    0.00000E+00         0.00000E+00        -0.30269E+08
 
   -0.35374E+08        -0.54320E+06         0.00000E+00
   -0.54320E+06        -0.50673E+08         0.00000E+00
    0.00000E+00         0.00000E+00        -0.30269E+08
 
   -0.35210E+08        -0.47539E+06         0.00000E+00
   -0.47539E+06        -0.50729E+08         0.00000E+00
    0.00000E+00         0.00000E+00        -0.30269E+08
 
   -0.35045E+08        -0.39980E+06         0.00000E+00
   -0.39980E+06        -0.50786E+08         0.00000E+00
    0.00000E+00         0.00000E+00        -0.30269E+08
 
   -0.34878E+08        -0.31659E+06         0.00000E+00
   -0.31659E+06        -0.50843E+08         0.00000E+00
    0.00000E+00         0.00000E+00        -0.30269E+08
 
   -0.34710E+08        -0.22553E+06         0.00000E+00
   -0.22553E+06        -0.50902E+08         0.00000E+00
    0.00000E+00         0.00000E+00        -0.30269E+08
 
   -0.34541E+08        -0.12668E+06         0.00000E+00
   -0.12668E+06        -0.50961E+08         0.00000E+00
    0.00000E+00         0.00000E+00        -0.30269E+08
 
   -0.34371E+08        -0.19883E+05         0.00000E+00
   -0.19883E+05        -0.51022E+08         0.00000E+00
    0.00000E+00         0.00000E+00        -0.30269E+08
 
   -0.34202E+08         0.95518E+05         0.00000E+00
    0.95518E+05        -0.51085E+08         0.00000E+00
    0.00000E+00         0.00000E+00        -0.30269E+08
 
   -0.34035E+08         0.21887E+06         0.00000E+00
    0.21887E+06        -0.51145E+08         0.00000E+00
    0.00000E+00         0.00000E+00        -0.30269E+08
 
   -0.33871E+08         0.34675E+06         0.00000E+00
    0.34675E+06        -0.51203E+08         0.00000E+00
    0.00000E+00         0.00000E+00        -0.30269E+08
 
   -0.33705E+08         0.47749E+06         0.00000E+00
    0.47749E+06        -0.51262E+08         0.00000E+00
    0.00000E+00         0.00000E+00        -0.30269E+08
 
   -0.33536E+08         0.61171E+06         0.00000E+00
    0.61171E+06        -0.51323E+08         0.00000E+00
    0.00000E+00         0.00000E+00        -0.30269E+08
 
   -0.33367E+08         0.75196E+06         0.00000E+00
    0.75196E+06        -0.51407E+08         0.00000E+00
    0.00000E+00         0.00000E+00        -0.30282E+08
 
   -0.33216E+08         0.89966E+06         0.00000E+00
    0.89966E+06        -0.51487E+08         0.00000E+00
    0.00000E+00         0.00000E+00        -0.30335E+08
 
   -0.33068E+08         0.10577E+07         0.00000E+00
    0.10577E+07        -0.51562E+08         0.00000E+00
    0.00000E+00         0.00000E+00        -0.30410E+08
 
   -0.32928E+08         0.12242E+07         0.00000E+00
    0.12242E+07        -0.51628E+08         0.00000E+00
    0.00000E+00         0.00000E+00        -0.30513E+08
 
   -0.32832E+08         0.13919E+07         0.00000E+00
    0.13919E+07        -0.51677E+08         0.00000E+00
    0.00000E+00         0.00000E+00        -0.30689E+08
 
   -0.32748E+08         0.15595E+07         0.00000E+00
    0.15595E+07        -0.51741E+08         0.00000E+00
    0.00000E+00         0.00000E+00        -0.30882E+08
 
   -0.32677E+08         0.17219E+07         0.00000E+00
    0.17219E+07        -0.51815E+08         0.00000E+00
    0.00000E+00         0.00000E+00        -0.31084E+08
 
   -0.32624E+08         0.18783E+07         0.00000E+00
    0.18783E+07        -0.51895E+08         0.00000E+00
    0.00000E+00         0.00000E+00        -0.31285E+08
 
   -0.32593E+08         0.20338E+07         0.00000E+00
    0.20338E+07        -0.51980E+08         0.00000E+00
    0.00000E+00         0.00000E+00        -0.31483E+08
 
   -0.32577E+08         0.21908E+07         0.00000E+00
    0.21908E+07        -0.52064E+08         0.00000E+00
    0.00000E+00         0.00000E+00        -0.31671E+08
 
   -0.32580E+08         0.23502E+07         0.00000E+00
    0.23502E+07        -0.52148E+08         0.00000E+00
    0.00000E+00         0.00000E+00        -0.31853E+08
 
   -0.32597E+08         0.25133E+07         0.00000E+00
    0.25133E+07        -0.52229E+08         0.00000E+00
    0.00000E+00         0.00000E+00        -0.32027E+08
 
   -0.32628E+08         0.26792E+07         0.00000E+00
    0.26792E+07        -0.52308E+08         0.00000E+00
    0.00000E+00         0.00000E+00        -0.32195E+08
 
   -0.32673E+08         0.28474E+07         0.00000E+00
    0.28474E+07        -0.52385E+08         0.00000E+00
    0.00000E+00         0.00000E+00        -0.32355E+08
 
   -0.32732E+08         0.30161E+07         0.00000E+00
    0.30161E+07        -0.52461E+08         0.00000E+00
    0.00000E+00         0.00000E+00        -0.32507E+08
 
   -0.32804E+08         0.31855E+07         0.00000E+00
    0.31855E+07        -0.52536E+08         0.00000E+00
    0.00000E+00         0.00000E+00        -0.32654E+08
 
   -0.32884E+08         0.33595E+07         0.00000E+00
    0.33595E+07        -0.52607E+08         0.00000E+00
    0.00000E+00         0.00000E+00        -0.32795E+08
 
   -0.32975E+08         0.35379E+07         0.00000E+00
    0.35379E+07        -0.52673E+08         0.00000E+00
    0.00000E+00         0.00000E+00        -0.32933E+08
 
   -0.33078E+08         0.37166E+07         0.00000E+00
    0.37166E+07        -0.52738E+08         0.00000E+00
    0.00000E+00         0.00000E+00        -0.33064E+08
 
   -0.33193E+08         0.38961E+07         0.00000E+00
    0.38961E+07        -0.52802E+08         0.00000E+00
    0.00000E+00         0.00000E+00        -0.33191E+08
 
   -0.38190E+08        -0.96822E+05         0.00000E+00
   -0.96822E+05        -0.50002E+08         0.00000E+00
    0.00000E+00         0.00000E+00        -0.28781E+08
 
   -0.38079E+08        -0.24812E+06         0.00000E+00
   -0.24812E+06        -0.50008E+08         0.00000E+00
    0.00000E+00         0.00000E+00        -0.28781E+08
 
   -0.37956E+08        -0.38377E+06         0.00000E+00
   -0.38377E+06        -0.50019E+08         0.00000E+00
    0.00000E+00         0.00000E+00        -0.28781E+08
 
   -0.37823E+08        -0.50467E+06         0.00000E+00
   -0.50467E+06        -0.50034E+08         0.00000E+00
    0.00000E+00         0.00000E+00        -0.28781E+08
 
   -0.37680E+08        -0.61119E+06         0.00000E+00
   -0.61119E+06        -0.50054E+08         0.00000E+00
    0.00000E+00         0.00000E+00        -0.28781E+08
 
   -0.37527E+08        -0.70363E+06         0.00000E+00
   -0.70363E+06        -0.50077E+08         0.00000E+00
    0.00000E+00         0.00000E+00        -0.28781E+08
 
   -0.37366E+08        -0.78224E+06         0.00000E+00
   -0.78224E+06        -0.50104E+08         0.00000E+00
    0.00000E+00         0.00000E+00        -0.28781E+08
 
   -0.37198E+08        -0.84736E+06         0.00000E+00
   -0.84736E+06        -0.50134E+08         0.00000E+00
    0.00000E+00         0.00000E+00        -0.28781E+08
 
   -0.37023E+08        -0.89931E+06         0.00000E+00
   -0.89931E+06        -0.50166E+08         0.00000E+00
    0.00000E+00         0.00000E+00        -0.28781E+08
 
   -0.36843E+08        -0.93850E+06         0.00000E+00
   -0.93850E+06        -0.50201E+08         0.00000E+00
    0.00000E+00         0.00000E+00        -0.28781E+08
 
   -0.36657E+08        -0.96537E+06         0.00000E+00
   -0.96537E+06        -0.50237E+08         0.00000E+00
    0.00000E+00         0.00000E+00        -0.28781E+08
 
   -0.36467E+08        -0.98038E+06         0.00000E+00
   -0.98038E+06        -0.50274E+08         0.00000E+00
    0.00000E+00         0.00000E+00        -0.28781E+08
 
   -0.36274E+08        -0.98405E+06         0.00000E+00
   -0.98405E+06        -0.50313E+08         0.00000E+00
    0.00000E+00         0.00000E+00        -0.28781E+08
 
   -0.36078E+08        -0.97678E+06         0.00000E+00
   -0.97678E+06        -0.50352E+08         0.00000E+00
    0.00000E+00         0.00000E+00        -0.28781E+08
 
   -0.35879E+08        -0.95904E+06         0.00000E+00
   -0.95904E+06        -0.50392E+08         0.00000E+00
    0.00000E+00         0.00000E+00        -0.28781E+08
 
   -0.35678E+08        -0.93138E+06         0.00000E+00
   -0.93138E+06        -0.50432E+08         0.00000E+00
    0.00000E+00         0.00000E+00        -0.28781E+08
 
   -0.35475E+08        -0.89418E+06         0.00000E+00
   -0.89418E+06        -0.50474E+08         0.00000E+00
    0.00000E+00         0.00000E+00        -0.28781E+08
 
   -0.35271E+08        -0.84771E+06         0.00000E+00
   -0.84771E+06        -0.50516E+08         0.00000E+00
    0.00000E+00         0.00000E+00        -0.28781E+08
 
   -0.35065E+08        -0.79210E+06         0.00000E+00
   -0.79210E+06        -0.50558E+08         0.00000E+00
    0.00000E+00         0.00000E+00        -0.28781E+08
 
   -0.34859E+08        -0.72729E+06         0.00000E+00
   -0.72729E+06        -0.50602E+08         0.00000E+00
    0.00000E+00         0.00000E+00        -0.28781E+08
 
   -0.34653E+08        -0.65309E+06         0.00000E+00
   -0.65309E+06        -0.50647E+08         0.00000E+00
    0.00000E+00         0.00000E+00        -0.28781E+08
 
   -0.34449E+08        -0.57056E+06         0.00000E+00
   -0.57056E+06        -0.50690E+08         0.00000E+00
    0.00000E+00         0.00000E+00        -0.28781E+08
 
   -0.34245E+08        -0.48225E+06         0.00000E+00
   -0.48225E+06        -0.50732E+08         0.00000E+00
    0.00000E+00         0.00000E+00        -0.28781E+08
 
   -0.34041E+08        -0.38871E+06         0.00000E+00
   -0.38871E+06        -0.50775E+08         0.00000E+00
    0.00000E+00         0.00000E+00        -0.28781E+08
 
   -0.33835E+08        -0.28976E+06         0.00000E+00
   -0.28976E+06        -0.50817E+08         0.00000E+00
    0.00000E+00         0.00000E+00        -0.28781E+08
 
   -0.33624E+08        -0.18532E+06         0.00000E+00
   -0.18532E+06        -0.50859E+08         0.00000E+00
    0.00000E+00         0.00000E+00        -0.28781E+08
 
   -0.33416E+08        -0.74216E+05         0.00000E+00
   -0.74216E+05        -0.50915E+08         0.00000E+00
    0.00000E+00         0.00000E+00        -0.28798E+08
 
   -0.33219E+08         0.46318E+05         0.00000E+00
    0.46318E+05        -0.50968E+08         0.00000E+00
    0.00000E+00         0.00000E+00        -0.28849E+08
 
   -0.33019E+08         0.17803E+06         0.00000E+00
    0.17803E+06        -0.51019E+08         0.00000E+00
    0.00000E+00         0.00000E+00        -0.28911E+08
 
   -0.32812E+08         0.32049E+06         0.00000E+00
    0.32049E+06        -0.51068E+08         0.00000E+00
    0.00000E+00         0.00000E+00        -0.28982E+08
 
   -0.32639E+08         0.46858E+06         0.00000E+00
    0.46858E+06        -0.51100E+08         0.00000E+00
    0.00000E+00         0.00000E+00        -0.29124E+08
 
   -0.32480E+08         0.61850E+06         0.00000E+00
    0.61850E+06        -0.51143E+08         0.00000E+00
    0.00000E+00         0.00000E+00        -0.29295E+08
 
   -0.32331E+08         0.76608E+06         0.00000E+00
    0.76608E+06        -0.51196E+08         0.00000E+00
    0.00000E+00         0.00000E+00        -0.29480E+08
 
   -0.32198E+08         0.90842E+06         0.00000E+00
    0.90842E+06        -0.51256E+08         0.00000E+00
    0.00000E+00         0.00000E+00        -0.29669E+08
 
   -0.32084E+08         0.10495E+07         0.00000E+00
    0.10495E+07        -0.51322E+08         0.00000E+00
    0.00000E+00         0.00000E+00        -0.29861E+08
 
   -0.31987E+08         0.11926E+07         0.00000E+00
    0.11926E+07        -0.51392E+08         0.00000E+00
    0.00000E+00         0.00000E+00        -0.30049E+08
 
   -0.31910E+08         0.13393E+07         0.00000E+00
    0.13393E+07        -0.51463E+08         0.00000E+00
    0.00000E+00         0.00000E+00        -0.30236E+08
 
   -0.31849E+08         0.14899E+07         0.00000E+00
    0.14899E+07        -0.51536E+08         0.00000E+00
    0.00000E+00         0.00000E+00        -0.30418E+08
 
   -0.31804E+08         0.16445E+07         0.00000E+00
    0.16445E+07        -0.51610E+08         0.00000E+00
    0.00000E+00         0.00000E+00        -0.30598E+08
 
   -0.31774E+08         0.18035E+07         0.00000E+00
    0.18035E+07        -0.51683E+08         0.00000E+00
    0.00000E+00         0.00000E+00        -0.30773E+08
 
   -0.31760E+08         0.19668E+07         0.00000E+00
    0.19668E+07        -0.51757E+08         0.00000E+00
    0.00000E+00         0.00000E+00        -0.30943E+08
 
   -0.31763E+08         0.21333E+07         0.00000E+00
    0.21333E+07        -0.51831E+08         0.00000E+00
    0.00000E+00         0.00000E+00        -0.31109E+08
 
   -0.31780E+08         0.23036E+07         0.00000E+00
    0.23036E+07        -0.51906E+08         0.00000E+00
    0.00000E+00         0.00000E+00        -0.31269E+08
 
   -0.31810E+08         0.24777E+07         0.00000E+00
    0.24777E+07        -0.51979E+08         0.00000E+00
    0.00000E+00         0.00000E+00        -0.31425E+08
 
   -0.31853E+08         0.26583E+07         0.00000E+00
    0.26583E+07        -0.52049E+08         0.00000E+00
    0.00000E+00         0.00000E+00        -0.31576E+08
 
   -0.31910E+08         0.28411E+07         0.00000E+00
    0.28411E+07        -0.52118E+08         0.00000E+00
    0.00000E+00         0.00000E+00        -0.31721E+08
 
   -0.31982E+08         0.30245E+07         0.00000E+00
    0.30245E+07        -0.52187E+08         0.00000E+00
    0.00000E+00         0.00000E+00        -0.31860E+08
 
   -0.32067E+08         0.32075E+07         0.00000E+00
    0.32075E+07        -0.52256E+08         0.00000E+00
    0.00000E+00         0.00000E+00        -0.31993E+08
 
   -0.32162E+08         0.33947E+07         0.00000E+00
    0.33947E+07        -0.52322E+08         0.00000E+00
    0.00000E+00         0.00000E+00        -0.32124E+08
 
   -0.32265E+08         0.35844E+07         0.00000E+00
    0.35844E+07        -0.52385E+08         0.00000E+00
    0.00000E+00         0.00000E+00        -0.32253E+08
 
   -0.39048E+08        -0.11295E+06         0.00000E+00
   -0.11295E+06        -0.50003E+08         0.00000E+00
    0.00000E+00         0.00000E+00        -0.27248E+08
 
   -0.38855E+08        -0.28669E+06         0.00000E+00
   -0.28669E+06        -0.50006E+08         0.00000E+00
    0.00000E+00         0.00000E+00        -0.27248E+08
 
   -0.38653E+08        -0.44509E+06         0.00000E+00
   -0.44509E+06        -0.50015E+08         0.00000E+00
    0.00000E+00         0.00000E+00        -0.27248E+08
 
   -0.38442E+08        -0.58681E+06         0.00000E+00
   -0.58681E+06        -0.50028E+08         0.00000E+00
    0.00000E+00         0.00000E+00        -0.27248E+08
 
   -0.38221E+08        -0.71176E+06         0.00000E+00
   -0.71176E+06        -0.50045E+08         0.00000E+00
    0.00000E+00         0.00000E+00        -0.27248E+08
 
   -0.37993E+08        -0.82015E+06         0.00000E+00
   -0.82015E+06        -0.50065E+08         0.00000E+00
    0.00000E+00         0.00000E+00        -0.27248E+08
 
   -0.37758E+08        -0.91239E+06         0.00000E+00
   -0.91239E+06        -0.50087E+08         0.00000E+00
    0.00000E+00         0.00000E+00        -0.27248E+08
 
   -0.37518E+08        -0.98887E+06         0.00000E+00
   -0.98887E+06        -0.50112E+08         0.00000E+00
    0.00000E+00         0.00000E+00        -0.27248E+08
 
   -0.37273E+08        -0.10500E+07         0.00000E+00
   -0.10500E+07        -0.50138E+08         0.00000E+00
    0.00000E+00         0.00000E+00        -0.27248E+08
 
   -0.37025E+08        -0.10961E+07         0.00000E+00
   -0.10961E+07        -0.50165E+08         0.00000E+00
    0.00000E+00         0.00000E+00        -0.27248E+08
 
   -0.36774E+08        -0.11278E+07         0.00000E+00
   -0.11278E+07        -0.50192E+08         0.00000E+00
    0.00000E+00         0.00000E+00        -0.27248E+08
 
   -0.36522E+08        -0.11455E+07         0.00000E+00
   -0.11455E+07        -0.50220E+08         0.00000E+00
    0.00000E+00         0.00000E+00        -0.27248E+08
 
   -0.36270E+08        -0.11501E+07         0.00000E+00
   -0.11501E+07        -0.50247E+08         0.00000E+00
    0.00000E+00         0.00000E+00        -0.27248E+08
 
   -0.36018E+08        -0.11429E+07         0.00000E+00
   -0.11429E+07        -0.50274E+08         0.00000E+00
    0.00000E+00         0.00000E+00        -0.27248E+08
 
   -0.35767E+08        -0.11251E+07         0.00000E+00
   -0.11251E+07        -0.50300E+08         0.00000E+00
    0.00000E+00         0.00000E+00        -0.27248E+08
 
   -0.35517E+08        -0.10973E+07         0.00000E+00
   -0.10973E+07        -0.50325E+08         0.00000E+00
    0.00000E+00         0.00000E+00        -0.27248E+08
 
   -0.35267E+08        -0.10598E+07         0.00000E+00
   -0.10598E+07        -0.50350E+08         0.00000E+00
    0.00000E+00         0.00000E+00        -0.27248E+08
 
   -0.35018E+08        -0.10134E+07         0.00000E+00
   -0.10134E+07        -0.50373E+08         0.00000E+00
    0.00000E+00         0.00000E+00        -0.27248E+08
 
   -0.34769E+08        -0.95884E+06         0.00000E+00
   -0.95884E+06        -0.50394E+08         0.00000E+00
    0.00000E+00         0.00000E+00        -0.27248E+08
 
   -0.34520E+08        -0.89678E+06         0.00000E+00
   -0.89678E+06        -0.50414E+08         0.00000E+00
    0.00000E+00         0.00000E+00        -0.27248E+08
 
   -0.34270E+08        -0.82779E+06         0.00000E+00
   -0.82779E+06        -0.50433E+08         0.00000E+00
    0.00000E+00         0.00000E+00        -0.27249E+08
 
   -0.34027E+08        -0.75098E+06         0.00000E+00
   -0.75098E+06        -0.50456E+08         0.00000E+00
    0.00000E+00         0.00000E+00        -0.27272E+08
 
   -0.33788E+08        -0.66426E+06         0.00000E+00
   -0.66426E+06        -0.50476E+08         0.00000E+00
    0.00000E+00         0.00000E+00        -0.27313E+08
 
   -0.33545E+08        -0.56755E+06         0.00000E+00
   -0.56755E+06        -0.50495E+08         0.00000E+00
    0.00000E+00         0.00000E+00        -0.27356E+08
 
   -0.33300E+08        -0.46125E+06         0.00000E+00
   -0.46125E+06        -0.50513E+08         0.00000E+00
    0.00000E+00         0.00000E+00        -0.27401E+08
 
   -0.33050E+08        -0.34579E+06         0.00000E+00
   -0.34579E+06        -0.50531E+08         0.00000E+00
    0.00000E+00         0.00000E+00        -0.27453E+08
 
   -0.32821E+08        -0.22410E+06         0.00000E+00
   -0.22410E+06        -0.50540E+08         0.00000E+00
    0.00000E+00         0.00000E+00        -0.27562E+08
 
   -0.32602E+08        -0.10047E+06         0.00000E+00
   -0.10047E+06        -0.50557E+08         0.00000E+00
    0.00000E+00         0.00000E+00        -0.27698E+08
 
   -0.32388E+08         0.22144E+05         0.00000E+00
    0.22144E+05        -0.50580E+08         0.00000E+00
    0.00000E+00         0.00000E+00        -0.27844E+08
 
   -0.32185E+08         0.14085E+06         0.00000E+00
    0.14085E+06        -0.50609E+08         0.00000E+00
    0.00000E+00         0.00000E+00        -0.27999E+08
 
   -0.31998E+08         0.25687E+06         0.00000E+00
    0.25687E+06        -0.50646E+08         0.00000E+00
    0.00000E+00         0.00000E+00        -0.28162E+08
 
   -0.31826E+08         0.37402E+06         0.00000E+00
    0.37402E+06        -0.50687E+08         0.00000E+00
    0.00000E+00         0.00000E+00        -0.28326E+08
 
   -0.31669E+08         0.49371E+06         0.00000E+00
    0.49371E+06        -0.50733E+08         0.00000E+00
    0.00000E+00         0.00000E+00        -0.28493E+08
 
   -0.31528E+08         0.61699E+06         0.00000E+00
    0.61699E+06        -0.50783E+08         0.00000E+00
    0.00000E+00         0.00000E+00        -0.28663E+08
 
   -0.31401E+08         0.74373E+06         0.00000E+00
    0.74373E+06        -0.50836E+08         0.00000E+00
    0.00000E+00         0.00000E+00        -0.28833E+08
 
   -0.31288E+08         0.87438E+06         0.00000E+00
    0.87438E+06        -0.50892E+08         0.00000E+00
    0.00000E+00         0.00000E+00        -0.29005E+08
 
   -0.31189E+08         0.10096E+07         0.00000E+00
    0.10096E+07        -0.50951E+08         0.00000E+00
    0.00000E+00         0.00000E+00        -0.29178E+08
 
   -0.31105E+08         0.11503E+07         0.00000E+00
    0.11503E+07        -0.51013E+08         0.00000E+00
    0.00000E+00         0.00000E+00        -0.29350E+08
 
   -0.31036E+08         0.12968E+07         0.00000E+00
    0.12968E+07        -0.51078E+08         0.00000E+00
    0.00000E+00         0.00000E+00        -0.29522E+08
 
   -0.30982E+08         0.14489E+07         0.00000E+00
    0.14489E+07        -0.51146E+08         0.00000E+00
    0.00000E+00         0.00000E+00        -0.29694E+08
 
   -0.30943E+08         0.16070E+07         0.00000E+00
    0.16070E+07        -0.51216E+08         0.00000E+00
    0.00000E+00         0.00000E+00        -0.29864E+08
 
   -0.30918E+08         0.17717E+07         0.00000E+00
    0.17717E+07        -0.51288E+08         0.00000E+00
    0.00000E+00         0.00000E+00        -0.30033E+08
 
   -0.30909E+08         0.19429E+07         0.00000E+00
    0.19429E+07        -0.51360E+08         0.00000E+00
    0.00000E+00         0.00000E+00        -0.30199E+08
 
   -0.30917E+08         0.21203E+07         0.00000E+00
    0.21203E+07        -0.51433E+08         0.00000E+00
    0.00000E+00         0.00000E+00        -0.30361E+08
 
   -0.30943E+08         0.23001E+07         0.00000E+00
    0.23001E+07        -0.51509E+08         0.00000E+00
    0.00000E+00         0.00000E+00        -0.30518E+08
 
   -0.30984E+08         0.24863E+07         0.00000E+00
    0.24863E+07        -0.51584E+08         0.00000E+00
    0.00000E+00         0.00000E+00        -0.30672E+08
 
   -0.31039E+08         0.26783E+07         0.00000E+00
    0.26783E+07        -0.51657E+08         0.00000E+00
    0.00000E+00         0.00000E+00        -0.30821E+08
 
   -0.31105E+08         0.28758E+07         0.00000E+00
    0.28758E+07        -0.51728E+08         0.00000E+00
    0.00000E+00         0.00000E+00        -0.30968E+08
 
   -0.31183E+08         0.30762E+07         0.00000E+00
    0.30762E+07        -0.51796E+08         0.00000E+00
    0.00000E+00         0.00000E+00        -0.31111E+08
 
   -0.31271E+08         0.32858E+07         0.00000E+00
    0.32858E+07        -0.51857E+08         0.00000E+00
    0.00000E+00         0.00000E+00        -0.31250E+08
 
   -0.40026E+08        -0.11937E+06         0.00000E+00
   -0.11937E+06        -0.49995E+08         0.00000E+00
    0.00000E+00         0.00000E+00        -0.25678E+08
 
   -0.39746E+08        -0.32373E+06         0.00000E+00
   -0.32373E+06        -0.50006E+08         0.00000E+00
    0.00000E+00         0.00000E+00        -0.25678E+08
 
   -0.39451E+08        -0.50371E+06         0.00000E+00
   -0.50371E+06        -0.50018E+08         0.00000E+00
    0.00000E+00         0.00000E+00        -0.25678E+08
 
   -0.39146E+08        -0.66233E+06         0.00000E+00
   -0.66233E+06        -0.50032E+08         0.00000E+00
    0.00000E+00         0.00000E+00        -0.25678E+08
 
   -0.38834E+08        -0.80025E+06         0.00000E+00
   -0.80025E+06        -0.50049E+08         0.00000E+00
    0.00000E+00         0.00000E+00        -0.25678E+08
 
   -0.38515E+08        -0.91782E+06         0.00000E+00
   -0.91782E+06        -0.50066E+08         0.00000E+00
    0.00000E+00         0.00000E+00        -0.25678E+08
 
   -0.38192E+08        -0.10153E+07         0.00000E+00
   -0.10153E+07        -0.50084E+08         0.00000E+00
    0.00000E+00         0.00000E+00        -0.25678E+08
 
   -0.37866E+08        -0.10935E+07         0.00000E+00
   -0.10935E+07        -0.50100E+08         0.00000E+00
    0.00000E+00         0.00000E+00        -0.25678E+08
 
   -0.37540E+08        -0.11536E+07         0.00000E+00
   -0.11536E+07        -0.50115E+08         0.00000E+00
    0.00000E+00         0.00000E+00        -0.25678E+08
 
   -0.37215E+08        -0.11971E+07         0.00000E+00
   -0.11971E+07        -0.50126E+08         0.00000E+00
    0.00000E+00         0.00000E+00        -0.25678E+08
 
   -0.36892E+08        -0.12254E+07         0.00000E+00
   -0.12254E+07        -0.50135E+08         0.00000E+00
    0.00000E+00         0.00000E+00        -0.25678E+08
 
   -0.36572E+08        -0.12398E+07         0.00000E+00
   -0.12398E+07        -0.50143E+08         0.00000E+00
    0.00000E+00         0.00000E+00        -0.25678E+08
 
   -0.36254E+08        -0.12412E+07         0.00000E+00
   -0.12412E+07        -0.50150E+08         0.00000E+00
    0.00000E+00         0.00000E+00        -0.25681E+08
 
   -0.35944E+08        -0.12286E+07         0.00000E+00
   -0.12286E+07        -0.50149E+08         0.00000E+00
    0.00000E+00         0.00000E+00        -0.25707E+08
 
   -0.35638E+08        -0.12031E+07         0.00000E+00
   -0.12031E+07        -0.50145E+08         0.00000E+00
    0.00000E+00         0.00000E+00        -0.25733E+08
 
   -0.35335E+08        -0.11660E+07         0.00000E+00
   -0.11660E+07        -0.50138E+08         0.00000E+00
    0.00000E+00         0.00000E+00        -0.25759E+08
 
   -0.35036E+08        -0.11182E+07         0.00000E+00
   -0.11182E+07        -0.50129E+08         0.00000E+00
    0.00000E+00         0.00000E+00        -0.25784E+08
 
   -0.34740E+08        -0.10606E+07         0.00000E+00
   -0.10606E+07        -0.50118E+08         0.00000E+00
    0.00000E+00         0.00000E+00        -0.25810E+08
 
   -0.34448E+08        -0.99365E+06         0.00000E+00
   -0.99365E+06        -0.50105E+08         0.00000E+00
    0.00000E+00         0.00000E+00        -0.25836E+08
 
   -0.34157E+08        -0.91789E+06         0.00000E+00
   -0.91789E+06        -0.50091E+08         0.00000E+00
    0.00000E+00         0.00000E+00        -0.25864E+08
 
   -0.33868E+08        -0.83373E+06         0.00000E+00
   -0.83373E+06        -0.50075E+08         0.00000E+00
    0.00000E+00         0.00000E+00        -0.25900E+08
 
   -0.33592E+08        -0.74357E+06         0.00000E+00
   -0.74357E+06        -0.50057E+08         0.00000E+00
    0.00000E+00         0.00000E+00        -0.25974E+08
 
   -0.33322E+08        -0.65032E+06         0.00000E+00
   -0.65032E+06        -0.50043E+08         0.00000E+00
    0.00000E+00         0.00000E+00        -0.26062E+08
 
   -0.33055E+08        -0.55528E+06         0.00000E+00
   -0.55528E+06        -0.50031E+08         0.00000E+00
    0.00000E+00         0.00000E+00        -0.26157E+08
 
   -0.32794E+08        -0.46008E+06         0.00000E+00
   -0.46008E+06        -0.50023E+08         0.00000E+00
    0.00000E+00         0.00000E+00        -0.26259E+08
 
   -0.32542E+08        -0.36699E+06         0.00000E+00
   -0.36699E+06        -0.50019E+08         0.00000E+00
    0.00000E+00         0.00000E+00        -0.26369E+08
 
   -0.32302E+08        -0.27585E+06         0.00000E+00
   -0.27585E+06        -0.50022E+08         0.00000E+00
    0.00000E+00         0.00000E+00        -0.26486E+08
 
   -0.32074E+08        -0.18406E+06         0.00000E+00
   -0.18406E+06        -0.50029E+08         0.00000E+00
    0.00000E+00         0.00000E+00        -0.26608E+08
 
   -0.31858E+08        -0.91249E+05         0.00000E+00
   -0.91249E+05        -0.50042E+08         0.00000E+00
    0.00000E+00         0.00000E+00        -0.26736E+08
 
   -0.31655E+08         0.27019E+04         0.00000E+00
    0.27019E+04        -0.50059E+08         0.00000E+00
    0.00000E+00         0.00000E+00        -0.26869E+08
 
   -0.31463E+08         0.98153E+05         0.00000E+00
    0.98153E+05        -0.50081E+08         0.00000E+00
    0.00000E+00         0.00000E+00        -0.27006E+08
 
   -0.31282E+08         0.19515E+06         0.00000E+00
    0.19515E+06        -0.50107E+08         0.00000E+00
    0.00000E+00         0.00000E+00        -0.27147E+08
 
   -0.31111E+08         0.29429E+06         0.00000E+00
    0.29429E+06        -0.50136E+08         0.00000E+00
    0.00000E+00         0.00000E+00        -0.27293E+08
 
   -0.30952E+08         0.39646E+06         0.00000E+00
    0.39646E+06        -0.50170E+08         0.00000E+00
    0.00000E+00         0.00000E+00        -0.27442E+08
 
   -0.30805E+08         0.50267E+06         0.00000E+00
    0.50267E+06        -0.50209E+08         0.00000E+00
    0.00000E+00         0.00000E+00        -0.27596E+08
 
   -0.30668E+08         0.61336E+06         0.00000E+00
    0.61336E+06        -0.50253E+08         0.00000E+00
    0.00000E+00         0.00000E+00        -0.27753E+08
 
   -0.30544E+08         0.72905E+06         0.00000E+00
    0.72905E+06        -0.50302E+08         0.00000E+00
    0.00000E+00         0.00000E+00        -0.27915E+08
 
   -0.30430E+08         0.85060E+06         0.00000E+00
    0.85060E+06        -0.50355E+08         0.00000E+00
    0.00000E+00         0.00000E+00        -0.28081E+08
 
   -0.30328E+08         0.97868E+06         0.00000E+00
    0.97868E+06        -0.50413E+08         0.00000E+00
    0.00000E+00         0.00000E+00        -0.28251E+08
 
   -0.30240E+08         0.11143E+07         0.00000E+00
    0.11143E+07        -0.50475E+08         0.00000E+00
    0.00000E+00         0.00000E+00        -0.28425E+08
 
   -0.30165E+08         0.12580E+07         0.00000E+00
    0.12580E+07        -0.50542E+08         0.00000E+00
    0.00000E+00         0.00000E+00        -0.28601E+08
 
   -0.30105E+08         0.14091E+07         0.00000E+00
    0.14091E+07        -0.50614E+08         0.00000E+00
    0.00000E+00         0.00000E+00        -0.28780E+08
 
   -0.30060E+08         0.15696E+07         0.00000E+00
    0.15696E+07        -0.50689E+08         0.00000E+00
    0.00000E+00         0.00000E+00        -0.28961E+08
 
   -0.30032E+08         0.17391E+07         0.00000E+00
    0.17391E+07        -0.50768E+08         0.00000E+00
    0.00000E+00         0.00000E+00        -0.29142E+08
 
   -0.30020E+08         0.19191E+07         0.00000E+00
    0.19191E+07        -0.50848E+08         0.00000E+00
    0.00000E+00         0.00000E+00        -0.29323E+08
 
   -0.30024E+08         0.21084E+07         0.00000E+00
    0.21084E+07        -0.50930E+08         0.00000E+00
    0.00000E+00         0.00000E+00        -0.29502E+08
 
   -0.30044E+08         0.23062E+07         0.00000E+00
    0.23062E+07        -0.51012E+08         0.00000E+00
    0.00000E+00         0.00000E+00        -0.29681E+08
 
   -0.30080E+08         0.25125E+07         0.00000E+00
    0.25125E+07        -0.51093E+08         0.00000E+00
    0.00000E+00         0.00000E+00        -0.29857E+08
 
   -0.30137E+08         0.27238E+07         0.00000E+00
    0.27238E+07        -0.51174E+08         0.00000E+00
    0.00000E+00         0.00000E+00        -0.30024E+08
 
   -0.30219E+08         0.29334E+07         0.00000E+00
    0.29334E+07        -0.51260E+08         0.00000E+00
    0.00000E+00         0.00000E+00        -0.30184E+08
 
   -0.41155E+08        -0.16840E+06         0.00000E+00
   -0.16840E+06        -0.50012E+08         0.00000E+00
    0.00000E+00         0.00000E+00        -0.24182E+08
 
   -0.40743E+08        -0.38207E+06         0.00000E+00
   -0.38207E+06        -0.50009E+08         0.00000E+00
    0.00000E+00         0.00000E+00        -0.24182E+08
 
   -0.40323E+08        -0.57456E+06         0.00000E+00
   -0.57456E+06        -0.50017E+08         0.00000E+00
    0.00000E+00         0.00000E+00        -0.24193E+08
 
   -0.39894E+08        -0.73805E+06         0.00000E+00
   -0.73805E+06        -0.50028E+08         0.00000E+00
    0.00000E+00         0.00000E+00        -0.24210E+08
 
   -0.39460E+08        -0.87183E+06         0.00000E+00
   -0.87183E+06        -0.50034E+08         0.00000E+00
    0.00000E+00         0.00000E+00        -0.24228E+08
 
   -0.39025E+08        -0.97710E+06         0.00000E+00
   -0.97710E+06        -0.50035E+08         0.00000E+00
    0.00000E+00         0.00000E+00        -0.24245E+08
 
   -0.38594E+08        -0.10572E+07         0.00000E+00
   -0.10572E+07        -0.50026E+08         0.00000E+00
    0.00000E+00         0.00000E+00        -0.24260E+08
 
   -0.38168E+08        -0.11150E+07         0.00000E+00
   -0.11150E+07        -0.50013E+08         0.00000E+00
    0.00000E+00         0.00000E+00        -0.24274E+08
 
   -0.37750E+08        -0.11528E+07         0.00000E+00
   -0.11528E+07        -0.49994E+08         0.00000E+00
    0.00000E+00         0.00000E+00        -0.24289E+08
 
   -0.37341E+08        -0.11722E+07         0.00000E+00
   -0.11722E+07        -0.49970E+08         0.00000E+00
    0.00000E+00         0.00000E+00        -0.24303E+08
 
   -0.36941E+08        -0.11751E+07         0.00000E+00
   -0.11751E+07        -0.49940E+08         0.00000E+00
    0.00000E+00         0.00000E+00        -0.24316E+08
 
   -0.36551E+08        -0.11632E+07         0.00000E+00
   -0.11632E+07        -0.49904E+08         0.00000E+00
    0.00000E+00         0.00000E+00        -0.24338E+08
 
   -0.36171E+08        -0.11386E+07         0.00000E+00
   -0.11386E+07        -0.49861E+08         0.00000E+00
    0.00000E+00         0.00000E+00        -0.24372E+08
 
   -0.35803E+08        -0.11045E+07         0.00000E+00
   -0.11045E+07        -0.49822E+08         0.00000E+00
    0.00000E+00         0.00000E+00        -0.24411E+08
 
   -0.35444E+08        -0.10619E+07         0.00000E+00
   -0.10619E+07        -0.49779E+08         0.00000E+00
    0.00000E+00         0.00000E+00        -0.24452E+08
 
   -0.35095E+08        -0.10119E+07         0.00000E+00
   -0.10119E+07        -0.49735E+08         0.00000E+00
    0.00000E+00         0.00000E+00        -0.24493E+08
 
   -0.34756E+08        -0.95558E+06         0.00000E+00
   -0.95558E+06        -0.49690E+08         0.00000E+00
    0.00000E+00         0.00000E+00        -0.24537E+08
 
   -0.34426E+08        -0.89400E+06         0.00000E+00
   -0.89400E+06        -0.49645E+08         0.00000E+00
    0.00000E+00         0.00000E+00        -0.24583E+08
 
   -0.34104E+08        -0.82843E+06         0.00000E+00
   -0.82843E+06        -0.49601E+08         0.00000E+00
    0.00000E+00         0.00000E+00        -0.24634E+08
 
   -0.33791E+08        -0.76034E+06         0.00000E+00
   -0.76034E+06        -0.49559E+08         0.00000E+00
    0.00000E+00         0.00000E+00        -0.24689E+08
 
   -0.33488E+08        -0.69159E+06         0.00000E+00
   -0.69159E+06        -0.49521E+08         0.00000E+00
    0.00000E+00         0.00000E+00        -0.24750E+08
 
   -0.33196E+08        -0.62208E+06         0.00000E+00
   -0.62208E+06        -0.49486E+08         0.00000E+00
    0.00000E+00         0.00000E+00        -0.24816E+08
 
   -0.32915E+08        -0.55103E+06         0.00000E+00
   -0.55103E+06        -0.49456E+08         0.00000E+00
    0.00000E+00         0.00000E+00        -0.24887E+08
 
   -0.32645E+08        -0.47935E+06         0.00000E+00
   -0.47935E+06        -0.49430E+08         0.00000E+00
    0.00000E+00         0.00000E+00        -0.24965E+08
 
   -0.32385E+08        -0.40799E+06         0.00000E+00
   -0.40799E+06        -0.49410E+08         0.00000E+00
    0.00000E+00         0.00000E+00        -0.25049E+08
 
   -0.32136E+08        -0.33703E+06         0.00000E+00
   -0.33703E+06        -0.49395E+08         0.00000E+00
    0.00000E+00         0.00000E+00        -0.25137E+08
 
   -0.31897E+08        -0.26633E+06         0.00000E+00
   -0.26633E+06        -0.49383E+08         0.00000E+00
    0.00000E+00         0.00000E+00        -0.25231E+08
 
   -0.31668E+08        -0.19607E+06         0.00000E+00
   -0.19607E+06        -0.49376E+08         0.00000E+00
    0.00000E+00         0.00000E+00        -0.25329E+08
 
   -0.31449E+08        -0.12587E+06         0.00000E+00
   -0.12587E+06        -0.49372E+08         0.00000E+00
    0.00000E+00         0.00000E+00        -0.25432E+08
 
   -0.31240E+08        -0.55033E+05         0.00000E+00
   -0.55033E+05        -0.49374E+08         0.00000E+00
    0.00000E+00         0.00000E+00        -0.25540E+08
 
   -0.31040E+08         0.16913E+05         0.00000E+00
    0.16913E+05        -0.49380E+08         0.00000E+00
    0.00000E+00         0.00000E+00        -0.25653E+08
 
   -0.30848E+08         0.90393E+05         0.00000E+00
    0.90393E+05        -0.49392E+08         0.00000E+00
    0.00000E+00         0.00000E+00        -0.25771E+08
 
   -0.30666E+08         0.16578E+06         0.00000E+00
    0.16578E+06        -0.49408E+08         0.00000E+00
    0.00000E+00         0.00000E+00        -0.25895E+08
 
   -0.30492E+08         0.24329E+06         0.00000E+00
    0.24329E+06        -0.49430E+08         0.00000E+00
    0.00000E+00         0.00000E+00        -0.26024E+08
 
   -0.30326E+08         0.32346E+06         0.00000E+00
    0.32346E+06        -0.49457E+08         0.00000E+00
    0.00000E+00         0.00000E+00        -0.26160E+08
 
   -0.30168E+08         0.40713E+06         0.00000E+00
    0.40713E+06        -0.49490E+08         0.00000E+00
    0.00000E+00         0.00000E+00        -0.26302E+08
 
   -0.30016E+08         0.49525E+06         0.00000E+00
    0.49525E+06        -0.49529E+08         0.00000E+00
    0.00000E+00         0.00000E+00        -0.26452E+08
 
   -0.29871E+08         0.58870E+06         0.00000E+00
    0.58870E+06        -0.49573E+08         0.00000E+00
    0.00000E+00         0.00000E+00        -0.26611E+08
 
   -0.29735E+08         0.68840E+06         0.00000E+00
    0.68840E+06        -0.49625E+08         0.00000E+00
    0.00000E+00         0.00000E+00        -0.26777E+08
 
   -0.29608E+08         0.79525E+06         0.00000E+00
    0.79525E+06        -0.49683E+08         0.00000E+00
    0.00000E+00         0.00000E+00        -0.26952E+08
 
   -0.29490E+08         0.91024E+06         0.00000E+00
    0.91024E+06        -0.49748E+08         0.00000E+00
    0.00000E+00         0.00000E+00        -0.27135E+08
 
   -0.29382E+08         0.10350E+07         0.00000E+00
    0.10350E+07        -0.49820E+08         0.00000E+00
    0.00000E+00         0.00000E+00        -0.27328E+08
 
   -0.29285E+08         0.11708E+07         0.00000E+00
    0.11708E+07        -0.49898E+08         0.00000E+00
    0.00000E+00         0.00000E+00        -0.27530E+08
 
   -0.29200E+08         0.13189E+07         0.00000E+00
    0.13189E+07        -0.49984E+08         0.00000E+00
    0.00000E+00         0.00000E+00        -0.27741E+08
 
   -0.29131E+08         0.14805E+07         0.00000E+00
    0.14805E+07        -0.50076E+08         0.00000E+00
    0.00000E+00         0.00000E+00        -0.27960E+08
 
   -0.29082E+08         0.16558E+07         0.00000E+00
    0.16558E+07        -0.50176E+08         0.00000E+00
    0.00000E+00         0.00000E+00        -0.28183E+08
 
   -0.29053E+08         0.18445E+07         0.00000E+00
    0.18445E+07        -0.50280E+08         0.00000E+00
    0.00000E+00         0.00000E+00        -0.28409E+08
 
   -0.29051E+08         0.20398E+07         0.00000E+00
    0.20398E+07        -0.50391E+08         0.00000E+00
    0.00000E+00         0.00000E+00        -0.28631E+08
 
   -0.29080E+08         0.22521E+07         0.00000E+00
    0.22521E+07        -0.50506E+08         0.00000E+00
    0.00000E+00         0.00000E+00        -0.28845E+08
 
   -0.29125E+08         0.24700E+07         0.00000E+00
    0.24700E+07        -0.50613E+08         0.00000E+00
    0.00000E+00         0.00000E+00        -0.29050E+08
 
   -0.42316E+08        -0.12181E+06         0.00000E+00
   -0.12181E+06        -0.49972E+08         0.00000E+00
    0.00000E+00         0.00000E+00        -0.23492E+08
 
   -0.41769E+08        -0.36110E+06         0.00000E+00
   -0.36110E+06        -0.49991E+08         0.00000E+00
    0.00000E+00         0.00000E+00        -0.23402E+08
 
   -0.41179E+08        -0.54387E+06         0.00000E+00
   -0.54387E+06        -0.49971E+08         0.00000E+00
    0.00000E+00         0.00000E+00        -0.23365E+08
 
   -0.40582E+08        -0.68352E+06         0.00000E+00
   -0.68352E+06        -0.49929E+08         0.00000E+00
    0.00000E+00         0.00000E+00        -0.23332E+08
 
   -0.39990E+08        -0.78601E+06         0.00000E+00
   -0.78601E+06        -0.49882E+08         0.00000E+00
    0.00000E+00         0.00000E+00        -0.23308E+08
 
   -0.39413E+08        -0.85572E+06         0.00000E+00
   -0.85572E+06        -0.49832E+08         0.00000E+00
    0.00000E+00         0.00000E+00        -0.23291E+08
 
   -0.38859E+08        -0.89852E+06         0.00000E+00
   -0.89852E+06        -0.49785E+08         0.00000E+00
    0.00000E+00         0.00000E+00        -0.23284E+08
 
   -0.38331E+08        -0.92007E+06         0.00000E+00
   -0.92007E+06        -0.49727E+08         0.00000E+00
    0.00000E+00         0.00000E+00        -0.23277E+08
 
   -0.37828E+08        -0.92573E+06         0.00000E+00
   -0.92573E+06        -0.49662E+08         0.00000E+00
    0.00000E+00         0.00000E+00        -0.23273E+08
 
   -0.37346E+08        -0.91940E+06         0.00000E+00
   -0.91940E+06        -0.49589E+08         0.00000E+00
    0.00000E+00         0.00000E+00        -0.23268E+08
 
   -0.36883E+08        -0.90238E+06         0.00000E+00
   -0.90238E+06        -0.49513E+08         0.00000E+00
    0.00000E+00         0.00000E+00        -0.23266E+08
 
   -0.36440E+08        -0.87679E+06         0.00000E+00
   -0.87679E+06        -0.49436E+08         0.00000E+00
    0.00000E+00         0.00000E+00        -0.23267E+08
 
   -0.36017E+08        -0.84484E+06         0.00000E+00
   -0.84484E+06        -0.49356E+08         0.00000E+00
    0.00000E+00         0.00000E+00        -0.23271E+08
 
   -0.35612E+08        -0.80694E+06         0.00000E+00
   -0.80694E+06        -0.49277E+08         0.00000E+00
    0.00000E+00         0.00000E+00        -0.23276E+08
 
   -0.35222E+08        -0.76405E+06         0.00000E+00
   -0.76405E+06        -0.49198E+08         0.00000E+00
    0.00000E+00         0.00000E+00        -0.23286E+08
 
   -0.34849E+08        -0.71791E+06         0.00000E+00
   -0.71791E+06        -0.49122E+08         0.00000E+00
    0.00000E+00         0.00000E+00        -0.23299E+08
 
   -0.34491E+08        -0.66958E+06         0.00000E+00
   -0.66958E+06        -0.49049E+08         0.00000E+00
    0.00000E+00         0.00000E+00        -0.23318E+08
 
   -0.34147E+08        -0.61992E+06         0.00000E+00
   -0.61992E+06        -0.48979E+08         0.00000E+00
    0.00000E+00         0.00000E+00        -0.23341E+08
 
   -0.33816E+08        -0.56977E+06         0.00000E+00
   -0.56977E+06        -0.48914E+08         0.00000E+00
    0.00000E+00         0.00000E+00        -0.23369E+08
 
   -0.33499E+08        -0.51973E+06         0.00000E+00
   -0.51973E+06        -0.48854E+08         0.00000E+00
    0.00000E+00         0.00000E+00        -0.23403E+08
 
   -0.33194E+08        -0.46993E+06         0.00000E+00
   -0.46993E+06        -0.48798E+08         0.00000E+00
    0.00000E+00         0.00000E+00        -0.23441E+08
 
   -0.32901E+08        -0.42076E+06         0.00000E+00
   -0.42076E+06        -0.48747E+08         0.00000E+00
    0.00000E+00         0.00000E+00        -0.23485E+08
 
   -0.32620E+08        -0.37261E+06         0.00000E+00
   -0.37261E+06        -0.48701E+08         0.00000E+00
    0.00000E+00         0.00000E+00        -0.23534E+08
 
   -0.32351E+08        -0.32532E+06         0.00000E+00
   -0.32532E+06        -0.48660E+08         0.00000E+00
    0.00000E+00         0.00000E+00        -0.23588E+08
 
   -0.32093E+08        -0.27853E+06         0.00000E+00
   -0.27853E+06        -0.48625E+08         0.00000E+00
    0.00000E+00         0.00000E+00        -0.23647E+08
 
   -0.31845E+08        -0.23214E+06         0.00000E+00
   -0.23214E+06        -0.48594E+08         0.00000E+00
    0.00000E+00         0.00000E+00        -0.23711E+08
 
   -0.31607E+08        -0.18613E+06         0.00000E+00
   -0.18613E+06        -0.48570E+08         0.00000E+00
    0.00000E+00         0.00000E+00        -0.23780E+08
 
   -0.31378E+08        -0.14031E+06         0.00000E+00
   -0.14031E+06        -0.48550E+08         0.00000E+00
    0.00000E+00         0.00000E+00        -0.23855E+08
 
   -0.31158E+08        -0.94556E+05         0.00000E+00
   -0.94556E+05        -0.48537E+08         0.00000E+00
    0.00000E+00         0.00000E+00        -0.23935E+08
 
   -0.30946E+08        -0.48737E+05         0.00000E+00
   -0.48737E+05        -0.48529E+08         0.00000E+00
    0.00000E+00         0.00000E+00        -0.24021E+08
 
   -0.30742E+08        -0.26767E+04         0.00000E+00
   -0.26767E+04        -0.48526E+08         0.00000E+00
    0.00000E+00         0.00000E+00        -0.24112E+08
 
   -0.30545E+08         0.43903E+05         0.00000E+00
    0.43903E+05        -0.48528E+08         0.00000E+00
    0.00000E+00         0.00000E+00        -0.24209E+08
 
   -0.30354E+08         0.91386E+05         0.00000E+00
    0.91386E+05        -0.48537E+08         0.00000E+00
    0.00000E+00         0.00000E+00        -0.24312E+08
 
   -0.30170E+08         0.14021E+06         0.00000E+00
    0.14021E+06        -0.48551E+08         0.00000E+00
    0.00000E+00         0.00000E+00        -0.24422E+08
 
   -0.29991E+08         0.19077E+06         0.00000E+00
    0.19077E+06        -0.48572E+08         0.00000E+00
    0.00000E+00         0.00000E+00        -0.24540E+08
 
   -0.29816E+08         0.24342E+06         0.00000E+00
    0.24342E+06        -0.48599E+08         0.00000E+00
    0.00000E+00         0.00000E+00        -0.24666E+08
 
   -0.29645E+08         0.29856E+06         0.00000E+00
    0.29856E+06        -0.48633E+08         0.00000E+00
    0.00000E+00         0.00000E+00        -0.24803E+08
 
   -0.29475E+08         0.35698E+06         0.00000E+00
    0.35698E+06        -0.48674E+08         0.00000E+00
    0.00000E+00         0.00000E+00        -0.24950E+08
 
   -0.29309E+08         0.41956E+06         0.00000E+00
    0.41956E+06        -0.48722E+08         0.00000E+00
    0.00000E+00         0.00000E+00        -0.25108E+08
 
   -0.29147E+08         0.48722E+06         0.00000E+00
    0.48722E+06        -0.48778E+08         0.00000E+00
    0.00000E+00         0.00000E+00        -0.25278E+08
 
   -0.28988E+08         0.56150E+06         0.00000E+00
    0.56150E+06        -0.48842E+08         0.00000E+00
    0.00000E+00         0.00000E+00        -0.25462E+08
 
   -0.28832E+08         0.64387E+06         0.00000E+00
    0.64387E+06        -0.48916E+08         0.00000E+00
    0.00000E+00         0.00000E+00        -0.25662E+08
 
   -0.28679E+08         0.73409E+06         0.00000E+00
    0.73409E+06        -0.49000E+08         0.00000E+00
    0.00000E+00         0.00000E+00        -0.25880E+08
 
   -0.28532E+08         0.83481E+06         0.00000E+00
    0.83481E+06        -0.49095E+08         0.00000E+00
    0.00000E+00         0.00000E+00        -0.26116E+08
 
   -0.28390E+08         0.94903E+06         0.00000E+00
    0.94903E+06        -0.49200E+08         0.00000E+00
    0.00000E+00         0.00000E+00        -0.26371E+08
 
   -0.28261E+08         0.10795E+07         0.00000E+00
    0.10795E+07        -0.49318E+08         0.00000E+00
    0.00000E+00         0.00000E+00        -0.26645E+08
 
   -0.28151E+08         0.12296E+07         0.00000E+00
    0.12296E+07        -0.49450E+08         0.00000E+00
    0.00000E+00         0.00000E+00        -0.26935E+08
 
   -0.28065E+08         0.14063E+07         0.00000E+00
    0.14063E+07        -0.49594E+08         0.00000E+00
    0.00000E+00         0.00000E+00        -0.27238E+08
 
   -0.28005E+08         0.15985E+07         0.00000E+00
    0.15985E+07        -0.49751E+08         0.00000E+00
    0.00000E+00         0.00000E+00        -0.27552E+08
 
   -0.28005E+08         0.18306E+07         0.00000E+00
    0.18306E+07        -0.49933E+08         0.00000E+00
    0.00000E+00         0.00000E+00        -0.27868E+08
 
   -0.43162E+08        -0.18642E+06         0.00000E+00
   -0.18642E+06        -0.50005E+08         0.00000E+00
    0.00000E+00         0.00000E+00        -0.25969E+08
 
   -0.42444E+08        -0.23311E+06         0.00000E+00
   -0.23311E+06        -0.49937E+08         0.00000E+00
    0.00000E+00         0.00000E+00        -0.24899E+08
 
   -0.41713E+08        -0.27663E+06         0.00000E+00
   -0.27663E+06        -0.49860E+08         0.00000E+00
    0.00000E+00         0.00000E+00        -0.24040E+08
 
   -0.41000E+08        -0.31394E+06         0.00000E+00
   -0.31394E+06        -0.49768E+08         0.00000E+00
    0.00000E+00         0.00000E+00        -0.23328E+08
 
   -0.40302E+08        -0.34748E+06         0.00000E+00
   -0.34748E+06        -0.49653E+08         0.00000E+00
    0.00000E+00         0.00000E+00        -0.22787E+08
 
   -0.39625E+08        -0.37325E+06         0.00000E+00
   -0.37325E+06        -0.49522E+08         0.00000E+00
    0.00000E+00         0.00000E+00        -0.22436E+08
 
   -0.38985E+08        -0.38727E+06         0.00000E+00
   -0.38727E+06        -0.49376E+08         0.00000E+00
    0.00000E+00         0.00000E+00        -0.22313E+08
 
   -0.38387E+08        -0.39143E+06         0.00000E+00
   -0.39143E+06        -0.49229E+08         0.00000E+00
    0.00000E+00         0.00000E+00        -0.22236E+08
 
   -0.37832E+08        -0.38875E+06         0.00000E+00
   -0.38875E+06        -0.49083E+08         0.00000E+00
    0.00000E+00         0.00000E+00        -0.22166E+08
 
   -0.37305E+08        -0.37990E+06         0.00000E+00
   -0.37990E+06        -0.48941E+08         0.00000E+00
    0.00000E+00         0.00000E+00        -0.22105E+08
 
   -0.36804E+08        -0.36519E+06         0.00000E+00
   -0.36519E+06        -0.48802E+08         0.00000E+00
    0.00000E+00         0.00000E+00        -0.22050E+08
 
   -0.36335E+08        -0.34818E+06         0.00000E+00
   -0.34818E+06        -0.48668E+08         0.00000E+00
    0.00000E+00         0.00000E+00        -0.22003E+08
 
   -0.35890E+08        -0.32927E+06         0.00000E+00
   -0.32927E+06        -0.48541E+08         0.00000E+00
    0.00000E+00         0.00000E+00        -0.21963E+08
 
   -0.35467E+08        -0.30893E+06         0.00000E+00
   -0.30893E+06        -0.48420E+08         0.00000E+00
    0.00000E+00         0.00000E+00        -0.21931E+08
 
   -0.35066E+08        -0.28860E+06         0.00000E+00
   -0.28860E+06        -0.48306E+08         0.00000E+00
    0.00000E+00         0.00000E+00        -0.21905E+08
 
   -0.34685E+08        -0.26801E+06         0.00000E+00
   -0.26801E+06        -0.48199E+08         0.00000E+00
    0.00000E+00         0.00000E+00        -0.21887E+08
 
   -0.34322E+08        -0.24731E+06         0.00000E+00
   -0.24731E+06        -0.48100E+08         0.00000E+00
    0.00000E+00         0.00000E+00        -0.21876E+08
 
   -0.33975E+08        -0.22683E+06         0.00000E+00
   -0.22683E+06        -0.48009E+08         0.00000E+00
    0.00000E+00         0.00000E+00        -0.21871E+08
 
   -0.33644E+08        -0.20677E+06         0.00000E+00
   -0.20677E+06        -0.47926E+08         0.00000E+00
    0.00000E+00         0.00000E+00        -0.21873E+08
 
   -0.33328E+08        -0.18718E+06         0.00000E+00
   -0.18718E+06        -0.47850E+08         0.00000E+00
    0.00000E+00         0.00000E+00        -0.21882E+08
 
   -0.33025E+08        -0.16818E+06         0.00000E+00
   -0.16818E+06        -0.47781E+08         0.00000E+00
    0.00000E+00         0.00000E+00        -0.21897E+08
 
   -0.32736E+08        -0.14977E+06         0.00000E+00
   -0.14977E+06        -0.47720E+08         0.00000E+00
    0.00000E+00         0.00000E+00        -0.21919E+08
 
   -0.32458E+08        -0.13187E+06         0.00000E+00
   -0.13187E+06        -0.47665E+08         0.00000E+00
    0.00000E+00         0.00000E+00        -0.21947E+08
 
   -0.32191E+08        -0.11448E+06         0.00000E+00
   -0.11448E+06        -0.47618E+08         0.00000E+00
    0.00000E+00         0.00000E+00        -0.21980E+08
 
   -0.31935E+08        -0.97593E+05         0.00000E+00
   -0.97593E+05        -0.47577E+08         0.00000E+00
    0.00000E+00         0.00000E+00        -0.22020E+08
 
   -0.31689E+08        -0.81075E+05         0.00000E+00
   -0.81075E+05        -0.47543E+08         0.00000E+00
    0.00000E+00         0.00000E+00        -0.22065E+08
 
   -0.31452E+08        -0.64758E+05         0.00000E+00
   -0.64758E+05        -0.47515E+08         0.00000E+00
    0.00000E+00         0.00000E+00        -0.22116E+08
 
   -0.31224E+08        -0.48626E+05         0.00000E+00
   -0.48626E+05        -0.47494E+08         0.00000E+00
    0.00000E+00         0.00000E+00        -0.22173E+08
 
   -0.31004E+08        -0.32610E+05         0.00000E+00
   -0.32610E+05        -0.47479E+08         0.00000E+00
    0.00000E+00         0.00000E+00        -0.22236E+08
 
   -0.30792E+08        -0.16602E+05         0.00000E+00
   -0.16602E+05        -0.47471E+08         0.00000E+00
    0.00000E+00         0.00000E+00        -0.22305E+08
 
   -0.30586E+08        -0.53138E+03         0.00000E+00
   -0.53138E+03        -0.47469E+08         0.00000E+00
    0.00000E+00         0.00000E+00        -0.22380E+08
 
   -0.30386E+08         0.15671E+05         0.00000E+00
    0.15671E+05        -0.47473E+08         0.00000E+00
    0.00000E+00         0.00000E+00        -0.22461E+08
 
   -0.30192E+08         0.32116E+05         0.00000E+00
    0.32116E+05        -0.47484E+08         0.00000E+00
    0.00000E+00         0.00000E+00        -0.22550E+08
 
   -0.30003E+08         0.48937E+05         0.00000E+00
    0.48937E+05        -0.47501E+08         0.00000E+00
    0.00000E+00         0.00000E+00        -0.22646E+08
 
   -0.29817E+08         0.66263E+05         0.00000E+00
    0.66263E+05        -0.47525E+08         0.00000E+00
    0.00000E+00         0.00000E+00        -0.22750E+08
 
   -0.29635E+08         0.84389E+05         0.00000E+00
    0.84389E+05        -0.47557E+08         0.00000E+00
    0.00000E+00         0.00000E+00        -0.22863E+08
 
   -0.29454E+08         0.10338E+06         0.00000E+00
    0.10338E+06        -0.47595E+08         0.00000E+00
    0.00000E+00         0.00000E+00        -0.22986E+08
 
   -0.29273E+08         0.12322E+06         0.00000E+00
    0.12322E+06        -0.47642E+08         0.00000E+00
    0.00000E+00         0.00000E+00        -0.23122E+08
 
   -0.29090E+08         0.14439E+06         0.00000E+00
    0.14439E+06        -0.47697E+08         0.00000E+00
    0.00000E+00         0.00000E+00        -0.23270E+08
 
   -0.28907E+08         0.16738E+06         0.00000E+00
    0.16738E+06        -0.47761E+08         0.00000E+00
    0.00000E+00         0.00000E+00        -0.23433E+08
 
   -0.28722E+08         0.19244E+06         0.00000E+00
    0.19244E+06        -0.47834E+08         0.00000E+00
    0.00000E+00         0.00000E+00        -0.23612E+08
 
   -0.28536E+08         0.22012E+06         0.00000E+00
    0.22012E+06        -0.47919E+08         0.00000E+00
    0.00000E+00         0.00000E+00        -0.23810E+08
 
   -0.28346E+08         0.25196E+06         0.00000E+00
    0.25196E+06        -0.48014E+08         0.00000E+00
    0.00000E+00         0.00000E+00        -0.24029E+08
 
   -0.28152E+08         0.28819E+06         0.00000E+00
    0.28819E+06        -0.48123E+08         0.00000E+00
    0.00000E+00         0.00000E+00        -0.24275E+08
 
   -0.27949E+08         0.32984E+06         0.00000E+00
    0.32984E+06        -0.48247E+08         0.00000E+00
    0.00000E+00         0.00000E+00        -0.24551E+08
 
   -0.27741E+08         0.37982E+06         0.00000E+00
    0.37982E+06        -0.48388E+08         0.00000E+00
    0.00000E+00         0.00000E+00        -0.24864E+08
 
   -0.27527E+08         0.44135E+06         0.00000E+00
    0.44135E+06        -0.48547E+08         0.00000E+00
    0.00000E+00         0.00000E+00        -0.25217E+08
 
   -0.27315E+08         0.51912E+06         0.00000E+00
    0.51912E+06        -0.48729E+08         0.00000E+00
    0.00000E+00         0.00000E+00        -0.25614E+08
 
   -0.27108E+08         0.62601E+06         0.00000E+00
    0.62601E+06        -0.48935E+08         0.00000E+00
    0.00000E+00         0.00000E+00        -0.26063E+08
 
   -0.26894E+08         0.75232E+06         0.00000E+00
    0.75232E+06        -0.49164E+08         0.00000E+00
    0.00000E+00         0.00000E+00        -0.26575E+08
 
SCALARS stresss double 
LOOKUP_TABLE default
  -49998205.9889794     
  -49998198.8408427     
  -49998192.5125074     
  -49998187.0439287     
  -49998182.4630073     
  -49998178.7899645     
  -49998176.0398420     
  -49998174.2239980     
  -49998173.3510418     
  -49998173.4274431     
  -49998174.4579431     
  -49998176.4458420     
  -49998179.3932050     
  -49998183.3010146     
  -49998188.1692850     
  -49998193.9971506     
  -49998200.7829354     
  -49998208.5242084     
  -49998217.2178283     
  -49998226.8599816     
  -49998237.4462133     
  -49998248.9714542     
  -49998261.4300443     
  -49998274.8157536     
  -49998289.1218008     
  -49998304.3408707     
  -49998320.4651300     
  -49998337.4862432     
  -49998355.3953872     
  -49998374.1832661     
  -49998393.8401262     
  -49998414.3557714     
  -49998435.7195791     
  -49998457.9205174     
  -49998480.9471637     
  -49998504.7877261     
  -49998529.4300662     
  -49998554.8617280     
  -49998581.0699706     
  -49998608.0418091     
  -49998635.7640670     
  -49998664.2234437     
  -49998693.4066064     
  -49998723.3003187     
  -49998753.8916278     
  -49998785.1681495     
  -49998817.1185204     
  -49998849.7331522     
  -49998883.0055486     
  -49998916.9347159     
  -49998179.8032723     
  -49998171.8264998     
  -49998164.8856037     
  -49998158.9515933     
  -49998154.0105262     
  -49998150.0560889     
  -49998147.0858131     
  -49998145.0990884     
  -49998144.0960883     
  -49998144.0771755     
  -49998145.0425655     
  -49998146.9921343     
  -49998149.9253073     
  -49998153.8409967     
  -49998158.7375671     
  -49998164.6128176     
  -49998171.4639753     
  -49998179.2876946     
  -49998188.0800605     
  -49998197.8365947     
  -49998208.5522626     
  -49998220.2214818     
  -49998232.8381305     
  -49998246.3955567     
  -49998260.8865872     
  -49998276.3035371     
  -49998292.6382186     
  -49998309.8819509     
  -49998328.0255691     
  -49998347.0594338     
  -49998366.9734406     
  -49998387.7570291     
  -49998409.3991927     
  -49998431.8884875     
  -49998455.2130419     
  -49998479.3605642     
  -49998504.3183514     
  -49998530.0732942     
  -49998556.6118817     
  -49998583.9201993     
  -49998611.9839210     
  -49998640.7882871     
  -49998670.3180598     
  -49998700.5574370     
  -49998731.4898913     
  -49998763.0978692     
  -49998795.3622208     
  -49998828.2610973     
  -49998861.7677700     
  -49998895.8461998     
  -49998128.1942672     
  -49998119.7668996     
  -49998112.3792477     
  -49998106.0358996     
  -49998100.7356452     
  -49998096.4755856     
  -49998093.2526291     
  -49998091.0639311     
  -49998089.9069291     
  -49998089.7792401     
  -49998090.6785278     
  -49998092.6023775     
  -49998095.5481927     
  -49998099.5131120     
  -49998104.4939457     
  -49998110.4871273     
  -49998117.4886774     
  -49998125.4941775     
  -49998134.4987504     
  -49998144.4970466     
  -49998155.4832355     
  -49998167.4509988     
  -49998180.3935278     
  -49998194.3035218     
  -49998209.1731885     
  -49998224.9942449     
  -49998241.7579206     
  -49998259.4549597     
  -49998278.0756251     
  -49998297.6097017     
  -49998318.0465002     
  -49998339.3748611     
  -49998361.5831575     
  -49998384.6592980     
  -49998408.5907285     
  -49998433.3644322     
  -49998458.9669282     
  -49998485.3842669     
  -49998512.6020226     
  -49998540.6052805     
  -49998569.3786183     
  -49998598.9060811     
  -49998629.1711484     
  -49998660.1566975     
  -49998691.8449717     
  -49998724.2175853     
  -49998757.2556401     
  -49998790.9401416     
  -49998825.2531663     
  -49998860.1808592     
  -49998049.9426042     
  -49998041.1030455     
  -49998033.3456199     
  -49998026.6699196     
  -49998021.0765618     
  -49998016.5657457     
  -49998013.1369858     
  -49998010.7891743     
  -49998009.5206936     
  -49998009.3295001     
  -49998010.2131715     
  -49998012.1689250     
  -49998015.1936163     
  -49998019.2837289     
  -49998024.4353585     
  -49998030.6441953     
  -49998037.9055078     
  -49998046.2141280     
  -49998055.5644386     
  -49998065.9503620     
  -49998077.3653520     
  -49998089.8023870     
  -49998103.2539651     
  -49998117.7121007     
  -49998133.1683223     
  -49998149.6136711     
  -49998167.0387013     
  -49998185.4334799     
  -49998204.7875886     
  -49998225.0901243     
  -49998246.3297015     
  -49998268.4944539     
  -49998291.5720362     
  -49998315.5496261     
  -49998340.4139253     
  -49998366.1511612     
  -49998392.7470875     
  -49998420.1869851     
  -49998448.4556625     
  -49998477.5374577     
  -49998507.4162407     
  -49998538.0754205     
  -49998569.4979573     
  -49998601.6663853     
  -49998634.5628482     
  -49998668.1691479     
  -49998702.4667863     
  -49998737.4369277     
  -49998773.0600462     
  -49998809.3145939     
  -49997943.9777818     
  -49997934.6966538     
  -49997926.5491982     
  -49997919.5372824     
  -49997913.6618104     
  -49997908.9231868     
  -49997905.3213499     
  -49997902.8557342     
  -49997901.5252465     
  -49997901.3282611     
  -49997902.2626274     
  -49997904.3256804     
  -49997907.5142505     
  -49997911.8246702     
  -49997917.2527784     
  -49997923.7939220     
  -49997931.4429553     
  -49997940.1942388     
  -49997950.0416370     
  -49997960.9785165     
  -49997972.9977437     
  -49997986.0916832     
  -49998000.2521966     
  -49998015.4706414     
  -49998031.7378715     
  -49998049.0442368     
  -49998067.3795846     
  -49998086.7332608     
  -49998107.0941116     
  -49998128.4504860     
  -49998150.7902381     
  -49998174.1007305     
  -49998198.3688370     
  -49998223.5809469     
  -49998249.7229688     
  -49998276.7803350     
  -49998304.7380070     
  -49998333.5804811     
  -49998363.2917951     
  -49998393.8555368     
  -49998425.2548527     
  -49998457.4724592     
  -49998490.4906534     
  -49998524.2913239     
  -49998558.8559582     
  -49998594.1656422     
  -49998630.2010526     
  -49998666.9424594     
  -49998704.3698283     
  -49998742.4633485     
  -49997808.8009229     
  -49997799.0260502     
  -49997790.4513952     
  -49997783.0790283     
  -49997776.9104939     
  -49997771.9466915     
  -49997768.1878934     
  -49997765.6337699     
  -49997764.2834025     
  -49997764.1352899     
  -49997765.1873509     
  -49997767.4369282     
  -49997770.8807914     
  -49997775.5151421     
  -49997781.3356172     
  -49997788.3372933     
  -49997796.5146905     
  -49997805.8617749     
  -49997816.3719619     
  -49997828.0381187     
  -49997840.8525664     
  -49997854.8070824     
  -49997869.8929026     
  -49997886.1007240     
  -49997903.4207077     
  -49997921.8424807     
  -49997941.3551403     
  -49997961.9472565     
  -49997983.6068764     
  -49998006.3215279     
  -49998030.0782245     
  -49998054.8634699     
  -49998080.6632631     
  -49998107.4631044     
  -49998135.2480011     
  -49998164.0024745     
  -49998193.7105665     
  -49998224.3558475     
  -49998255.9214244     
  -49998288.3899490     
  -49998321.7436270     
  -49998355.9642267     
  -49998391.0330887     
  -49998426.9311347     
  -49998463.6388781     
  -49998501.1364375     
  -49998539.4035549     
  -49998578.4196180     
  -49998618.1636567     
  -49998658.6141789     
  -49997642.5244437     
  -49997632.1883587     
  -49997623.1346395     
  -49997615.3657069     
  -49997608.8832988     
  -49997603.6885065     
  -49997599.7817711     
  -49997597.1628821     
  -49997595.8309808     
  -49997595.7845661     
  -49997597.0214990     
  -49997599.5390080     
  -49997603.3336934     
  -49997608.4015313     
  -49997614.7378781     
  -49997622.3374747     
  -49997631.1944510     
  -49997641.3023298     
  -49997652.6540312     
  -49997665.2418773     
  -49997679.0575959     
  -49997694.0923256     
  -49997710.3366197     
  -49997727.7804510     
  -49997746.4132166     
  -49997766.2237425     
  -49997787.2002889     
  -49997809.3305556     
  -49997832.6016871     
  -49997857.0002790     
  -49997882.5123835     
  -49997909.1235165     
  -49997936.8186637     
  -49997965.5822880     
  -49997995.3983367     
  -49998026.2502498     
  -49998058.1209674     
  -49998090.9929383     
  -49998124.8481292     
  -49998159.6680334     
  -49998195.4336803     
  -49998232.1256455     
  -49998269.7240605     
  -49998308.2086244     
  -49998347.5586143     
  -49998387.7528969     
  -49998428.7699376     
  -49998470.5878083     
  -49998513.1841994     
  -49998556.5364892     
  -49997442.8317932     
  -49997431.8581615     
  -49997422.2657352     
  -49997414.0571265     
  -49997407.2342390     
  -49997401.7982627     
  -49997397.7496806     
  -49997395.0882727     
  -49997393.8131203     
  -49997393.9226090     
  -49997395.4144325     
  -49997398.2855969     
  -49997402.5324254     
  -49997408.1505622     
  -49997415.1349776     
  -49997423.4799727     
  -49997433.1791844     
  -49997444.2255901     
  -49997456.6115131     
  -49997470.3286276     
  -49997485.3679646     
  -49997501.7199170     
  -49997519.3742456     
  -49997538.3200850     
  -49997558.5459494     
  -49997580.0397392     
  -49997602.7887474     
  -49997626.7796661     
  -49997651.9985939     
  -49997678.4310424     
  -49997706.0619440     
  -49997734.8756598     
  -49997764.8559871     
  -49997795.9861676     
  -49997828.2488965     
  -49997861.6263304     
  -49997896.1000973     
  -49997931.6513050     
  -49997968.2605515     
  -49998005.9079345     
  -49998044.5730617     
  -49998084.2350613     
  -49998124.8725927     
  -49998166.4638578     
  -49998208.9866115     
  -49998252.4181734     
  -49998296.7354399     
  -49998341.9148977     
  -49998387.9326371     
  -49998434.7643469     
  -49997206.9460229     
  -49997195.2520449     
  -49997185.0560593     
  -49997176.3608065     
  -49997169.1682566     
  -49997163.4796137     
  -49997159.2953178     
  -49997156.6150480     
  -49997155.4377259     
  -49997155.7615197     
  -49997157.5838480     
  -49997160.9013844     
  -49997165.7100615     
  -49997172.0050763     
  -49997179.7808947     
  -49997189.0312566     
  -49997199.7491819     
  -49997211.9269755     
  -49997225.5562334     
  -49997240.6278488     
  -49997257.1320182     
  -49997275.0582481     
  -49997294.3953613     
  -49997315.1315040     
  -49997337.2541530     
  -49997360.7501230     
  -49997385.6055738     
  -49997411.8060186     
  -49997439.3363318     
  -49997468.1807570     
  -49997498.3229161     
  -49997529.7458174     
  -49997562.4318650     
  -49997596.3628680     
  -49997631.5200496     
  -49997667.8840576     
  -49997705.4349736     
  -49997744.1523238     
  -49997784.0150891     
  -49997825.0017161     
  -49997867.0901282     
  -49997910.2577363     
  -49997954.4814507     
  -49997999.7376927     
  -49998046.0024065     
  -49998093.2510712     
  -49998141.4587135     
  -49998190.5999196     
  -49998240.6488472     
  -49998291.5792435     
  -49996931.5904933     
  -49996919.0887093     
  -49996908.2210624     
  -49996898.9903597     
  -49996891.3985742     
  -49996885.4468470     
  -49996881.1354907     
  -49996878.4639926     
  -49996877.4310189     
  -49996878.0344180     
  -49996880.2712251     
  -49996884.1376666     
  -49996889.6291656     
  -49996896.7403461     
  -49996905.4650394     
  -49996915.7962889     
  -49996927.7263570     
  -49996941.2467305     
  -49996956.3481277     
  -49996973.0205048     
  -49996991.2530634     
  -49997011.0342568     
  -49997032.3517988     
  -49997055.1926703     
  -49997079.5431282     
  -49997105.3887130     
  -49997132.7142578     
  -49997161.5038968     
  -49997191.7410743     
  -49997223.4085540     
  -49997256.4884287     
  -49997290.9621297     
  -49997326.8104369     
  -49997364.0134891     
  -49997402.5507945     
  -49997442.4012414     
  -49997483.5431088     
  -49997525.9540781     
  -49997569.6112443     
  -49997614.4911276     
  -49997660.5696851     
  -49997707.8223232     
  -49997756.2239100     
  -49997805.7487872     
  -49997856.3707835     
  -49997908.0632270     
  -49997960.7989586     
  -49998014.5503452     
  -49998069.2892937     
  -49998124.9872627     
  -49996612.9435231     
  -49996599.5431828     
  -49996587.9341073     
  -49996578.1191096     
  -49996570.1000950     
  -49996563.8780644     
  -49996559.4531177     
  -49996556.8244573     
  -49996555.9903921     
  -49996556.9483422     
  -49996559.6948432     
  -49996564.2255517     
  -49996570.5352508     
  -49996578.6178549     
  -49996588.4664171     
  -49996600.0731343     
  -49996613.4293545     
  -49996628.5255837     
  -49996645.3514931     
  -49996663.8959263     
  -49996684.1469078     
  -49996706.0916504     
  -49996729.7165639     
  -49996755.0072640     
  -49996781.9485807     
  -49996810.5245677     
  -49996840.7185124     
  -49996872.5129445     
  -49996905.8896473     
  -49996940.8296668     
  -49996977.3133230     
  -49997015.3202202     
  -49997054.8292582     
  -49997095.8186434     
  -49997138.2659005     
  -49997182.1478841     
  -49997227.4407907     
  -49997274.1201707     
  -49997322.1609411     
  -49997371.5373981     
  -49997422.2232298     
  -49997474.1915292     
  -49997527.4148079     
  -49997581.8650092     
  -49997637.5135218     
  -49997694.3311938     
  -49997752.2883467     
  -49997811.3547899     
  -49997871.4998341     
  -49997932.6923075     
  -49996246.5860366     
  -49996232.1944424     
  -49996219.7740642     
  -49996209.3276541     
  -49996200.8569743     
  -49996194.3628004     
  -49996189.8449254     
  -49996187.3021637     
  -49996186.7323563     
  -49996188.1323751     
  -49996191.4981283     
  -49996196.8245666     
  -49996204.1056890     
  -49996213.3345488     
  -49996224.5032612     
  -49996237.6030095     
  -49996252.6240533     
  -49996269.5557358     
  -49996288.3864920     
  -49996309.1038570     
  -49996331.6944749     
  -49996356.1441078     
  -49996382.4376450     
  -49996410.5591127     
  -49996440.4916838     
  -49996472.2176883     
  -49996505.7186235     
  -49996540.9751652     
  -49996577.9671783     
  -49996616.6737282     
  -49996657.0730927     
  -49996699.1427735     
  -49996742.8595083     
  -49996788.1992834     
  -49996835.1373459     
  -49996883.6482169     
  -49996933.7057046     
  -49996985.2829172     
  -49997038.3522768     
  -49997092.8855329     
  -49997148.8537766     
  -49997206.2274547     
  -49997264.9763841     
  -49997325.0697663     
  -49997386.4762022     
  -49997449.1637073     
  -49997513.0997266     
  -49997578.2511499     
  -49997644.5843276     
  -49997712.0650861     
  -49995827.4416828     
  -49995811.9656503     
  -49995798.6656862     
  -49995787.5444042     
  -49995778.6033361     
  -49995771.8429350     
  -49995767.2625806     
  -49995764.8605834     
  -49995764.6341904     
  -49995766.5795907     
  -49995770.6919215     
  -49995776.9652747     
  -49995785.3927038     
  -49995795.9662312     
  -49995808.6768555     
  -49995823.5145599     
  -49995840.4683203     
  -49995859.5261141     
  -49995880.6749294     
  -49995903.9007740     
  -49995929.1886854     
  -49995956.5227409     
  -49995985.8860678     
  -49996017.2608543     
  -49996050.6283604     
  -49996085.9689290     
  -49996123.2619980     
  -49996162.4861119     
  -49996203.6189338     
  -49996246.6372585     
  -49996291.5170245     
  -49996338.2333276     
  -49996386.7604342     
  -49996437.0717942     
  -49996489.1400558     
  -49996542.9370787     
  -49996598.4339489     
  -49996655.6009930     
  -49996714.4077932     
  -49996774.8232021     
  -49996836.8153579     
  -49996900.3517002     
  -49996965.3989852     
  -49997031.9233017     
  -49997099.8900874     
  -49997169.2641447     
  -49997240.0096575     
  -49997312.0902074     
  -49997385.4687910     
  -49997460.1078363     
  -49995349.7086938     
  -49995333.0562558     
  -49995318.8119699     
  -49995306.9782202     
  -49995297.5562053     
  -49995290.5459433     
  -49995285.9462766     
  -49995283.7548782     
  -49995283.9682575     
  -49995286.5817669     
  -49995291.5896090     
  -49995298.9848439     
  -49995308.7593973     
  -49995320.9040682     
  -49995335.4085382     
  -49995352.2613801     
  -49995371.4500676     
  -49995392.9609847     
  -49995416.7794366     
  -49995442.8896595     
  -49995471.2748318     
  -49995501.9170853     
  -49995534.7975169     
  -49995569.8962005     
  -49995607.1921991     
  -49995646.6635772     
  -49995688.2874144     
  -49995732.0398177     
  -49995777.8959357     
  -49995825.8299719     
  -49995875.8151991     
  -49995927.8239737     
  -49995981.8277503     
  -49996037.7970965     
  -49996095.7017084     
  -49996155.5104255     
  -49996217.1912470     
  -49996280.7113473     
  -49996346.0370924     
  -49996413.1340561     
  -49996481.9670366     
  -49996552.5000738     
  -49996624.6964658     
  -49996698.5187863     
  -49996773.9289024     
  -49996850.8879918     
  -49996929.3565609     
  -49997009.2944628     
  -49997090.6609154     
  -49997173.4145198     
  -49994806.7826529     
  -49994788.8651047     
  -49994773.6176278     
  -49994761.0422663     
  -49994751.1397640     
  -49994743.9095703     
  -49994739.3498464     
  -49994737.4574722     
  -49994738.2280533     
  -49994741.6559286     
  -49994747.7341788     
  -49994756.4546346     
  -49994767.8078859     
  -49994781.7832909     
  -49994798.3689867     
  -49994817.5518987     
  -49994839.3177518     
  -49994863.6510814     
  -49994890.5352447     
  -49994919.9524327     
  -49994951.8836825     
  -49994986.3088898     
  -49995023.2068215     
  -49995062.5551298     
  -49995104.3303651     
  -49995148.5079904     
  -49995195.0623956     
  -49995243.9669117     
  -49995295.1938265     
  -49995348.7143993     
  -49995404.4988766     
  -49995462.5165080     
  -49995522.7355624     
  -49995585.1233443     
  -49995649.6462106     
  -49995716.2695875     
  -49995784.9579877     
  -49995855.6750281     
  -49995928.3834470     
  -49996003.0451227     
  -49996079.6210911     
  -49996158.0715646     
  -49996238.3559502     
  -49996320.4328690     
  -49996404.2601745     
  -49996489.7949725     
  -49996576.9936400     
  -49996665.8118452     
  -49996756.2045670     
  -49996848.1261151     
  -49994191.1692230     
  -49994171.9036151     
  -49994155.6027304     
  -49994142.2681393     
  -49994131.8999852     
  -49994124.4969911     
  -49994120.0564671     
  -49994118.5743183     
  -49994120.0450534     
  -49994124.4617935     
  -49994131.8162814     
  -49994142.0988920     
  -49994155.2986419     
  -49994171.4032009     
  -49994190.3989029     
  -49994212.2707577     
  -49994237.0024630     
  -49994264.5764171     
  -49994294.9737319     
  -49994328.1742460     
  -49994364.1565387     
  -49994402.8979442     
  -49994444.3745657     
  -49994488.5612907     
  -49994535.4318060     
  -49994584.9586136     
  -49994637.1130461     
  -49994691.8652836     
  -49994749.1843698     
  -49994809.0382291     
  -49994871.3936841     
  -49994936.2164725     
  -49995003.4712656     
  -49995073.1216859     
  -49995145.1303259     
  -49995219.4587663     
  -49995296.0675953     
  -49995374.9164279     
  -49995455.9639249     
  -49995539.1678127     
  -49995624.4849037     
  -49995711.8711155     
  -49995801.2814922     
  -49995892.6702245     
  -49995985.9906706     
  -49996081.1953770     
  -49996178.2360998     
  -49996277.0638264     
  -49996377.6287964     
  -49996479.8805237     
  -49993494.3857852     
  -49993473.6979749     
  -49993456.3054833     
  -49993442.2092462     
  -49993431.4086317     
  -49993423.9014488     
  -49993419.6839561     
  -49993418.7508713     
  -49993421.0953809     
  -49993426.7091508     
  -49993435.5823373     
  -49993447.7035984     
  -49993463.0601059     
  -49993481.6375574     
  -49993503.4201900     
  -49993528.3907928     
  -49993556.5307211     
  -49993587.8199107     
  -49993622.2368922     
  -49993659.7588066     
  -49993700.3614204     
  -49993744.0191416     
  -49993790.7050360     
  -49993840.3908439     
  -49993893.0469971     
  -49993948.6426364     
  -49994007.1456292     
  -49994068.5225875     
  -49994132.7388870     
  -49994199.7586848     
  -49994269.5449396     
  -49994342.0594304     
  -49994417.2627762     
  -49994495.1144564     
  -49994575.5728308     
  -49994658.5951601     
  -49994744.1376271     
  -49994832.1553572     
  -49994922.6024402     
  -49995015.4319518     
  -49995110.5959754     
  -49995208.0456240     
  -49995307.7310625     
  -49995409.6015306     
  -49995513.6053648     
  -49995619.6900221     
  -49995727.8021022     
  -49995837.8873716     
  -49995949.8907866     
  -49996063.7565170     
  -49992706.8508327     
  -49992684.6792203     
  -49992666.1730133     
  -49992651.3323175     
  -49992640.1555166     
  -49992632.6392824     
  -49992628.7785855     
  -49992628.5667062     
  -49992631.9952460     
  -49992639.0541401     
  -49992649.7316700     
  -49992664.0144767     
  -49992681.8875746     
  -49992703.3343655     
  -49992728.3366538     
  -49992756.8746613     
  -49992788.9270432     
  -49992824.4709042     
  -49992863.4818150     
  -49992905.9338296     
  -49992951.7995024     
  -49993001.0499064     
  -49993053.6546516     
  -49993109.5819031     
  -49993168.7984010     
  -49993231.2694790     
  -49993296.9590849     
  -49993365.8298003     
  -49993437.8428614     
  -49993512.9581796     
  -49993591.1343630     
  -49993672.3287374     
  -49993756.4973684     
  -49993843.5950837     
  -49993933.5754948     
  -49994026.3910203     
  -49994121.9929085     
  -49994220.3312607     
  -49994321.3550545     
  -49994425.0121678     
  -49994531.2494021     
  -49994640.0125073     
  -49994751.2462059     
  -49994864.8942173     
  -49994980.8992828     
  -49995099.2031908     
  -49995219.7468014     
  -49995342.4700725     
  -49995467.3120847     
  -49995594.2110675     
  -49991817.7598530     
  -49991794.0599477     
  -49991774.4389307     
  -49991758.8958420     
  -49991747.4278302     
  -49991740.0301652     
  -49991736.6962499     
  -49991737.4176339     
  -49991742.1840269     
  -49991750.9833128     
  -49991763.8015646     
  -49991780.6230602     
  -49991801.4302973     
  -49991826.2040110     
  -49991854.9231898     
  -49991887.5650933     
  -49991924.1052704     
  -49991964.5175772     
  -49992008.7741963     
  -49992056.8456555     
  -49992108.7008482     
  -49992164.3070530     
  -49992223.6299548     
  -49992286.6336650     
  -49992353.2807436     
  -49992423.5322205     
  -49992497.3476180     
  -49992574.6849726     
  -49992655.5008584     
  -49992739.7504102     
  -49992827.3873464     
  -49992918.3639937     
  -49993012.6313105     
  -49993110.1389113     
  -49993210.8350919     
  -49993314.6668539     
  -49993421.5799301     
  -49993531.5188098     
  -49993644.4267651     
  -49993760.2458760     
  -49993878.9170575     
  -49994000.3800854     
  -49994124.5736232     
  -49994251.4352492     
  -49994380.9014832     
  -49994512.9078137     
  -49994647.3887259     
  -49994784.2777288     
  -49994923.5073833     
  -49995065.0093300     
  -49990814.9463165     
  -49990789.6962962     
  -49990768.9863271     
  -49990752.8141000     
  -49990741.1752294     
  -49990734.0632685     
  -49990731.4697233     
  -49990733.3840685     
  -49990739.7937630     
  -49990750.6842671     
  -49990766.0390594     
  -49990785.8396545     
  -49990810.0656214     
  -49990838.6946025     
  -49990871.7023329     
  -49990909.0626601     
  -49990950.7475650     
  -49990996.7271818     
  -49991046.9698206     
  -49991101.4419880     
  -49991160.1084103     
  -49991222.9320556     
  -49991289.8741573     
  -49991360.8942374     
  -49991435.9501304     
  -49991514.9980077     
  -49991597.9924024     
  -49991684.8862338     
  -49991775.6308335     
  -49991870.1759705     
  -49991968.4698775     
  -49992070.4592773     
  -49992176.0894094     
  -49992285.3040567     
  -49992398.0455733     
  -49992514.2549112     
  -49992633.8716488     
  -49992756.8340185     
  -49992883.0789352     
  -49993012.5420245     
  -49993145.1576517     
  -49993280.8589506     
  -49993419.5778527     
  -49993561.2451165     
  -49993705.7903570     
  -49993853.1420757     
  -49994003.2276900     
  -49994155.9735640     
  -49994311.3050378     
  -49994469.1464589     
  -49989684.7262645     
  -49989657.9337168     
  -49989636.1947477     
  -49989619.5053589     
  -49989607.8592747     
  -49989601.2479591     
  -49989599.6606333     
  -49989603.0842934     
  -49989611.5037299     
  -49989624.9015464     
  -49989643.2581796     
  -49989666.5519206     
  -49989694.7589349     
  -49989727.8532850     
  -49989765.8069522     
  -49989808.5898594     
  -49989856.1698943     
  -49989908.5129335     
  -49989965.5828659     
  -49990027.3416185     
  -49990093.7491804     
  -49990164.7636291     
  -49990240.3411564     
  -49990320.4360944     
  -49990405.0009427     
  -49990493.9863953     
  -49990587.3413680     
  -49990685.0130269     
  -49990786.9468160     
  -49990893.0864857     
  -49991003.3741223     
  -49991117.7501766     
  -49991236.1534934     
  -49991358.5213417     
  -49991484.7894441     
  -49991614.8920076     
  -49991748.7617538     
  -49991886.3299499     
  -49992027.5264395     
  -49992172.2796741     
  -49992320.5167442     
  -49992472.1634113     
  -49992627.1441393     
  -49992785.3821271     
  -49992946.7993403     
  -49993111.3165440     
  -49993278.8533348     
  -49993449.3281742     
  -49993622.6584207     
  -49993798.7603634     
  -49988411.7248560     
  -49988383.4349149     
  -49988360.7695494     
  -49988343.7226661     
  -49988332.2856759     
  -49988326.4475144     
  -49988326.1946614     
  -49988331.5111633     
  -49988342.3786543     
  -49988358.7763791     
  -49988380.6812160     
  -49988408.0677007     
  -49988440.9080509     
  -49988479.1721906     
  -49988522.8277761     
  -49988571.8402214     
  -49988626.1727253     
  -49988685.7862978     
  -49988750.6397879     
  -49988820.6899114     
  -49988895.8912791     
  -49988976.1964259     
  -49989061.5558396     
  -49989151.9179906     
  -49989247.2293622     
  -49989347.4344805     
  -49989452.4759453     
  -49989562.2944611     
  -49989676.8288685     
  -49989796.0161759     
  -49989919.7915913     
  -49990048.0885549     
  -49990180.8387714     
  -49990317.9722429     
  -49990459.4173019     
  -49990605.1006448     
  -49990754.9473654     
  -49990908.8809886     
  -49991066.8235042     
  -49991228.6954017     
  -49991394.4157040     
  -49991563.9020025     
  -49991737.0704915     
  -49991913.8360032     
  -49992094.1120429     
  -49992277.8108242     
  -49992464.8433042     
  -49992655.1192192     
  -49992848.5471200     
  -49993045.0344081     
  -49986978.6830901     
  -49986948.9882128     
  -49986925.5519216     
  -49986908.3655454     
  -49986897.4176812     
  -49986892.6942180     
  -49986894.1783599     
  -49986901.8506525     
  -49986915.6890068     
  -49986935.6687267     
  -49986961.7625350     
  -49986993.9406008     
  -49987032.1705681     
  -49987076.4175836     
  -49987126.6443262     
  -49987182.8110366     
  -49987244.8755471     
  -49987312.7933126     
  -49987386.5174415     
  -49987465.9987271     
  -49987551.1856795     
  -49987642.0245585     
  -49987738.4594057     
  -49987840.4320780     
  -49987947.8822812     
  -49988060.7476034     
  -49988178.9635499     
  -49988302.4635773     
  -49988431.1791282     
  -49988565.0396669     
  -49988703.9727142     
  -49988847.9038834     
  -49988996.7569163     
  -49989150.4537192     
  -49989308.9143995     
  -49989472.0573021     
  -49989639.7990464     
  -49989812.0545634     
  -49989988.7371326     
  -49990169.7584198     
  -49990355.0285144     
  -49990544.4559674     
  -49990737.9478288     
  -49990935.4096859     
  -49991136.7457017     
  -49991341.8586525     
  -49991550.6499670     
  -49991763.0197642     
  -49991978.8668922     
  -49992198.0889672     
  -49985366.2427725     
  -49985335.2944339     
  -49985311.3077053     
  -49985294.2707656     
  -49985284.1688076     
  -49985280.9840652     
  -49985284.6958420     
  -49985295.2805403     
  -49985312.7116905     
  -49985336.9599820     
  -49985367.9932932     
  -49985405.7767242     
  -49985450.2726278     
  -49985501.4406430     
  -49985559.2377278     
  -49985623.6181931     
  -49985694.5337367     
  -49985771.9334784     
  -49985855.7639945     
  -49985945.9693541     
  -49986042.4911544     
  -49986145.2685578     
  -49986254.2383279     
  -49986369.3348671     
  -49986490.4902542     
  -49986617.6342814     
  -49986750.6944935     
  -49986889.5962252     
  -49987034.2626406     
  -49987184.6147718     
  -49987340.5715578     
  -49987502.0498846     
  -49987668.9646240     
  -49987841.2286741     
  -49988018.7529992     
  -49988201.4466697     
  -49988389.2169028     
  -49988581.9691032     
  -49988779.6069031     
  -49988982.0322040     
  -49989189.1452170     
  -49989400.8445040     
  -49989617.0270193     
  -49989837.5881502     
  -49990062.4217592     
  -49990291.4202250     
  -49990524.4744839     
  -49990761.4740721     
  -49991002.3071667     
  -49991246.8606280     
  -49983552.7076405     
  -49983520.7302606     
  -49983496.4929966     
  -49983479.9802019     
  -49983471.1729703     
  -49983470.0491688     
  -49983476.5834707     
  -49983490.7473891     
  -49983512.5093114     
  -49983541.8345344     
  -49983578.6853001     
  -49983623.0208316     
  -49983674.7973704     
  -49983733.9682132     
  -49983800.4837503     
  -49983874.2915036     
  -49983955.3361656     
  -49984043.5596387     
  -49984138.9010748     
  -49984241.2969154     
  -49984350.6809321     
  -49984466.9842674     
  -49984590.1354762     
  -49984720.0605669     
  -49984856.6830432     
  -49984999.9239467     
  -49985149.7018988     
  -49985305.9331434     
  -49985468.5315900     
  -49985637.4088563     
  -49985812.4743121     
  -49985993.6351223     
  -49986180.7962908     
  -49986373.8607043     
  -49986572.7291760     
  -49986777.3004901     
  -49986987.4714458     
  -49987203.1369016     
  -49987424.1898198     
  -49987650.5213112     
  -49987882.0206795     
  -49988118.5754661     
  -49988360.0714949     
  -49988606.3929170     
  -49988857.4222555     
  -49989113.0404509     
  -49989373.1269052     
  -49989637.5595275     
  -49989906.2147790     
  -49990178.9677175     
  -49981513.7783980     
  -49981481.0858602     
  -49981456.9943726     
  -49981441.4836675     
  -49981434.5299264     
  -49981436.1058175     
  -49981446.1805350     
  -49981464.7198374     
  -49981491.6860878     
  -49981527.0382942     
  -49981570.7321507     
  -49981622.7200790     
  -49981682.9512704     
  -49981751.3717286     
  -49981827.9243127     
  -49981912.5487810     
  -49982005.1818347     
  -49982105.7571626     
  -49982214.2054856     
  -49982330.4546021     
  -49982454.4294331     
  -49982586.0520687     
  -49982725.2418134     
  -49982871.9152329     
  -49983025.9862008     
  -49983187.3659451     
  -49983355.9630956     
  -49983531.6837307     
  -49983714.4314257     
  -49983904.1072995     
  -49984100.6100628     
  -49984303.8360659     
  -49984513.6793468     
  -49984730.0316793     
  -49984952.7826210     
  -49985181.8195620     
  -49985417.0277726     
  -49985658.2904525     
  -49985905.4887785     
  -49986158.5019536     
  -49986417.2072550     
  -49986681.4800830     
  -49986951.1940094     
  -49987226.2208257     
  -49987506.4305923     
  -49987791.6916864     
  -49988081.8708506     
  -49988376.8332415     
  -49988676.4424780     
  -49988980.5606895     
  -49979222.2592551     
  -49979189.2744184     
  -49979165.8414213     
  -49979151.9344425     
  -49979147.5238003     
  -49979152.5759964     
  -49979167.0537602     
  -49979190.9160948     
  -49979224.1183222     
  -49979266.6121309     
  -49979318.3456219     
  -49979379.2633572     
  -49979449.3064072     
  -49979528.4124001     
  -49979616.5155699     
  -49979713.5468068     
  -49979819.4337063     
  -49979934.1006195     
  -49980057.4687037     
  -49980189.4559731     
  -49980329.9773497     
  -49980478.9447146     
  -49980636.2669598     
  -49980801.8500393     
  -49980975.5970217     
  -49981157.4081417     
  -49981347.1808527     
  -49981544.8098790     
  -49981750.1872679     
  -49981963.2024430     
  -49982183.7422561     
  -49982411.6910401     
  -49982646.9306619     
  -49982889.3405749     
  -49983138.7978719     
  -49983395.1773378     
  -49983658.3515025     
  -49983928.1906933     
  -49984204.5630880     
  -49984487.3347674     
  -49984776.3697677     
  -49985071.5301337     
  -49985372.6759705     
  -49985679.6654963     
  -49985992.3550948     
  -49986310.5993675     
  -49986634.2511853     
  -49986963.1617415     
  -49987297.1806026     
  -49987636.1557612     
  -49976647.7334035     
  -49976615.0110622     
  -49976592.8891078     
  -49976581.3350765     
  -49976580.3123162     
  -49976589.7800372     
  -49976609.6933647     
  -49976640.0033905     
  -49976680.6572263     
  -49976731.5980570     
  -49976792.7651949     
  -49976864.0941337     
  -49976945.5166038     
  -49977036.9606271     
  -49977138.3505729     
  -49977249.6072136     
  -49977370.6477813     
  -49977501.3860237     
  -49977641.7322613     
  -49977791.5934442     
  -49977950.8732093     
  -49978119.4719375     
  -49978297.2868114     
  -49978484.2118725     
  -49978680.1380793     
  -49978884.9533648     
  -49979098.5426944     
  -49979320.7881237     
  -49979551.5688565     
  -49979790.7613023     
  -49980038.2391348     
  -49980293.8733492     
  -49980557.5323201     
  -49980829.0818592     
  -49981108.3852733     
  -49981395.3034212     
  -49981689.6947717     
  -49981991.4154606     
  -49982300.3193482     
  -49982616.2580762     
  -49982939.0811247     
  -49983268.6358689     
  -49983604.7676360     
  -49983947.3197615     
  -49984296.1336452     
  -49984651.0488082     
  -49985011.9029479     
  -49985378.5319944     
  -49985750.7701659     
  -49986128.4500238     
  -49973756.2047013     
  -49973724.4585005     
  -49973704.4673586     
  -49973696.1909004     
  -49973699.5842176     
  -49973714.5979283     
  -49973741.1782369     
  -49973779.2669943     
  -49973828.8017586     
  -49973889.7158565     
  -49973961.9384449     
  -49974045.3945728     
  -49974140.0052438     
  -49974245.6874787     
  -49974362.3543785     
  -49974489.9151875     
  -49974628.2753567     
  -49974777.3366073     
  -49974936.9969945     
  -49975107.1509711     
  -49975287.6894517     
  -49975478.4998763     
  -49975679.4662746     
  -49975890.4693300     
  -49976111.3864432     
  -49976342.0917965     
  -49976582.4564179     
  -49976832.3482445     
  -49977091.6321863     
  -49977360.1701903     
  -49977637.8213033     
  -49977924.4417359     
  -49978219.8849253     
  -49978524.0015985     
  -49978836.6398349     
  -49979157.6451294     
  -49979486.8604544     
  -49979824.1263220     
  -49980169.2808463     
  -49980522.1598050     
  -49980882.5967005     
  -49981250.4228218     
  -49981625.4673050     
  -49982007.5571939     
  -49982396.5175009     
  -49982792.1712667     
  -49983194.3396203     
  -49983602.8418388     
  -49984017.4954061     
  -49984438.1160728     
  -49970509.7026915     
  -49970479.8365674     
  -49970462.9951038     
  -49970459.1285406     
  -49970468.1822256     
  -49970490.0966828     
  -49970524.8076808     
  -49970572.2463026     
  -49970632.3390148     
  -49970705.0077380     
  -49970790.1699164     
  -49970887.7385892     
  -49970997.6224604     
  -49971119.7259706     
  -49971253.9493677     
  -49971400.1887778     
  -49971558.3362772     
  -49971728.2799631     
  -49971909.9040255     
  -49972103.0888178     
  -49972307.7109288     
  -49972523.6432538     
  -49972750.7550653     
  -49972988.9120845     
  -49973237.9765517     
  -49973497.8072976     
  -49973768.2598133     
  -49974049.1863207     
  -49974340.4358426     
  -49974641.8542727     
  -49974953.2844448     
  -49975274.5662025     
  -49975605.5364676     
  -49975946.0293093     
  -49976295.8760123     
  -49976654.9051449     
  -49977022.9426265     
  -49977399.8117950     
  -49977785.3334738     
  -49978179.3260382     
  -49978581.6054819     
  -49978991.9854823     
  -49979410.2774666     
  -49979836.2906761     
  -49980269.8322314     
  -49980710.7071962     
  -49981158.7186415     
  -49981613.6677087     
  -49982075.3536728     
  -49982543.5740051     
  -49966865.8479428     
  -49966838.9927181     
  -49966826.5558886     
  -49966828.4766058     
  -49966844.6887565     
  -49966875.1210418     
  -49966919.6970561     
  -49966978.3353658     
  -49967050.9495894     
  -49967137.4484772     
  -49967237.7359905     
  -49967351.7113827     
  -49967479.2692787     
  -49967620.2997548     
  -49967774.6884197     
  -49967942.3164937     
  -49968123.0608892     
  -49968316.7942905     
  -49968523.3852336     
  -49968742.6981855     
  -49968974.5936240     
  -49969218.9281168     
  -49969475.5543999     
  -49969744.3214570     
  -49970025.0745969     
  -49970317.6555324     
  -49970621.9024572     
  -49970937.6501233     
  -49971264.7299180     
  -49971602.9699404     
  -49971952.1950771     
  -49972312.2270779     
  -49972682.8846308     
  -49973063.9834369     
  -49973455.3362843     
  -49973856.7531216     
  -49974268.0411315     
  -49974689.0048029     
  -49975119.4460034     
  -49975559.1640505     
  -49976007.9557832     
  -49976465.6156318     
  -49976931.9356884     
  -49977406.7057763     
  -49977889.7135185     
  -49978380.7444063     
  -49978879.5818672     
  -49979386.0073320     
  -49979899.8003015     
  -49980420.7384128     
  -49962777.3745813     
  -49962754.9304117     
  -49962748.4320538     
  -49962757.8056055     
  -49962782.9715181     
  -49962823.8446866     
  -49962880.3345401     
  -49962952.3451325     
  -49963039.7752326     
  -49963142.5184151     
  -49963260.4631511     
  -49963393.4928986     
  -49963541.4861928     
  -49963704.3167366     
  -49963881.8534907     
  -49964073.9607631     
  -49964280.4982991     
  -49964501.3213705     
  -49964736.2808642     
  -49964985.2233715     
  -49965247.9912756     
  -49965524.4228397     
  -49965814.3522941     
  -49966117.6099233     
  -49966434.0221522     
  -49966763.4116317     
  -49967105.5973241     
  -49967460.3945878     
  -49967827.6152611     
  -49968207.0677461     
  -49968598.5570910     
  -49969001.8850728     
  -49969416.8502783     
  -49969843.2481855     
  -49970280.8712435     
  -49970729.5089519     
  -49971188.9479399     
  -49971658.9720443     
  -49972139.3623869     
  -49972629.8974512     
  -49973130.3531583     
  -49973640.5029425     
  -49974160.1178254     
  -49974688.9664902     
  -49975226.8153545     
  -49975773.4286430     
  -49976328.5684590     
  -49976891.9948556     
  -49977463.4659057     
  -49978042.7377721     
  -49958191.6067851     
  -49958175.2922250     
  -49958176.5943921     
  -49958195.4240720     
  -49958231.6860159     
  -49958285.2790441     
  -49958356.0961490     
  -49958444.0245983     
  -49958548.9460376     
  -49958670.7365928     
  -49958809.2669735     
  -49958964.4025740     
  -49959136.0035759     
  -49959323.9250493     
  -49959528.0170538     
  -49959748.1247391     
  -49959984.0884452     
  -49960235.7438015     
  -49960502.9218263     
  -49960785.4490251     
  -49961083.1474877     
  -49961395.8349860     
  -49961723.3250700     
  -49962065.4271636     
  -49962421.9466594     
  -49962792.6850126     
  -49963177.4398349     
  -49963576.0049866     
  -49963988.1706685     
  -49964413.7235126     
  -49964852.4466723     
  -49965304.1199116     
  -49965768.5196931     
  -49966245.4192654     
  -49966734.5887500     
  -49967235.7952265     
  -49967748.8028171     
  -49968273.3727709     
  -49968809.2635461     
  -49969356.2308925     
  -49969914.0279320     
  -49970482.4052389     
  -49971061.1109190     
  -49971649.8906879     
  -49972248.4879483     
  -49972856.6438662     
  -49973474.0974467     
  -49974100.5856087     
  -49974735.8432584     
  -49975379.6033622     
  -49953049.8859563     
  -49953041.7944808     
  -49953053.1441333     
  -49953083.8277993     
  -49953133.7319421     
  -49953202.7367201     
  -49953290.7161044     
  -49953397.5379954     
  -49953523.0643391     
  -49953667.1512437     
  -49953829.6490943     
  -49954010.4026685     
  -49954209.2512505     
  -49954426.0287446     
  -49954660.5637886     
  -49954912.6798655     
  -49955182.1954154     
  -49955468.9239461     
  -49955772.6741427     
  -49956093.2499766     
  -49956430.4508136     
  -49956784.0715207     
  -49957153.9025726     
  -49957539.7301564     
  -49957941.3362755     
  -49958358.4988533     
  -49958790.9918344     
  -49959238.5852859     
  -49959701.0454970     
  -49960178.1350777     
  -49960669.6130563     
  -49961175.2349759     
  -49961694.7529894     
  -49962227.9159538     
  -49962774.4695230     
  -49963334.1562397     
  -49963906.7156260     
  -49964491.8842726     
  -49965089.3959274     
  -49965698.9815825     
  -49966320.3695600     
  -49966953.2855968     
  -49967597.4529284     
  -49968252.5923715     
  -49968918.4224049     
  -49969594.6592502     
  -49970281.0169505     
  -49970977.2074490     
  -49971682.9406652     
  -49972397.9245713     
  -49947286.9452630     
  -49947289.6101545     
  -49947313.7040883     
  -49947359.0990956     
  -49947425.6604032     
  -49947513.2465669     
  -49947621.7096045     
  -49947750.8951275     
  -49947900.6424732     
  -49948070.7848348     
  -49948261.1493916     
  -49948471.5574376     
  -49948701.8245097     
  -49948951.7605148     
  -49949221.1698556     
  -49949509.8515555     
  -49949817.5993827     
  -49950144.2019723     
  -49950489.4429484     
  -49950853.1010438     
  -49951234.9502194     
  -49951634.7597817     
  -49952052.2944992     
  -49952487.3147175     
  -49952939.5764733     
  -49953408.8316064     
  -49953894.8278708     
  -49954397.3090444     
  -49954916.0150370     
  -49955450.6819972     
  -49956001.0424175     
  -49956566.8252384     
  -49957147.7559504     
  -49957743.5566956     
  -49958353.9463664     
  -49958978.6407042     
  -49959617.3523955     
  -49960269.7911673     
  -49960935.6638806     
  -49961614.6746229     
  -49962306.5247984     
  -49963010.9132182     
  -49963727.5361873     
  -49964456.0875919     
  -49965196.2589841     
  -49965947.7396658     
  -49966710.2167712     
  -49967483.3753476     
  -49968266.8984353     
  -49969060.4671459     
  -49940830.2282780     
  -49940846.6968572     
  -49940886.7558162     
  -49940950.2529706     
  -49941037.0289633     
  -49941146.9174155     
  -49941279.7450767     
  -49941435.3319735     
  -49941613.4915577     
  -49941814.0308531     
  -49942036.7506006     
  -49942281.4454025     
  -49942547.9038655     
  -49942835.9087419     
  -49943145.2370698     
  -49943475.6603118     
  -49943826.9444919     
  -49944198.8503308     
  -49944591.1333803     
  -49945003.5441554     
  -49945435.8282649     
  -49945887.7265407     
  -49946358.9751648     
  -49946849.3057954     
  -49947358.4456903     
  -49947886.1178294     
  -49948432.0410348     
  -49948995.9300901     
  -49949577.4958563     
  -49950176.4453875     
  -49950792.4820441     
  -49951425.3056041     
  -49952074.6123724     
  -49952740.0952897     
  -49953421.4440375     
  -49954118.3451427     
  -49954830.4820804     
  -49955557.5353740     
  -49956299.1826946     
  -49957055.0989578     
  -49957824.9564193     
  -49958608.4247686     
  -49959405.1712204     
  -49960214.8606057     
  -49961037.1554595     
  -49961871.7161084     
  -49962718.2007553     
  -49963576.2655631     
  -49964445.5647370     
  -49965325.7506048     
  -49933599.1485401     
  -49933633.0667852     
  -49933692.9197647     
  -49933778.5272676     
  -49933889.7015651     
  -49934026.2475817     
  -49934187.9630631     
  -49934374.6387441     
  -49934586.0585141     
  -49934821.9995815     
  -49935082.2326355     
  -49935366.5220077     
  -49935674.6258300     
  -49936006.2961924     
  -49936361.2792975     
  -49936739.3156144     
  -49937140.1400290     
  -49937563.4819944     
  -49938009.0656771     
  -49938476.6101026     
  -49938965.8292985     
  -49939476.4324352     
  -49940008.1239649     
  -49940560.6037581     
  -49941133.5672382     
  -49941726.7055140     
  -49942339.7055092     
  -49942972.2500911     
  -49943624.0181958     
  -49944294.6849518     
  -49944983.9218015     
  -49945691.3966200     
  -49946416.7738324     
  -49947159.7145280     
  -49947919.8765733     
  -49948696.9147219     
  -49949490.4807229     
  -49950300.2234270     
  -49951125.7888899     
  -49951966.8204747     
  -49952822.9589510     
  -49953693.8425926     
  -49954579.1072729     
  -49955478.3865588     
  -49956391.3118015     
  -49957317.5122262     
  -49958256.6150199     
  -49959208.2454164     
  -49960172.0267804     
  -49961147.5806892     
  -49925504.2870419     
  -49925559.9957035     
  -49925644.1755066     
  -49925756.6139086     
  -49925897.0905395     
  -49926065.3773937     
  -49926261.2390189     
  -49926484.4327035     
  -49926734.7086621     
  -49927011.8102178     
  -49927315.4739832     
  -49927645.4300391     
  -49928001.4021099     
  -49928383.1077378     
  -49928790.2584540     
  -49929222.5599472     
  -49929679.7122299     
  -49930161.4098026     
  -49930667.3418141     
  -49931197.1922212     
  -49931750.6399436     
  -49932327.3590180     
  -49932927.0187484     
  -49933549.2838545     
  -49934193.8146167     
  -49934860.2670188     
  -49935548.2928887     
  -49936257.5400349     
  -49936987.6523816     
  -49937738.2701007     
  -49938509.0297409     
  -49939299.5643546     
  -49940109.5036216     
  -49940938.4739708     
  -49941786.0986987     
  -49942651.9980853     
  -49943535.7895081     
  -49944437.0875526     
  -49945355.5041209     
  -49946290.6485374     
  -49947242.1276525     
  -49948209.5459430     
  -49949192.5056107     
  -49950190.6066786     
  -49951203.4470845     
  -49952230.6227718     
  -49953271.7277794     
  -49954326.3543275     
  -49955394.0929027     
  -49956474.5323401     
  -49916446.5249259     
  -49916529.1682899     
  -49916643.0194421     
  -49916787.8286634     
  -49916963.3381467     
  -49917169.2822115     
  -49917405.3875148     
  -49917671.3732605     
  -49917966.9514046     
  -49918291.8268589     
  -49918645.6976914     
  -49919028.2553229     
  -49919439.1847220     
  -49919878.1645963     
  -49920344.8675804     
  -49920838.9604214     
  -49921360.1041607     
  -49921907.9543131     
  -49922482.1610429     
  -49923082.3693355     
  -49923708.2191678     
  -49924359.3456735     
  -49925035.3793069     
  -49925735.9460017     
  -49926460.6673281     
  -49927209.1606458     
  -49927981.0392537     
  -49928775.9125372     
  -49929593.3861114     
  -49930433.0619613     
  -49931294.5385792     
  -49932177.4110986     
  -49933081.2714248     
  -49934005.7083625     
  -49934950.3077406     
  -49935914.6525334     
  -49936898.3229788     
  -49937900.8966938     
  -49938921.9487869     
  -49939961.0519669     
  -49941017.7766498     
  -49942091.6910619     
  -49943182.3613405     
  -49944289.3516318     
  -49945412.2241855     
  -49946550.5394474     
  -49947703.8561487     
  -49948871.7313930     
  -49950053.7207404     
  -49951249.3782895     
  -49906316.1090512     
  -49906431.7575445     
  -49906581.5577019     
  -49906765.2171974     
  -49906982.4354217     
  -49907232.9037213     
  -49907516.3056334     
  -49907832.3171176     
  -49908180.6067843     
  -49908560.8361195     
  -49908972.6597053     
  -49909415.7254377     
  -49909889.6747403     
  -49910394.1427737     
  -49910928.7586422     
  -49911493.1455956     
  -49912086.9212284     
  -49912709.6976737     
  -49913361.0817946     
  -49914040.6753706     
  -49914748.0752814     
  -49915482.8736851     
  -49916244.6581945     
  -49917033.0120477     
  -49917847.5142760     
  -49918687.7398675     
  -49919553.2599271     
  -49920443.6418319     
  -49921358.4493839     
  -49922297.2429579     
  -49923259.5796463     
  -49924245.0133999     
  -49925253.0951645     
  -49926283.3730147     
  -49927335.3922832     
  -49928408.6956873     
  -49929502.8234507     
  -49930617.3134229     
  -49931751.7011941     
  -49932905.5202073     
  -49934078.3018667     
  -49935269.5756429     
  -49936478.8691742     
  -49937705.7083654     
  -49938949.6174827     
  -49940210.1192460     
  -49941486.7349178     
  -49942778.9843885     
  -49944086.3862598     
  -49945408.4579245     
  -49894991.6486242     
  -49895147.4364692     
  -49895340.5324656     
  -49895570.5956190     
  -49895837.2765405     
  -49896140.2177124     
  -49896479.0537485     
  -49896853.4116499     
  -49897262.9110571     
  -49897707.1644970     
  -49898185.7776264     
  -49898698.3494695     
  -49899244.4726525     
  -49899823.7336322     
  -49900435.7129210     
  -49901079.9853069     
  -49901756.1200690     
  -49902463.6811878     
  -49903202.2275519     
  -49903971.3131593     
  -49904770.4873139     
  -49905599.2948185     
  -49906457.2761616     
  -49907343.9677008     
  -49908258.9018409     
  -49909201.6072082     
  -49910171.6088192     
  -49911168.4282456     
  -49912191.5837742     
  -49913240.5905631     
  -49914314.9607927     
  -49915414.2038126     
  -49916537.8262839     
  -49917685.3323182     
  -49918856.2236105     
  -49920049.9995696     
  -49921266.1574432     
  -49922504.1924396     
  -49923763.5978449     
  -49925043.8651362     
  -49926344.4840908     
  -49927664.9428919     
  -49929004.7282301     
  -49930363.3254007     
  -49931740.2183984     
  -49933134.8900075     
  -49934546.8218884     
  -49935975.4946612     
  -49937420.3879857     
  -49938880.9806372     
  -49882339.0417580     
  -49882543.3208775     
  -49882788.2805406     
  -49883073.5243474     
  -49883398.6474997     
  -49883763.2370937     
  -49884166.8724070     
  -49884609.1251803     
  -49885089.5598944     
  -49885607.7340401     
  -49886163.1983853     
  -49886755.4972336     
  -49887384.1686798     
  -49888048.7448590     
  -49888748.7521898     
  -49889483.7116124     
  -49890253.1388217     
  -49891056.5444936     
  -49891893.4345069     
  -49892763.3101590     
  -49893665.6683768     
  -49894600.0019215     
  -49895565.7995881     
  -49896562.5463994     
  -49897589.7237952     
  -49898646.8098152     
  -49899733.2792773     
  -49900848.6039504     
  -49901992.2527213     
  -49903163.6917580     
  -49904362.3846658     
  -49905587.7926401     
  -49906839.3746129     
  -49908116.5873948     
  -49909418.8858122     
  -49910745.7228395     
  -49912096.5497257     
  -49913470.8161183     
  -49914867.9701797     
  -49916287.4587014     
  -49917728.7272125     
  -49919191.2200837     
  -49920674.3806273     
  -49922177.6511927     
  -49923700.4732577     
  -49925242.2875154     
  -49926802.5339572     
  -49928380.6519520     
  -49929976.0803213     
  -49931588.2574100     
  -49868210.3316835     
  -49868472.8430180     
  -49868779.6238377     
  -49869130.2148856     
  -49869524.1486338     
  -49869960.9496060     
  -49870440.1346915     
  -49870961.2134544     
  -49871523.6884351     
  -49872127.0554459     
  -49872770.8038600     
  -49873454.4168938     
  -49874177.3718825     
  -49874939.1405498     
  -49875739.1892699     
  -49876576.9793244     
  -49877451.9671510     
  -49878363.6045876     
  -49879311.3391079     
  -49880294.6140520     
  -49881312.8688503     
  -49882365.5392399     
  -49883452.0574764     
  -49884571.8525379     
  -49885724.3503234     
  -49886908.9738448     
  -49888125.1434127     
  -49889372.2768164     
  -49890649.7894971     
  -49891957.0947159     
  -49893293.6037151     
  -49894658.7258743     
  -49896051.8688606     
  -49897472.4387722     
  -49898919.8402773     
  -49900393.4767474     
  -49901892.7503842     
  -49903417.0623423     
  -49904965.8128452     
  -49906538.4012972     
  -49908134.2263897     
  -49909752.6862019     
  -49911393.1782976     
  -49913055.0998159     
  -49914737.8475580     
  -49916440.8180688     
  -49918163.4077141     
  -49919905.0127528     
  -49921665.0294058     
  -49923442.8539191     
  -49852442.4934000     
  -49852774.5567193     
  -49853154.6923669     
  -49853582.3700256     
  -49854057.0513970     
  -49854578.1905527     
  -49855145.2342779     
  -49855757.6224073     
  -49856414.7881531     
  -49857116.1584252     
  -49857861.1541439     
  -49858649.1905443     
  -49859479.6774738     
  -49860352.0196805     
  -49861265.6170959     
  -49862219.8651076     
  -49863214.1548261     
  -49864247.8733434     
  -49865320.4039836     
  -49866431.1265464     
  -49867579.4175433     
  -49868764.6504260     
  -49869986.1958075     
  -49871243.4216757     
  -49872535.6936003     
  -49873862.3749321     
  -49875222.8269949     
  -49876616.4092712     
  -49878042.4795800     
  -49879500.3942488     
  -49880989.5082771     
  -49882509.1754954     
  -49884058.7487155     
  -49885637.5798757     
  -49887245.0201788     
  -49888880.4202239     
  -49890543.1301325     
  -49892232.4996670     
  -49893947.8783450     
  -49895688.6155465     
  -49897454.0606150     
  -49899243.5629541     
  -49901056.4721173     
  -49902892.1378924     
  -49904749.9103816     
  -49906629.1400746     
  -49908529.1779180     
  -49910449.3753785     
  -49912389.0845021     
  -49914347.6579674     
  -49834856.1528482     
  -49835270.8760141     
  -49835737.6815734     
  -49836255.9591686     
  -49836825.0909438     
  -49837444.4519274     
  -49838113.4104038     
  -49838831.3282774     
  -49839597.5614265     
  -49840411.4600486     
  -49841272.3689963     
  -49842179.6281039     
  -49843132.5725051     
  -49844130.5329420     
  -49845172.8360646     
  -49846258.8047212     
  -49847387.7582409     
  -49848559.0127059     
  -49849771.8812162     
  -49851025.6741449     
  -49852319.6993850     
  -49853653.2625879     
  -49855025.6673934     
  -49856436.2156505     
  -49857884.2076311     
  -49859368.9422348     
  -49860889.7171857     
  -49862445.8292210     
  -49864036.5742718     
  -49865661.2476363     
  -49867319.1441452     
  -49869009.5583188     
  -49870731.7845176     
  -49872485.1170850     
  -49874268.8504826     
  -49876082.2794186     
  -49877924.6989690     
  -49879795.4046920     
  -49881693.6927355     
  -49883618.8599376     
  -49885570.2039214     
  -49887547.0231824     
  -49889548.6171704     
  -49891574.2863643     
  -49893623.3323417     
  -49895695.0578425     
  -49897788.7668259     
  -49899903.7645228     
  -49902039.3574821     
  -49904194.8536114     
  -49815254.2422447     
  -49815766.7506948     
  -49816335.5472793     
  -49816959.9318243     
  -49817639.1973720     
  -49818372.6305940     
  -49819159.5121918     
  -49819999.1172880     
  -49820890.7158064     
  -49821833.5728410     
  -49822826.9490144     
  -49823870.1008263     
  -49824962.2809904     
  -49826102.7387617     
  -49827290.7202531     
  -49828525.4687409     
  -49829806.2249619     
  -49831132.2273985     
  -49832502.7125541     
  -49833916.9152201     
  -49835374.0687304     
  -49836873.4052082     
  -49838414.1558026     
  -49839995.5509152     
  -49841616.8204173     
  -49843277.1938586     
  -49844975.9006655     
  -49846712.1703314     
  -49848485.2325969     
  -49850294.3176227     
  -49852138.6561519     
  -49854017.4796655     
  -49855930.0205283     
  -49857875.5121268     
  -49859853.1889992     
  -49861862.2869570     
  -49863902.0431990     
  -49865971.6964173     
  -49868070.4868961     
  -49870197.6566023     
  -49872352.4492697     
  -49874534.1104751     
  -49876741.8877087     
  -49878975.0304360     
  -49881232.7901543     
  -49883514.4204419     
  -49885819.1770013     
  -49888146.3176960     
  -49890495.1025811     
  -49892864.7939279     
  -49793420.5970672     
  -49794048.2840388     
  -49794736.6432062     
  -49795484.8740036     
  -49796292.1700689     
  -49797157.7196862     
  -49798080.7062146     
  -49799060.3085058     
  -49800095.7013086     
  -49801186.0556610     
  -49802330.5392696     
  -49803528.3168777     
  -49804778.5506207     
  -49806080.4003692     
  -49807433.0240606     
  -49808835.5780187     
  -49810287.2172617     
  -49811787.0957987     
  -49813334.3669141     
  -49814928.1834413     
  -49816567.6980253     
  -49818252.0633734     
  -49819980.4324959     
  -49821751.9589354     
  -49823565.7969855     
  -49825421.1018993     
  -49827317.0300868     
  -49829252.7393036     
  -49831227.3888274     
  -49833240.1396265     
  -49835290.1545175     
  -49837376.5983137     
  -49839498.6379643     
  -49841655.4426836     
  -49843846.1840720     
  -49846070.0362277     
  -49848326.1758495     
  -49850613.7823310     
  -49852932.0378467     
  -49855280.1274295     
  -49857657.2390402     
  -49860062.5636291     
  -49862495.2951903     
  -49864954.6308075     
  -49867439.7706932     
  -49869949.9182204     
  -49872484.2799474     
  -49875042.0656353     
  -49877622.4882594     
  -49880224.7640137     
  -49769118.5023530     
  -49769881.3000311     
  -49770709.3080702     
  -49771601.6141513     
  -49772557.3014650     
  -49773575.4491815     
  -49774655.1329065     
  -49775795.4251232     
  -49776995.3956190     
  -49778254.1118987     
  -49779570.6395831     
  -49780944.0427938     
  -49782373.3845242     
  -49783857.7269964     
  -49785396.1320053     
  -49786987.6612484     
  -49788631.3766425     
  -49790326.3406280     
  -49792071.6164591     
  -49793866.2684823     
  -49795709.3624012     
  -49797599.9655297     
  -49799537.1470325     
  -49801519.9781534     
  -49803547.5324321     
  -49805618.8859084     
  -49807733.1173158     
  -49809889.3082630     
  -49812086.5434044     
  -49814323.9105996     
  -49816600.5010624     
  -49818915.4094983     
  -49821267.7342324     
  -49823656.5773264     
  -49826081.0446862     
  -49828540.2461591     
  -49831033.2956215     
  -49833559.3110570     
  -49836117.4146256     
  -49838706.7327236     
  -49841326.3960342     
  -49843975.5395701     
  -49846653.3027075     
  -49849358.8292114     
  -49852091.2672532     
  -49854849.7694202     
  -49857633.4927177     
  -49860441.5985632     
  -49863273.2527739     
  -49866127.6255465     
  -49742089.1984922     
  -49743009.8698414     
  -49744000.4115791     
  -49745059.7875202     
  -49746186.9586625     
  -49747380.8836833     
  -49748640.5194192     
  -49749964.8213291     
  -49751352.7439413     
  -49752803.2412836     
  -49754315.2672982     
  -49755887.7762400     
  -49757519.7230597     
  -49759210.0637708     
  -49760957.7558021     
  -49762761.7583343     
  -49764621.0326215     
  -49766534.5422991     
  -49768501.2536757     
  -49770520.1360120     
  -49772590.1617841     
  -49774710.3069343     
  -49776879.5511071     
  -49779096.8778724     
  -49781361.2749351     
  -49783671.7343315     
  -49786027.2526129     
  -49788426.8310172     
  -49790869.4756270     
  -49793354.1975163     
  -49795880.0128849     
  -49798445.9431817     
  -49801051.0152151     
  -49803694.2612540     
  -49806374.7191156     
  -49809091.4322448     
  -49811843.4497808     
  -49814629.8266146     
  -49817449.6234361     
  -49820301.9067711     
  -49823185.7490088     
  -49826100.2284197     
  -49829044.4291647     
  -49832017.4412946     
  -49835018.3607410     
  -49838046.2892993     
  -49841100.3346022     
  -49844179.6100864     
  -49847283.2349504     
  -49850410.3341051     
  -49712050.3596072     
  -49713154.8101172     
  -49714333.8713625     
  -49715586.3704860     
  -49716911.1339096     
  -49718306.9878540     
  -49719772.7588378     
  -49721307.2741583     
  -49722909.3623537     
  -49724577.8536472     
  -49726311.5803729     
  -49728109.3773832     
  -49729970.0824395     
  -49731892.5365847     
  -49733875.5844989     
  -49735918.0748377     
  -49738018.8605548     
  -49740176.7992068     
  -49742390.7532425     
  -49744659.5902765     
  -49746982.1833467     
  -49749357.4111558     
  -49751784.1582991     
  -49754261.3154756     
  -49756787.7796861     
  -49759362.4544153     
  -49761984.2498010     
  -49764652.0827889     
  -49767364.8772733     
  -49770121.5642255     
  -49772921.0818082     
  -49775762.3754775     
  -49778644.3980719     
  -49781566.1098897     
  -49784526.4787537     
  -49787524.4800642     
  -49790559.0968412     
  -49793629.3197542     
  -49796734.1471415     
  -49799872.5850196     
  -49803043.6470806     
  -49806246.3546805     
  -49809479.7368172     
  -49812742.8300987     
  -49816034.6787023     
  -49819354.3343237     
  -49822700.8561181     
  -49826073.3106325     
  -49829470.7717291     
  -49832892.3205006     
  -49678694.5609228     
  -49680012.1688532     
  -49681409.1559515     
  -49682884.1992806     
  -49684435.9777605     
  -49686063.1727047     
  -49687764.4683339     
  -49689538.5522691     
  -49691384.1160041     
  -49693299.8553569     
  -49695284.4709011     
  -49697336.6683773     
  -49699455.1590848     
  -49701638.6602533     
  -49703885.8953969     
  -49706195.5946473     
  -49708566.4950703     
  -49710997.3409628     
  -49713486.8841324     
  -49716033.8841596     
  -49718637.1086420     
  -49721295.3334223     
  -49724007.3427987     
  -49726771.9297196     
  -49729587.8959623     
  -49732454.0522948     
  -49735369.2186239     
  -49738332.2241261     
  -49741341.9073657     
  -49744397.1163964     
  -49747496.7088503     
  -49750639.5520117     
  -49753824.5228780     
  -49757050.5082071     
  -49760316.4045517     
  -49763621.1182806     
  -49766963.5655882     
  -49770342.6724913     
  -49773757.3748143     
  -49777206.6181628     
  -49780689.3578861     
  -49784204.5590284     
  -49787751.1962700     
  -49791328.2538572     
  -49794934.7255228     
  -49798569.6143968     
  -49802231.9329072     
  -49805920.7026718     
  -49809634.9543812     
  -49813373.7276727     
  -49641687.7552827     
  -49643251.7182170     
  -49644899.7924220     
  -49646630.4909975     
  -49648442.3320217     
  -49650333.8390967     
  -49652303.5418710     
  -49654349.9765374     
  -49656471.6863082     
  -49658667.2218677     
  -49660935.1418016     
  -49663274.0130044     
  -49665682.4110654     
  -49668158.9206326     
  -49670702.1357559     
  -49673310.6602094     
  -49675983.1077932     
  -49678718.1026153     
  -49681514.2793539     
  -49684370.2835005     
  -49687284.7715833     
  -49690256.4113730     
  -49693283.8820698     
  -49696365.8744727     
  -49699501.0911314     
  -49702688.2464804     
  -49705926.0669574     
  -49709213.2911044     
  -49712548.6696529     
  -49715930.9655937     
  -49719358.9542307     
  -49722831.4232205     
  -49726347.1725967     
  -49729905.0147795     
  -49733503.7745728     
  -49737142.2891457     
  -49740819.4080022     
  -49744533.9929374     
  -49748284.9179806     
  -49752071.0693270     
  -49755891.3452567     
  -49759744.6560423     
  -49763629.9238453     
  -49767546.0826012     
  -49771492.0778942     
  -49775466.8668216     
  -49779469.4178474     
  -49783498.7106476     
  -49787553.7359446     
  -49791633.4953332     
  -49600667.7831758     
  -49602515.4777861     
  -49604451.9012572     
  -49606475.3885349     
  -49608584.2832723     
  -49610776.9383766     
  -49613051.7165307     
  -49615406.9906878     
  -49617841.1445407     
  -49620352.5729655     
  -49622939.6824409     
  -49625600.8914426     
  -49628334.6308143     
  -49631139.3441146     
  -49634013.4879410     
  -49636955.5322314     
  -49639963.9605430     
  -49643037.2703098     
  -49646173.9730778     
  -49649372.5947206     
  -49652631.6756330     
  -49655949.7709057     
  -49659325.4504790     
  -49662757.2992785     
  -49666243.9173308     
  -49669783.9198616     
  -49673375.9373750     
  -49677018.6157153     
  -49680710.6161121     
  -49684450.6152077     
  -49688237.3050688     
  -49692069.3931813     
  -49695945.6024302     
  -49699864.6710638     
  -49703825.3526430     
  -49707826.4159763     
  -49711866.6450402     
  -49715944.8388867     
  -49720059.8115364     
  -49724210.3918592     
  -49728395.4234420     
  -49732613.7644448     
  -49736864.2874440     
  -49741145.8792645     
  -49745457.4408008     
  -49749797.8868270     
  -49754166.1457963     
  -49758561.1596302     
  -49762981.8834984     
  -49767427.2855887     
  -49555242.9453252     
  -49557416.2961945     
  -49559682.7853871     
  -49562040.5554113     
  -49564487.7618860     
  -49567022.5740792     
  -49569643.1754171     
  -49572347.7639651     
  -49575134.5528796     
  -49578001.7708334     
  -49580947.6624131     
  -49583970.4884900     
  -49587068.5265655     
  -49590240.0710898     
  -49593483.4337568     
  -49596796.9437729     
  -49600178.9481034     
  -49603627.8116938     
  -49607141.9176687     
  -49610719.6675082     
  -49614359.4812018     
  -49618059.7973805     
  -49621819.0734285     
  -49625635.7855736     
  -49629508.4289569     
  -49633435.5176840     
  -49637415.5848561     
  -49641447.1825819     
  -49645528.8819722     
  -49649659.2731154     
  -49653836.9650367     
  -49658060.5856389     
  -49662328.7816280     
  -49666640.2184217     
  -49670993.5800423     
  -49675387.5689945     
  -49679820.9061286     
  -49684292.3304884     
  -49688800.5991456     
  -49693344.4870208     
  -49697922.7866905     
  -49702534.3081821     
  -49707177.8787558     
  -49711852.3426748     
  -49716556.5609636     
  -49721289.4111553     
  -49726049.7870282     
  -49730836.5983308     
  -49735648.7704980     
  -49740485.2443568     
  -49504990.6720745     
  -49507536.5242174     
  -49510179.6052516     
  -49512917.8511399     
  -49515749.2161021     
  -49518671.6731312     
  -49521683.2144784     
  -49524781.8521063     
  -49527965.6181115     
  -49531232.5651180     
  -49534580.7666400     
  -49538008.3174169     
  -49541513.3337200     
  -49545093.9536306     
  -49548748.3372929     
  -49552474.6671384     
  -49556271.1480862     
  -49560136.0077168     
  -49564067.4964218     
  -49568063.8875292     
  -49572123.4774053     
  -49576244.5855329     
  -49580425.5545680     
  -49584664.7503736     
  -49588960.5620323     
  -49593311.4018383     
  -49597715.7052684     
  -49602171.9309338     
  -49606678.5605118     
  -49611234.0986591     
  -49615837.0729064     
  -49620486.0335354     
  -49625179.5534383     
  -49629916.2279599     
  -49634694.6747240     
  -49639513.5334435     
  -49644371.4657146     
  -49649267.1547964     
  -49654199.3053759     
  -49659166.6433184     
  -49664167.9154048     
  -49669201.8890550     
  -49674267.3520387     
  -49679363.1121740     
  -49684487.9970137     
  -49689640.8535199     
  -49694820.5477280     
  -49700025.9643992     
  -49705256.0066633     
  -49710509.5956509     
  -49449456.3294902     
  -49452426.8178603     
  -49455498.1771296     
  -49458668.1231094     
  -49461934.3958244     
  -49465294.7599922     
  -49468747.0054676     
  -49472288.9476533     
  -49475918.4278781     
  -49479633.3137427     
  -49483431.4994337     
  -49487310.9060076     
  -49491269.4816432     
  -49495305.2018663     
  -49499416.0697437     
  -49503600.1160512     
  -49507855.3994117     
  -49512180.0064087     
  -49516572.0516719     
  -49521029.6779383     
  -49525551.0560876     
  -49530134.3851537     
  -49534777.8923124     
  -49539479.8328457     
  -49544238.4900839     
  -49549052.1753255     
  -49553919.2277356     
  -49558838.0142239     
  -49563806.9293021     
  -49568824.3949215     
  -49573888.8602920     
  -49578998.8016817     
  -49584152.7221990     
  -49589349.1515569     
  -49594586.6458204     
  -49599863.7871374     
  -49605179.1834529     
  -49610531.4682088     
  -49615919.3000280     
  -49621341.3623838     
  -49626796.3632556     
  -49632283.0347708     
  -49637800.1328338     
  -49643346.4367420     
  -49648920.7487897     
  -49654521.8938603     
  -49660148.7190072     
  -49665800.0930236     
  -49671474.9060020     
  -49677172.0688836     
  -49388152.2082985     
  -49391605.1160796     
  -49395161.9379023     
  -49398820.1567126     
  -49402577.2865027     
  -49406430.8727338     
  -49410378.4927234     
  -49414417.7559957     
  -49418546.3045968     
  -49422761.8133765     
  -49427061.9902359     
  -49431444.5763423     
  -49435907.3463127     
  -49440448.1083658     
  -49445064.7044435     
  -49449755.0103027     
  -49454516.9355786     
  -49459348.4238193     
  -49464247.4524932     
  -49469212.0329690     
  -49474240.2104708     
  -49479330.0640065     
  -49484479.7062719     
  -49489687.2835312     
  -49494950.9754729     
  -49500268.9950442     
  -49505639.5882623     
  -49511061.0340045     
  -49516531.6437773     
  -49522049.7614653     
  -49527613.7630597     
  -49533222.0563688     
  -49538873.0807091     
  -49544565.3065782     
  -49550297.2353113     
  -49556067.3987192     
  -49561874.3587118     
  -49567716.7069043     
  -49573593.0642086     
  -49579502.0804102     
  -49585442.4337306     
  -49591412.8303757     
  -49597412.0040715     
  -49603438.7155863     
  -49609491.7522413     
  -49615569.9274091     
  -49621672.0800007     
  -49627797.0739417     
  -49633943.7976382     
  -49640111.1634329     
  -49320556.7485050     
  -49324555.8443557     
  -49328661.1258926     
  -49332869.8318322     
  -49337179.2397067     
  -49341586.6662106     
  -49346089.4675086     
  -49350685.0395058     
  -49355370.8180806     
  -49360144.2792819     
  -49365002.9394908     
  -49369944.3555480     
  -49374966.1248481     
  -49380065.8854009     
  -49385241.3158612     
  -49390490.1355273     
  -49395810.1043100     
  -49401199.0226720     
  -49406654.7315379     
  -49412175.1121781     
  -49417758.0860643     
  -49423401.6146993     
  -49429103.6994210     
  -49434862.3811821     
  -49440675.7403049     
  -49446541.8962134     
  -49452459.0071423     
  -49458425.2698240     
  -49464438.9191543     
  -49470498.2278373     
  -49476601.5060101     
  -49482747.1008483     
  -49488933.3961521     
  -49495158.8119152     
  -49501421.8038746     
  -49507720.8630446     
  -49514054.5152338     
  -49520421.3205459     
  -49526819.8728659     
  -49533248.7993305     
  -49539706.7597854     
  -49546192.4462277     
  -49552704.5822359     
  -49559241.9223869     
  -49565803.2516608     
  -49572387.3848339     
  -49578993.1658611     
  -49585619.4672463     
  -49592265.1894044     
  -49598929.2600118     
  -49246114.0597987     
  -49250729.4024947     
  -49255452.2344768     
  -49260279.5407457     
  -49265208.3538789     
  -49270235.7542774     
  -49275358.8703716     
  -49280574.8787880     
  -49285881.0044770     
  -49291274.5208039     
  -49296752.7496018     
  -49302313.0611910     
  -49307952.8743623     
  -49313669.6563269     
  -49319460.9226336     
  -49325324.2370547     
  -49331257.2114400     
  -49337257.5055409     
  -49343322.8268059     
  -49349450.9301471     
  -49355639.6176786     
  -49361886.7384295     
  -49368190.1880296     
  -49374547.9083703     
  -49380957.8872413     
  -49387418.1579437     
  -49393926.7988787     
  -49400481.9331161     
  -49407081.7279400     
  -49413724.3943737     
  -49420408.1866846     
  -49427131.4018698     
  -49433892.3791224     
  -49440689.4992801     
  -49447521.1842553     
  -49454385.8964496     
  -49461282.1381504     
  -49468208.4509130     
  -49475163.4149269     
  -49482145.6483673     
  -49489153.8067330     
  -49496186.5821708     
  -49503242.7027865     
  -49510320.9319439     
  -49517420.0675516     
  -49524538.9413386     
  -49531676.4181190     
  -49538831.3950465     
  -49546002.8008587     
  -49553189.5951117     
  -49164233.8056495     
  -49169542.0027635     
  -49174957.8028310     
  -49180477.9301272     
  -49186099.1663028     
  -49191818.3505045     
  -49197632.3794537     
  -49203538.2074834     
  -49209532.8465364     
  -49215613.3661246     
  -49221776.8932511     
  -49228020.6122951     
  -49234341.7648627     
  -49240737.6496019     
  -49247205.6219855     
  -49253743.0940606     
  -49260347.5341673     
  -49267016.4666266     
  -49273747.4713990     
  -49280538.1837137     
  -49287386.2936710     
  -49294289.5458167     
  -49301245.7386913     
  -49308252.7243535     
  -49315308.4078791     
  -49322410.7468366     
  -49329557.7507395     
  -49336747.4804768     
  -49343978.0477219     
  -49351247.6143211     
  -49358554.3916618     
  -49365896.6400217     
  -49373272.6678990     
  -49380680.8313261     
  -49388119.5331639     
  -49395587.2223810     
  -49403082.3933170     
  -49410603.5849295     
  -49418149.3800271     
  -49425718.4044877     
  -49433309.3264641     
  -49440920.8555755     
  -49448551.7420873     
  -49456200.7760783     
  -49463866.7865974     
  -49471548.6408091     
  -49479245.2431277     
  -49486955.5343434     
  -49494678.4907376     
  -49502413.1231901     
  -49074291.5274103     
  -49080375.9328350     
  -49086566.6165147     
  -49092860.0381349     
  -49099252.7256282     
  -49105741.2751397     
  -49112322.3509488     
  -49118992.6853497     
  -49125749.0784921     
  -49132588.3981827     
  -49139507.5796483     
  -49146503.6252630     
  -49153573.6042392     
  -49160714.6522839     
  -49167923.9712223     
  -49175198.8285881     
  -49182536.5571825     
  -49189934.5546036     
  -49197390.2827452     
  -49204901.2672677     
  -49212465.0970415     
  -49220079.4235632     
  -49227741.9603469     
  -49235450.4822898     
  -49243202.8250142     
  -49250996.8841860     
  -49258830.6148110     
  -49266702.0305099     
  -49274609.2027716     
  -49282550.2601875     
  -49290523.3876653     
  -49298526.8256257     
  -49306558.8691795     
  -49314617.8672892     
  -49322702.2219124     
  -49330810.3871307     
  -49338940.8682624     
  -49347092.2209615     
  -49355263.0503016     
  -49363452.0098475     
  -49371657.8007130     
  -49379879.1706071     
  -49388114.9128686     
  -49396363.8654887     
  -49404624.9101239     
  -49412896.9710981     
  -49421179.0143960     
  -49429470.0466460     
  -49437769.1140962     
  -49446075.3015807     
  -48975629.4937627     
  -48982580.3270717     
  -48989634.3996744     
  -48996787.9066857     
  -49004037.1234323     
  -49011378.4052314     
  -49018808.1871259     
  -49026322.9835775     
  -49033919.3881209     
  -49041594.0729780     
  -49049343.7886349     
  -49057165.3633827     
  -49065055.7028218     
  -49073011.7893338     
  -49081030.6815186     
  -49089109.5136007     
  -49097245.4948044     
  -49105435.9086987     
  -49113678.1125140     
  -49121969.5364303     
  -49130307.6828399     
  -49138690.1255824     
  -49147114.5091563     
  -49155578.5479059     
  -49164080.0251854     
  -49172616.7924997     
  -49181186.7686258     
  -49189787.9387116     
  -49198418.3533557     
  -49207076.1276686     
  -49215759.4403150     
  -49224466.5325387     
  -49233195.7071709     
  -49241945.3276225     
  -49250713.8168603     
  -49259499.6563695     
  -49268301.3851011     
  -49277117.5984061     
  -49285946.9469574     
  -49294788.1356586     
  -49303639.9225413     
  -49312501.1176516     
  -49321370.5819257     
  -49330247.2260550     
  -49339130.0093428     
  -49348017.9385502     
  -49356910.0667353     
  -49365805.4920828     
  -49374703.3567266     
  -49383602.8455655     
  -48867558.1706250     
  -48875472.5395397     
  -48883485.0906010     
  -48891591.7590526     
  -48899788.5734126     
  -48908071.6550317     
  -48916437.2176088     
  -48924881.5666659     
  -48933401.0989831     
  -48941992.3019962     
  -48950651.7531567     
  -48959376.1192570     
  -48968162.1557205     
  -48977006.7058589     
  -48985906.7000975     
  -48994859.1551698     
  -49003861.1732819     
  -49012909.9412490     
  -49022002.7296034     
  -49031136.8916772     
  -49040309.8626584     
  -49049519.1586232     
  -49058762.3755443     
  -49068037.1882773     
  -49077341.3495246     
  -49086672.6887791     
  -49096029.1112479     
  -49105408.5967565     
  -49114809.1986357     
  -49124229.0425899     
  -49133666.3255497     
  -49143119.3145078     
  -49152586.3453406     
  -49162065.8216140     
  -49171556.2133767     
  -49181056.0559396     
  -49190563.9486425     
  -49200078.5536096     
  -49209598.5944930     
  -49219122.8552056     
  -49228650.1786438     
  -49238179.4654010     
  -49247709.6724709     
  -49257239.8119428     
  -49266768.9496893     
  -49276296.2040442     
  -49285820.7444760     
  -49295341.7902520     
  -49304858.6090973     
  -49314370.5158477     
  -48749358.4173188     
  -48758340.2229802     
  -48767412.8033554     
  -48776571.8440463     
  -48785813.1380762     
  -48795132.5851923     
  -48804526.1911271     
  -48813990.0668207     
  -48823520.4276060     
  -48833113.5923556     
  -48842765.9825946     
  -48852474.1215789     
  -48862234.6333411     
  -48872044.2417045     
  -48881899.7692674     
  -48891798.1363576     
  -48901736.3599597     
  -48911711.5526152     
  -48921720.9212971     
  -48931761.7662600     
  -48941831.4798665     
  -48951927.5453911     
  -48962047.5358029     
  -48972189.1125276     
  -48982350.0241896     
  -48992528.1053361     
  -49002721.2751431     
  -49012927.5361043     
  -49023144.9727040     
  -49033371.7500750     
  -49043606.1126421     
  -49053846.3827510     
  -49064090.9592852     
  -49074338.3162700     
  -49084587.0014651     
  -49094835.6349457     
  -49105082.9076739     
  -49115327.5800596     
  -49125568.4805126     
  -49135804.5039857     
  -49146034.6105096     
  -49156257.8237204     
  -49166473.2293790     
  -49176679.9738848     
  -49186877.2627821     
  -49197064.3592609     
  -49207240.5826517     
  -49217405.3069158     
  -49227557.9591298     
  -49237698.0179659     
  -48620284.5265981     
  -48630444.2300076     
  -48640684.5904406     
  -48651001.0605094     
  -48661389.2154448     
  -48671844.7521075     
  -48682363.4879608     
  -48692941.3600053     
  -48703574.4236793     
  -48714258.8517231     
  -48724990.9330111     
  -48735767.0713523     
  -48746583.7842596     
  -48757437.7016914     
  -48768325.5647635     
  -48779244.2244359     
  -48790190.6401735     
  -48801161.8785824     
  -48812155.1120238     
  -48823167.6172053     
  -48834196.7737516     
  -48845240.0627552     
  -48856295.0653088     
  -48867359.4610194     
  -48878431.0265061     
  -48889507.6338816     
  -48900587.2492192     
  -48911667.9310055     
  -48922747.8285797     
  -48933825.1805614     
  -48944898.3132657     
  -48955965.6391081     
  -48967025.6549991     
  -48978076.9407294     
  -48989118.1573460     
  -49000148.0455207     
  -49011165.4239104     
  -49022169.1875104     
  -49033158.3060017     
  -49044131.8220914     
  -49055088.8498484     
  -49066028.5730326     
  -49076950.2434211     
  -49087853.1791281     
  -49098736.7629221     
  -49109600.4405384     
  -49120443.7189888     
  -49131266.1648673     
  -49142067.4026535     
  -49152847.1130127     
  -48479568.2394656     
  -48491022.4664195     
  -48502544.1353947     
  -48514128.4900049     
  -48525770.9126799     
  -48537466.9233485     
  -48549212.1780856     
  -48561002.4677250     
  -48572833.7164394     
  -48584701.9802881     
  -48596603.4457350     
  -48608534.4281381     
  -48620491.3702105     
  -48632470.8404567     
  -48644469.5315825     
  -48656484.2588832     
  -48668511.9586074     
  -48680549.6863019     
  -48692594.6151352     
  -48704644.0342032     
  -48716695.3468174     
  -48728746.0687761     
  -48740793.8266212     
  -48752836.3558801     
  -48764871.4992948     
  -48776897.2050388     
  -48788911.5249222     
  -48800912.6125878     
  -48812898.7216953     
  -48824868.2041000     
  -48836819.5080210     
  -48848751.1762036     
  -48860661.8440753     
  -48872550.2378953     
  -48884415.1728998     
  -48896255.5514426     
  -48908070.3611310     
  -48919858.6729591     
  -48931619.6394380     
  -48943352.4927226     
  -48955056.5427372     
  -48966731.1752986     
  -48978375.8502375     
  -48989990.0995193     
  -49001573.5253627     
  -49013125.7983585     
  -49024646.6555864     
  -49036135.8987325     
  -49047593.3922049     
  -49059019.0612499     
  -48326423.8810363     
  -48339294.8422056     
  -48352216.5201916     
  -48365183.9818745     
  -48378192.4500804     
  -48391237.3018987     
  -48404314.0669674     
  -48417418.4257273     
  -48430546.2076462     
  -48443693.3894150     
  -48456856.0931172     
  -48470030.5843722     
  -48483213.2704554     
  -48496400.6983955     
  -48509589.5530506     
  -48522776.6551644     
  -48535958.9594039     
  -48549133.5523805     
  -48562297.6506540     
  -48575448.5987241     
  -48588583.8670065     
  -48601701.0497979     
  -48614797.8632303     
  -48627872.1432149     
  -48640921.8433776     
  -48653945.0329870     
  -48666939.8948753     
  -48679904.7233547     
  -48692837.9221269     
  -48705738.0021914     
  -48718603.5797490     
  -48731433.3741033     
  -48744226.2055608     
  -48756980.9933308     
  -48769696.7534238     
  -48782372.5965508     
  -48795007.7260237     
  -48807601.4356560     
  -48820153.1076661     
  -48832662.2105821     
  -48845128.2971483     
  -48857551.0022350     
  -48869930.0407504     
  -48882265.2055551     
  -48894556.3653802     
  -48906803.4627466     
  -48919006.5118890     
  -48931165.5966811     
  -48943280.8685641     
  -48955352.5444775     
  -48160054.7818496     
  -48174469.4843490     
  -48188914.2311729     
  -48203383.9539432     
  -48217873.7582110     
  -48232378.9213726     
  -48246894.8905556     
  -48261417.2804773     
  -48275941.8712768     
  -48290464.6063231     
  -48304981.5899981     
  -48319489.0854599     
  -48333983.5123850     
  -48348461.4446916     
  -48362919.6082466     
  -48377354.8785564     
  -48391764.2784438     
  -48406144.9757123     
  -48420494.2807992     
  -48434809.6444193     
  -48449088.6551996     
  -48463329.0373077     
  -48477528.6480745     
  -48491685.4756119     
  -48505797.6364285     
  -48519863.3730424     
  -48533881.0515931     
  -48547849.1594550     
  -48561766.3028509     
  -48575631.2044678     
  -48589442.7010767     
  -48603199.7411556     
  -48616901.3825170     
  -48630546.7899417     
  -48644135.2328177     
  -48657666.0827861     
  -48671138.8113929     
  -48684552.9877506     
  -48697908.2762043     
  -48711204.4340081     
  -48724441.3090083     
  -48737618.8373351     
  -48750737.0411025     
  -48763796.0261160     
  -48776795.9795886     
  -48789737.1678645     
  -48802619.9341499     
  -48815444.6962513     
  -48828211.9443205     
  -48840922.2386063     
  -47979661.1710342     
  -47995750.3978573     
  -48011844.5898219     
  -48027938.5949099     
  -48044027.4537928     
  -48060106.3973068     
  -48076170.8439014     
  -48092216.3970643     
  -48108238.8427220     
  -48124234.1466200     
  -48140198.4516816     
  -48156128.0753506     
  -48172019.5069165     
  -48187869.4048250     
  -48203674.5939768     
  -48219432.0630142     
  -48235138.9615996     
  -48250792.5976856     
  -48266390.4347794     
  -48281930.0892041     
  -48297409.3273565     
  -48312826.0629646     
  -48328178.3543458     
  -48343464.4016676     
  -48358682.5442118     
  -48373831.2576441     
  -48388909.1512900     
  -48403914.9654186     
  -48418847.5685355     
  -48433705.9546850     
  -48448489.2407646     
  -48463196.6638500     
  -48477827.5785339     
  -48492381.4542776     
  -48506857.8727776     
  -48521256.5253459     
  -48535577.2103055     
  -48549819.8304021     
  -48563984.3902306     
  -48578070.9936778     
  -48592079.8413804     
  -48606011.2281992     
  -48619865.5407087     
  -48633643.2547017     
  -48647344.9327093     
  -48660971.2215343     
  -48674522.8497999     
  -48688000.6255102     
  -48701405.4336239     
  -48714738.2336400     
  -47784449.7551615     
  -47802346.7890738     
  -47820218.8223743     
  -47838060.6821116     
  -47855867.4074951     
  -47873634.2468908     
  -47891356.6547912     
  -47909030.2887638     
  -47926651.0063772     
  -47944214.8621091     
  -47961718.1042364     
  -47979157.1717114     
  -47996528.6910243     
  -48013829.4730556     
  -48031056.5099198     
  -48048206.9718034     
  -48065278.2037982     
  -48082267.7227333     
  -48099173.2140075     
  -48115992.5284236     
  -48132723.6790281     
  -48149364.8379572     
  -48165914.3332913     
  -48182370.6459202     
  -48198732.4064209     
  -48214998.3919487     
  -48231167.5231455     
  -48247238.8610638     
  -48263211.6041107     
  -48279085.0850114     
  -48294858.7677940     
  -48310532.2447965     
  -48326105.2336981     
  -48341577.5745730     
  -48356949.2269705     
  -48372220.2670199     
  -48387390.8845610     
  -48402461.3803008     
  -48417432.1629969     
  -48432303.7466666     
  -48447076.7478222     
  -48461751.8827324     
  -48476329.9647087     
  -48490811.9014173     
  -48505198.6922144     
  -48519491.4255059     
  -48533691.2761286     
  -48547799.5027540     
  -48561817.4453110     
  -48575746.5224286     
  -47573645.2317055     
  -47593484.3002548     
  -47613263.0168967     
  -47632976.2625238     
  -47652619.1503477     
  -47672187.0223693     
  -47691675.4458229     
  -47711080.2095978     
  -47730397.3206384     
  -47749623.0003264     
  -47768753.6808466     
  -47787786.0015409     
  -47806716.8052509     
  -47825543.1346542     
  -47844262.2285962     
  -47862871.5184202     
  -47881368.6242996     
  -47899751.3515744     
  -47918017.6870947     
  -47936165.7955755     
  -47954194.0159635     
  -47972100.8578201     
  -47989884.9977235     
  -48007545.2756903     
  -48025080.6916215     
  -48042490.4017742     
  -48059773.7152600     
  -48076930.0905742     
  -48093959.1321562     
  -48110860.5869829     
  -48127634.3411973     
  -48144280.4167729     
  -48160798.9682154     
  -48177190.2793027     
  -48193454.7598642     
  -48209592.9425992     
  -48225605.4799356     
  -48241493.1409294     
  -48257256.8082039     
  -48272897.4749295     
  -48288416.2418433     
  -48303814.3143083     
  -48319092.9994113     
  -48334253.7030985     
  -48349297.9273482     
  -48364227.2673791     
  -48379043.4088928     
  -48393748.1253495     
  -48408343.2752734     
  -48422830.7995897     
  -47346504.0319529     
  -47368418.4495531     
  -47390231.2606091     
  -47411937.4878138     
  -47433532.4070709     
  -47455011.5433823     
  -47476370.6667056     
  -47497605.7877842     
  -47518713.1539534     
  -47539689.2449253     
  -47560530.7685582     
  -47581234.6566119     
  -47601798.0604955     
  -47622218.3470094     
  -47642493.0940871     
  -47662620.0865412     
  -47682597.3118158     
  -47702422.9557520     
  -47722095.3983686     
  -47741613.2096626     
  -47760975.1454335     
  -47780180.1431354     
  -47799227.3177599     
  -47818115.9577528     
  -47836845.5209698     
  -47855415.6306717     
  -47873826.0715641     
  -47892076.7858831     
  -47910167.8695293     
  -47928099.5682532     
  -47945872.2738930     
  -47963486.5206668     
  -47980942.9815212     
  -47998242.4645364     
  -48015385.9093897     
  -48032374.3838775     
  -48049209.0804966     
  -48065891.3130848     
  -48082422.5135203     
  -48098804.2284813     
  -48115038.1162624     
  -48131125.9436498     
  -48147069.5828523     
  -48162871.0084884     
  -48178532.2946265     
  -48194055.6118781     
  -48209443.2245397     
  -48224697.4877844     
  -48239820.8449001     
  -48254815.8245652     
  -47102330.6496180     
  -47126450.6300460     
  -47150421.3075210     
  -47174237.9490604     
  -47197896.0966839     
  -47221391.5626403     
  -47244720.4245906     
  -47267879.0207557     
  -47290863.9450298     
  -47313672.0420695     
  -47336300.4023595     
  -47358746.3572650     
  -47381007.4740735     
  -47403081.5510342     
  -47424966.6123999     
  -47446660.9034783     
  -47468162.8856972     
  -47489471.2316925     
  -47510584.8204210     
  -47531502.7323070     
  -47552224.2444259     
  -47572748.8257318     
  -47593076.1323324     
  -47613206.0028174     
  -47633138.4536438     
  -47652873.6745830     
  -47672412.0242332     
  -47691754.0256005     
  -47710900.3617517     
  -47729851.8715422     
  -47748609.5454213     
  -47767174.5213161     
  -47785548.0805974     
  -47803731.6441270     
  -47821726.7683896     
  -47839535.1417081     
  -47857158.5805438     
  -47874599.0258816     
  -47891858.5396983     
  -47908939.3015168     
  -47925843.6050405     
  -47942573.8548716     
  -47959132.5633084     
  -47975522.3472211     
  -47991745.9250044     
  -48007806.1136011     
  -48023705.8256059     
  -48039448.0664255     
  -48055035.9315074     
  -48070472.6036498     
  -46840496.9950057     
  -46866947.1011046     
  -46893193.2017626     
  -46919230.9273760     
  -46945056.2063912     
  -46970665.2597457     
  -46996054.5952464     
  -47021221.0018925     
  -47046161.5441513     
  -47070873.5561963     
  -47095354.6361142     
  -47119602.6400931     
  -47143615.6765985     
  -47167392.1005468     
  -47190930.5074867     
  -47214229.7277961     
  -47237288.8209045     
  -47260107.0695489     
  -47282683.9740723     
  -47305019.2467722     
  -47327112.8063079     
  -47348964.7721736     
  -47370575.4592429     
  -47391945.3723947     
  -47413075.2012219     
  -47433965.8148332     
  -47454618.2567492     
  -47475033.7398996     
  -47495213.6417250     
  -47515159.4993862     
  -47534873.0050847     
  -47554356.0014968     
  -47573610.4773222     
  -47592638.5629509     
  -47611442.5262464     
  -47630024.7684484     
  -47648387.8201930     
  -47666534.3376515     
  -47684467.0987870     
  -47702188.9997254     
  -47719703.0512448     
  -47737012.3753718     
  -47754120.2020942     
  -47771029.8661790     
  -47787744.8040941     
  -47804268.5510443     
  -47820604.7380693     
  -47836757.0892929     
  -47852729.4192370     
  -47868525.6301586     
  -46560465.3297579     
  -46589361.5131354     
  -46617991.3817419     
  -46646351.0680061     
  -46674437.0273360     
  -46702246.0315736     
  -46729775.1623543     
  -46757021.8043817     
  -46783983.6386320     
  -46810658.6355025     
  -46837045.0479178     
  -46863141.4044076     
  -46888946.5021713     
  -46914459.4001421     
  -46939679.4120672     
  -46964606.0996142     
  -46989239.2655207     
  -47013578.9467977     
  -47037625.4079995     
  -47061379.1345725     
  -47084840.8262936     
  -47108011.3908087     
  -47130891.9372803     
  -47153483.7701545     
  -47175788.3830541     
  -47197807.4528056     
  -47219542.8336070     
  -47240996.5513406     
  -47262170.7980385     
  -47283067.9265006     
  -47303690.4450730     
  -47324041.0125855     
  -47344122.4334519     
  -47363937.6529347     
  -47383489.7525727     
  -47402781.9457725     
  -47421817.5735649     
  -47440600.1005198     
  -47459133.1108229     
  -47477420.3045133     
  -47495465.4938654     
  -47513272.5999421     
  -47530845.6492755     
  -47548188.7707035     
  -47565306.1923524     
  -47582202.2387163     
  -47598881.3279961     
  -47615347.9693508     
  -47631606.7604001     
  -47647662.3850533     
  -46261815.4966314     
  -46293261.6525350     
  -46324370.9218746     
  -46355140.1024537     
  -46385566.3428652     
  -46415647.1346224     
  -46445380.3041453     
  -46474764.0046227     
  -46503796.7077709     
  -46532477.1955134     
  -46560804.5516044     
  -46588778.1532155     
  -46616397.6625123     
  -46643663.0182392     
  -46670574.4273358     
  -46697132.3566043     
  -46723337.5244490     
  -46749190.8927052     
  -46774693.6585767     
  -46799847.2466979     
  -46824653.3013363     
  -46849113.6787497     
  -46873230.4397109     
  -46897005.8422120     
  -46920442.3343587     
  -46943542.5474631     
  -46966309.2893432     
  -46988745.5378363     
  -47010854.4345296     
  -47032639.2787139     
  -47054103.5215630     
  -47075250.7605383     
  -47096084.7340225     
  -47116609.3161808     
  -47136828.5120455     
  -47156746.4528297     
  -47176367.3914540     
  -47195695.6983017     
  -47214735.8571812     
  -47233492.4614899     
  -47251970.2106162     
  -47270173.9064740     
  -47288108.4503085     
  -47305778.8396503     
  -47323190.1654315     
  -47340347.6094062     
  -47357256.4413030     
  -47373922.0169689     
  -47390349.7760494     
  -47406545.2391943     
  -45944277.3772961     
  -45978361.2881458     
  -46012028.7384790     
  -46045277.3881878     
  -46078105.2801093     
  -46110510.8302633     
  -46142492.8178798     
  -46174050.3752494     
  -46205182.9774353     
  -46235890.4318813     
  -46266172.8679528     
  -46296030.7264456     
  -46325464.7490962     
  -46354475.9681289     
  -46383065.6958691     
  -46411235.5144560     
  -46438987.2656819     
  -46466323.0409858     
  -46493245.1716277     
  -46519756.2190648     
  -46545858.9655534     
  -46571556.4049938     
  -46596851.7340368     
  -46621748.3434645     
  -46646249.8098613     
  -46670359.8875822     
  -46694082.5010303     
  -46717421.7372468     
  -46740381.8388199     
  -46762967.1971155     
  -46785182.3458273     
  -46807031.9548509     
  -46828520.8244731     
  -46849653.8798768     
  -46870436.1659599     
  -46890872.8424430     
  -46910969.1793026     
  -46930730.5524487     
  -46950162.4397161     
  -46969270.4171452     
  -46988060.1554076     
  -47006537.4167325     
  -47024708.0517553     
  -47042577.9967868     
  -47060153.2713744     
  -47077439.9756332     
  -47094444.2893036     
  -47111172.4678609     
  -47127630.8416422     
  -47143825.8168553     
  -45607769.8013677     
  -45644558.2492229     
  -45680840.7937437     
  -45716616.2018465     
  -45751883.6618535     
  -45786642.7708840     
  -45820893.5219589     
  -45854636.2908773     
  -45887871.8229213     
  -45920601.2194491     
  -45952825.9244285     
  -45984547.7109671     
  -46015768.6678903     
  -46046491.1864165     
  -46076717.9469771     
  -46106451.9062258     
  -46135696.2842774     
  -46164454.5522166     
  -46192730.4199106     
  -46220527.8241572     
  -46247850.9171986     
  -46274704.0556234     
  -46301091.7896814     
  -46327018.8530262     
  -46352490.1529026     
  -46377510.7607895     
  -46402085.9035039     
  -46426220.9547744     
  -46449921.4272827     
  -46473192.9651699     
  -46496041.3370132     
  -46518472.4292473     
  -46540492.2400453     
  -46562106.8736278     
  -46583322.5349808     
  -46604145.5250324     
  -46624582.2361142     
  -46644639.1479618     
  -46664322.8239280     
  -46683639.9074885     
  -46702597.1194796     
  -46721201.2547171     
  -46739459.1801812     
  -46757377.8326115     
  -46774964.2161455     
  -46792225.4017614     
  -46809168.5217276     
  -46825800.7760012     
  -46842129.4265271     
  -46858161.7879985     
  -45252447.4882023     
  -45291980.1544160     
  -45330906.5541482     
  -45369226.8795440     
  -45406941.7911962     
  -45444052.4011363     
  -45480560.2554773     
  -45516467.3167981     
  -45551775.9463615     
  -45586488.8862491     
  -45620609.2414978     
  -45654140.4623165     
  -45687086.3264583     
  -45719450.9218198     
  -45751238.6293339     
  -45782454.1062179     
  -45813102.2696361     
  -45843188.2808274     
  -45872717.5297471     
  -45901695.6202644     
  -45930128.3559541     
  -45958021.7265129     
  -45985381.8948285     
  -46012215.1847205     
  -46038528.0693730     
  -46064327.1604619     
  -46089619.1979933     
  -46114411.0408410     
  -46138709.6579842     
  -46162522.1204442     
  -46185855.5938689     
  -46208717.3318156     
  -46231114.6696198     
  -46253055.0189016     
  -46274545.8626943     
  -46295594.7509340     
  -46316209.2968546     
  -46336397.1732366     
  -46356166.1097131     
  -46375523.8905440     
  -46394478.3513176     
  -46413037.3793850     
  -46431208.9095617     
  -46449000.9239400     
  -46466421.4524924     
  -46483478.5681634     
  -46500180.4000573     
  -46516535.1037640     
  -46532550.8836673     
  -46548236.0187078     
  -44878757.9774776     
  -44921039.4780357     
  -44962602.1244947     
  -45003447.9666945     
  -45043579.5804955     
  -45083000.0439429     
  -45121712.9130910     
  -45159722.1976185     
  -45197032.3363648     
  -45233648.1729110     
  -45269574.9313188     
  -45304818.1921399     
  -45339383.8687960     
  -45373278.1844264     
  -45406507.6492945     
  -45439079.0388325     
  -45470999.3724045     
  -45502275.8928551     
  -45532916.0469064     
  -45562927.4664620     
  -45592317.9508615     
  -45621095.4501326     
  -45649268.0492691     
  -45676843.9535676     
  -45703831.4750274     
  -45730239.0198481     
  -45756075.0769855     
  -45781348.2078048     
  -45806067.0367900     
  -45830240.2432577     
  -45853876.5541783     
  -45876984.7377963     
  -45899573.5983601     
  -45921651.9715877     
  -45943228.7208104     
  -45964312.7345414     
  -45984912.9232690     
  -46005038.2192337     
  -46024697.5741953     
  -46043899.9578947     
  -46062654.3619931     
  -46080969.7918191     
  -46098855.2779637     
  -46116319.8713268     
  -46133372.6376434     
  -46150022.6737790     
  -46166279.0623403     
  -46182150.9816317     
  -46197647.6035276     
  -46212778.0214542     
  -44487510.7312598     
  -44532499.7129828     
  -44576643.4115713     
  -44619946.3452544     
  -44662413.6264586     
  -44704050.9276168     
  -44744864.4468027     
  -44784860.8733870     
  -44824047.3538773     
  -44862431.4581010     
  -44900021.1458757     
  -44936824.7343044     
  -44972850.8658201     
  -45008108.4771001     
  -45042606.7689564     
  -45076355.1773071     
  -45109363.3453214     
  -45141641.0968275     
  -45173198.4110635     
  -45204045.3988428     
  -45234192.2802094     
  -45263649.3636254     
  -45292427.0267579     
  -45320535.6988810     
  -45347985.8449659     
  -45374787.9513908     
  -45400952.5134186     
  -45426490.0242500     
  -45451410.9657515     
  -45475725.8008841     
  -45499444.9673166     
  -45522578.8731909     
  -45545137.8935170     
  -45567132.3684518     
  -45588572.6031331     
  -45609468.8661324     
  -45629831.3942932     
  -45649670.3894191     
  -45668996.0260039     
  -45687818.4568872     
  -45706147.8016538     
  -45723994.1815824     
  -45741367.6794959     
  -45758278.3709953     
  -45774736.3510179     
  -45790751.6767164     
  -45806334.5263987     
  -45821494.8060359     
  -45836242.6012039     
  -45850588.3506543     
  -44079960.2893876     
  -44127553.9037525     
  -44174160.0258306     
  -44219786.5239675     
  -44264441.9347694     
  -44308135.4138687     
  -44350876.6870786     
  -44392676.0020980     
  -44433544.0809603     
  -44473492.0733986     
  -44512531.5112759     
  -44550674.2642166     
  -44587932.4965721     
  -44624318.6258366     
  -44659845.2826270     
  -44694525.2723355     
  -44728371.5385576     
  -44761397.1283936     
  -44793615.1597294     
  -44825038.7905951     
  -44855681.1906664     
  -44885555.5150664     
  -44914674.8804774     
  -44943052.3437447     
  -44970700.8828695     
  -44997633.3807736     
  -45023862.6113385     
  -45049401.2284678     
  -45074261.7575939     
  -45098456.5894795     
  -45121997.9778400     
  -45144898.0367445     
  -45167168.7434505     
  -45188821.9409678     
  -45209869.3417173     
  -45230322.5417759     
  -45250193.0162386     
  -45269492.1495567     
  -45288231.2254666     
  -45306421.4339040     
  -45324073.9385686     
  -45341199.7728422     
  -45357810.0221428     
  -45373915.7091590     
  -45389527.7289341     
  -45404657.1054022     
  -45419314.4699106     
  -45433511.4757410     
  -45447258.9199475     
  -45460566.5292065     
  -43657903.8137659     
  -43707915.1275548     
  -43756778.8243483     
  -43804507.3959326     
  -43851114.0679666     
  -43896612.7307360     
  -43941017.8712094     
  -43984344.5067277     
  -44026608.1204211     
  -44067824.5984535     
  -44108010.1692030     
  -44147181.3444664     
  -44185354.8627536     
  -44222547.6347572     
  -44258776.6910630     
  -44294059.1321722     
  -44328412.0809294     
  -44361852.6374457     
  -44394397.8366067     
  -44426064.6082678     
  -44456869.7403845     
  -44486829.8449683     
  -44515961.3273530     
  -44544280.3585692     
  -44571802.8516633     
  -44598544.4410013     
  -44624520.4667122     
  -44649745.9616465     
  -44674235.6435680     
  -44698003.9126566     
  -44721064.8488490     
  -44743432.2238796     
  -44765119.5046320     
  -44786139.8702605     
  -44806506.2345463     
  -44826231.2399895     
  -44845327.3313479     
  -44863806.7045139     
  -44881681.4194464     
  -44898963.4292231     
  -44915664.4081572     
  -44931796.2174063     
  -44947370.2811487     
  -44962398.1645579     
  -44976891.8143303     
  -44990862.5665983     
  -45004323.0246145     
  -45017282.1922623     
  -45029753.1032305     
  -45041751.9194185     
  -43223789.4687928     
  -43275914.6622817     
  -43326712.2535857     
  -43376201.1518537     
  -43424401.0283887     
  -43471332.2231469     
  -43517015.6548956     
  -43561472.7344282     
  -43604725.2809054     
  -43646795.4413421     
  -43687705.6131336     
  -43727478.3695372     
  -43766136.3880984     
  -43803702.3819119     
  -43840199.0336915     
  -43875648.9326519     
  -43910074.5141300     
  -43943498.0019838     
  -43975941.3538662     
  -44007426.2094841     
  -44037973.8415830     
  -44067605.1107828     
  -44096340.4232100     
  -44124199.6926920     
  -44151202.3054980     
  -44177367.0922514     
  -44202712.3004761     
  -44227255.5791479     
  -44251013.9647910     
  -44274003.8719387     
  -44296241.1079666     
  -44317740.8569869     
  -44338517.7261270     
  -44358585.7612549     
  -44377958.4699698     
  -44396648.9632158     
  -44414669.8150377     
  -44432033.4065704     
  -44448751.6460612     
  -44464836.0936811     
  -44480298.7413854     
  -44495150.4264611     
  -44509403.3749020     
  -44523068.9581322     
  -44536157.2793357     
  -44548681.3216833     
  -44560650.1550895     
  -44572085.5379358     
  -44582992.1696926     
  -44593367.9146582     
  -42780824.6429451     
  -42834596.6625963     
  -42886840.2767316     
  -42937583.2165742     
  -42986853.9169023     
  -43034681.4011271     
  -43081095.1703302     
  -43126125.0979201     
  -43169801.3293052     
  -43212154.1859302     
  -43253214.0735030     
  -43293011.3941387     
  -43331576.4618949     
  -43368939.4216370     
  -43405130.1708765     
  -43440178.2842053     
  -43474112.9403895     
  -43506962.8518601     
  -43538756.1962682     
  -43569520.5500280     
  -43599282.8251304     
  -43628069.2057905     
  -43655905.0902451     
  -43682815.0320571     
  -43708822.6900435     
  -43733950.7721202     
  -43758220.9991324     
  -43781654.0485385     
  -43804269.5266026     
  -43826085.9546692     
  -43847120.7038724     
  -43867390.0911804     
  -43886909.2730723     
  -43905692.3230250     
  -43923752.3306852     
  -43941101.1435374     
  -43957750.2185366     
  -43973709.6825036     
  -43988989.8123944     
  -44003600.7409213     
  -44017550.1256478     
  -44030849.5724857     
  -44043505.3602603     
  -44055527.8765601     
  -44066932.0720151     
  -44077721.5487069     
  -44087915.1154933     
  -44097491.4989651     
  -44106501.7436540     
  -44115005.0774817     
  -42333061.5619862     
  -42387788.0165986     
  -42440765.7723068     
  -42492034.3582703     
  -42541633.8045890     
  -42589604.5086278     
  -42635987.1149556     
  -42680822.4013374     
  -42724151.1703870     
  -42766014.1473769     
  -42806451.8828661     
  -42845504.6592989     
  -42883212.4017809     
  -42919614.5914331     
  -42954750.1811293     
  -42988657.5136342     
  -43021374.2405748     
  -43052937.2421566     
  -43083382.5480888     
  -43112745.2589881     
  -43141059.4636746     
  -43168358.1647060     
  -43194673.1913189     
  -43220035.1235233     
  -43244473.1949554     
  -43268015.2292237     
  -43290687.5184657     
  -43312514.7989940     
  -43333520.1255746     
  -43353724.7373756     
  -43373148.1541196     
  -43391807.7099611     
  -43409718.9635341     
  -43426895.4241378     
  -43443348.3111927     
  -43459087.6969216     
  -43474119.7003820     
  -43488450.7122143     
  -43502082.6266705     
  -43515015.7483864     
  -43527257.8212596     
  -43538800.8639659     
  -43549657.7028219     
  -43559826.0432135     
  -43569293.0994922     
  -43578096.1958331     
  -43586216.7686801     
  -43593765.2550402     
  -43600572.8754757     
  -43606526.5531920     
  -41885424.1767111     
  -41940110.5677055     
  -41992813.7605475     
  -42043588.3884521     
  -42092489.1544231     
  -42139570.7250776     
  -42184887.6142019     
  -42228494.0769179     
  -42270444.0136466     
  -42310790.8779595     
  -42349587.5896961     
  -42386886.4528555     
  -42422739.0740587     
  -42457196.2849624     
  -42490308.0662452     
  -42522123.4699277     
  -42552690.5433819     
  -42582056.2526060     
  -42610266.4003415     
  -42637365.5405436     
  -42663396.9019685     
  -42688402.2747017     
  -42712421.9396054     
  -42735494.5411309     
  -42757657.0228237     
  -42778944.4302178     
  -42799389.9098711     
  -42819024.3237586     
  -42837876.2965215     
  -42855972.2180263     
  -42873335.3675672     
  -42889987.1761488     
  -42905945.0473802     
  -42921223.0764245     
  -42935832.6414312     
  -42949778.0369662     
  -42963066.6643787     
  -42975692.5921214     
  -42987654.7685881     
  -42998944.9431346     
  -43009519.8129147     
  -43019391.7896760     
  -43028493.0633161     
  -43036818.0540258     
  -43044392.2185687     
  -43051057.6820215     
  -43056909.4903488     
  -43061671.1458029     
  -43066123.0827895     
  -43070526.0945645     
  -41443629.8205823     
  -41496894.9273435     
  -41547939.0492753     
  -41596834.9511267     
  -41643654.8584123     
  -41688470.3193002     
  -41731352.1408615     
  -41772370.3278620     
  -41811594.0157219     
  -41849091.4148154     
  -41884929.7559553     
  -41919175.2352044     
  -41951892.9698738     
  -41983146.9468224     
  -42012999.9685293     
  -42041513.6064863     
  -42068748.1448936     
  -42094762.5197329     
  -42119614.2657323     
  -42143359.4576469     
  -42166052.6018922     
  -42187746.6379824     
  -42208492.7339514     
  -42228340.2830563     
  -42247336.6434938     
  -42265527.2961637     
  -42282955.2287815     
  -42299661.7194616     
  -42315685.2051431     
  -42331060.5251398     
  -42345821.4289953     
  -42359994.7749242     
  -42373607.9628826     
  -42386684.1803481     
  -42399238.2996353     
  -42411291.3006842     
  -42422831.5756732     
  -42433876.8706302     
  -42444402.6091050     
  -42454387.7268679     
  -42463897.6619061     
  -42472741.0410039     
  -42480996.1723086     
  -42488481.6209055     
  -42494943.2635913     
  -42500810.8385194     
  -42505437.7880217     
  -42509307.0350084     
  -42509244.0292248     
  -42505340.4755659     
  -41013960.5637156     
  -41063958.0916774     
  -41111510.7601403     
  -41156711.7002922     
  -41199652.4357209     
  -41240423.0624163     
  -41279112.2151603     
  -41315807.0356495     
  -41350593.1867828     
  -41383554.8446422     
  -41414774.7027528     
  -41444333.9873802     
  -41472312.4334386     
  -41498788.2946806     
  -41523838.3603371     
  -41547537.9320535     
  -41569960.8220226     
  -41591179.3519367     
  -41611264.3041475     
  -41630284.8817906     
  -41648308.8050941     
  -41665401.9758751     
  -41681628.9192239     
  -41697052.3075890     
  -41711733.3377245     
  -41725730.6477644     
  -41739102.0349617     
  -41751900.7494773     
  -41764179.5657175     
  -41775992.1387421     
  -41787381.7605888     
  -41798402.2453131     
  -41809087.8616611     
  -41819472.7325816     
  -41829605.2073715     
  -41839489.6287656     
  -41849221.2099580     
  -41858743.9240806     
  -41868125.6927439     
  -41877383.8384331     
  -41886232.0683643     
  -41895326.0631659     
  -41904170.8218464     
  -41913037.4293311     
  -41922073.1103051     
  -41928810.2025509     
  -41935328.2890810     
  -41940292.4407127     
  -41954538.9323804     
  -41994164.6544313     
  -40602860.8374370     
  -40647226.5999804     
  -40688960.9984528     
  -40728177.1680515     
  -40764986.3379936     
  -40799497.2579892     
  -40831816.3199356     
  -40862047.7438109     
  -40890293.6031133     
  -40916653.9354014     
  -40941226.7976805     
  -40964108.2825847     
  -40985392.6874925     
  -41005172.5333687     
  -41023538.5481389     
  -41040579.8078153     
  -41056383.7969800     
  -41071036.4371693     
  -41084622.2433035     
  -41097224.3718255     
  -41108924.2120347     
  -41119802.5103850     
  -41129937.3984629     
  -41139406.2923834     
  -41148284.6274954     
  -41156649.1568139     
  -41164570.7398287     
  -41172128.0111104     
  -41179389.7814758     
  -41186412.0631252     
  -41193282.5302179     
  -41200038.2708504     
  -41206777.4251960     
  -41213573.7747968     
  -41220423.2518725     
  -41227478.9557558     
  -41234573.5193187     
  -41242128.8255170     
  -41250051.8287633     
  -41258337.6718990     
  -41267830.4982913     
  -41275817.3930820     
  -41284348.7587873     
  -41293224.7772056     
  -41303457.2802386     
  -41329075.8367595     
  -41387267.0349366     
  -41456685.5381839     
  -41563118.4860480     
  -41696542.3761164     
  -40216379.6592417     
  -40252226.5026370     
  -40285316.7502662     
  -40315783.8356740     
  -40343755.8984201     
  -40369358.1301559     
  -40392712.9737070     
  -40413939.8839388     
  -40433155.6406371     
  -40450474.3308013     
  -40466007.5658869     
  -40479864.8247587     
  -40492153.1831474     
  -40502977.6466129     
  -40512441.6075084     
  -40520646.6236388     
  -40527692.4435793     
  -40533677.2231877     
  -40538697.3994218     
  -40542848.0707168     
  -40546224.6472988     
  -40548918.8506015     
  -40551026.7518558     
  -40552640.4530721     
  -40553851.8289728     
  -40554742.8957800     
  -40555414.9903527     
  -40555935.6556599     
  -40556408.3627484     
  -40556972.0075932     
  -40557624.9983599     
  -40558553.8483660     
  -40559724.0678039     
  -40561233.0396076     
  -40563478.6439489     
  -40566176.6327357     
  -40570062.7679916     
  -40573573.5991774     
  -40577352.3563231     
  -40582240.0407316     
  -40586779.1229823     
  -40603609.2317496     
  -40640218.2335571     
  -40699190.7554161     
  -40766866.1648593     
  -40875142.4780106     
  -41002295.5634369     
  -41135685.9249717     
  -41272839.5238342     
  -41408427.2612750     
  -39859536.5243945     
  -39883502.4160541     
  -39904678.9528425     
  -39923206.7225104     
  -39939228.9522294     
  -39952884.7915095     
  -39964308.7500337     
  -39973632.2250254     
  -39980983.0872380     
  -39986486.5258440     
  -39990264.8753720     
  -39992437.0108819     
  -39993120.1445546     
  -39992429.2054871     
  -39990475.7527559     
  -39987369.6584947     
  -39983219.9870205     
  -39978134.7448961     
  -39972221.3375516     
  -39965585.0848435     
  -39958324.9552189     
  -39950550.0602769     
  -39942349.0014911     
  -39933826.7172369     
  -39925093.2109655     
  -39916287.3417757     
  -39907460.1266451     
  -39898788.5166218     
  -39890311.5783130     
  -39881973.5901559     
  -39874300.0975175     
  -39867056.5047852     
  -39860730.2803079     
  -39855158.0399910     
  -39849116.8993080     
  -39844466.4207244     
  -39839924.8350544     
  -39842748.8430270     
  -39863923.9663735     
  -39904531.5276633     
  -39950188.0680209     
  -40031717.8547876     
  -40131555.0587862     
  -40246830.3528783     
  -40365307.9065561     
  -40488857.5416162     
  -40608994.3041428     
  -40729536.1823571     
  -40848666.6923535     
  -40967700.1822923     
  -39535730.1735234     
  -39544105.5527530     
  -39549737.2305064     
  -39552800.1680507     
  -39553442.9886414     
  -39551809.1803183     
  -39548041.9471342     
  -39542280.0401691     
  -39534660.1842292     
  -39525314.3805671     
  -39514371.3055566     
  -39501959.1421746     
  -39488199.1626388     
  -39473208.9855515     
  -39457107.8709518     
  -39440011.3180276     
  -39422028.4146364     
  -39403264.9634787     
  -39383825.6380602     
  -39363821.9813734     
  -39343382.7810186     
  -39322589.6608984     
  -39301599.9598425     
  -39280496.3628701     
  -39259331.7438657     
  -39238095.1123007     
  -39217169.8528497     
  -39196447.0638960     
  -39176294.7123299     
  -39157288.6035661     
  -39137708.1939601     
  -39119074.9918257     
  -39100763.1593747     
  -39084970.7731121     
  -39085763.1747284     
  -39105206.7086054     
  -39130690.5799456     
  -39179657.6904751     
  -39254727.3276731     
  -39344162.9532087     
  -39441109.0523038     
  -39545474.7239106     
  -39651222.0626652     
  -39757369.9097845     
  -39864722.0137432     
  -39971171.0814187     
  -40078741.4546075     
  -40186454.7752100     
  -40294738.6176012     
  -40402586.7832579     
  -39246411.9531722     
  -39235173.7011595     
  -39221434.6246514     
  -39205286.2761793     
  -39186886.3246712     
  -39166399.1309127     
  -39143973.6271545     
  -39119756.6586355     
  -39093883.5881702     
  -39066490.0383577     
  -39037707.7060620     
  -39007655.3777547     
  -38976465.0175191     
  -38944269.5848262     
  -38911181.6331328     
  -38877312.1030364     
  -38842781.3393365     
  -38807705.9167696     
  -38772186.8794120     
  -38736286.1871691     
  -38700021.6760670     
  -38663620.2241913     
  -38627015.9151532     
  -38590443.8508387     
  -38554254.0801696     
  -38518862.7434750     
  -38483037.0740862     
  -38447664.4986083     
  -38412241.2806779     
  -38375994.5147506     
  -38352135.0445978     
  -38346182.0093288     
  -38346562.1473203     
  -38356299.2968418     
  -38398964.3542536     
  -38456881.9291046     
  -38525125.3695420     
  -38601783.8238412     
  -38685078.6386498     
  -38770832.0410698     
  -38860417.4290764     
  -38951069.8813507     
  -39043404.5882208     
  -39137688.9419400     
  -39233579.3054432     
  -39331065.3011473     
  -39428805.1620896     
  -39527175.0980586     
  -39626843.9388321     
  -39728587.8204559     
  -38990805.9690482     
  -38956069.2395093     
  -38918826.8581937     
  -38879480.9414263     
  -38838222.8503701     
  -38795180.4875940     
  -38750505.6961473     
  -38704331.9406926     
  -38656814.7878633     
  -38608087.2706631     
  -38558276.9915612     
  -38507540.1315073     
  -38455963.4049513     
  -38403613.1074925     
  -38350624.6303093     
  -38297144.2903000     
  -38243282.8878885     
  -38189156.4346158     
  -38134922.8955607     
  -38080830.0667150     
  -38027130.2907522     
  -37973162.2134955     
  -37919495.7510901     
  -37865667.9660909     
  -37810910.1509729     
  -37754780.4412319     
  -37709974.5663191     
  -37678757.0693291     
  -37649385.7169108     
  -37620690.5961520     
  -37621083.2944745     
  -37639403.5758698     
  -37668922.2872712     
  -37707432.3615449     
  -37755856.1910811     
  -37809417.5092929     
  -37869629.1524424     
  -37934760.1096916     
  -38003849.4096928     
  -38076904.5803601     
  -38153481.9269175     
  -38234162.7178933     
  -38318206.9858880     
  -38404478.3110289     
  -38492632.0411161     
  -38583134.5254624     
  -38676448.1448507     
  -38772232.7299084     
  -38869637.8359262     
  -38967898.9131267     
  -38766494.1171366     
  -38703172.2464954     
  -38638774.1964920     
  -38572699.8421819     
  -38504880.9746355     
  -38435501.3520533     
  -38364697.1812474     
  -38292706.2563470     
  -38219691.6975664     
  -38145894.6860409     
  -38071546.8470077     
  -37996723.6030404     
  -37921702.2560553     
  -37846784.0661287     
  -37771946.5655191     
  -37697017.1055307     
  -37621889.4025865     
  -37546465.4114477     
  -37470602.9327240     
  -37394075.4005866     
  -37317301.7017100     
  -37251483.0693703     
  -37192120.1934248     
  -37131930.2228319     
  -37071368.8197970     
  -37011524.8547913     
  -36974261.8321212     
  -36952084.6520238     
  -36937655.9714409     
  -36931300.1713982     
  -36935508.2834561     
  -36946419.7589394     
  -36965405.3188780     
  -36991526.2938528     
  -37023611.8546344     
  -37061912.7431867     
  -37105968.7839828     
  -37155950.9749176     
  -37212006.2630455     
  -37273829.4521647     
  -37341044.8671050     
  -37412966.8515179     
  -37489388.1889862     
  -37570705.4206691     
  -37656856.1935866     
  -37746595.5167159     
  -37839031.5811796     
  -37933711.8052948     
  -38029785.7652609     
  -38125905.4489911     
  -38566498.5446925     
  -38476875.4769876     
  -38382601.9743363     
  -38285604.1168474     
  -38186795.7569687     
  -38086339.7254893     
  -37984616.2669061     
  -37881644.2806109     
  -37777802.2940607     
  -37673275.0643175     
  -37568397.3147011     
  -37464173.4969844     
  -37361655.9258452     
  -37266741.0691478     
  -37171980.9961976     
  -37077300.0401596     
  -36983027.4457868     
  -36889366.2448145     
  -36796435.0125685     
  -36704254.4107287     
  -36614481.6085672     
  -36540837.8410423     
  -36475556.5420207     
  -36414378.5104630     
  -36358634.7051221     
  -36310083.0305990     
  -36270117.8669905     
  -36236970.0427763     
  -36212044.5459554     
  -36194590.4559361     
  -36183302.8140290     
  -36178564.8193655     
  -36180121.9646190     
  -36188173.5940277     
  -36203138.3446354     
  -36224803.2447026     
  -36253353.1985972     
  -36288687.0732034     
  -36330871.2385174     
  -36380010.9964976     
  -36436134.4131662     
  -36499547.0298392     
  -36570164.0629976     
  -36647346.2801696     
  -36730310.8559936     
  -36818656.2617781     
  -36912065.2016393     
  -37009793.9566146     
  -37111794.1183713     
  -37220995.4492693     
  -38449490.7684981     
  -38311427.0822629     
  -38177763.9458472     
  -38043976.5644255     
  -37907161.7182283     
  -37768022.0830816     
  -37626551.7372272     
  -37485196.4216571     
  -37344260.1828278     
  -37204619.7823092     
  -37065816.5287620     
  -36931040.5262125     
  -36801643.5733465     
  -36678509.6532203     
  -36558384.5521350     
  -36441326.9598207     
  -36327711.4303372     
  -36218045.0667972     
  -36112932.9636710     
  -36013169.5490647     
  -35919921.3220661     
  -35832975.6365206     
  -35752713.4348502     
  -35679956.7581124     
  -35614543.6318888     
  -35555996.1516692     
  -35503672.6224355     
  -35457719.0442228     
  -35417968.4479307     
  -35384529.0118416     
  -35357623.8673417     
  -35337139.9854515     
  -35323148.6521115     
  -35315575.0600931     
  -35314449.6952071     
  -35320043.7691849     
  -35332353.5744590     
  -35351808.5461300     
  -35378947.0496417     
  -35414116.8278157     
  -35457744.2578388     
  -35509900.1070034     
  -35570909.2174692     
  -35641492.2236448     
  -35722249.5430825     
  -35813343.8541610     
  -35914119.6087172     
  -36024310.1825799     
  -36143824.4621277     
  -36262825.7794242     
  -38593418.5504154     
  -38387534.6484493     
  -38171521.3267675     
  -37947825.9353269     
  -37726538.2597362     
  -37511991.2830081     
  -37309236.0168013     
  -37111800.9722701     
  -36920899.1248507     
  -36734135.6788031     
  -36554295.8023549     
  -36381077.5928402     
  -36214663.4716392     
  -36054868.8195984     
  -35902128.0668123     
  -35756742.0841398     
  -35618979.0759941     
  -35488859.3879220     
  -35366427.5075198     
  -35251673.3186656     
  -35144333.1085740     
  -35044368.7755441     
  -34951732.5809505     
  -34866267.7291396     
  -34787912.1147761     
  -34716590.8167149     
  -34652200.9089099     
  -34594419.5530779     
  -34543187.1544698     
  -34498319.5008219     
  -34459658.6343862     
  -34427254.7182058     
  -34401118.5630322     
  -34381272.1168039     
  -34367701.0372884     
  -34360582.3742234     
  -34359976.7428073     
  -34366088.7755166     
  -34379483.7306186     
  -34400848.2690018     
  -34430791.7058168     
  -34470129.6338867     
  -34519725.4557052     
  -34580594.1551227     
  -34653918.4529954     
  -34741474.9175841     
  -34845327.6549807     
  -34965892.0111746     
  -35102852.8507009     
  -35268811.1757178     
  -39712172.6185457     
  -39093228.1034146     
  -38537522.9673124     
  -38032005.7584311     
  -37580920.3933571     
  -37194667.6131863     
  -36891329.4647056     
  -36617188.7433720     
  -36360112.1461469     
  -36116927.9112537     
  -35885420.9998058     
  -35668470.8789167     
  -35464695.4894642     
  -35272425.4913576     
  -35092363.0598486     
  -34923742.8442588     
  -34765862.4476724     
  -34618385.4702365     
  -34481001.6207339     
  -34353199.1811490     
  -34234570.8413885     
  -34124708.0251239     
  -34023232.1147702     
  -33929794.0972291     
  -33844060.3530887     
  -33765754.0039259     
  -33694606.3314736     
  -33630436.6002323     
  -33573057.6855126     
  -33522322.9554592     
  -33478099.2627326     
  -33440250.2060560     
  -33408690.0772411     
  -33383370.1532511     
  -33364284.7358901     
  -33351574.1033586     
  -33345268.3171014     
  -33345412.1853991     
  -33352456.9800230     
  -33366971.0833528     
  -33389700.9906974     
  -33421470.5464158     
  -33463309.0154415     
  -33516507.4246255     
  -33582625.8672629     
  -33664103.0168017     
  -33763673.0336941     
  -33885985.6108689     
  -34035377.9493243     
  -34210875.4463525     
SCALARS 2waySource double 
LOOKUP_TABLE default
  0.000000000000000E+000
  0.000000000000000E+000
  0.000000000000000E+000
  0.000000000000000E+000
  0.000000000000000E+000
  0.000000000000000E+000
  0.000000000000000E+000
  0.000000000000000E+000
  0.000000000000000E+000
  0.000000000000000E+000
  0.000000000000000E+000
  0.000000000000000E+000
  0.000000000000000E+000
  0.000000000000000E+000
  0.000000000000000E+000
  0.000000000000000E+000
  0.000000000000000E+000
  0.000000000000000E+000
  0.000000000000000E+000
  0.000000000000000E+000
  0.000000000000000E+000
  0.000000000000000E+000
  0.000000000000000E+000
  0.000000000000000E+000
  0.000000000000000E+000
  0.000000000000000E+000
  0.000000000000000E+000
  0.000000000000000E+000
  0.000000000000000E+000
  0.000000000000000E+000
  0.000000000000000E+000
  0.000000000000000E+000
  0.000000000000000E+000
  0.000000000000000E+000
  0.000000000000000E+000
  0.000000000000000E+000
  0.000000000000000E+000
  0.000000000000000E+000
  0.000000000000000E+000
  0.000000000000000E+000
  0.000000000000000E+000
  0.000000000000000E+000
  0.000000000000000E+000
  0.000000000000000E+000
  0.000000000000000E+000
  0.000000000000000E+000
  0.000000000000000E+000
  0.000000000000000E+000
  0.000000000000000E+000
  0.000000000000000E+000
  0.000000000000000E+000
  0.000000000000000E+000
  0.000000000000000E+000
  0.000000000000000E+000
  0.000000000000000E+000
  0.000000000000000E+000
  0.000000000000000E+000
  0.000000000000000E+000
  0.000000000000000E+000
  0.000000000000000E+000
  0.000000000000000E+000
  0.000000000000000E+000
  0.000000000000000E+000
  0.000000000000000E+000
  0.000000000000000E+000
  0.000000000000000E+000
  0.000000000000000E+000
  0.000000000000000E+000
  0.000000000000000E+000
  0.000000000000000E+000
  0.000000000000000E+000
  0.000000000000000E+000
  0.000000000000000E+000
  0.000000000000000E+000
  0.000000000000000E+000
  0.000000000000000E+000
  0.000000000000000E+000
  0.000000000000000E+000
  0.000000000000000E+000
  0.000000000000000E+000
  0.000000000000000E+000
  0.000000000000000E+000
  0.000000000000000E+000
  0.000000000000000E+000
  0.000000000000000E+000
  0.000000000000000E+000
  0.000000000000000E+000
  0.000000000000000E+000
  0.000000000000000E+000
  0.000000000000000E+000
  0.000000000000000E+000
  0.000000000000000E+000
  0.000000000000000E+000
  0.000000000000000E+000
  0.000000000000000E+000
  0.000000000000000E+000
  0.000000000000000E+000
  0.000000000000000E+000
  0.000000000000000E+000
  0.000000000000000E+000
  0.000000000000000E+000
  0.000000000000000E+000
  0.000000000000000E+000
  0.000000000000000E+000
  0.000000000000000E+000
  0.000000000000000E+000
  0.000000000000000E+000
  0.000000000000000E+000
  0.000000000000000E+000
  0.000000000000000E+000
  0.000000000000000E+000
  0.000000000000000E+000
  0.000000000000000E+000
  0.000000000000000E+000
  0.000000000000000E+000
  0.000000000000000E+000
  0.000000000000000E+000
  0.000000000000000E+000
  0.000000000000000E+000
  0.000000000000000E+000
  0.000000000000000E+000
  0.000000000000000E+000
  0.000000000000000E+000
  0.000000000000000E+000
  0.000000000000000E+000
  0.000000000000000E+000
  0.000000000000000E+000
  0.000000000000000E+000
  0.000000000000000E+000
  0.000000000000000E+000
  0.000000000000000E+000
  0.000000000000000E+000
  0.000000000000000E+000
  0.000000000000000E+000
  0.000000000000000E+000
  0.000000000000000E+000
  0.000000000000000E+000
  0.000000000000000E+000
  0.000000000000000E+000
  0.000000000000000E+000
  0.000000000000000E+000
  0.000000000000000E+000
  0.000000000000000E+000
  0.000000000000000E+000
  0.000000000000000E+000
  0.000000000000000E+000
  0.000000000000000E+000
  0.000000000000000E+000
  0.000000000000000E+000
  0.000000000000000E+000
  0.000000000000000E+000
  0.000000000000000E+000
  0.000000000000000E+000
  0.000000000000000E+000
  0.000000000000000E+000
  0.000000000000000E+000
  0.000000000000000E+000
  0.000000000000000E+000
  0.000000000000000E+000
  0.000000000000000E+000
  0.000000000000000E+000
  0.000000000000000E+000
  0.000000000000000E+000
  0.000000000000000E+000
  0.000000000000000E+000
  0.000000000000000E+000
  0.000000000000000E+000
  0.000000000000000E+000
  0.000000000000000E+000
  0.000000000000000E+000
  0.000000000000000E+000
  0.000000000000000E+000
  0.000000000000000E+000
  0.000000000000000E+000
  0.000000000000000E+000
  0.000000000000000E+000
  0.000000000000000E+000
  0.000000000000000E+000
  0.000000000000000E+000
  0.000000000000000E+000
  0.000000000000000E+000
  0.000000000000000E+000
  0.000000000000000E+000
  0.000000000000000E+000
  0.000000000000000E+000
  0.000000000000000E+000
  0.000000000000000E+000
  0.000000000000000E+000
  0.000000000000000E+000
  0.000000000000000E+000
  0.000000000000000E+000
  0.000000000000000E+000
  0.000000000000000E+000
  0.000000000000000E+000
  0.000000000000000E+000
  0.000000000000000E+000
  0.000000000000000E+000
  0.000000000000000E+000
  0.000000000000000E+000
  0.000000000000000E+000
  0.000000000000000E+000
  0.000000000000000E+000
  0.000000000000000E+000
  0.000000000000000E+000
  0.000000000000000E+000
  0.000000000000000E+000
  0.000000000000000E+000
  0.000000000000000E+000
  0.000000000000000E+000
  0.000000000000000E+000
  0.000000000000000E+000
  0.000000000000000E+000
  0.000000000000000E+000
  0.000000000000000E+000
  0.000000000000000E+000
  0.000000000000000E+000
  0.000000000000000E+000
  0.000000000000000E+000
  0.000000000000000E+000
  0.000000000000000E+000
  0.000000000000000E+000
  0.000000000000000E+000
  0.000000000000000E+000
  0.000000000000000E+000
  0.000000000000000E+000
  0.000000000000000E+000
  0.000000000000000E+000
  0.000000000000000E+000
  0.000000000000000E+000
  0.000000000000000E+000
  0.000000000000000E+000
  0.000000000000000E+000
  0.000000000000000E+000
  0.000000000000000E+000
  0.000000000000000E+000
  0.000000000000000E+000
  0.000000000000000E+000
  0.000000000000000E+000
  0.000000000000000E+000
  0.000000000000000E+000
  0.000000000000000E+000
  0.000000000000000E+000
  0.000000000000000E+000
  0.000000000000000E+000
  0.000000000000000E+000
  0.000000000000000E+000
  0.000000000000000E+000
  0.000000000000000E+000
  0.000000000000000E+000
  0.000000000000000E+000
  0.000000000000000E+000
  0.000000000000000E+000
  0.000000000000000E+000
  0.000000000000000E+000
  0.000000000000000E+000
  0.000000000000000E+000
  0.000000000000000E+000
  0.000000000000000E+000
  0.000000000000000E+000
  0.000000000000000E+000
  0.000000000000000E+000
  0.000000000000000E+000
  0.000000000000000E+000
  0.000000000000000E+000
  0.000000000000000E+000
  0.000000000000000E+000
  0.000000000000000E+000
  0.000000000000000E+000
  0.000000000000000E+000
  0.000000000000000E+000
  0.000000000000000E+000
  0.000000000000000E+000
  0.000000000000000E+000
  0.000000000000000E+000
  0.000000000000000E+000
  0.000000000000000E+000
  0.000000000000000E+000
  0.000000000000000E+000
  0.000000000000000E+000
  0.000000000000000E+000
  0.000000000000000E+000
  0.000000000000000E+000
  0.000000000000000E+000
  0.000000000000000E+000
  0.000000000000000E+000
  0.000000000000000E+000
  0.000000000000000E+000
  0.000000000000000E+000
  0.000000000000000E+000
  0.000000000000000E+000
  0.000000000000000E+000
  0.000000000000000E+000
  0.000000000000000E+000
  0.000000000000000E+000
  0.000000000000000E+000
  0.000000000000000E+000
  0.000000000000000E+000
  0.000000000000000E+000
  0.000000000000000E+000
  0.000000000000000E+000
  0.000000000000000E+000
  0.000000000000000E+000
  0.000000000000000E+000
  0.000000000000000E+000
  0.000000000000000E+000
  0.000000000000000E+000
  0.000000000000000E+000
  0.000000000000000E+000
  0.000000000000000E+000
  0.000000000000000E+000
  0.000000000000000E+000
  0.000000000000000E+000
  0.000000000000000E+000
  0.000000000000000E+000
  0.000000000000000E+000
  0.000000000000000E+000
  0.000000000000000E+000
  0.000000000000000E+000
  0.000000000000000E+000
  0.000000000000000E+000
  0.000000000000000E+000
  0.000000000000000E+000
  0.000000000000000E+000
  0.000000000000000E+000
  0.000000000000000E+000
  0.000000000000000E+000
  0.000000000000000E+000
  0.000000000000000E+000
  0.000000000000000E+000
  0.000000000000000E+000
  0.000000000000000E+000
  0.000000000000000E+000
  0.000000000000000E+000
  0.000000000000000E+000
  0.000000000000000E+000
  0.000000000000000E+000
  0.000000000000000E+000
  0.000000000000000E+000
  0.000000000000000E+000
  0.000000000000000E+000
  0.000000000000000E+000
  0.000000000000000E+000
  0.000000000000000E+000
  0.000000000000000E+000
  0.000000000000000E+000
  0.000000000000000E+000
  0.000000000000000E+000
  0.000000000000000E+000
  0.000000000000000E+000
  0.000000000000000E+000
  0.000000000000000E+000
  0.000000000000000E+000
  0.000000000000000E+000
  0.000000000000000E+000
  0.000000000000000E+000
  0.000000000000000E+000
  0.000000000000000E+000
  0.000000000000000E+000
  0.000000000000000E+000
  0.000000000000000E+000
  0.000000000000000E+000
  0.000000000000000E+000
  0.000000000000000E+000
  0.000000000000000E+000
  0.000000000000000E+000
  0.000000000000000E+000
  0.000000000000000E+000
  0.000000000000000E+000
  0.000000000000000E+000
  0.000000000000000E+000
  0.000000000000000E+000
  0.000000000000000E+000
  0.000000000000000E+000
  0.000000000000000E+000
  0.000000000000000E+000
  0.000000000000000E+000
  0.000000000000000E+000
  0.000000000000000E+000
  0.000000000000000E+000
  0.000000000000000E+000
  0.000000000000000E+000
  0.000000000000000E+000
  0.000000000000000E+000
  0.000000000000000E+000
  0.000000000000000E+000
  0.000000000000000E+000
  0.000000000000000E+000
  0.000000000000000E+000
  0.000000000000000E+000
  0.000000000000000E+000
  0.000000000000000E+000
  0.000000000000000E+000
  0.000000000000000E+000
  0.000000000000000E+000
  0.000000000000000E+000
  0.000000000000000E+000
  0.000000000000000E+000
  0.000000000000000E+000
  0.000000000000000E+000
  0.000000000000000E+000
  0.000000000000000E+000
  0.000000000000000E+000
  0.000000000000000E+000
  0.000000000000000E+000
  0.000000000000000E+000
  0.000000000000000E+000
  0.000000000000000E+000
  0.000000000000000E+000
  0.000000000000000E+000
  0.000000000000000E+000
  0.000000000000000E+000
  0.000000000000000E+000
  0.000000000000000E+000
  0.000000000000000E+000
  0.000000000000000E+000
  0.000000000000000E+000
  0.000000000000000E+000
  0.000000000000000E+000
  0.000000000000000E+000
  0.000000000000000E+000
  0.000000000000000E+000
  0.000000000000000E+000
  0.000000000000000E+000
  0.000000000000000E+000
  0.000000000000000E+000
  0.000000000000000E+000
  0.000000000000000E+000
  0.000000000000000E+000
  0.000000000000000E+000
  0.000000000000000E+000
  0.000000000000000E+000
  0.000000000000000E+000
  0.000000000000000E+000
  0.000000000000000E+000
  0.000000000000000E+000
  0.000000000000000E+000
  0.000000000000000E+000
  0.000000000000000E+000
  0.000000000000000E+000
  0.000000000000000E+000
  0.000000000000000E+000
  0.000000000000000E+000
  0.000000000000000E+000
  0.000000000000000E+000
  0.000000000000000E+000
  0.000000000000000E+000
  0.000000000000000E+000
  0.000000000000000E+000
  0.000000000000000E+000
  0.000000000000000E+000
  0.000000000000000E+000
  0.000000000000000E+000
  0.000000000000000E+000
  0.000000000000000E+000
  0.000000000000000E+000
  0.000000000000000E+000
  0.000000000000000E+000
  0.000000000000000E+000
  0.000000000000000E+000
  0.000000000000000E+000
  0.000000000000000E+000
  0.000000000000000E+000
  0.000000000000000E+000
  0.000000000000000E+000
  0.000000000000000E+000
  0.000000000000000E+000
  0.000000000000000E+000
  0.000000000000000E+000
  0.000000000000000E+000
  0.000000000000000E+000
  0.000000000000000E+000
  0.000000000000000E+000
  0.000000000000000E+000
  0.000000000000000E+000
  0.000000000000000E+000
  0.000000000000000E+000
  0.000000000000000E+000
  0.000000000000000E+000
  0.000000000000000E+000
  0.000000000000000E+000
  0.000000000000000E+000
  0.000000000000000E+000
  0.000000000000000E+000
  0.000000000000000E+000
  0.000000000000000E+000
  0.000000000000000E+000
  0.000000000000000E+000
  0.000000000000000E+000
  0.000000000000000E+000
  0.000000000000000E+000
  0.000000000000000E+000
  0.000000000000000E+000
  0.000000000000000E+000
  0.000000000000000E+000
  0.000000000000000E+000
  0.000000000000000E+000
  0.000000000000000E+000
  0.000000000000000E+000
  0.000000000000000E+000
  0.000000000000000E+000
  0.000000000000000E+000
  0.000000000000000E+000
  0.000000000000000E+000
  0.000000000000000E+000
  0.000000000000000E+000
  0.000000000000000E+000
  0.000000000000000E+000
  0.000000000000000E+000
  0.000000000000000E+000
  0.000000000000000E+000
  0.000000000000000E+000
  0.000000000000000E+000
  0.000000000000000E+000
  0.000000000000000E+000
  0.000000000000000E+000
  0.000000000000000E+000
  0.000000000000000E+000
  0.000000000000000E+000
  0.000000000000000E+000
  0.000000000000000E+000
  0.000000000000000E+000
  0.000000000000000E+000
  0.000000000000000E+000
  0.000000000000000E+000
  0.000000000000000E+000
  0.000000000000000E+000
  0.000000000000000E+000
  0.000000000000000E+000
  0.000000000000000E+000
  0.000000000000000E+000
  0.000000000000000E+000
  0.000000000000000E+000
  0.000000000000000E+000
  0.000000000000000E+000
  0.000000000000000E+000
  0.000000000000000E+000
  0.000000000000000E+000
  0.000000000000000E+000
  0.000000000000000E+000
  0.000000000000000E+000
  0.000000000000000E+000
  0.000000000000000E+000
  0.000000000000000E+000
  0.000000000000000E+000
  0.000000000000000E+000
  0.000000000000000E+000
  0.000000000000000E+000
  0.000000000000000E+000
  0.000000000000000E+000
  0.000000000000000E+000
  0.000000000000000E+000
  0.000000000000000E+000
  0.000000000000000E+000
  0.000000000000000E+000
  0.000000000000000E+000
  0.000000000000000E+000
  0.000000000000000E+000
  0.000000000000000E+000
  0.000000000000000E+000
  0.000000000000000E+000
  0.000000000000000E+000
  0.000000000000000E+000
  0.000000000000000E+000
  0.000000000000000E+000
  0.000000000000000E+000
  0.000000000000000E+000
  0.000000000000000E+000
  0.000000000000000E+000
  0.000000000000000E+000
  0.000000000000000E+000
  0.000000000000000E+000
  0.000000000000000E+000
  0.000000000000000E+000
  0.000000000000000E+000
  0.000000000000000E+000
  0.000000000000000E+000
  0.000000000000000E+000
  0.000000000000000E+000
  0.000000000000000E+000
  0.000000000000000E+000
  0.000000000000000E+000
  0.000000000000000E+000
  0.000000000000000E+000
  0.000000000000000E+000
  0.000000000000000E+000
  0.000000000000000E+000
  0.000000000000000E+000
  0.000000000000000E+000
  0.000000000000000E+000
  0.000000000000000E+000
  0.000000000000000E+000
  0.000000000000000E+000
  0.000000000000000E+000
  0.000000000000000E+000
  0.000000000000000E+000
  0.000000000000000E+000
  0.000000000000000E+000
  0.000000000000000E+000
  0.000000000000000E+000
  0.000000000000000E+000
  0.000000000000000E+000
  0.000000000000000E+000
  0.000000000000000E+000
  0.000000000000000E+000
  0.000000000000000E+000
  0.000000000000000E+000
  0.000000000000000E+000
  0.000000000000000E+000
  0.000000000000000E+000
  0.000000000000000E+000
  0.000000000000000E+000
  0.000000000000000E+000
  0.000000000000000E+000
  0.000000000000000E+000
  0.000000000000000E+000
  0.000000000000000E+000
  0.000000000000000E+000
  0.000000000000000E+000
  0.000000000000000E+000
  0.000000000000000E+000
  0.000000000000000E+000
  0.000000000000000E+000
  0.000000000000000E+000
  0.000000000000000E+000
  0.000000000000000E+000
  0.000000000000000E+000
  0.000000000000000E+000
  0.000000000000000E+000
  0.000000000000000E+000
  0.000000000000000E+000
  0.000000000000000E+000
  0.000000000000000E+000
  0.000000000000000E+000
  0.000000000000000E+000
  0.000000000000000E+000
  0.000000000000000E+000
  0.000000000000000E+000
  0.000000000000000E+000
  0.000000000000000E+000
  0.000000000000000E+000
  0.000000000000000E+000
  0.000000000000000E+000
  0.000000000000000E+000
  0.000000000000000E+000
  0.000000000000000E+000
  0.000000000000000E+000
  0.000000000000000E+000
  0.000000000000000E+000
  0.000000000000000E+000
  0.000000000000000E+000
  0.000000000000000E+000
  0.000000000000000E+000
  0.000000000000000E+000
  0.000000000000000E+000
  0.000000000000000E+000
  0.000000000000000E+000
  0.000000000000000E+000
  0.000000000000000E+000
  0.000000000000000E+000
  0.000000000000000E+000
  0.000000000000000E+000
  0.000000000000000E+000
  0.000000000000000E+000
  0.000000000000000E+000
  0.000000000000000E+000
  0.000000000000000E+000
  0.000000000000000E+000
  0.000000000000000E+000
  0.000000000000000E+000
  0.000000000000000E+000
  0.000000000000000E+000
  0.000000000000000E+000
  0.000000000000000E+000
  0.000000000000000E+000
  0.000000000000000E+000
  0.000000000000000E+000
  0.000000000000000E+000
  0.000000000000000E+000
  0.000000000000000E+000
  0.000000000000000E+000
  0.000000000000000E+000
  0.000000000000000E+000
  0.000000000000000E+000
  0.000000000000000E+000
  0.000000000000000E+000
  0.000000000000000E+000
  0.000000000000000E+000
  0.000000000000000E+000
  0.000000000000000E+000
  0.000000000000000E+000
  0.000000000000000E+000
  0.000000000000000E+000
  0.000000000000000E+000
  0.000000000000000E+000
  0.000000000000000E+000
  0.000000000000000E+000
  0.000000000000000E+000
  0.000000000000000E+000
  0.000000000000000E+000
  0.000000000000000E+000
  0.000000000000000E+000
  0.000000000000000E+000
  0.000000000000000E+000
  0.000000000000000E+000
  0.000000000000000E+000
  0.000000000000000E+000
  0.000000000000000E+000
  0.000000000000000E+000
  0.000000000000000E+000
  0.000000000000000E+000
  0.000000000000000E+000
  0.000000000000000E+000
  0.000000000000000E+000
  0.000000000000000E+000
  0.000000000000000E+000
  0.000000000000000E+000
  0.000000000000000E+000
  0.000000000000000E+000
  0.000000000000000E+000
  0.000000000000000E+000
  0.000000000000000E+000
  0.000000000000000E+000
  0.000000000000000E+000
  0.000000000000000E+000
  0.000000000000000E+000
  0.000000000000000E+000
  0.000000000000000E+000
  0.000000000000000E+000
  0.000000000000000E+000
  0.000000000000000E+000
  0.000000000000000E+000
  0.000000000000000E+000
  0.000000000000000E+000
  0.000000000000000E+000
  0.000000000000000E+000
  0.000000000000000E+000
  0.000000000000000E+000
  0.000000000000000E+000
  0.000000000000000E+000
  0.000000000000000E+000
  0.000000000000000E+000
  0.000000000000000E+000
  0.000000000000000E+000
  0.000000000000000E+000
  0.000000000000000E+000
  0.000000000000000E+000
  0.000000000000000E+000
  0.000000000000000E+000
  0.000000000000000E+000
  0.000000000000000E+000
  0.000000000000000E+000
  0.000000000000000E+000
  0.000000000000000E+000
  0.000000000000000E+000
  0.000000000000000E+000
  0.000000000000000E+000
  0.000000000000000E+000
  0.000000000000000E+000
  0.000000000000000E+000
  0.000000000000000E+000
  0.000000000000000E+000
  0.000000000000000E+000
  0.000000000000000E+000
  0.000000000000000E+000
  0.000000000000000E+000
  0.000000000000000E+000
  0.000000000000000E+000
  0.000000000000000E+000
  0.000000000000000E+000
  0.000000000000000E+000
  0.000000000000000E+000
  0.000000000000000E+000
  0.000000000000000E+000
  0.000000000000000E+000
  0.000000000000000E+000
  0.000000000000000E+000
  0.000000000000000E+000
  0.000000000000000E+000
  0.000000000000000E+000
  0.000000000000000E+000
  0.000000000000000E+000
  0.000000000000000E+000
  0.000000000000000E+000
  0.000000000000000E+000
  0.000000000000000E+000
  0.000000000000000E+000
  0.000000000000000E+000
  0.000000000000000E+000
  0.000000000000000E+000
  0.000000000000000E+000
  0.000000000000000E+000
  0.000000000000000E+000
  0.000000000000000E+000
  0.000000000000000E+000
  0.000000000000000E+000
  0.000000000000000E+000
  0.000000000000000E+000
  0.000000000000000E+000
  0.000000000000000E+000
  0.000000000000000E+000
  0.000000000000000E+000
  0.000000000000000E+000
  0.000000000000000E+000
  0.000000000000000E+000
  0.000000000000000E+000
  0.000000000000000E+000
  0.000000000000000E+000
  0.000000000000000E+000
  0.000000000000000E+000
  0.000000000000000E+000
  0.000000000000000E+000
  0.000000000000000E+000
  0.000000000000000E+000
  0.000000000000000E+000
  0.000000000000000E+000
  0.000000000000000E+000
  0.000000000000000E+000
  0.000000000000000E+000
  0.000000000000000E+000
  0.000000000000000E+000
  0.000000000000000E+000
  0.000000000000000E+000
  0.000000000000000E+000
  0.000000000000000E+000
  0.000000000000000E+000
  0.000000000000000E+000
  0.000000000000000E+000
  0.000000000000000E+000
  0.000000000000000E+000
  0.000000000000000E+000
  0.000000000000000E+000
  0.000000000000000E+000
  0.000000000000000E+000
  0.000000000000000E+000
  0.000000000000000E+000
  0.000000000000000E+000
  0.000000000000000E+000
  0.000000000000000E+000
  0.000000000000000E+000
  0.000000000000000E+000
  0.000000000000000E+000
  0.000000000000000E+000
  0.000000000000000E+000
  0.000000000000000E+000
  0.000000000000000E+000
  0.000000000000000E+000
  0.000000000000000E+000
  0.000000000000000E+000
  0.000000000000000E+000
  0.000000000000000E+000
  0.000000000000000E+000
  0.000000000000000E+000
  0.000000000000000E+000
  0.000000000000000E+000
  0.000000000000000E+000
  0.000000000000000E+000
  0.000000000000000E+000
  0.000000000000000E+000
  0.000000000000000E+000
  0.000000000000000E+000
  0.000000000000000E+000
  0.000000000000000E+000
  0.000000000000000E+000
  0.000000000000000E+000
  0.000000000000000E+000
  0.000000000000000E+000
  0.000000000000000E+000
  0.000000000000000E+000
  0.000000000000000E+000
  0.000000000000000E+000
  0.000000000000000E+000
  0.000000000000000E+000
  0.000000000000000E+000
  0.000000000000000E+000
  0.000000000000000E+000
  0.000000000000000E+000
  0.000000000000000E+000
  0.000000000000000E+000
  0.000000000000000E+000
  0.000000000000000E+000
  0.000000000000000E+000
  0.000000000000000E+000
  0.000000000000000E+000
  0.000000000000000E+000
  0.000000000000000E+000
  0.000000000000000E+000
  0.000000000000000E+000
  0.000000000000000E+000
  0.000000000000000E+000
  0.000000000000000E+000
  0.000000000000000E+000
  0.000000000000000E+000
  0.000000000000000E+000
  0.000000000000000E+000
  0.000000000000000E+000
  0.000000000000000E+000
  0.000000000000000E+000
  0.000000000000000E+000
  0.000000000000000E+000
  0.000000000000000E+000
  0.000000000000000E+000
  0.000000000000000E+000
  0.000000000000000E+000
  0.000000000000000E+000
  0.000000000000000E+000
  0.000000000000000E+000
  0.000000000000000E+000
  0.000000000000000E+000
  0.000000000000000E+000
  0.000000000000000E+000
  0.000000000000000E+000
  0.000000000000000E+000
  0.000000000000000E+000
  0.000000000000000E+000
  0.000000000000000E+000
  0.000000000000000E+000
  0.000000000000000E+000
  0.000000000000000E+000
  0.000000000000000E+000
  0.000000000000000E+000
  0.000000000000000E+000
  0.000000000000000E+000
  0.000000000000000E+000
  0.000000000000000E+000
  0.000000000000000E+000
  0.000000000000000E+000
  0.000000000000000E+000
  0.000000000000000E+000
  0.000000000000000E+000
  0.000000000000000E+000
  0.000000000000000E+000
  0.000000000000000E+000
  0.000000000000000E+000
  0.000000000000000E+000
  0.000000000000000E+000
  0.000000000000000E+000
  0.000000000000000E+000
  0.000000000000000E+000
  0.000000000000000E+000
  0.000000000000000E+000
  0.000000000000000E+000
  0.000000000000000E+000
  0.000000000000000E+000
  0.000000000000000E+000
  0.000000000000000E+000
  0.000000000000000E+000
  0.000000000000000E+000
  0.000000000000000E+000
  0.000000000000000E+000
  0.000000000000000E+000
  0.000000000000000E+000
  0.000000000000000E+000
  0.000000000000000E+000
  0.000000000000000E+000
  0.000000000000000E+000
  0.000000000000000E+000
  0.000000000000000E+000
  0.000000000000000E+000
  0.000000000000000E+000
  0.000000000000000E+000
  0.000000000000000E+000
  0.000000000000000E+000
  0.000000000000000E+000
  0.000000000000000E+000
  0.000000000000000E+000
  0.000000000000000E+000
  0.000000000000000E+000
  0.000000000000000E+000
  0.000000000000000E+000
  0.000000000000000E+000
  0.000000000000000E+000
  0.000000000000000E+000
  0.000000000000000E+000
  0.000000000000000E+000
  0.000000000000000E+000
  0.000000000000000E+000
  0.000000000000000E+000
  0.000000000000000E+000
  0.000000000000000E+000
  0.000000000000000E+000
  0.000000000000000E+000
  0.000000000000000E+000
  0.000000000000000E+000
  0.000000000000000E+000
  0.000000000000000E+000
  0.000000000000000E+000
  0.000000000000000E+000
  0.000000000000000E+000
  0.000000000000000E+000
  0.000000000000000E+000
  0.000000000000000E+000
  0.000000000000000E+000
  0.000000000000000E+000
  0.000000000000000E+000
  0.000000000000000E+000
  0.000000000000000E+000
  0.000000000000000E+000
  0.000000000000000E+000
  0.000000000000000E+000
  0.000000000000000E+000
  0.000000000000000E+000
  0.000000000000000E+000
  0.000000000000000E+000
  0.000000000000000E+000
  0.000000000000000E+000
  0.000000000000000E+000
  0.000000000000000E+000
  0.000000000000000E+000
  0.000000000000000E+000
  0.000000000000000E+000
  0.000000000000000E+000
  0.000000000000000E+000
  0.000000000000000E+000
  0.000000000000000E+000
  0.000000000000000E+000
  0.000000000000000E+000
  0.000000000000000E+000
  0.000000000000000E+000
  0.000000000000000E+000
  0.000000000000000E+000
  0.000000000000000E+000
  0.000000000000000E+000
  0.000000000000000E+000
  0.000000000000000E+000
  0.000000000000000E+000
  0.000000000000000E+000
  0.000000000000000E+000
  0.000000000000000E+000
  0.000000000000000E+000
  0.000000000000000E+000
  0.000000000000000E+000
  0.000000000000000E+000
  0.000000000000000E+000
  0.000000000000000E+000
  0.000000000000000E+000
  0.000000000000000E+000
  0.000000000000000E+000
  0.000000000000000E+000
  0.000000000000000E+000
  0.000000000000000E+000
  0.000000000000000E+000
  0.000000000000000E+000
  0.000000000000000E+000
  0.000000000000000E+000
  0.000000000000000E+000
  0.000000000000000E+000
  0.000000000000000E+000
  0.000000000000000E+000
  0.000000000000000E+000
  0.000000000000000E+000
  0.000000000000000E+000
  0.000000000000000E+000
  0.000000000000000E+000
  0.000000000000000E+000
  0.000000000000000E+000
  0.000000000000000E+000
  0.000000000000000E+000
  0.000000000000000E+000
  0.000000000000000E+000
  0.000000000000000E+000
  0.000000000000000E+000
  0.000000000000000E+000
  0.000000000000000E+000
  0.000000000000000E+000
  0.000000000000000E+000
  0.000000000000000E+000
  0.000000000000000E+000
  0.000000000000000E+000
  0.000000000000000E+000
  0.000000000000000E+000
  0.000000000000000E+000
  0.000000000000000E+000
  0.000000000000000E+000
  0.000000000000000E+000
  0.000000000000000E+000
  0.000000000000000E+000
  0.000000000000000E+000
  0.000000000000000E+000
  0.000000000000000E+000
  0.000000000000000E+000
  0.000000000000000E+000
  0.000000000000000E+000
  0.000000000000000E+000
  0.000000000000000E+000
  0.000000000000000E+000
  0.000000000000000E+000
  0.000000000000000E+000
  0.000000000000000E+000
  0.000000000000000E+000
  0.000000000000000E+000
  0.000000000000000E+000
  0.000000000000000E+000
  0.000000000000000E+000
  0.000000000000000E+000
  0.000000000000000E+000
  0.000000000000000E+000
  0.000000000000000E+000
  0.000000000000000E+000
  0.000000000000000E+000
  0.000000000000000E+000
  0.000000000000000E+000
  0.000000000000000E+000
  0.000000000000000E+000
  0.000000000000000E+000
  0.000000000000000E+000
  0.000000000000000E+000
  0.000000000000000E+000
  0.000000000000000E+000
  0.000000000000000E+000
  0.000000000000000E+000
  0.000000000000000E+000
  0.000000000000000E+000
  0.000000000000000E+000
  0.000000000000000E+000
  0.000000000000000E+000
  0.000000000000000E+000
  0.000000000000000E+000
  0.000000000000000E+000
  0.000000000000000E+000
  0.000000000000000E+000
  0.000000000000000E+000
  0.000000000000000E+000
  0.000000000000000E+000
  0.000000000000000E+000
  0.000000000000000E+000
  0.000000000000000E+000
  0.000000000000000E+000
  0.000000000000000E+000
  0.000000000000000E+000
  0.000000000000000E+000
  0.000000000000000E+000
  0.000000000000000E+000
  0.000000000000000E+000
  0.000000000000000E+000
  0.000000000000000E+000
  0.000000000000000E+000
  0.000000000000000E+000
  0.000000000000000E+000
  0.000000000000000E+000
  0.000000000000000E+000
  0.000000000000000E+000
  0.000000000000000E+000
  0.000000000000000E+000
  0.000000000000000E+000
  0.000000000000000E+000
  0.000000000000000E+000
  0.000000000000000E+000
  0.000000000000000E+000
  0.000000000000000E+000
  0.000000000000000E+000
  0.000000000000000E+000
  0.000000000000000E+000
  0.000000000000000E+000
  0.000000000000000E+000
  0.000000000000000E+000
  0.000000000000000E+000
  0.000000000000000E+000
  0.000000000000000E+000
  0.000000000000000E+000
  0.000000000000000E+000
  0.000000000000000E+000
  0.000000000000000E+000
  0.000000000000000E+000
  0.000000000000000E+000
  0.000000000000000E+000
  0.000000000000000E+000
  0.000000000000000E+000
  0.000000000000000E+000
  0.000000000000000E+000
  0.000000000000000E+000
  0.000000000000000E+000
  0.000000000000000E+000
  0.000000000000000E+000
  0.000000000000000E+000
  0.000000000000000E+000
  0.000000000000000E+000
  0.000000000000000E+000
  0.000000000000000E+000
  0.000000000000000E+000
  0.000000000000000E+000
  0.000000000000000E+000
  0.000000000000000E+000
  0.000000000000000E+000
  0.000000000000000E+000
  0.000000000000000E+000
  0.000000000000000E+000
  0.000000000000000E+000
  0.000000000000000E+000
  0.000000000000000E+000
  0.000000000000000E+000
  0.000000000000000E+000
  0.000000000000000E+000
  0.000000000000000E+000
  0.000000000000000E+000
  0.000000000000000E+000
  0.000000000000000E+000
  0.000000000000000E+000
  0.000000000000000E+000
  0.000000000000000E+000
  0.000000000000000E+000
  0.000000000000000E+000
  0.000000000000000E+000
  0.000000000000000E+000
  0.000000000000000E+000
  0.000000000000000E+000
  0.000000000000000E+000
  0.000000000000000E+000
  0.000000000000000E+000
  0.000000000000000E+000
  0.000000000000000E+000
  0.000000000000000E+000
  0.000000000000000E+000
  0.000000000000000E+000
  0.000000000000000E+000
  0.000000000000000E+000
  0.000000000000000E+000
  0.000000000000000E+000
  0.000000000000000E+000
  0.000000000000000E+000
  0.000000000000000E+000
  0.000000000000000E+000
  0.000000000000000E+000
  0.000000000000000E+000
  0.000000000000000E+000
  0.000000000000000E+000
  0.000000000000000E+000
  0.000000000000000E+000
  0.000000000000000E+000
  0.000000000000000E+000
  0.000000000000000E+000
  0.000000000000000E+000
  0.000000000000000E+000
  0.000000000000000E+000
  0.000000000000000E+000
  0.000000000000000E+000
  0.000000000000000E+000
  0.000000000000000E+000
  0.000000000000000E+000
  0.000000000000000E+000
  0.000000000000000E+000
  0.000000000000000E+000
  0.000000000000000E+000
  0.000000000000000E+000
  0.000000000000000E+000
  0.000000000000000E+000
  0.000000000000000E+000
  0.000000000000000E+000
  0.000000000000000E+000
  0.000000000000000E+000
  0.000000000000000E+000
  0.000000000000000E+000
  0.000000000000000E+000
  0.000000000000000E+000
  0.000000000000000E+000
  0.000000000000000E+000
  0.000000000000000E+000
  0.000000000000000E+000
  0.000000000000000E+000
  0.000000000000000E+000
  0.000000000000000E+000
  0.000000000000000E+000
  0.000000000000000E+000
  0.000000000000000E+000
  0.000000000000000E+000
  0.000000000000000E+000
  0.000000000000000E+000
  0.000000000000000E+000
  0.000000000000000E+000
  0.000000000000000E+000
  0.000000000000000E+000
  0.000000000000000E+000
  0.000000000000000E+000
  0.000000000000000E+000
  0.000000000000000E+000
  0.000000000000000E+000
  0.000000000000000E+000
  0.000000000000000E+000
  0.000000000000000E+000
  0.000000000000000E+000
  0.000000000000000E+000
  0.000000000000000E+000
  0.000000000000000E+000
  0.000000000000000E+000
  0.000000000000000E+000
  0.000000000000000E+000
  0.000000000000000E+000
  0.000000000000000E+000
  0.000000000000000E+000
  0.000000000000000E+000
  0.000000000000000E+000
  0.000000000000000E+000
  0.000000000000000E+000
  0.000000000000000E+000
  0.000000000000000E+000
  0.000000000000000E+000
  0.000000000000000E+000
  0.000000000000000E+000
  0.000000000000000E+000
  0.000000000000000E+000
  0.000000000000000E+000
  0.000000000000000E+000
  0.000000000000000E+000
  0.000000000000000E+000
  0.000000000000000E+000
  0.000000000000000E+000
  0.000000000000000E+000
  0.000000000000000E+000
  0.000000000000000E+000
  0.000000000000000E+000
  0.000000000000000E+000
  0.000000000000000E+000
  0.000000000000000E+000
  0.000000000000000E+000
  0.000000000000000E+000
  0.000000000000000E+000
  0.000000000000000E+000
  0.000000000000000E+000
  0.000000000000000E+000
  0.000000000000000E+000
  0.000000000000000E+000
  0.000000000000000E+000
  0.000000000000000E+000
  0.000000000000000E+000
  0.000000000000000E+000
  0.000000000000000E+000
  0.000000000000000E+000
  0.000000000000000E+000
  0.000000000000000E+000
  0.000000000000000E+000
  0.000000000000000E+000
  0.000000000000000E+000
  0.000000000000000E+000
  0.000000000000000E+000
  0.000000000000000E+000
  0.000000000000000E+000
  0.000000000000000E+000
  0.000000000000000E+000
  0.000000000000000E+000
  0.000000000000000E+000
  0.000000000000000E+000
  0.000000000000000E+000
  0.000000000000000E+000
  0.000000000000000E+000
  0.000000000000000E+000
  0.000000000000000E+000
  0.000000000000000E+000
  0.000000000000000E+000
  0.000000000000000E+000
  0.000000000000000E+000
  0.000000000000000E+000
  0.000000000000000E+000
  0.000000000000000E+000
  0.000000000000000E+000
  0.000000000000000E+000
  0.000000000000000E+000
  0.000000000000000E+000
  0.000000000000000E+000
  0.000000000000000E+000
  0.000000000000000E+000
  0.000000000000000E+000
  0.000000000000000E+000
  0.000000000000000E+000
  0.000000000000000E+000
  0.000000000000000E+000
  0.000000000000000E+000
  0.000000000000000E+000
  0.000000000000000E+000
  0.000000000000000E+000
  0.000000000000000E+000
  0.000000000000000E+000
  0.000000000000000E+000
  0.000000000000000E+000
  0.000000000000000E+000
  0.000000000000000E+000
  0.000000000000000E+000
  0.000000000000000E+000
  0.000000000000000E+000
  0.000000000000000E+000
  0.000000000000000E+000
  0.000000000000000E+000
  0.000000000000000E+000
  0.000000000000000E+000
  0.000000000000000E+000
  0.000000000000000E+000
  0.000000000000000E+000
  0.000000000000000E+000
  0.000000000000000E+000
  0.000000000000000E+000
  0.000000000000000E+000
  0.000000000000000E+000
  0.000000000000000E+000
  0.000000000000000E+000
  0.000000000000000E+000
  0.000000000000000E+000
  0.000000000000000E+000
  0.000000000000000E+000
  0.000000000000000E+000
  0.000000000000000E+000
  0.000000000000000E+000
  0.000000000000000E+000
  0.000000000000000E+000
  0.000000000000000E+000
  0.000000000000000E+000
  0.000000000000000E+000
  0.000000000000000E+000
  0.000000000000000E+000
  0.000000000000000E+000
  0.000000000000000E+000
  0.000000000000000E+000
  0.000000000000000E+000
  0.000000000000000E+000
  0.000000000000000E+000
  0.000000000000000E+000
  0.000000000000000E+000
  0.000000000000000E+000
  0.000000000000000E+000
  0.000000000000000E+000
  0.000000000000000E+000
  0.000000000000000E+000
  0.000000000000000E+000
  0.000000000000000E+000
  0.000000000000000E+000
  0.000000000000000E+000
  0.000000000000000E+000
  0.000000000000000E+000
  0.000000000000000E+000
  0.000000000000000E+000
  0.000000000000000E+000
  0.000000000000000E+000
  0.000000000000000E+000
  0.000000000000000E+000
  0.000000000000000E+000
  0.000000000000000E+000
  0.000000000000000E+000
  0.000000000000000E+000
  0.000000000000000E+000
  0.000000000000000E+000
  0.000000000000000E+000
  0.000000000000000E+000
  0.000000000000000E+000
  0.000000000000000E+000
  0.000000000000000E+000
  0.000000000000000E+000
  0.000000000000000E+000
  0.000000000000000E+000
  0.000000000000000E+000
  0.000000000000000E+000
  0.000000000000000E+000
  0.000000000000000E+000
  0.000000000000000E+000
  0.000000000000000E+000
  0.000000000000000E+000
  0.000000000000000E+000
  0.000000000000000E+000
  0.000000000000000E+000
  0.000000000000000E+000
  0.000000000000000E+000
  0.000000000000000E+000
  0.000000000000000E+000
  0.000000000000000E+000
  0.000000000000000E+000
  0.000000000000000E+000
  0.000000000000000E+000
  0.000000000000000E+000
  0.000000000000000E+000
  0.000000000000000E+000
  0.000000000000000E+000
  0.000000000000000E+000
  0.000000000000000E+000
  0.000000000000000E+000
  0.000000000000000E+000
  0.000000000000000E+000
  0.000000000000000E+000
  0.000000000000000E+000
  0.000000000000000E+000
  0.000000000000000E+000
  0.000000000000000E+000
  0.000000000000000E+000
  0.000000000000000E+000
  0.000000000000000E+000
  0.000000000000000E+000
  0.000000000000000E+000
  0.000000000000000E+000
  0.000000000000000E+000
  0.000000000000000E+000
  0.000000000000000E+000
  0.000000000000000E+000
  0.000000000000000E+000
  0.000000000000000E+000
  0.000000000000000E+000
  0.000000000000000E+000
  0.000000000000000E+000
  0.000000000000000E+000
  0.000000000000000E+000
  0.000000000000000E+000
  0.000000000000000E+000
  0.000000000000000E+000
  0.000000000000000E+000
  0.000000000000000E+000
  0.000000000000000E+000
  0.000000000000000E+000
  0.000000000000000E+000
  0.000000000000000E+000
  0.000000000000000E+000
  0.000000000000000E+000
  0.000000000000000E+000
  0.000000000000000E+000
  0.000000000000000E+000
  0.000000000000000E+000
  0.000000000000000E+000
  0.000000000000000E+000
  0.000000000000000E+000
  0.000000000000000E+000
  0.000000000000000E+000
  0.000000000000000E+000
  0.000000000000000E+000
  0.000000000000000E+000
  0.000000000000000E+000
  0.000000000000000E+000
  0.000000000000000E+000
  0.000000000000000E+000
  0.000000000000000E+000
  0.000000000000000E+000
  0.000000000000000E+000
  0.000000000000000E+000
  0.000000000000000E+000
  0.000000000000000E+000
  0.000000000000000E+000
  0.000000000000000E+000
  0.000000000000000E+000
  0.000000000000000E+000
  0.000000000000000E+000
  0.000000000000000E+000
  0.000000000000000E+000
  0.000000000000000E+000
  0.000000000000000E+000
  0.000000000000000E+000
  0.000000000000000E+000
  0.000000000000000E+000
  0.000000000000000E+000
  0.000000000000000E+000
  0.000000000000000E+000
  0.000000000000000E+000
  0.000000000000000E+000
  0.000000000000000E+000
  0.000000000000000E+000
  0.000000000000000E+000
  0.000000000000000E+000
  0.000000000000000E+000
  0.000000000000000E+000
  0.000000000000000E+000
  0.000000000000000E+000
  0.000000000000000E+000
  0.000000000000000E+000
  0.000000000000000E+000
  0.000000000000000E+000
  0.000000000000000E+000
  0.000000000000000E+000
  0.000000000000000E+000
  0.000000000000000E+000
  0.000000000000000E+000
  0.000000000000000E+000
  0.000000000000000E+000
  0.000000000000000E+000
  0.000000000000000E+000
  0.000000000000000E+000
  0.000000000000000E+000
  0.000000000000000E+000
  0.000000000000000E+000
  0.000000000000000E+000
  0.000000000000000E+000
  0.000000000000000E+000
  0.000000000000000E+000
  0.000000000000000E+000
  0.000000000000000E+000
  0.000000000000000E+000
  0.000000000000000E+000
  0.000000000000000E+000
  0.000000000000000E+000
  0.000000000000000E+000
  0.000000000000000E+000
  0.000000000000000E+000
  0.000000000000000E+000
  0.000000000000000E+000
  0.000000000000000E+000
  0.000000000000000E+000
  0.000000000000000E+000
  0.000000000000000E+000
  0.000000000000000E+000
  0.000000000000000E+000
  0.000000000000000E+000
  0.000000000000000E+000
  0.000000000000000E+000
  0.000000000000000E+000
  0.000000000000000E+000
  0.000000000000000E+000
  0.000000000000000E+000
  0.000000000000000E+000
  0.000000000000000E+000
  0.000000000000000E+000
  0.000000000000000E+000
  0.000000000000000E+000
  0.000000000000000E+000
  0.000000000000000E+000
  0.000000000000000E+000
  0.000000000000000E+000
  0.000000000000000E+000
  0.000000000000000E+000
  0.000000000000000E+000
  0.000000000000000E+000
  0.000000000000000E+000
  0.000000000000000E+000
  0.000000000000000E+000
  0.000000000000000E+000
  0.000000000000000E+000
  0.000000000000000E+000
  0.000000000000000E+000
  0.000000000000000E+000
  0.000000000000000E+000
  0.000000000000000E+000
  0.000000000000000E+000
  0.000000000000000E+000
  0.000000000000000E+000
  0.000000000000000E+000
  0.000000000000000E+000
  0.000000000000000E+000
  0.000000000000000E+000
  0.000000000000000E+000
  0.000000000000000E+000
  0.000000000000000E+000
  0.000000000000000E+000
  0.000000000000000E+000
  0.000000000000000E+000
  0.000000000000000E+000
  0.000000000000000E+000
  0.000000000000000E+000
  0.000000000000000E+000
  0.000000000000000E+000
  0.000000000000000E+000
  0.000000000000000E+000
  0.000000000000000E+000
  0.000000000000000E+000
  0.000000000000000E+000
  0.000000000000000E+000
  0.000000000000000E+000
  0.000000000000000E+000
  0.000000000000000E+000
  0.000000000000000E+000
  0.000000000000000E+000
  0.000000000000000E+000
  0.000000000000000E+000
  0.000000000000000E+000
  0.000000000000000E+000
  0.000000000000000E+000
  0.000000000000000E+000
  0.000000000000000E+000
  0.000000000000000E+000
  0.000000000000000E+000
  0.000000000000000E+000
  0.000000000000000E+000
  0.000000000000000E+000
  0.000000000000000E+000
  0.000000000000000E+000
  0.000000000000000E+000
  0.000000000000000E+000
  0.000000000000000E+000
  0.000000000000000E+000
  0.000000000000000E+000
  0.000000000000000E+000
  0.000000000000000E+000
  0.000000000000000E+000
  0.000000000000000E+000
  0.000000000000000E+000
  0.000000000000000E+000
  0.000000000000000E+000
  0.000000000000000E+000
  0.000000000000000E+000
  0.000000000000000E+000
  0.000000000000000E+000
  0.000000000000000E+000
  0.000000000000000E+000
  0.000000000000000E+000
  0.000000000000000E+000
  0.000000000000000E+000
  0.000000000000000E+000
  0.000000000000000E+000
  0.000000000000000E+000
  0.000000000000000E+000
  0.000000000000000E+000
  0.000000000000000E+000
  0.000000000000000E+000
  0.000000000000000E+000
  0.000000000000000E+000
  0.000000000000000E+000
  0.000000000000000E+000
  0.000000000000000E+000
  0.000000000000000E+000
  0.000000000000000E+000
  0.000000000000000E+000
  0.000000000000000E+000
  0.000000000000000E+000
  0.000000000000000E+000
  0.000000000000000E+000
  0.000000000000000E+000
  0.000000000000000E+000
  0.000000000000000E+000
  0.000000000000000E+000
  0.000000000000000E+000
  0.000000000000000E+000
  0.000000000000000E+000
  0.000000000000000E+000
  0.000000000000000E+000
  0.000000000000000E+000
  0.000000000000000E+000
  0.000000000000000E+000
  0.000000000000000E+000
  0.000000000000000E+000
  0.000000000000000E+000
  0.000000000000000E+000
  0.000000000000000E+000
  0.000000000000000E+000
  0.000000000000000E+000
  0.000000000000000E+000
  0.000000000000000E+000
  0.000000000000000E+000
  0.000000000000000E+000
  0.000000000000000E+000
  0.000000000000000E+000
  0.000000000000000E+000
  0.000000000000000E+000
  0.000000000000000E+000
  0.000000000000000E+000
  0.000000000000000E+000
  0.000000000000000E+000
  0.000000000000000E+000
  0.000000000000000E+000
  0.000000000000000E+000
  0.000000000000000E+000
  0.000000000000000E+000
  0.000000000000000E+000
  0.000000000000000E+000
  0.000000000000000E+000
  0.000000000000000E+000
  0.000000000000000E+000
  0.000000000000000E+000
  0.000000000000000E+000
  0.000000000000000E+000
  0.000000000000000E+000
  0.000000000000000E+000
  0.000000000000000E+000
  0.000000000000000E+000
  0.000000000000000E+000
  0.000000000000000E+000
  0.000000000000000E+000
  0.000000000000000E+000
  0.000000000000000E+000
  0.000000000000000E+000
  0.000000000000000E+000
  0.000000000000000E+000
  0.000000000000000E+000
  0.000000000000000E+000
  0.000000000000000E+000
  0.000000000000000E+000
  0.000000000000000E+000
  0.000000000000000E+000
  0.000000000000000E+000
  0.000000000000000E+000
  0.000000000000000E+000
  0.000000000000000E+000
  0.000000000000000E+000
  0.000000000000000E+000
  0.000000000000000E+000
  0.000000000000000E+000
  0.000000000000000E+000
  0.000000000000000E+000
  0.000000000000000E+000
  0.000000000000000E+000
  0.000000000000000E+000
  0.000000000000000E+000
  0.000000000000000E+000
  0.000000000000000E+000
  0.000000000000000E+000
  0.000000000000000E+000
  0.000000000000000E+000
  0.000000000000000E+000
  0.000000000000000E+000
  0.000000000000000E+000
  0.000000000000000E+000
  0.000000000000000E+000
  0.000000000000000E+000
  0.000000000000000E+000
  0.000000000000000E+000
  0.000000000000000E+000
  0.000000000000000E+000
  0.000000000000000E+000
  0.000000000000000E+000
  0.000000000000000E+000
  0.000000000000000E+000
  0.000000000000000E+000
  0.000000000000000E+000
  0.000000000000000E+000
  0.000000000000000E+000
  0.000000000000000E+000
  0.000000000000000E+000
  0.000000000000000E+000
  0.000000000000000E+000
  0.000000000000000E+000
  0.000000000000000E+000
  0.000000000000000E+000
  0.000000000000000E+000
  0.000000000000000E+000
  0.000000000000000E+000
  0.000000000000000E+000
  0.000000000000000E+000
  0.000000000000000E+000
  0.000000000000000E+000
  0.000000000000000E+000
  0.000000000000000E+000
  0.000000000000000E+000
  0.000000000000000E+000
  0.000000000000000E+000
  0.000000000000000E+000
  0.000000000000000E+000
  0.000000000000000E+000
  0.000000000000000E+000
  0.000000000000000E+000
  0.000000000000000E+000
  0.000000000000000E+000
  0.000000000000000E+000
  0.000000000000000E+000
  0.000000000000000E+000
  0.000000000000000E+000
  0.000000000000000E+000
  0.000000000000000E+000
  0.000000000000000E+000
  0.000000000000000E+000
  0.000000000000000E+000
  0.000000000000000E+000
  0.000000000000000E+000
  0.000000000000000E+000
  0.000000000000000E+000
  0.000000000000000E+000
  0.000000000000000E+000
  0.000000000000000E+000
  0.000000000000000E+000
  0.000000000000000E+000
  0.000000000000000E+000
  0.000000000000000E+000
  0.000000000000000E+000
  0.000000000000000E+000
  0.000000000000000E+000
  0.000000000000000E+000
  0.000000000000000E+000
  0.000000000000000E+000
  0.000000000000000E+000
  0.000000000000000E+000
  0.000000000000000E+000
  0.000000000000000E+000
  0.000000000000000E+000
  0.000000000000000E+000
  0.000000000000000E+000
  0.000000000000000E+000
  0.000000000000000E+000
  0.000000000000000E+000
  0.000000000000000E+000
  0.000000000000000E+000
  0.000000000000000E+000
  0.000000000000000E+000
  0.000000000000000E+000
  0.000000000000000E+000
  0.000000000000000E+000
  0.000000000000000E+000
  0.000000000000000E+000
  0.000000000000000E+000
  0.000000000000000E+000
  0.000000000000000E+000
  0.000000000000000E+000
  0.000000000000000E+000
  0.000000000000000E+000
  0.000000000000000E+000
  0.000000000000000E+000
  0.000000000000000E+000
  0.000000000000000E+000
  0.000000000000000E+000
  0.000000000000000E+000
  0.000000000000000E+000
  0.000000000000000E+000
  0.000000000000000E+000
  0.000000000000000E+000
  0.000000000000000E+000
  0.000000000000000E+000
  0.000000000000000E+000
  0.000000000000000E+000
  0.000000000000000E+000
  0.000000000000000E+000
  0.000000000000000E+000
  0.000000000000000E+000
  0.000000000000000E+000
  0.000000000000000E+000
  0.000000000000000E+000
  0.000000000000000E+000
  0.000000000000000E+000
  0.000000000000000E+000
  0.000000000000000E+000
  0.000000000000000E+000
  0.000000000000000E+000
  0.000000000000000E+000
  0.000000000000000E+000
  0.000000000000000E+000
  0.000000000000000E+000
  0.000000000000000E+000
  0.000000000000000E+000
  0.000000000000000E+000
  0.000000000000000E+000
  0.000000000000000E+000
  0.000000000000000E+000
  0.000000000000000E+000
  0.000000000000000E+000
  0.000000000000000E+000
  0.000000000000000E+000
  0.000000000000000E+000
  0.000000000000000E+000
  0.000000000000000E+000
  0.000000000000000E+000
  0.000000000000000E+000
  0.000000000000000E+000
  0.000000000000000E+000
  0.000000000000000E+000
  0.000000000000000E+000
  0.000000000000000E+000
  0.000000000000000E+000
  0.000000000000000E+000
  0.000000000000000E+000
  0.000000000000000E+000
  0.000000000000000E+000
  0.000000000000000E+000
  0.000000000000000E+000
  0.000000000000000E+000
  0.000000000000000E+000
  0.000000000000000E+000
  0.000000000000000E+000
  0.000000000000000E+000
  0.000000000000000E+000
  0.000000000000000E+000
  0.000000000000000E+000
  0.000000000000000E+000
  0.000000000000000E+000
  0.000000000000000E+000
  0.000000000000000E+000
  0.000000000000000E+000
  0.000000000000000E+000
  0.000000000000000E+000
  0.000000000000000E+000
  0.000000000000000E+000
  0.000000000000000E+000
  0.000000000000000E+000
  0.000000000000000E+000
  0.000000000000000E+000
  0.000000000000000E+000
  0.000000000000000E+000
  0.000000000000000E+000
  0.000000000000000E+000
  0.000000000000000E+000
  0.000000000000000E+000
  0.000000000000000E+000
  0.000000000000000E+000
  0.000000000000000E+000
  0.000000000000000E+000
  0.000000000000000E+000
  0.000000000000000E+000
  0.000000000000000E+000
  0.000000000000000E+000
  0.000000000000000E+000
  0.000000000000000E+000
  0.000000000000000E+000
  0.000000000000000E+000
  0.000000000000000E+000
  0.000000000000000E+000
  0.000000000000000E+000
  0.000000000000000E+000
  0.000000000000000E+000
  0.000000000000000E+000
  0.000000000000000E+000
  0.000000000000000E+000
  0.000000000000000E+000
  0.000000000000000E+000
  0.000000000000000E+000
  0.000000000000000E+000
  0.000000000000000E+000
  0.000000000000000E+000
  0.000000000000000E+000
  0.000000000000000E+000
  0.000000000000000E+000
  0.000000000000000E+000
  0.000000000000000E+000
  0.000000000000000E+000
  0.000000000000000E+000
  0.000000000000000E+000
  0.000000000000000E+000
  0.000000000000000E+000
  0.000000000000000E+000
  0.000000000000000E+000
  0.000000000000000E+000
  0.000000000000000E+000
  0.000000000000000E+000
  0.000000000000000E+000
  0.000000000000000E+000
  0.000000000000000E+000
  0.000000000000000E+000
  0.000000000000000E+000
  0.000000000000000E+000
  0.000000000000000E+000
  0.000000000000000E+000
  0.000000000000000E+000
  0.000000000000000E+000
  0.000000000000000E+000
  0.000000000000000E+000
  0.000000000000000E+000
  0.000000000000000E+000
  0.000000000000000E+000
  0.000000000000000E+000
  0.000000000000000E+000
  0.000000000000000E+000
  0.000000000000000E+000
  0.000000000000000E+000
  0.000000000000000E+000
  0.000000000000000E+000
  0.000000000000000E+000
  0.000000000000000E+000
  0.000000000000000E+000
  0.000000000000000E+000
  0.000000000000000E+000
  0.000000000000000E+000
  0.000000000000000E+000
  0.000000000000000E+000
  0.000000000000000E+000
  0.000000000000000E+000
  0.000000000000000E+000
  0.000000000000000E+000
  0.000000000000000E+000
  0.000000000000000E+000
  0.000000000000000E+000
  0.000000000000000E+000
  0.000000000000000E+000
  0.000000000000000E+000
  0.000000000000000E+000
  0.000000000000000E+000
  0.000000000000000E+000
  0.000000000000000E+000
  0.000000000000000E+000
  0.000000000000000E+000
  0.000000000000000E+000
  0.000000000000000E+000
  0.000000000000000E+000
  0.000000000000000E+000
  0.000000000000000E+000
  0.000000000000000E+000
  0.000000000000000E+000
  0.000000000000000E+000
  0.000000000000000E+000
  0.000000000000000E+000
  0.000000000000000E+000
  0.000000000000000E+000
  0.000000000000000E+000
  0.000000000000000E+000
  0.000000000000000E+000
  0.000000000000000E+000
  0.000000000000000E+000
  0.000000000000000E+000
  0.000000000000000E+000
  0.000000000000000E+000
  0.000000000000000E+000
  0.000000000000000E+000
  0.000000000000000E+000
  0.000000000000000E+000
  0.000000000000000E+000
  0.000000000000000E+000
  0.000000000000000E+000
  0.000000000000000E+000
  0.000000000000000E+000
  0.000000000000000E+000
  0.000000000000000E+000
  0.000000000000000E+000
  0.000000000000000E+000
  0.000000000000000E+000
  0.000000000000000E+000
  0.000000000000000E+000
  0.000000000000000E+000
  0.000000000000000E+000
  0.000000000000000E+000
  0.000000000000000E+000
  0.000000000000000E+000
  0.000000000000000E+000
  0.000000000000000E+000
  0.000000000000000E+000
  0.000000000000000E+000
  0.000000000000000E+000
  0.000000000000000E+000
  0.000000000000000E+000
  0.000000000000000E+000
  0.000000000000000E+000
  0.000000000000000E+000
  0.000000000000000E+000
  0.000000000000000E+000
  0.000000000000000E+000
  0.000000000000000E+000
  0.000000000000000E+000
  0.000000000000000E+000
  0.000000000000000E+000
  0.000000000000000E+000
  0.000000000000000E+000
  0.000000000000000E+000
  0.000000000000000E+000
  0.000000000000000E+000
  0.000000000000000E+000
  0.000000000000000E+000
  0.000000000000000E+000
  0.000000000000000E+000
  0.000000000000000E+000
  0.000000000000000E+000
  0.000000000000000E+000
  0.000000000000000E+000
  0.000000000000000E+000
  0.000000000000000E+000
  0.000000000000000E+000
  0.000000000000000E+000
  0.000000000000000E+000
  0.000000000000000E+000
  0.000000000000000E+000
  0.000000000000000E+000
  0.000000000000000E+000
  0.000000000000000E+000
  0.000000000000000E+000
  0.000000000000000E+000
  0.000000000000000E+000
  0.000000000000000E+000
  0.000000000000000E+000
  0.000000000000000E+000
  0.000000000000000E+000
  0.000000000000000E+000
  0.000000000000000E+000
  0.000000000000000E+000
  0.000000000000000E+000
  0.000000000000000E+000
  0.000000000000000E+000
  0.000000000000000E+000
  0.000000000000000E+000
  0.000000000000000E+000
  0.000000000000000E+000
  0.000000000000000E+000
  0.000000000000000E+000
  0.000000000000000E+000
  0.000000000000000E+000
  0.000000000000000E+000
  0.000000000000000E+000
  0.000000000000000E+000
  0.000000000000000E+000
  0.000000000000000E+000
  0.000000000000000E+000
  0.000000000000000E+000
  0.000000000000000E+000
  0.000000000000000E+000
  0.000000000000000E+000
  0.000000000000000E+000
  0.000000000000000E+000
  0.000000000000000E+000
  0.000000000000000E+000
  0.000000000000000E+000
  0.000000000000000E+000
  0.000000000000000E+000
  0.000000000000000E+000
  0.000000000000000E+000
  0.000000000000000E+000
  0.000000000000000E+000
  0.000000000000000E+000
  0.000000000000000E+000
  0.000000000000000E+000
  0.000000000000000E+000
  0.000000000000000E+000
  0.000000000000000E+000
  0.000000000000000E+000
  0.000000000000000E+000
  0.000000000000000E+000
  0.000000000000000E+000
  0.000000000000000E+000
  0.000000000000000E+000
  0.000000000000000E+000
  0.000000000000000E+000
  0.000000000000000E+000
  0.000000000000000E+000
  0.000000000000000E+000
  0.000000000000000E+000
  0.000000000000000E+000
  0.000000000000000E+000
  0.000000000000000E+000
  0.000000000000000E+000
  0.000000000000000E+000
  0.000000000000000E+000
  0.000000000000000E+000
  0.000000000000000E+000
  0.000000000000000E+000
  0.000000000000000E+000
  0.000000000000000E+000
  0.000000000000000E+000
  0.000000000000000E+000
  0.000000000000000E+000
  0.000000000000000E+000
  0.000000000000000E+000
  0.000000000000000E+000
  0.000000000000000E+000
  0.000000000000000E+000
  0.000000000000000E+000
  0.000000000000000E+000
  0.000000000000000E+000
  0.000000000000000E+000
  0.000000000000000E+000
  0.000000000000000E+000
  0.000000000000000E+000
  0.000000000000000E+000
  0.000000000000000E+000
  0.000000000000000E+000
  0.000000000000000E+000
  0.000000000000000E+000
  0.000000000000000E+000
  0.000000000000000E+000
  0.000000000000000E+000
  0.000000000000000E+000
  0.000000000000000E+000
  0.000000000000000E+000
  0.000000000000000E+000
  0.000000000000000E+000
  0.000000000000000E+000
  0.000000000000000E+000
  0.000000000000000E+000
  0.000000000000000E+000
  0.000000000000000E+000
  0.000000000000000E+000
  0.000000000000000E+000
  0.000000000000000E+000
  0.000000000000000E+000
  0.000000000000000E+000
  0.000000000000000E+000
  0.000000000000000E+000
  0.000000000000000E+000
  0.000000000000000E+000
  0.000000000000000E+000
  0.000000000000000E+000
  0.000000000000000E+000
  0.000000000000000E+000
  0.000000000000000E+000
  0.000000000000000E+000
  0.000000000000000E+000
  0.000000000000000E+000
  0.000000000000000E+000
  0.000000000000000E+000
  0.000000000000000E+000
  0.000000000000000E+000
  0.000000000000000E+000
  0.000000000000000E+000
  0.000000000000000E+000
  0.000000000000000E+000
  0.000000000000000E+000
  0.000000000000000E+000
  0.000000000000000E+000
  0.000000000000000E+000
  0.000000000000000E+000
  0.000000000000000E+000
  0.000000000000000E+000
  0.000000000000000E+000
  0.000000000000000E+000
  0.000000000000000E+000
  0.000000000000000E+000
  0.000000000000000E+000
  0.000000000000000E+000
  0.000000000000000E+000
  0.000000000000000E+000
  0.000000000000000E+000
  0.000000000000000E+000
  0.000000000000000E+000
  0.000000000000000E+000
  0.000000000000000E+000
  0.000000000000000E+000
  0.000000000000000E+000
  0.000000000000000E+000
  0.000000000000000E+000
  0.000000000000000E+000
  0.000000000000000E+000
  0.000000000000000E+000
  0.000000000000000E+000
  0.000000000000000E+000
  0.000000000000000E+000
  0.000000000000000E+000
  0.000000000000000E+000
  0.000000000000000E+000
  0.000000000000000E+000
  0.000000000000000E+000
  0.000000000000000E+000
  0.000000000000000E+000
  0.000000000000000E+000
  0.000000000000000E+000
  0.000000000000000E+000
  0.000000000000000E+000
  0.000000000000000E+000
  0.000000000000000E+000
  0.000000000000000E+000
  0.000000000000000E+000
  0.000000000000000E+000
  0.000000000000000E+000
  0.000000000000000E+000
  0.000000000000000E+000
  0.000000000000000E+000
  0.000000000000000E+000
  0.000000000000000E+000
  0.000000000000000E+000
  0.000000000000000E+000
  0.000000000000000E+000
  0.000000000000000E+000
  0.000000000000000E+000
  0.000000000000000E+000
  0.000000000000000E+000
  0.000000000000000E+000
  0.000000000000000E+000
  0.000000000000000E+000
  0.000000000000000E+000
  0.000000000000000E+000
  0.000000000000000E+000
  0.000000000000000E+000
  0.000000000000000E+000
  0.000000000000000E+000
  0.000000000000000E+000
  0.000000000000000E+000
  0.000000000000000E+000
  0.000000000000000E+000
  0.000000000000000E+000
  0.000000000000000E+000
  0.000000000000000E+000
  0.000000000000000E+000
  0.000000000000000E+000
  0.000000000000000E+000
  0.000000000000000E+000
  0.000000000000000E+000
  0.000000000000000E+000
  0.000000000000000E+000
  0.000000000000000E+000
  0.000000000000000E+000
  0.000000000000000E+000
  0.000000000000000E+000
  0.000000000000000E+000
  0.000000000000000E+000
  0.000000000000000E+000
  0.000000000000000E+000
  0.000000000000000E+000
  0.000000000000000E+000
  0.000000000000000E+000
  0.000000000000000E+000
  0.000000000000000E+000
  0.000000000000000E+000
  0.000000000000000E+000
  0.000000000000000E+000
  0.000000000000000E+000
  0.000000000000000E+000
  0.000000000000000E+000
  0.000000000000000E+000
  0.000000000000000E+000
  0.000000000000000E+000
  0.000000000000000E+000
  0.000000000000000E+000
  0.000000000000000E+000
  0.000000000000000E+000
  0.000000000000000E+000
  0.000000000000000E+000
  0.000000000000000E+000
  0.000000000000000E+000
  0.000000000000000E+000
  0.000000000000000E+000
  0.000000000000000E+000
  0.000000000000000E+000
  0.000000000000000E+000
  0.000000000000000E+000
  0.000000000000000E+000
  0.000000000000000E+000
  0.000000000000000E+000
  0.000000000000000E+000
  0.000000000000000E+000
  0.000000000000000E+000
  0.000000000000000E+000
  0.000000000000000E+000
  0.000000000000000E+000
  0.000000000000000E+000
  0.000000000000000E+000
  0.000000000000000E+000
  0.000000000000000E+000
  0.000000000000000E+000
  0.000000000000000E+000
  0.000000000000000E+000
  0.000000000000000E+000
  0.000000000000000E+000
  0.000000000000000E+000
  0.000000000000000E+000
  0.000000000000000E+000
  0.000000000000000E+000
  0.000000000000000E+000
  0.000000000000000E+000
  0.000000000000000E+000
  0.000000000000000E+000
  0.000000000000000E+000
  0.000000000000000E+000
  0.000000000000000E+000
  0.000000000000000E+000
  0.000000000000000E+000
  0.000000000000000E+000
  0.000000000000000E+000
  0.000000000000000E+000
  0.000000000000000E+000
  0.000000000000000E+000
  0.000000000000000E+000
  0.000000000000000E+000
  0.000000000000000E+000
  0.000000000000000E+000
  0.000000000000000E+000
  0.000000000000000E+000
  0.000000000000000E+000
  0.000000000000000E+000
  0.000000000000000E+000
  0.000000000000000E+000
  0.000000000000000E+000
  0.000000000000000E+000
  0.000000000000000E+000
  0.000000000000000E+000
  0.000000000000000E+000
  0.000000000000000E+000
  0.000000000000000E+000
  0.000000000000000E+000
  0.000000000000000E+000
  0.000000000000000E+000
  0.000000000000000E+000
  0.000000000000000E+000
  0.000000000000000E+000
  0.000000000000000E+000
  0.000000000000000E+000
  0.000000000000000E+000
  0.000000000000000E+000
  0.000000000000000E+000
  0.000000000000000E+000
  0.000000000000000E+000
  0.000000000000000E+000
  0.000000000000000E+000
  0.000000000000000E+000
  0.000000000000000E+000
  0.000000000000000E+000
  0.000000000000000E+000
  0.000000000000000E+000
  0.000000000000000E+000
  0.000000000000000E+000
  0.000000000000000E+000
  0.000000000000000E+000
  0.000000000000000E+000
  0.000000000000000E+000
  0.000000000000000E+000
  0.000000000000000E+000
  0.000000000000000E+000
  0.000000000000000E+000
  0.000000000000000E+000
  0.000000000000000E+000
  0.000000000000000E+000
  0.000000000000000E+000
  0.000000000000000E+000
  0.000000000000000E+000
  0.000000000000000E+000
  0.000000000000000E+000
  0.000000000000000E+000
  0.000000000000000E+000
  0.000000000000000E+000
  0.000000000000000E+000
  0.000000000000000E+000
  0.000000000000000E+000
  0.000000000000000E+000
  0.000000000000000E+000
  0.000000000000000E+000
  0.000000000000000E+000
  0.000000000000000E+000
  0.000000000000000E+000
  0.000000000000000E+000
  0.000000000000000E+000
  0.000000000000000E+000
  0.000000000000000E+000
  0.000000000000000E+000
  0.000000000000000E+000
  0.000000000000000E+000
  0.000000000000000E+000
  0.000000000000000E+000
  0.000000000000000E+000
  0.000000000000000E+000
  0.000000000000000E+000
  0.000000000000000E+000
  0.000000000000000E+000
  0.000000000000000E+000
  0.000000000000000E+000
  0.000000000000000E+000
  0.000000000000000E+000
  0.000000000000000E+000
  0.000000000000000E+000
  0.000000000000000E+000
  0.000000000000000E+000
  0.000000000000000E+000
  0.000000000000000E+000
  0.000000000000000E+000
  0.000000000000000E+000
  0.000000000000000E+000
  0.000000000000000E+000
  0.000000000000000E+000
  0.000000000000000E+000
  0.000000000000000E+000
  0.000000000000000E+000
  0.000000000000000E+000
  0.000000000000000E+000
  0.000000000000000E+000
  0.000000000000000E+000
  0.000000000000000E+000
  0.000000000000000E+000
  0.000000000000000E+000
  0.000000000000000E+000
  0.000000000000000E+000
  0.000000000000000E+000
  0.000000000000000E+000
  0.000000000000000E+000
  0.000000000000000E+000
  0.000000000000000E+000
  0.000000000000000E+000
  0.000000000000000E+000
  0.000000000000000E+000
  0.000000000000000E+000
  0.000000000000000E+000
  0.000000000000000E+000
  0.000000000000000E+000
  0.000000000000000E+000
  0.000000000000000E+000
  0.000000000000000E+000
  0.000000000000000E+000
  0.000000000000000E+000
  0.000000000000000E+000
  0.000000000000000E+000
  0.000000000000000E+000
  0.000000000000000E+000
  0.000000000000000E+000
  0.000000000000000E+000
  0.000000000000000E+000
  0.000000000000000E+000
  0.000000000000000E+000
  0.000000000000000E+000
  0.000000000000000E+000
  0.000000000000000E+000
  0.000000000000000E+000
  0.000000000000000E+000
  0.000000000000000E+000
  0.000000000000000E+000
  0.000000000000000E+000
  0.000000000000000E+000
  0.000000000000000E+000
  0.000000000000000E+000
  0.000000000000000E+000
  0.000000000000000E+000
  0.000000000000000E+000
  0.000000000000000E+000
  0.000000000000000E+000
  0.000000000000000E+000
  0.000000000000000E+000
  0.000000000000000E+000
  0.000000000000000E+000
  0.000000000000000E+000
  0.000000000000000E+000
  0.000000000000000E+000
  0.000000000000000E+000
  0.000000000000000E+000
  0.000000000000000E+000
  0.000000000000000E+000
  0.000000000000000E+000
  0.000000000000000E+000
  0.000000000000000E+000
  0.000000000000000E+000
  0.000000000000000E+000
  0.000000000000000E+000
  0.000000000000000E+000
  0.000000000000000E+000
  0.000000000000000E+000
  0.000000000000000E+000
  0.000000000000000E+000
  0.000000000000000E+000
  0.000000000000000E+000
  0.000000000000000E+000
  0.000000000000000E+000
  0.000000000000000E+000
  0.000000000000000E+000
  0.000000000000000E+000
  0.000000000000000E+000
  0.000000000000000E+000
  0.000000000000000E+000
  0.000000000000000E+000
  0.000000000000000E+000
  0.000000000000000E+000
  0.000000000000000E+000
  0.000000000000000E+000
  0.000000000000000E+000
  0.000000000000000E+000
  0.000000000000000E+000
  0.000000000000000E+000
  0.000000000000000E+000
  0.000000000000000E+000
  0.000000000000000E+000
  0.000000000000000E+000
  0.000000000000000E+000
  0.000000000000000E+000
  0.000000000000000E+000
  0.000000000000000E+000
  0.000000000000000E+000
  0.000000000000000E+000
  0.000000000000000E+000
  0.000000000000000E+000
  0.000000000000000E+000
  0.000000000000000E+000
  0.000000000000000E+000
  0.000000000000000E+000
  0.000000000000000E+000
  0.000000000000000E+000
  0.000000000000000E+000
  0.000000000000000E+000
  0.000000000000000E+000
  0.000000000000000E+000
  0.000000000000000E+000
  0.000000000000000E+000
  0.000000000000000E+000
  0.000000000000000E+000
  0.000000000000000E+000
  0.000000000000000E+000
  0.000000000000000E+000
  0.000000000000000E+000
  0.000000000000000E+000
  0.000000000000000E+000
  0.000000000000000E+000
  0.000000000000000E+000
  0.000000000000000E+000
  0.000000000000000E+000
  0.000000000000000E+000
  0.000000000000000E+000
  0.000000000000000E+000
  0.000000000000000E+000
  0.000000000000000E+000
  0.000000000000000E+000
  0.000000000000000E+000
  0.000000000000000E+000
  0.000000000000000E+000
  0.000000000000000E+000
  0.000000000000000E+000
  0.000000000000000E+000
  0.000000000000000E+000
  0.000000000000000E+000
  0.000000000000000E+000
  0.000000000000000E+000
  0.000000000000000E+000
  0.000000000000000E+000
  0.000000000000000E+000
  0.000000000000000E+000
  0.000000000000000E+000
  0.000000000000000E+000
  0.000000000000000E+000
  0.000000000000000E+000
  0.000000000000000E+000
  0.000000000000000E+000
  0.000000000000000E+000
  0.000000000000000E+000
  0.000000000000000E+000
  0.000000000000000E+000
  0.000000000000000E+000
  0.000000000000000E+000
  0.000000000000000E+000
  0.000000000000000E+000
  0.000000000000000E+000
  0.000000000000000E+000
  0.000000000000000E+000
  0.000000000000000E+000
  0.000000000000000E+000
  0.000000000000000E+000
  0.000000000000000E+000
  0.000000000000000E+000
  0.000000000000000E+000
  0.000000000000000E+000
  0.000000000000000E+000
  0.000000000000000E+000
  0.000000000000000E+000
  0.000000000000000E+000
  0.000000000000000E+000
  0.000000000000000E+000
  0.000000000000000E+000
  0.000000000000000E+000
  0.000000000000000E+000
  0.000000000000000E+000
  0.000000000000000E+000
  0.000000000000000E+000
  0.000000000000000E+000
  0.000000000000000E+000
  0.000000000000000E+000
  0.000000000000000E+000
  0.000000000000000E+000
  0.000000000000000E+000
  0.000000000000000E+000
  0.000000000000000E+000
  0.000000000000000E+000
  0.000000000000000E+000
  0.000000000000000E+000
  0.000000000000000E+000
  0.000000000000000E+000
  0.000000000000000E+000
  0.000000000000000E+000
  0.000000000000000E+000
  0.000000000000000E+000
  0.000000000000000E+000
  0.000000000000000E+000
  0.000000000000000E+000
  0.000000000000000E+000
  0.000000000000000E+000
  0.000000000000000E+000
  0.000000000000000E+000
  0.000000000000000E+000
  0.000000000000000E+000
  0.000000000000000E+000
  0.000000000000000E+000
  0.000000000000000E+000
  0.000000000000000E+000
  0.000000000000000E+000
  0.000000000000000E+000
  0.000000000000000E+000
  0.000000000000000E+000
  0.000000000000000E+000
  0.000000000000000E+000
  0.000000000000000E+000
  0.000000000000000E+000
  0.000000000000000E+000
  0.000000000000000E+000
  0.000000000000000E+000
  0.000000000000000E+000
  0.000000000000000E+000
  0.000000000000000E+000
  0.000000000000000E+000
  0.000000000000000E+000
  0.000000000000000E+000
  0.000000000000000E+000
  0.000000000000000E+000
  0.000000000000000E+000
  0.000000000000000E+000
  0.000000000000000E+000
  0.000000000000000E+000
  0.000000000000000E+000
  0.000000000000000E+000
  0.000000000000000E+000
  0.000000000000000E+000
  0.000000000000000E+000
  0.000000000000000E+000
  0.000000000000000E+000
  0.000000000000000E+000
  0.000000000000000E+000
  0.000000000000000E+000
  0.000000000000000E+000
  0.000000000000000E+000
  0.000000000000000E+000
  0.000000000000000E+000
  0.000000000000000E+000
  0.000000000000000E+000
  0.000000000000000E+000
  0.000000000000000E+000
  0.000000000000000E+000
  0.000000000000000E+000
  0.000000000000000E+000
  0.000000000000000E+000
  0.000000000000000E+000
  0.000000000000000E+000
  0.000000000000000E+000
  0.000000000000000E+000
  0.000000000000000E+000
  0.000000000000000E+000
  0.000000000000000E+000
  0.000000000000000E+000
  0.000000000000000E+000
  0.000000000000000E+000
  0.000000000000000E+000
  0.000000000000000E+000
  0.000000000000000E+000
  0.000000000000000E+000
  0.000000000000000E+000
  0.000000000000000E+000
  0.000000000000000E+000
  0.000000000000000E+000
  0.000000000000000E+000
  0.000000000000000E+000
  0.000000000000000E+000
  0.000000000000000E+000
  0.000000000000000E+000
  0.000000000000000E+000
  0.000000000000000E+000
  0.000000000000000E+000
  0.000000000000000E+000
  0.000000000000000E+000
  0.000000000000000E+000
  0.000000000000000E+000
  0.000000000000000E+000
  0.000000000000000E+000
  0.000000000000000E+000
  0.000000000000000E+000
  0.000000000000000E+000
  0.000000000000000E+000
  0.000000000000000E+000
  0.000000000000000E+000
  0.000000000000000E+000
  0.000000000000000E+000
  0.000000000000000E+000
  0.000000000000000E+000
  0.000000000000000E+000
  0.000000000000000E+000
  0.000000000000000E+000
  0.000000000000000E+000
  0.000000000000000E+000
  0.000000000000000E+000
  0.000000000000000E+000
  0.000000000000000E+000
  0.000000000000000E+000
  0.000000000000000E+000
  0.000000000000000E+000
  0.000000000000000E+000
  0.000000000000000E+000
  0.000000000000000E+000
  0.000000000000000E+000
  0.000000000000000E+000
  0.000000000000000E+000
  0.000000000000000E+000
  0.000000000000000E+000
  0.000000000000000E+000
  0.000000000000000E+000
  0.000000000000000E+000
  0.000000000000000E+000
  0.000000000000000E+000
  0.000000000000000E+000
  0.000000000000000E+000
  0.000000000000000E+000
  0.000000000000000E+000
  0.000000000000000E+000
  0.000000000000000E+000
  0.000000000000000E+000
  0.000000000000000E+000
  0.000000000000000E+000
  0.000000000000000E+000
  0.000000000000000E+000
  0.000000000000000E+000
  0.000000000000000E+000
  0.000000000000000E+000
  0.000000000000000E+000
  0.000000000000000E+000
  0.000000000000000E+000
  0.000000000000000E+000
  0.000000000000000E+000
  0.000000000000000E+000
  0.000000000000000E+000
  0.000000000000000E+000
  0.000000000000000E+000
  0.000000000000000E+000
  0.000000000000000E+000
  0.000000000000000E+000
  0.000000000000000E+000
  0.000000000000000E+000
  0.000000000000000E+000
  0.000000000000000E+000
  0.000000000000000E+000
  0.000000000000000E+000
  0.000000000000000E+000
  0.000000000000000E+000
  0.000000000000000E+000
  0.000000000000000E+000
  0.000000000000000E+000
  0.000000000000000E+000
  0.000000000000000E+000
  0.000000000000000E+000
  0.000000000000000E+000
  0.000000000000000E+000
  0.000000000000000E+000
  0.000000000000000E+000
  0.000000000000000E+000
  0.000000000000000E+000
  0.000000000000000E+000
  0.000000000000000E+000
  0.000000000000000E+000
  0.000000000000000E+000
  0.000000000000000E+000
  0.000000000000000E+000
  0.000000000000000E+000
  0.000000000000000E+000
  0.000000000000000E+000
  0.000000000000000E+000
  0.000000000000000E+000
  0.000000000000000E+000
  0.000000000000000E+000
  0.000000000000000E+000
  0.000000000000000E+000
  0.000000000000000E+000
  0.000000000000000E+000
  0.000000000000000E+000
  0.000000000000000E+000
  0.000000000000000E+000
  0.000000000000000E+000
  0.000000000000000E+000
  0.000000000000000E+000
  0.000000000000000E+000
  0.000000000000000E+000
  0.000000000000000E+000
  0.000000000000000E+000
  0.000000000000000E+000
  0.000000000000000E+000
  0.000000000000000E+000
  0.000000000000000E+000
  0.000000000000000E+000
  0.000000000000000E+000
  0.000000000000000E+000
  0.000000000000000E+000
  0.000000000000000E+000
  0.000000000000000E+000
  0.000000000000000E+000
  0.000000000000000E+000
  0.000000000000000E+000
  0.000000000000000E+000
  0.000000000000000E+000
  0.000000000000000E+000
  0.000000000000000E+000
  0.000000000000000E+000
  0.000000000000000E+000
  0.000000000000000E+000
  0.000000000000000E+000
  0.000000000000000E+000
  0.000000000000000E+000
  0.000000000000000E+000
  0.000000000000000E+000
  0.000000000000000E+000
  0.000000000000000E+000
  0.000000000000000E+000
  0.000000000000000E+000
  0.000000000000000E+000
  0.000000000000000E+000
  0.000000000000000E+000
  0.000000000000000E+000
  0.000000000000000E+000
  0.000000000000000E+000
  0.000000000000000E+000
  0.000000000000000E+000
  0.000000000000000E+000
  0.000000000000000E+000
  0.000000000000000E+000
  0.000000000000000E+000
  0.000000000000000E+000
  0.000000000000000E+000
  0.000000000000000E+000
  0.000000000000000E+000
  0.000000000000000E+000
  0.000000000000000E+000
  0.000000000000000E+000
  0.000000000000000E+000
  0.000000000000000E+000
  0.000000000000000E+000
  0.000000000000000E+000
  0.000000000000000E+000
  0.000000000000000E+000
  0.000000000000000E+000
  0.000000000000000E+000
  0.000000000000000E+000
  0.000000000000000E+000
  0.000000000000000E+000
  0.000000000000000E+000
  0.000000000000000E+000
  0.000000000000000E+000
  0.000000000000000E+000
  0.000000000000000E+000
  0.000000000000000E+000
  0.000000000000000E+000
  0.000000000000000E+000
  0.000000000000000E+000
  0.000000000000000E+000
  0.000000000000000E+000
  0.000000000000000E+000
  0.000000000000000E+000
  0.000000000000000E+000
  0.000000000000000E+000
  0.000000000000000E+000
  0.000000000000000E+000
  0.000000000000000E+000
  0.000000000000000E+000
  0.000000000000000E+000
  0.000000000000000E+000
  0.000000000000000E+000
  0.000000000000000E+000
  0.000000000000000E+000
  0.000000000000000E+000
  0.000000000000000E+000
  0.000000000000000E+000
  0.000000000000000E+000
  0.000000000000000E+000
  0.000000000000000E+000
  0.000000000000000E+000
  0.000000000000000E+000
  0.000000000000000E+000
  0.000000000000000E+000
  0.000000000000000E+000
  0.000000000000000E+000
  0.000000000000000E+000
  0.000000000000000E+000
  0.000000000000000E+000
  0.000000000000000E+000
  0.000000000000000E+000
  0.000000000000000E+000
  0.000000000000000E+000
  0.000000000000000E+000
  0.000000000000000E+000
  0.000000000000000E+000
  0.000000000000000E+000
  0.000000000000000E+000
  0.000000000000000E+000
  0.000000000000000E+000
  0.000000000000000E+000
  0.000000000000000E+000
  0.000000000000000E+000
  0.000000000000000E+000
  0.000000000000000E+000
  0.000000000000000E+000
  0.000000000000000E+000
  0.000000000000000E+000
  0.000000000000000E+000
  0.000000000000000E+000
  0.000000000000000E+000
  0.000000000000000E+000
  0.000000000000000E+000
  0.000000000000000E+000
  0.000000000000000E+000
  0.000000000000000E+000
  0.000000000000000E+000
  0.000000000000000E+000
  0.000000000000000E+000
  0.000000000000000E+000
  0.000000000000000E+000
  0.000000000000000E+000
  0.000000000000000E+000
  0.000000000000000E+000
  0.000000000000000E+000
  0.000000000000000E+000
  0.000000000000000E+000
  0.000000000000000E+000
  0.000000000000000E+000
  0.000000000000000E+000
  0.000000000000000E+000
  0.000000000000000E+000
  0.000000000000000E+000
  0.000000000000000E+000
  0.000000000000000E+000
  0.000000000000000E+000
  0.000000000000000E+000
  0.000000000000000E+000
  0.000000000000000E+000
  0.000000000000000E+000
  0.000000000000000E+000
  0.000000000000000E+000
  0.000000000000000E+000
  0.000000000000000E+000
  0.000000000000000E+000
  0.000000000000000E+000
  0.000000000000000E+000
  0.000000000000000E+000
  0.000000000000000E+000
  0.000000000000000E+000
  0.000000000000000E+000
  0.000000000000000E+000
  0.000000000000000E+000
  0.000000000000000E+000
  0.000000000000000E+000
  0.000000000000000E+000
  0.000000000000000E+000
  0.000000000000000E+000
  0.000000000000000E+000
  0.000000000000000E+000
  0.000000000000000E+000
  0.000000000000000E+000
  0.000000000000000E+000
  0.000000000000000E+000
  0.000000000000000E+000
  0.000000000000000E+000
  0.000000000000000E+000
  0.000000000000000E+000
  0.000000000000000E+000
  0.000000000000000E+000
  0.000000000000000E+000
  0.000000000000000E+000
  0.000000000000000E+000
  0.000000000000000E+000
  0.000000000000000E+000
  0.000000000000000E+000
  0.000000000000000E+000
  0.000000000000000E+000
  0.000000000000000E+000
  0.000000000000000E+000
  0.000000000000000E+000
  0.000000000000000E+000
  0.000000000000000E+000
  0.000000000000000E+000
  0.000000000000000E+000
  0.000000000000000E+000
  0.000000000000000E+000
  0.000000000000000E+000
  0.000000000000000E+000
  0.000000000000000E+000
  0.000000000000000E+000
  0.000000000000000E+000
  0.000000000000000E+000
  0.000000000000000E+000
  0.000000000000000E+000
  0.000000000000000E+000
  0.000000000000000E+000
  0.000000000000000E+000
  0.000000000000000E+000
  0.000000000000000E+000
  0.000000000000000E+000
  0.000000000000000E+000
  0.000000000000000E+000
  0.000000000000000E+000
  0.000000000000000E+000
  0.000000000000000E+000
  0.000000000000000E+000
  0.000000000000000E+000
  0.000000000000000E+000
  0.000000000000000E+000
  0.000000000000000E+000
  0.000000000000000E+000
  0.000000000000000E+000
  0.000000000000000E+000
  0.000000000000000E+000
  0.000000000000000E+000
  0.000000000000000E+000
  0.000000000000000E+000
  0.000000000000000E+000
  0.000000000000000E+000
  0.000000000000000E+000
  0.000000000000000E+000
  0.000000000000000E+000
  0.000000000000000E+000
  0.000000000000000E+000
  0.000000000000000E+000
  0.000000000000000E+000
  0.000000000000000E+000
  0.000000000000000E+000
  0.000000000000000E+000
  0.000000000000000E+000
  0.000000000000000E+000
  0.000000000000000E+000
  0.000000000000000E+000
  0.000000000000000E+000
  0.000000000000000E+000
  0.000000000000000E+000
  0.000000000000000E+000
  0.000000000000000E+000
  0.000000000000000E+000
  0.000000000000000E+000
  0.000000000000000E+000
  0.000000000000000E+000
  0.000000000000000E+000
  0.000000000000000E+000
  0.000000000000000E+000
  0.000000000000000E+000
  0.000000000000000E+000
  0.000000000000000E+000
  0.000000000000000E+000
  0.000000000000000E+000
  0.000000000000000E+000
  0.000000000000000E+000
  0.000000000000000E+000
  0.000000000000000E+000
  0.000000000000000E+000
  0.000000000000000E+000
  0.000000000000000E+000
  0.000000000000000E+000
  0.000000000000000E+000
  0.000000000000000E+000
  0.000000000000000E+000
  0.000000000000000E+000
  0.000000000000000E+000
  0.000000000000000E+000
  0.000000000000000E+000
  0.000000000000000E+000
  0.000000000000000E+000
  0.000000000000000E+000
  0.000000000000000E+000
  0.000000000000000E+000
  0.000000000000000E+000
  0.000000000000000E+000
  0.000000000000000E+000
  0.000000000000000E+000
  0.000000000000000E+000
  0.000000000000000E+000
  0.000000000000000E+000
  0.000000000000000E+000
  0.000000000000000E+000
  0.000000000000000E+000
  0.000000000000000E+000
  0.000000000000000E+000
  0.000000000000000E+000
  0.000000000000000E+000
  0.000000000000000E+000
  0.000000000000000E+000
  0.000000000000000E+000
  0.000000000000000E+000
  0.000000000000000E+000
  0.000000000000000E+000
  0.000000000000000E+000
  0.000000000000000E+000
  0.000000000000000E+000
  0.000000000000000E+000
  0.000000000000000E+000
  0.000000000000000E+000
  0.000000000000000E+000
  0.000000000000000E+000
  0.000000000000000E+000
  0.000000000000000E+000
  0.000000000000000E+000
  0.000000000000000E+000
  0.000000000000000E+000
  0.000000000000000E+000
  0.000000000000000E+000
  0.000000000000000E+000
  0.000000000000000E+000
  0.000000000000000E+000
  0.000000000000000E+000
  0.000000000000000E+000
  0.000000000000000E+000
  0.000000000000000E+000
  0.000000000000000E+000
  0.000000000000000E+000
  0.000000000000000E+000
  0.000000000000000E+000
  0.000000000000000E+000
  0.000000000000000E+000
  0.000000000000000E+000
  0.000000000000000E+000
  0.000000000000000E+000
  0.000000000000000E+000
  0.000000000000000E+000
  0.000000000000000E+000
  0.000000000000000E+000
  0.000000000000000E+000
  0.000000000000000E+000
  0.000000000000000E+000
  0.000000000000000E+000
  0.000000000000000E+000
  0.000000000000000E+000
  0.000000000000000E+000
  0.000000000000000E+000
  0.000000000000000E+000
  0.000000000000000E+000
  0.000000000000000E+000
  0.000000000000000E+000
  0.000000000000000E+000
  0.000000000000000E+000
  0.000000000000000E+000
  0.000000000000000E+000
  0.000000000000000E+000
  0.000000000000000E+000
  0.000000000000000E+000
  0.000000000000000E+000
  0.000000000000000E+000
  0.000000000000000E+000
  0.000000000000000E+000
  0.000000000000000E+000
  0.000000000000000E+000
  0.000000000000000E+000
  0.000000000000000E+000
  0.000000000000000E+000
  0.000000000000000E+000
  0.000000000000000E+000
  0.000000000000000E+000
  0.000000000000000E+000
  0.000000000000000E+000
  0.000000000000000E+000
  0.000000000000000E+000
  0.000000000000000E+000
  0.000000000000000E+000
  0.000000000000000E+000
  0.000000000000000E+000
  0.000000000000000E+000
  0.000000000000000E+000
  0.000000000000000E+000
  0.000000000000000E+000
  0.000000000000000E+000
  0.000000000000000E+000
  0.000000000000000E+000
  0.000000000000000E+000
  0.000000000000000E+000
  0.000000000000000E+000
  0.000000000000000E+000
  0.000000000000000E+000
  0.000000000000000E+000
  0.000000000000000E+000
  0.000000000000000E+000
  0.000000000000000E+000
  0.000000000000000E+000
  0.000000000000000E+000
  0.000000000000000E+000
  0.000000000000000E+000
  0.000000000000000E+000
  0.000000000000000E+000
  0.000000000000000E+000
  0.000000000000000E+000
  0.000000000000000E+000
  0.000000000000000E+000
  0.000000000000000E+000
  0.000000000000000E+000
  0.000000000000000E+000
  0.000000000000000E+000
  0.000000000000000E+000
  0.000000000000000E+000
  0.000000000000000E+000
  0.000000000000000E+000
  0.000000000000000E+000
  0.000000000000000E+000
  0.000000000000000E+000
  0.000000000000000E+000
  0.000000000000000E+000
  0.000000000000000E+000
  0.000000000000000E+000
  0.000000000000000E+000
  0.000000000000000E+000
  0.000000000000000E+000
  0.000000000000000E+000
  0.000000000000000E+000
  0.000000000000000E+000
  0.000000000000000E+000
  0.000000000000000E+000
  0.000000000000000E+000
  0.000000000000000E+000
  0.000000000000000E+000
  0.000000000000000E+000
  0.000000000000000E+000
  0.000000000000000E+000
  0.000000000000000E+000
  0.000000000000000E+000
  0.000000000000000E+000
  0.000000000000000E+000
  0.000000000000000E+000
  0.000000000000000E+000
  0.000000000000000E+000
  0.000000000000000E+000
  0.000000000000000E+000
  0.000000000000000E+000
  0.000000000000000E+000
  0.000000000000000E+000
  0.000000000000000E+000
  0.000000000000000E+000
  0.000000000000000E+000
  0.000000000000000E+000
  0.000000000000000E+000
  0.000000000000000E+000
  0.000000000000000E+000
  0.000000000000000E+000
  0.000000000000000E+000
  0.000000000000000E+000
  0.000000000000000E+000
  0.000000000000000E+000
  0.000000000000000E+000
  0.000000000000000E+000
  0.000000000000000E+000
  0.000000000000000E+000
  0.000000000000000E+000
  0.000000000000000E+000
  0.000000000000000E+000
  0.000000000000000E+000
  0.000000000000000E+000
  0.000000000000000E+000
  0.000000000000000E+000
  0.000000000000000E+000
  0.000000000000000E+000
  0.000000000000000E+000
  0.000000000000000E+000
  0.000000000000000E+000
  0.000000000000000E+000
  0.000000000000000E+000
  0.000000000000000E+000
  0.000000000000000E+000
  0.000000000000000E+000
  0.000000000000000E+000
  0.000000000000000E+000
  0.000000000000000E+000
  0.000000000000000E+000
  0.000000000000000E+000
  0.000000000000000E+000
  0.000000000000000E+000
  0.000000000000000E+000
  0.000000000000000E+000
  0.000000000000000E+000
  0.000000000000000E+000
  0.000000000000000E+000
  0.000000000000000E+000
  0.000000000000000E+000
  0.000000000000000E+000
  0.000000000000000E+000
  0.000000000000000E+000
  0.000000000000000E+000
  0.000000000000000E+000
  0.000000000000000E+000
  0.000000000000000E+000
  0.000000000000000E+000
  0.000000000000000E+000
  0.000000000000000E+000
  0.000000000000000E+000
  0.000000000000000E+000
  0.000000000000000E+000
  0.000000000000000E+000
  0.000000000000000E+000
  0.000000000000000E+000
  0.000000000000000E+000
  0.000000000000000E+000
  0.000000000000000E+000
  0.000000000000000E+000
  0.000000000000000E+000
  0.000000000000000E+000
  0.000000000000000E+000
  0.000000000000000E+000
  0.000000000000000E+000
  0.000000000000000E+000
  0.000000000000000E+000
  0.000000000000000E+000
  0.000000000000000E+000
  0.000000000000000E+000
  0.000000000000000E+000
  0.000000000000000E+000
  0.000000000000000E+000
  0.000000000000000E+000
  0.000000000000000E+000
  0.000000000000000E+000
  0.000000000000000E+000
  0.000000000000000E+000
  0.000000000000000E+000
  0.000000000000000E+000
  0.000000000000000E+000
  0.000000000000000E+000
  0.000000000000000E+000
  0.000000000000000E+000
  0.000000000000000E+000
  0.000000000000000E+000
  0.000000000000000E+000
  0.000000000000000E+000
  0.000000000000000E+000
  0.000000000000000E+000
  0.000000000000000E+000
  0.000000000000000E+000
  0.000000000000000E+000
  0.000000000000000E+000
  0.000000000000000E+000
  0.000000000000000E+000
  0.000000000000000E+000
  0.000000000000000E+000
  0.000000000000000E+000
  0.000000000000000E+000
  0.000000000000000E+000
  0.000000000000000E+000
  0.000000000000000E+000
  0.000000000000000E+000
  0.000000000000000E+000
  0.000000000000000E+000
  0.000000000000000E+000
  0.000000000000000E+000
  0.000000000000000E+000
  0.000000000000000E+000
  0.000000000000000E+000
  0.000000000000000E+000
  0.000000000000000E+000
  0.000000000000000E+000
  0.000000000000000E+000
  0.000000000000000E+000
  0.000000000000000E+000
  0.000000000000000E+000
  0.000000000000000E+000
  0.000000000000000E+000
  0.000000000000000E+000
  0.000000000000000E+000
  0.000000000000000E+000
  0.000000000000000E+000
  0.000000000000000E+000
  0.000000000000000E+000
  0.000000000000000E+000
  0.000000000000000E+000
  0.000000000000000E+000
  0.000000000000000E+000
  0.000000000000000E+000
  0.000000000000000E+000
  0.000000000000000E+000
  0.000000000000000E+000
  0.000000000000000E+000
  0.000000000000000E+000
  0.000000000000000E+000
  0.000000000000000E+000
  0.000000000000000E+000
  0.000000000000000E+000
  0.000000000000000E+000
  0.000000000000000E+000
  0.000000000000000E+000
  0.000000000000000E+000
  0.000000000000000E+000
  0.000000000000000E+000
  0.000000000000000E+000
  0.000000000000000E+000
  0.000000000000000E+000
  0.000000000000000E+000
  0.000000000000000E+000
  0.000000000000000E+000
  0.000000000000000E+000
  0.000000000000000E+000
  0.000000000000000E+000
  0.000000000000000E+000
  0.000000000000000E+000
  0.000000000000000E+000
  0.000000000000000E+000
  0.000000000000000E+000
  0.000000000000000E+000
  0.000000000000000E+000
  0.000000000000000E+000
  0.000000000000000E+000
  0.000000000000000E+000
  0.000000000000000E+000
  0.000000000000000E+000
  0.000000000000000E+000
  0.000000000000000E+000
  0.000000000000000E+000
  0.000000000000000E+000
  0.000000000000000E+000
  0.000000000000000E+000
  0.000000000000000E+000
  0.000000000000000E+000
  0.000000000000000E+000
  0.000000000000000E+000
  0.000000000000000E+000
  0.000000000000000E+000
  0.000000000000000E+000
  0.000000000000000E+000
  0.000000000000000E+000
  0.000000000000000E+000
  0.000000000000000E+000
  0.000000000000000E+000
  0.000000000000000E+000
  0.000000000000000E+000
  0.000000000000000E+000
  0.000000000000000E+000
  0.000000000000000E+000
  0.000000000000000E+000
  0.000000000000000E+000
  0.000000000000000E+000
  0.000000000000000E+000
  0.000000000000000E+000
  0.000000000000000E+000
  0.000000000000000E+000
  0.000000000000000E+000
  0.000000000000000E+000
  0.000000000000000E+000
  0.000000000000000E+000
  0.000000000000000E+000
  0.000000000000000E+000
  0.000000000000000E+000
  0.000000000000000E+000
  0.000000000000000E+000
  0.000000000000000E+000
  0.000000000000000E+000
  0.000000000000000E+000
  0.000000000000000E+000
  0.000000000000000E+000
  0.000000000000000E+000
  0.000000000000000E+000
  0.000000000000000E+000
  0.000000000000000E+000
  0.000000000000000E+000
  0.000000000000000E+000
  0.000000000000000E+000
  0.000000000000000E+000
  0.000000000000000E+000
  0.000000000000000E+000
  0.000000000000000E+000
  0.000000000000000E+000
  0.000000000000000E+000
  0.000000000000000E+000
  0.000000000000000E+000
  0.000000000000000E+000
  0.000000000000000E+000
  0.000000000000000E+000
  0.000000000000000E+000
  0.000000000000000E+000
  0.000000000000000E+000
  0.000000000000000E+000
  0.000000000000000E+000
  0.000000000000000E+000
  0.000000000000000E+000
  0.000000000000000E+000
  0.000000000000000E+000
  0.000000000000000E+000
  0.000000000000000E+000
  0.000000000000000E+000
  0.000000000000000E+000
  0.000000000000000E+000
  0.000000000000000E+000
  0.000000000000000E+000
  0.000000000000000E+000
  0.000000000000000E+000
  0.000000000000000E+000
  0.000000000000000E+000
  0.000000000000000E+000
  0.000000000000000E+000
  0.000000000000000E+000
  0.000000000000000E+000
  0.000000000000000E+000
  0.000000000000000E+000
  0.000000000000000E+000
  0.000000000000000E+000
  0.000000000000000E+000
  0.000000000000000E+000
  0.000000000000000E+000
  0.000000000000000E+000
  0.000000000000000E+000
  0.000000000000000E+000
  0.000000000000000E+000
  0.000000000000000E+000
  0.000000000000000E+000
  0.000000000000000E+000
  0.000000000000000E+000
  0.000000000000000E+000
  0.000000000000000E+000
  0.000000000000000E+000
  0.000000000000000E+000
  0.000000000000000E+000
  0.000000000000000E+000
  0.000000000000000E+000
  0.000000000000000E+000
  0.000000000000000E+000
  0.000000000000000E+000
  0.000000000000000E+000
  0.000000000000000E+000
  0.000000000000000E+000
  0.000000000000000E+000
  0.000000000000000E+000
  0.000000000000000E+000
  0.000000000000000E+000
  0.000000000000000E+000
  0.000000000000000E+000
  0.000000000000000E+000
  0.000000000000000E+000
  0.000000000000000E+000
  0.000000000000000E+000
  0.000000000000000E+000
  0.000000000000000E+000
  0.000000000000000E+000
  0.000000000000000E+000
  0.000000000000000E+000
  0.000000000000000E+000
  0.000000000000000E+000
  0.000000000000000E+000
  0.000000000000000E+000
  0.000000000000000E+000
  0.000000000000000E+000
  0.000000000000000E+000
  0.000000000000000E+000
  0.000000000000000E+000
  0.000000000000000E+000
  0.000000000000000E+000
  0.000000000000000E+000
  0.000000000000000E+000
  0.000000000000000E+000
  0.000000000000000E+000
  0.000000000000000E+000
  0.000000000000000E+000
  0.000000000000000E+000
  0.000000000000000E+000
  0.000000000000000E+000
  0.000000000000000E+000
  0.000000000000000E+000
  0.000000000000000E+000
  0.000000000000000E+000
  0.000000000000000E+000
  0.000000000000000E+000
  0.000000000000000E+000
  0.000000000000000E+000
  0.000000000000000E+000
  0.000000000000000E+000
  0.000000000000000E+000
  0.000000000000000E+000
  0.000000000000000E+000
  0.000000000000000E+000
  0.000000000000000E+000
  0.000000000000000E+000
  0.000000000000000E+000
  0.000000000000000E+000
  0.000000000000000E+000
  0.000000000000000E+000
  0.000000000000000E+000
  0.000000000000000E+000
  0.000000000000000E+000
  0.000000000000000E+000
  0.000000000000000E+000
  0.000000000000000E+000
  0.000000000000000E+000
  0.000000000000000E+000
  0.000000000000000E+000
  0.000000000000000E+000
  0.000000000000000E+000
  0.000000000000000E+000
  0.000000000000000E+000
  0.000000000000000E+000
  0.000000000000000E+000
  0.000000000000000E+000
  0.000000000000000E+000
  0.000000000000000E+000
  0.000000000000000E+000
  0.000000000000000E+000
  0.000000000000000E+000
  0.000000000000000E+000
  0.000000000000000E+000
  0.000000000000000E+000
  0.000000000000000E+000
  0.000000000000000E+000
  0.000000000000000E+000
  0.000000000000000E+000
  0.000000000000000E+000
  0.000000000000000E+000
  0.000000000000000E+000
  0.000000000000000E+000
  0.000000000000000E+000
  0.000000000000000E+000
  0.000000000000000E+000
  0.000000000000000E+000
  0.000000000000000E+000
  0.000000000000000E+000
  0.000000000000000E+000
  0.000000000000000E+000
  0.000000000000000E+000
  0.000000000000000E+000
  0.000000000000000E+000
  0.000000000000000E+000
  0.000000000000000E+000
  0.000000000000000E+000
  0.000000000000000E+000
  0.000000000000000E+000
  0.000000000000000E+000
  0.000000000000000E+000
  0.000000000000000E+000
  0.000000000000000E+000
  0.000000000000000E+000
  0.000000000000000E+000
  0.000000000000000E+000
  0.000000000000000E+000
  0.000000000000000E+000
  0.000000000000000E+000
  0.000000000000000E+000
  0.000000000000000E+000
  0.000000000000000E+000
  0.000000000000000E+000
  0.000000000000000E+000
  0.000000000000000E+000
  0.000000000000000E+000
  0.000000000000000E+000
  0.000000000000000E+000
  0.000000000000000E+000
  0.000000000000000E+000
  0.000000000000000E+000
  0.000000000000000E+000
  0.000000000000000E+000
  0.000000000000000E+000
  0.000000000000000E+000
  0.000000000000000E+000
  0.000000000000000E+000
  0.000000000000000E+000
  0.000000000000000E+000
  0.000000000000000E+000
  0.000000000000000E+000
  0.000000000000000E+000
  0.000000000000000E+000
  0.000000000000000E+000
  0.000000000000000E+000
  0.000000000000000E+000
  0.000000000000000E+000
  0.000000000000000E+000
  0.000000000000000E+000
  0.000000000000000E+000
  0.000000000000000E+000
  0.000000000000000E+000
  0.000000000000000E+000
  0.000000000000000E+000
  0.000000000000000E+000
  0.000000000000000E+000
  0.000000000000000E+000
  0.000000000000000E+000
  0.000000000000000E+000
  0.000000000000000E+000
  0.000000000000000E+000
  0.000000000000000E+000
  0.000000000000000E+000
  0.000000000000000E+000
  0.000000000000000E+000
  0.000000000000000E+000
  0.000000000000000E+000
  0.000000000000000E+000
  0.000000000000000E+000
  0.000000000000000E+000
  0.000000000000000E+000
  0.000000000000000E+000
  0.000000000000000E+000
  0.000000000000000E+000
  0.000000000000000E+000
  0.000000000000000E+000
  0.000000000000000E+000
  0.000000000000000E+000
  0.000000000000000E+000
  0.000000000000000E+000
  0.000000000000000E+000
  0.000000000000000E+000
  0.000000000000000E+000
  0.000000000000000E+000
  0.000000000000000E+000
  0.000000000000000E+000
  0.000000000000000E+000
  0.000000000000000E+000
  0.000000000000000E+000
  0.000000000000000E+000
  0.000000000000000E+000
  0.000000000000000E+000
  0.000000000000000E+000
  0.000000000000000E+000
  0.000000000000000E+000
  0.000000000000000E+000
  0.000000000000000E+000
  0.000000000000000E+000
  0.000000000000000E+000
  0.000000000000000E+000
  0.000000000000000E+000
  0.000000000000000E+000
  0.000000000000000E+000
  0.000000000000000E+000
  0.000000000000000E+000
  0.000000000000000E+000
  0.000000000000000E+000
  0.000000000000000E+000
  0.000000000000000E+000
  0.000000000000000E+000
  0.000000000000000E+000
  0.000000000000000E+000
  0.000000000000000E+000
  0.000000000000000E+000
  0.000000000000000E+000
  0.000000000000000E+000
  0.000000000000000E+000
  0.000000000000000E+000
  0.000000000000000E+000
  0.000000000000000E+000
  0.000000000000000E+000
  0.000000000000000E+000
  0.000000000000000E+000
  0.000000000000000E+000
  0.000000000000000E+000
  0.000000000000000E+000
  0.000000000000000E+000
  0.000000000000000E+000
  0.000000000000000E+000
  0.000000000000000E+000
  0.000000000000000E+000
  0.000000000000000E+000
  0.000000000000000E+000
  0.000000000000000E+000
  0.000000000000000E+000
  0.000000000000000E+000
  0.000000000000000E+000
  0.000000000000000E+000
  0.000000000000000E+000
  0.000000000000000E+000
  0.000000000000000E+000
  0.000000000000000E+000
  0.000000000000000E+000
  0.000000000000000E+000
  0.000000000000000E+000
  0.000000000000000E+000
  0.000000000000000E+000
  0.000000000000000E+000
  0.000000000000000E+000
  0.000000000000000E+000
  0.000000000000000E+000
  0.000000000000000E+000
  0.000000000000000E+000
  0.000000000000000E+000
  0.000000000000000E+000
  0.000000000000000E+000
  0.000000000000000E+000
  0.000000000000000E+000
  0.000000000000000E+000
  0.000000000000000E+000
  0.000000000000000E+000
  0.000000000000000E+000
  0.000000000000000E+000
  0.000000000000000E+000
  0.000000000000000E+000
  0.000000000000000E+000
  0.000000000000000E+000
  0.000000000000000E+000
  0.000000000000000E+000
  0.000000000000000E+000
  0.000000000000000E+000
  0.000000000000000E+000
  0.000000000000000E+000
  0.000000000000000E+000
  0.000000000000000E+000
  0.000000000000000E+000
  0.000000000000000E+000
  0.000000000000000E+000
  0.000000000000000E+000
  0.000000000000000E+000
  0.000000000000000E+000
  0.000000000000000E+000
  0.000000000000000E+000
  0.000000000000000E+000
  0.000000000000000E+000
  0.000000000000000E+000
  0.000000000000000E+000
  0.000000000000000E+000
  0.000000000000000E+000
  0.000000000000000E+000
  0.000000000000000E+000
  0.000000000000000E+000
  0.000000000000000E+000
  0.000000000000000E+000
  0.000000000000000E+000
  0.000000000000000E+000
  0.000000000000000E+000
  0.000000000000000E+000
  0.000000000000000E+000
  0.000000000000000E+000
  0.000000000000000E+000
  0.000000000000000E+000
  0.000000000000000E+000
  0.000000000000000E+000
  0.000000000000000E+000
  0.000000000000000E+000
  0.000000000000000E+000
  0.000000000000000E+000
  0.000000000000000E+000
  0.000000000000000E+000
  0.000000000000000E+000
  0.000000000000000E+000
  0.000000000000000E+000
  0.000000000000000E+000
  0.000000000000000E+000
  0.000000000000000E+000
  0.000000000000000E+000
  0.000000000000000E+000
  0.000000000000000E+000
  0.000000000000000E+000
  0.000000000000000E+000
  0.000000000000000E+000
  0.000000000000000E+000
  0.000000000000000E+000
  0.000000000000000E+000
  0.000000000000000E+000
  0.000000000000000E+000
  0.000000000000000E+000
  0.000000000000000E+000
  0.000000000000000E+000
  0.000000000000000E+000
  0.000000000000000E+000
  0.000000000000000E+000
  0.000000000000000E+000
  0.000000000000000E+000
  0.000000000000000E+000
  0.000000000000000E+000
  0.000000000000000E+000
  0.000000000000000E+000
  0.000000000000000E+000
  0.000000000000000E+000
  0.000000000000000E+000
  0.000000000000000E+000
  0.000000000000000E+000
  0.000000000000000E+000
  0.000000000000000E+000
  0.000000000000000E+000
  0.000000000000000E+000
  0.000000000000000E+000
  0.000000000000000E+000
  0.000000000000000E+000
  0.000000000000000E+000
  0.000000000000000E+000
  0.000000000000000E+000
  0.000000000000000E+000
  0.000000000000000E+000
  0.000000000000000E+000
  0.000000000000000E+000
  0.000000000000000E+000
  0.000000000000000E+000
  0.000000000000000E+000
  0.000000000000000E+000
  0.000000000000000E+000
  0.000000000000000E+000
  0.000000000000000E+000
  0.000000000000000E+000
  0.000000000000000E+000
  0.000000000000000E+000
  0.000000000000000E+000
  0.000000000000000E+000
  0.000000000000000E+000
  0.000000000000000E+000
  0.000000000000000E+000
  0.000000000000000E+000
  0.000000000000000E+000
  0.000000000000000E+000
  0.000000000000000E+000
  0.000000000000000E+000
  0.000000000000000E+000
  0.000000000000000E+000
  0.000000000000000E+000
  0.000000000000000E+000
  0.000000000000000E+000
  0.000000000000000E+000
  0.000000000000000E+000
  0.000000000000000E+000
  0.000000000000000E+000
  0.000000000000000E+000
  0.000000000000000E+000
  0.000000000000000E+000
  0.000000000000000E+000
  0.000000000000000E+000
  0.000000000000000E+000
  0.000000000000000E+000
  0.000000000000000E+000
  0.000000000000000E+000
  0.000000000000000E+000
  0.000000000000000E+000
  0.000000000000000E+000
  0.000000000000000E+000
  0.000000000000000E+000
  0.000000000000000E+000
  0.000000000000000E+000
  0.000000000000000E+000
  0.000000000000000E+000
  0.000000000000000E+000
  0.000000000000000E+000
  0.000000000000000E+000
  0.000000000000000E+000
  0.000000000000000E+000
  0.000000000000000E+000
  0.000000000000000E+000
  0.000000000000000E+000
  0.000000000000000E+000
  0.000000000000000E+000
  0.000000000000000E+000
  0.000000000000000E+000
  0.000000000000000E+000
  0.000000000000000E+000
  0.000000000000000E+000
  0.000000000000000E+000
  0.000000000000000E+000
  0.000000000000000E+000
  0.000000000000000E+000
  0.000000000000000E+000
  0.000000000000000E+000
  0.000000000000000E+000
  0.000000000000000E+000
  0.000000000000000E+000
  0.000000000000000E+000
  0.000000000000000E+000
  0.000000000000000E+000
  0.000000000000000E+000
  0.000000000000000E+000
  0.000000000000000E+000
  0.000000000000000E+000
  0.000000000000000E+000
  0.000000000000000E+000
  0.000000000000000E+000
  0.000000000000000E+000
  0.000000000000000E+000
  0.000000000000000E+000
  0.000000000000000E+000
  0.000000000000000E+000
  0.000000000000000E+000
  0.000000000000000E+000
  0.000000000000000E+000
  0.000000000000000E+000
  0.000000000000000E+000
  0.000000000000000E+000
  0.000000000000000E+000
  0.000000000000000E+000
  0.000000000000000E+000
  0.000000000000000E+000
  0.000000000000000E+000
  0.000000000000000E+000
  0.000000000000000E+000
  0.000000000000000E+000
  0.000000000000000E+000
  0.000000000000000E+000
  0.000000000000000E+000
  0.000000000000000E+000
  0.000000000000000E+000
  0.000000000000000E+000
  0.000000000000000E+000
  0.000000000000000E+000
  0.000000000000000E+000
  0.000000000000000E+000
  0.000000000000000E+000
  0.000000000000000E+000
  0.000000000000000E+000
  0.000000000000000E+000
  0.000000000000000E+000
  0.000000000000000E+000
  0.000000000000000E+000
  0.000000000000000E+000
  0.000000000000000E+000
  0.000000000000000E+000
  0.000000000000000E+000
  0.000000000000000E+000
  0.000000000000000E+000
  0.000000000000000E+000
  0.000000000000000E+000
  0.000000000000000E+000
  0.000000000000000E+000
  0.000000000000000E+000
  0.000000000000000E+000
  0.000000000000000E+000
  0.000000000000000E+000
  0.000000000000000E+000
  0.000000000000000E+000
  0.000000000000000E+000
  0.000000000000000E+000
  0.000000000000000E+000
  0.000000000000000E+000
  0.000000000000000E+000
  0.000000000000000E+000
  0.000000000000000E+000
  0.000000000000000E+000
  0.000000000000000E+000
  0.000000000000000E+000
  0.000000000000000E+000
  0.000000000000000E+000
  0.000000000000000E+000
  0.000000000000000E+000
  0.000000000000000E+000
  0.000000000000000E+000
  0.000000000000000E+000
  0.000000000000000E+000
  0.000000000000000E+000
  0.000000000000000E+000
  0.000000000000000E+000
  0.000000000000000E+000
  0.000000000000000E+000
  0.000000000000000E+000
  0.000000000000000E+000
  0.000000000000000E+000
  0.000000000000000E+000
  0.000000000000000E+000
  0.000000000000000E+000
  0.000000000000000E+000
  0.000000000000000E+000
  0.000000000000000E+000
  0.000000000000000E+000
  0.000000000000000E+000
  0.000000000000000E+000
  0.000000000000000E+000
  0.000000000000000E+000
  0.000000000000000E+000
  0.000000000000000E+000
  0.000000000000000E+000
  0.000000000000000E+000
  0.000000000000000E+000
  0.000000000000000E+000
  0.000000000000000E+000
  0.000000000000000E+000
  0.000000000000000E+000
  0.000000000000000E+000
  0.000000000000000E+000
  0.000000000000000E+000
  0.000000000000000E+000
  0.000000000000000E+000
  0.000000000000000E+000
  0.000000000000000E+000
  0.000000000000000E+000
  0.000000000000000E+000
  0.000000000000000E+000
  0.000000000000000E+000
  0.000000000000000E+000
  0.000000000000000E+000
  0.000000000000000E+000
  0.000000000000000E+000
  0.000000000000000E+000
  0.000000000000000E+000
  0.000000000000000E+000
  0.000000000000000E+000
  0.000000000000000E+000
  0.000000000000000E+000
  0.000000000000000E+000
  0.000000000000000E+000
  0.000000000000000E+000
  0.000000000000000E+000
  0.000000000000000E+000
  0.000000000000000E+000
  0.000000000000000E+000
  0.000000000000000E+000
  0.000000000000000E+000
  0.000000000000000E+000
  0.000000000000000E+000
  0.000000000000000E+000
  0.000000000000000E+000
  0.000000000000000E+000
  0.000000000000000E+000
  0.000000000000000E+000
  0.000000000000000E+000
  0.000000000000000E+000
  0.000000000000000E+000
  0.000000000000000E+000
  0.000000000000000E+000
  0.000000000000000E+000
  0.000000000000000E+000
  0.000000000000000E+000
  0.000000000000000E+000
  0.000000000000000E+000
  0.000000000000000E+000
  0.000000000000000E+000
  0.000000000000000E+000
  0.000000000000000E+000
  0.000000000000000E+000
  0.000000000000000E+000
  0.000000000000000E+000
  0.000000000000000E+000
  0.000000000000000E+000
  0.000000000000000E+000
  0.000000000000000E+000
  0.000000000000000E+000
  0.000000000000000E+000
  0.000000000000000E+000
  0.000000000000000E+000
  0.000000000000000E+000
  0.000000000000000E+000
  0.000000000000000E+000
  0.000000000000000E+000
  0.000000000000000E+000
  0.000000000000000E+000
  0.000000000000000E+000
  0.000000000000000E+000
  0.000000000000000E+000
  0.000000000000000E+000
  0.000000000000000E+000
  0.000000000000000E+000
  0.000000000000000E+000
  0.000000000000000E+000
  0.000000000000000E+000
  0.000000000000000E+000
  0.000000000000000E+000
  0.000000000000000E+000
  0.000000000000000E+000
  0.000000000000000E+000
  0.000000000000000E+000
  0.000000000000000E+000
  0.000000000000000E+000
  0.000000000000000E+000
  0.000000000000000E+000
  0.000000000000000E+000
  0.000000000000000E+000
  0.000000000000000E+000
  0.000000000000000E+000
  0.000000000000000E+000
  0.000000000000000E+000
  0.000000000000000E+000
  0.000000000000000E+000
  0.000000000000000E+000
  0.000000000000000E+000
  0.000000000000000E+000
  0.000000000000000E+000
  0.000000000000000E+000
  0.000000000000000E+000
  0.000000000000000E+000
  0.000000000000000E+000
  0.000000000000000E+000
  0.000000000000000E+000
  0.000000000000000E+000
  0.000000000000000E+000
  0.000000000000000E+000
  0.000000000000000E+000
  0.000000000000000E+000
  0.000000000000000E+000
  0.000000000000000E+000
  0.000000000000000E+000
  0.000000000000000E+000
  0.000000000000000E+000
  0.000000000000000E+000
  0.000000000000000E+000
  0.000000000000000E+000
  0.000000000000000E+000
  0.000000000000000E+000
  0.000000000000000E+000
  0.000000000000000E+000
  0.000000000000000E+000
  0.000000000000000E+000
  0.000000000000000E+000
  0.000000000000000E+000
  0.000000000000000E+000
  0.000000000000000E+000
  0.000000000000000E+000
  0.000000000000000E+000
  0.000000000000000E+000
  0.000000000000000E+000
  0.000000000000000E+000
  0.000000000000000E+000
  0.000000000000000E+000
  0.000000000000000E+000
  0.000000000000000E+000
  0.000000000000000E+000
  0.000000000000000E+000
  0.000000000000000E+000
  0.000000000000000E+000
  0.000000000000000E+000
  0.000000000000000E+000
  0.000000000000000E+000
  0.000000000000000E+000
  0.000000000000000E+000
  0.000000000000000E+000
  0.000000000000000E+000
  0.000000000000000E+000
  0.000000000000000E+000
  0.000000000000000E+000
  0.000000000000000E+000
  0.000000000000000E+000
  0.000000000000000E+000
  0.000000000000000E+000
  0.000000000000000E+000
  0.000000000000000E+000
  0.000000000000000E+000
  0.000000000000000E+000
  0.000000000000000E+000
  0.000000000000000E+000
  0.000000000000000E+000
  0.000000000000000E+000
  0.000000000000000E+000
  0.000000000000000E+000
  0.000000000000000E+000
  0.000000000000000E+000
  0.000000000000000E+000
  0.000000000000000E+000
  0.000000000000000E+000
  0.000000000000000E+000
  0.000000000000000E+000
  0.000000000000000E+000
  0.000000000000000E+000
  0.000000000000000E+000
  0.000000000000000E+000
  0.000000000000000E+000
  0.000000000000000E+000
  0.000000000000000E+000
  0.000000000000000E+000
  0.000000000000000E+000
  0.000000000000000E+000
  0.000000000000000E+000
  0.000000000000000E+000
  0.000000000000000E+000
  0.000000000000000E+000
  0.000000000000000E+000
  0.000000000000000E+000
  0.000000000000000E+000
  0.000000000000000E+000
  0.000000000000000E+000
  0.000000000000000E+000
  0.000000000000000E+000
  0.000000000000000E+000
  0.000000000000000E+000
  0.000000000000000E+000
  0.000000000000000E+000
  0.000000000000000E+000
  0.000000000000000E+000
  0.000000000000000E+000
  0.000000000000000E+000
  0.000000000000000E+000
  0.000000000000000E+000
  0.000000000000000E+000
  0.000000000000000E+000
  0.000000000000000E+000
  0.000000000000000E+000
  0.000000000000000E+000
  0.000000000000000E+000
  0.000000000000000E+000
  0.000000000000000E+000
  0.000000000000000E+000
  0.000000000000000E+000
  0.000000000000000E+000
  0.000000000000000E+000
  0.000000000000000E+000
  0.000000000000000E+000
  0.000000000000000E+000
  0.000000000000000E+000
  0.000000000000000E+000
  0.000000000000000E+000
  0.000000000000000E+000
  0.000000000000000E+000
  0.000000000000000E+000
  0.000000000000000E+000
  0.000000000000000E+000
  0.000000000000000E+000
  0.000000000000000E+000
  0.000000000000000E+000
  0.000000000000000E+000
  0.000000000000000E+000
  0.000000000000000E+000
  0.000000000000000E+000
  0.000000000000000E+000
  0.000000000000000E+000
  0.000000000000000E+000
  0.000000000000000E+000
  0.000000000000000E+000
  0.000000000000000E+000
  0.000000000000000E+000
  0.000000000000000E+000
  0.000000000000000E+000
  0.000000000000000E+000
  0.000000000000000E+000
  0.000000000000000E+000
  0.000000000000000E+000
  0.000000000000000E+000
  0.000000000000000E+000
  0.000000000000000E+000
  0.000000000000000E+000
  0.000000000000000E+000
  0.000000000000000E+000
  0.000000000000000E+000
  0.000000000000000E+000
  0.000000000000000E+000
  0.000000000000000E+000
  0.000000000000000E+000
  0.000000000000000E+000
  0.000000000000000E+000
  0.000000000000000E+000
  0.000000000000000E+000
  0.000000000000000E+000
  0.000000000000000E+000
  0.000000000000000E+000
  0.000000000000000E+000
  0.000000000000000E+000
  0.000000000000000E+000
  0.000000000000000E+000
  0.000000000000000E+000
  0.000000000000000E+000
  0.000000000000000E+000
  0.000000000000000E+000
  0.000000000000000E+000
  0.000000000000000E+000
  0.000000000000000E+000
  0.000000000000000E+000
  0.000000000000000E+000
  0.000000000000000E+000
  0.000000000000000E+000
  0.000000000000000E+000
  0.000000000000000E+000
  0.000000000000000E+000
  0.000000000000000E+000
  0.000000000000000E+000
  0.000000000000000E+000
  0.000000000000000E+000
  0.000000000000000E+000
  0.000000000000000E+000
  0.000000000000000E+000
  0.000000000000000E+000
  0.000000000000000E+000
  0.000000000000000E+000
  0.000000000000000E+000
  0.000000000000000E+000
  0.000000000000000E+000
  0.000000000000000E+000
  0.000000000000000E+000
  0.000000000000000E+000
  0.000000000000000E+000
  0.000000000000000E+000
  0.000000000000000E+000
  0.000000000000000E+000
  0.000000000000000E+000
  0.000000000000000E+000
  0.000000000000000E+000
  0.000000000000000E+000
  0.000000000000000E+000
  0.000000000000000E+000
  0.000000000000000E+000
  0.000000000000000E+000
  0.000000000000000E+000
  0.000000000000000E+000
  0.000000000000000E+000
  0.000000000000000E+000
  0.000000000000000E+000
  0.000000000000000E+000
  0.000000000000000E+000
  0.000000000000000E+000
  0.000000000000000E+000
  0.000000000000000E+000
  0.000000000000000E+000
  0.000000000000000E+000
  0.000000000000000E+000
  0.000000000000000E+000
  0.000000000000000E+000
  0.000000000000000E+000
  0.000000000000000E+000
  0.000000000000000E+000
  0.000000000000000E+000
  0.000000000000000E+000
  0.000000000000000E+000
  0.000000000000000E+000
  0.000000000000000E+000
  0.000000000000000E+000
  0.000000000000000E+000
  0.000000000000000E+000
  0.000000000000000E+000
  0.000000000000000E+000
  0.000000000000000E+000
  0.000000000000000E+000
  0.000000000000000E+000
  0.000000000000000E+000
  0.000000000000000E+000
  0.000000000000000E+000
  0.000000000000000E+000
  0.000000000000000E+000
  0.000000000000000E+000
  0.000000000000000E+000
  0.000000000000000E+000
  0.000000000000000E+000
  0.000000000000000E+000
  0.000000000000000E+000
  0.000000000000000E+000
  0.000000000000000E+000
  0.000000000000000E+000
  0.000000000000000E+000
  0.000000000000000E+000
  0.000000000000000E+000
  0.000000000000000E+000
  0.000000000000000E+000
  0.000000000000000E+000
  0.000000000000000E+000
  0.000000000000000E+000
  0.000000000000000E+000
  0.000000000000000E+000
  0.000000000000000E+000
  0.000000000000000E+000
  0.000000000000000E+000
  0.000000000000000E+000
  0.000000000000000E+000
  0.000000000000000E+000
  0.000000000000000E+000
  0.000000000000000E+000
  0.000000000000000E+000
  0.000000000000000E+000
  0.000000000000000E+000
  0.000000000000000E+000
  0.000000000000000E+000
  0.000000000000000E+000
  0.000000000000000E+000
  0.000000000000000E+000
  0.000000000000000E+000
  0.000000000000000E+000
  0.000000000000000E+000
  0.000000000000000E+000
  0.000000000000000E+000
  0.000000000000000E+000
  0.000000000000000E+000
  0.000000000000000E+000
  0.000000000000000E+000
  0.000000000000000E+000
  0.000000000000000E+000
  0.000000000000000E+000
  0.000000000000000E+000
  0.000000000000000E+000
  0.000000000000000E+000
  0.000000000000000E+000
  0.000000000000000E+000
  0.000000000000000E+000
  0.000000000000000E+000
  0.000000000000000E+000
  0.000000000000000E+000
  0.000000000000000E+000
  0.000000000000000E+000
  0.000000000000000E+000
  0.000000000000000E+000
  0.000000000000000E+000
  0.000000000000000E+000
  0.000000000000000E+000
  0.000000000000000E+000
  0.000000000000000E+000
  0.000000000000000E+000
  0.000000000000000E+000
  0.000000000000000E+000
  0.000000000000000E+000
  0.000000000000000E+000
  0.000000000000000E+000
  0.000000000000000E+000
  0.000000000000000E+000
  0.000000000000000E+000
  0.000000000000000E+000
  0.000000000000000E+000
  0.000000000000000E+000
  0.000000000000000E+000
  0.000000000000000E+000
  0.000000000000000E+000
  0.000000000000000E+000
  0.000000000000000E+000
  0.000000000000000E+000
  0.000000000000000E+000
  0.000000000000000E+000
  0.000000000000000E+000
  0.000000000000000E+000
  0.000000000000000E+000
  0.000000000000000E+000
  0.000000000000000E+000
  0.000000000000000E+000
  0.000000000000000E+000
  0.000000000000000E+000
  0.000000000000000E+000
  0.000000000000000E+000
  0.000000000000000E+000
  0.000000000000000E+000
  0.000000000000000E+000
  0.000000000000000E+000
  0.000000000000000E+000
  0.000000000000000E+000
  0.000000000000000E+000
  0.000000000000000E+000
  0.000000000000000E+000
  0.000000000000000E+000
  0.000000000000000E+000
  0.000000000000000E+000
  0.000000000000000E+000
  0.000000000000000E+000
  0.000000000000000E+000
  0.000000000000000E+000
  0.000000000000000E+000
  0.000000000000000E+000
  0.000000000000000E+000
  0.000000000000000E+000
  0.000000000000000E+000
  0.000000000000000E+000
  0.000000000000000E+000
  0.000000000000000E+000
  0.000000000000000E+000
  0.000000000000000E+000
  0.000000000000000E+000
  0.000000000000000E+000
  0.000000000000000E+000
  0.000000000000000E+000
  0.000000000000000E+000
  0.000000000000000E+000
  0.000000000000000E+000
  0.000000000000000E+000
  0.000000000000000E+000
  0.000000000000000E+000
  0.000000000000000E+000
  0.000000000000000E+000
  0.000000000000000E+000
  0.000000000000000E+000
  0.000000000000000E+000
  0.000000000000000E+000
  0.000000000000000E+000
  0.000000000000000E+000
  0.000000000000000E+000
  0.000000000000000E+000
  0.000000000000000E+000
  0.000000000000000E+000
  0.000000000000000E+000
  0.000000000000000E+000
  0.000000000000000E+000
  0.000000000000000E+000
  0.000000000000000E+000
  0.000000000000000E+000
  0.000000000000000E+000
  0.000000000000000E+000
  0.000000000000000E+000
  0.000000000000000E+000
  0.000000000000000E+000
  0.000000000000000E+000
  0.000000000000000E+000
  0.000000000000000E+000
  0.000000000000000E+000
  0.000000000000000E+000
  0.000000000000000E+000
  0.000000000000000E+000
  0.000000000000000E+000
  0.000000000000000E+000
  0.000000000000000E+000
  0.000000000000000E+000
  0.000000000000000E+000
  0.000000000000000E+000
  0.000000000000000E+000
  0.000000000000000E+000
  0.000000000000000E+000
  0.000000000000000E+000
  0.000000000000000E+000
  0.000000000000000E+000
  0.000000000000000E+000
  0.000000000000000E+000
  0.000000000000000E+000
  0.000000000000000E+000
  0.000000000000000E+000
  0.000000000000000E+000
  0.000000000000000E+000
  0.000000000000000E+000
  0.000000000000000E+000
  0.000000000000000E+000
  0.000000000000000E+000
  0.000000000000000E+000
  0.000000000000000E+000
  0.000000000000000E+000
  0.000000000000000E+000
  0.000000000000000E+000
  0.000000000000000E+000
  0.000000000000000E+000
  0.000000000000000E+000
  0.000000000000000E+000
  0.000000000000000E+000
  0.000000000000000E+000
  0.000000000000000E+000
  0.000000000000000E+000
  0.000000000000000E+000
  0.000000000000000E+000
  0.000000000000000E+000
  0.000000000000000E+000
  0.000000000000000E+000
  0.000000000000000E+000
  0.000000000000000E+000
  0.000000000000000E+000
  0.000000000000000E+000
  0.000000000000000E+000
  0.000000000000000E+000
  0.000000000000000E+000
  0.000000000000000E+000
  0.000000000000000E+000
  0.000000000000000E+000
  0.000000000000000E+000
  0.000000000000000E+000
  0.000000000000000E+000
  0.000000000000000E+000
  0.000000000000000E+000
  0.000000000000000E+000
  0.000000000000000E+000
  0.000000000000000E+000
  0.000000000000000E+000
  0.000000000000000E+000
  0.000000000000000E+000
  0.000000000000000E+000
  0.000000000000000E+000
  0.000000000000000E+000
  0.000000000000000E+000
  0.000000000000000E+000
  0.000000000000000E+000
  0.000000000000000E+000
  0.000000000000000E+000
  0.000000000000000E+000
  0.000000000000000E+000
  0.000000000000000E+000
  0.000000000000000E+000
  0.000000000000000E+000
  0.000000000000000E+000
  0.000000000000000E+000
  0.000000000000000E+000
  0.000000000000000E+000
  0.000000000000000E+000
  0.000000000000000E+000
  0.000000000000000E+000
  0.000000000000000E+000
  0.000000000000000E+000
  0.000000000000000E+000
  0.000000000000000E+000
  0.000000000000000E+000
  0.000000000000000E+000
  0.000000000000000E+000
  0.000000000000000E+000
  0.000000000000000E+000
  0.000000000000000E+000
  0.000000000000000E+000
  0.000000000000000E+000
  0.000000000000000E+000
  0.000000000000000E+000
  0.000000000000000E+000
  0.000000000000000E+000
  0.000000000000000E+000
  0.000000000000000E+000
  0.000000000000000E+000
  0.000000000000000E+000
  0.000000000000000E+000
  0.000000000000000E+000
  0.000000000000000E+000
  0.000000000000000E+000
  0.000000000000000E+000
  0.000000000000000E+000
  0.000000000000000E+000
  0.000000000000000E+000
  0.000000000000000E+000
  0.000000000000000E+000
  0.000000000000000E+000
  0.000000000000000E+000
  0.000000000000000E+000
  0.000000000000000E+000
  0.000000000000000E+000
  0.000000000000000E+000
  0.000000000000000E+000
  0.000000000000000E+000
  0.000000000000000E+000
  0.000000000000000E+000
  0.000000000000000E+000
  0.000000000000000E+000
  0.000000000000000E+000
  0.000000000000000E+000
  0.000000000000000E+000
  0.000000000000000E+000
  0.000000000000000E+000
  0.000000000000000E+000
  0.000000000000000E+000
  0.000000000000000E+000
  0.000000000000000E+000
  0.000000000000000E+000
  0.000000000000000E+000
  0.000000000000000E+000
  0.000000000000000E+000
  0.000000000000000E+000
  0.000000000000000E+000
  0.000000000000000E+000
  0.000000000000000E+000
  0.000000000000000E+000
  0.000000000000000E+000
  0.000000000000000E+000
  0.000000000000000E+000
  0.000000000000000E+000
  0.000000000000000E+000
  0.000000000000000E+000
  0.000000000000000E+000
  0.000000000000000E+000
  0.000000000000000E+000
  0.000000000000000E+000
  0.000000000000000E+000
  0.000000000000000E+000
  0.000000000000000E+000
  0.000000000000000E+000
  0.000000000000000E+000
  0.000000000000000E+000
  0.000000000000000E+000
  0.000000000000000E+000
  0.000000000000000E+000
  0.000000000000000E+000
  0.000000000000000E+000
  0.000000000000000E+000
  0.000000000000000E+000
  0.000000000000000E+000
  0.000000000000000E+000
  0.000000000000000E+000
  0.000000000000000E+000
  0.000000000000000E+000
  0.000000000000000E+000
  0.000000000000000E+000
  0.000000000000000E+000
  0.000000000000000E+000
  0.000000000000000E+000
  0.000000000000000E+000
  0.000000000000000E+000
  0.000000000000000E+000
  0.000000000000000E+000
  0.000000000000000E+000
  0.000000000000000E+000
  0.000000000000000E+000
  0.000000000000000E+000
  0.000000000000000E+000
  0.000000000000000E+000
  0.000000000000000E+000
  0.000000000000000E+000
  0.000000000000000E+000
  0.000000000000000E+000
  0.000000000000000E+000
  0.000000000000000E+000
  0.000000000000000E+000
  0.000000000000000E+000
  0.000000000000000E+000
  0.000000000000000E+000
  0.000000000000000E+000
  0.000000000000000E+000
  0.000000000000000E+000
  0.000000000000000E+000
  0.000000000000000E+000
  0.000000000000000E+000
  0.000000000000000E+000
  0.000000000000000E+000
  0.000000000000000E+000
  0.000000000000000E+000
  0.000000000000000E+000
  0.000000000000000E+000
  0.000000000000000E+000
  0.000000000000000E+000
  0.000000000000000E+000
  0.000000000000000E+000
  0.000000000000000E+000
  0.000000000000000E+000
  0.000000000000000E+000
  0.000000000000000E+000
  0.000000000000000E+000
  0.000000000000000E+000
  0.000000000000000E+000
  0.000000000000000E+000
  0.000000000000000E+000
  0.000000000000000E+000
  0.000000000000000E+000
  0.000000000000000E+000
  0.000000000000000E+000
  0.000000000000000E+000
  0.000000000000000E+000
  0.000000000000000E+000
  0.000000000000000E+000
  0.000000000000000E+000
  0.000000000000000E+000
  0.000000000000000E+000
  0.000000000000000E+000
  0.000000000000000E+000
  0.000000000000000E+000
  0.000000000000000E+000
  0.000000000000000E+000
  0.000000000000000E+000
  0.000000000000000E+000
  0.000000000000000E+000
  0.000000000000000E+000
  0.000000000000000E+000
  0.000000000000000E+000
  0.000000000000000E+000
  0.000000000000000E+000
  0.000000000000000E+000
  0.000000000000000E+000
  0.000000000000000E+000
  0.000000000000000E+000
  0.000000000000000E+000
  0.000000000000000E+000
  0.000000000000000E+000
  0.000000000000000E+000
  0.000000000000000E+000
  0.000000000000000E+000
  0.000000000000000E+000
  0.000000000000000E+000
  0.000000000000000E+000
  0.000000000000000E+000
  0.000000000000000E+000
  0.000000000000000E+000
  0.000000000000000E+000
  0.000000000000000E+000
  0.000000000000000E+000
  0.000000000000000E+000
  0.000000000000000E+000
  0.000000000000000E+000
  0.000000000000000E+000
  0.000000000000000E+000
  0.000000000000000E+000
  0.000000000000000E+000
  0.000000000000000E+000
  0.000000000000000E+000
  0.000000000000000E+000
  0.000000000000000E+000
  0.000000000000000E+000
  0.000000000000000E+000
  0.000000000000000E+000
  0.000000000000000E+000
  0.000000000000000E+000
  0.000000000000000E+000
  0.000000000000000E+000
  0.000000000000000E+000
  0.000000000000000E+000
  0.000000000000000E+000
  0.000000000000000E+000
  0.000000000000000E+000
  0.000000000000000E+000
  0.000000000000000E+000
  0.000000000000000E+000
  0.000000000000000E+000
  0.000000000000000E+000
  0.000000000000000E+000
  0.000000000000000E+000
  0.000000000000000E+000
  0.000000000000000E+000
  0.000000000000000E+000
  0.000000000000000E+000
  0.000000000000000E+000
  0.000000000000000E+000
  0.000000000000000E+000
  0.000000000000000E+000
  0.000000000000000E+000
  0.000000000000000E+000
  0.000000000000000E+000
  0.000000000000000E+000
  0.000000000000000E+000
  0.000000000000000E+000
  0.000000000000000E+000
  0.000000000000000E+000
  0.000000000000000E+000
  0.000000000000000E+000
  0.000000000000000E+000
  0.000000000000000E+000
  0.000000000000000E+000
  0.000000000000000E+000
  0.000000000000000E+000
  0.000000000000000E+000
  0.000000000000000E+000
  0.000000000000000E+000
  0.000000000000000E+000
  0.000000000000000E+000
SCALARS elementIsPlast double 
LOOKUP_TABLE default
  0.000000000000000E+000
  0.000000000000000E+000
  0.000000000000000E+000
  0.000000000000000E+000
  0.000000000000000E+000
  0.000000000000000E+000
  0.000000000000000E+000
  0.000000000000000E+000
  0.000000000000000E+000
  0.000000000000000E+000
  0.000000000000000E+000
  0.000000000000000E+000
  0.000000000000000E+000
  0.000000000000000E+000
  0.000000000000000E+000
  0.000000000000000E+000
  0.000000000000000E+000
  0.000000000000000E+000
  0.000000000000000E+000
  0.000000000000000E+000
  0.000000000000000E+000
  0.000000000000000E+000
  0.000000000000000E+000
  0.000000000000000E+000
  0.000000000000000E+000
  0.000000000000000E+000
  0.000000000000000E+000
  0.000000000000000E+000
  0.000000000000000E+000
  0.000000000000000E+000
  0.000000000000000E+000
  0.000000000000000E+000
  0.000000000000000E+000
  0.000000000000000E+000
  0.000000000000000E+000
  0.000000000000000E+000
  0.000000000000000E+000
  0.000000000000000E+000
  0.000000000000000E+000
  0.000000000000000E+000
  0.000000000000000E+000
  0.000000000000000E+000
  0.000000000000000E+000
  0.000000000000000E+000
  0.000000000000000E+000
  0.000000000000000E+000
  0.000000000000000E+000
  0.000000000000000E+000
  0.000000000000000E+000
  0.000000000000000E+000
  0.000000000000000E+000
  0.000000000000000E+000
  0.000000000000000E+000
  0.000000000000000E+000
  0.000000000000000E+000
  0.000000000000000E+000
  0.000000000000000E+000
  0.000000000000000E+000
  0.000000000000000E+000
  0.000000000000000E+000
  0.000000000000000E+000
  0.000000000000000E+000
  0.000000000000000E+000
  0.000000000000000E+000
  0.000000000000000E+000
  0.000000000000000E+000
  0.000000000000000E+000
  0.000000000000000E+000
  0.000000000000000E+000
  0.000000000000000E+000
  0.000000000000000E+000
  0.000000000000000E+000
  0.000000000000000E+000
  0.000000000000000E+000
  0.000000000000000E+000
  0.000000000000000E+000
  0.000000000000000E+000
  0.000000000000000E+000
  0.000000000000000E+000
  0.000000000000000E+000
  0.000000000000000E+000
  0.000000000000000E+000
  0.000000000000000E+000
  0.000000000000000E+000
  0.000000000000000E+000
  0.000000000000000E+000
  0.000000000000000E+000
  0.000000000000000E+000
  0.000000000000000E+000
  0.000000000000000E+000
  0.000000000000000E+000
  0.000000000000000E+000
  0.000000000000000E+000
  0.000000000000000E+000
  0.000000000000000E+000
  0.000000000000000E+000
  0.000000000000000E+000
  0.000000000000000E+000
  0.000000000000000E+000
  0.000000000000000E+000
  0.000000000000000E+000
  0.000000000000000E+000
  0.000000000000000E+000
  0.000000000000000E+000
  0.000000000000000E+000
  0.000000000000000E+000
  0.000000000000000E+000
  0.000000000000000E+000
  0.000000000000000E+000
  0.000000000000000E+000
  0.000000000000000E+000
  0.000000000000000E+000
  0.000000000000000E+000
  0.000000000000000E+000
  0.000000000000000E+000
  0.000000000000000E+000
  0.000000000000000E+000
  0.000000000000000E+000
  0.000000000000000E+000
  0.000000000000000E+000
  0.000000000000000E+000
  0.000000000000000E+000
  0.000000000000000E+000
  0.000000000000000E+000
  0.000000000000000E+000
  0.000000000000000E+000
  0.000000000000000E+000
  0.000000000000000E+000
  0.000000000000000E+000
  0.000000000000000E+000
  0.000000000000000E+000
  0.000000000000000E+000
  0.000000000000000E+000
  0.000000000000000E+000
  0.000000000000000E+000
  0.000000000000000E+000
  0.000000000000000E+000
  0.000000000000000E+000
  0.000000000000000E+000
  0.000000000000000E+000
  0.000000000000000E+000
  0.000000000000000E+000
  0.000000000000000E+000
  0.000000000000000E+000
  0.000000000000000E+000
  0.000000000000000E+000
  0.000000000000000E+000
  0.000000000000000E+000
  0.000000000000000E+000
  0.000000000000000E+000
  0.000000000000000E+000
  0.000000000000000E+000
  0.000000000000000E+000
  0.000000000000000E+000
  0.000000000000000E+000
  0.000000000000000E+000
  0.000000000000000E+000
  0.000000000000000E+000
  0.000000000000000E+000
  0.000000000000000E+000
  0.000000000000000E+000
  0.000000000000000E+000
  0.000000000000000E+000
  0.000000000000000E+000
  0.000000000000000E+000
  0.000000000000000E+000
  0.000000000000000E+000
  0.000000000000000E+000
  0.000000000000000E+000
  0.000000000000000E+000
  0.000000000000000E+000
  0.000000000000000E+000
  0.000000000000000E+000
  0.000000000000000E+000
  0.000000000000000E+000
  0.000000000000000E+000
  0.000000000000000E+000
  0.000000000000000E+000
  0.000000000000000E+000
  0.000000000000000E+000
  0.000000000000000E+000
  0.000000000000000E+000
  0.000000000000000E+000
  0.000000000000000E+000
  0.000000000000000E+000
  0.000000000000000E+000
  0.000000000000000E+000
  0.000000000000000E+000
  0.000000000000000E+000
  0.000000000000000E+000
  0.000000000000000E+000
  0.000000000000000E+000
  0.000000000000000E+000
  0.000000000000000E+000
  0.000000000000000E+000
  0.000000000000000E+000
  0.000000000000000E+000
  0.000000000000000E+000
  0.000000000000000E+000
  0.000000000000000E+000
  0.000000000000000E+000
  0.000000000000000E+000
  0.000000000000000E+000
  0.000000000000000E+000
  0.000000000000000E+000
  0.000000000000000E+000
  0.000000000000000E+000
  0.000000000000000E+000
  0.000000000000000E+000
  0.000000000000000E+000
  0.000000000000000E+000
  0.000000000000000E+000
  0.000000000000000E+000
  0.000000000000000E+000
  0.000000000000000E+000
  0.000000000000000E+000
  0.000000000000000E+000
  0.000000000000000E+000
  0.000000000000000E+000
  0.000000000000000E+000
  0.000000000000000E+000
  0.000000000000000E+000
  0.000000000000000E+000
  0.000000000000000E+000
  0.000000000000000E+000
  0.000000000000000E+000
  0.000000000000000E+000
  0.000000000000000E+000
  0.000000000000000E+000
  0.000000000000000E+000
  0.000000000000000E+000
  0.000000000000000E+000
  0.000000000000000E+000
  0.000000000000000E+000
  0.000000000000000E+000
  0.000000000000000E+000
  0.000000000000000E+000
  0.000000000000000E+000
  0.000000000000000E+000
  0.000000000000000E+000
  0.000000000000000E+000
  0.000000000000000E+000
  0.000000000000000E+000
  0.000000000000000E+000
  0.000000000000000E+000
  0.000000000000000E+000
  0.000000000000000E+000
  0.000000000000000E+000
  0.000000000000000E+000
  0.000000000000000E+000
  0.000000000000000E+000
  0.000000000000000E+000
  0.000000000000000E+000
  0.000000000000000E+000
  0.000000000000000E+000
  0.000000000000000E+000
  0.000000000000000E+000
  0.000000000000000E+000
  0.000000000000000E+000
  0.000000000000000E+000
  0.000000000000000E+000
  0.000000000000000E+000
  0.000000000000000E+000
  0.000000000000000E+000
  0.000000000000000E+000
  0.000000000000000E+000
  0.000000000000000E+000
  0.000000000000000E+000
  0.000000000000000E+000
  0.000000000000000E+000
  0.000000000000000E+000
  0.000000000000000E+000
  0.000000000000000E+000
  0.000000000000000E+000
  0.000000000000000E+000
  0.000000000000000E+000
  0.000000000000000E+000
  0.000000000000000E+000
  0.000000000000000E+000
  0.000000000000000E+000
  0.000000000000000E+000
  0.000000000000000E+000
  0.000000000000000E+000
  0.000000000000000E+000
  0.000000000000000E+000
  0.000000000000000E+000
  0.000000000000000E+000
  0.000000000000000E+000
  0.000000000000000E+000
  0.000000000000000E+000
  0.000000000000000E+000
  0.000000000000000E+000
  0.000000000000000E+000
  0.000000000000000E+000
  0.000000000000000E+000
  0.000000000000000E+000
  0.000000000000000E+000
  0.000000000000000E+000
  0.000000000000000E+000
  0.000000000000000E+000
  0.000000000000000E+000
  0.000000000000000E+000
  0.000000000000000E+000
  0.000000000000000E+000
  0.000000000000000E+000
  0.000000000000000E+000
  0.000000000000000E+000
  0.000000000000000E+000
  0.000000000000000E+000
  0.000000000000000E+000
  0.000000000000000E+000
  0.000000000000000E+000
  0.000000000000000E+000
  0.000000000000000E+000
  0.000000000000000E+000
  0.000000000000000E+000
  0.000000000000000E+000
  0.000000000000000E+000
  0.000000000000000E+000
  0.000000000000000E+000
  0.000000000000000E+000
  0.000000000000000E+000
  0.000000000000000E+000
  0.000000000000000E+000
  0.000000000000000E+000
  0.000000000000000E+000
  0.000000000000000E+000
  0.000000000000000E+000
  0.000000000000000E+000
  0.000000000000000E+000
  0.000000000000000E+000
  0.000000000000000E+000
  0.000000000000000E+000
  0.000000000000000E+000
  0.000000000000000E+000
  0.000000000000000E+000
  0.000000000000000E+000
  0.000000000000000E+000
  0.000000000000000E+000
  0.000000000000000E+000
  0.000000000000000E+000
  0.000000000000000E+000
  0.000000000000000E+000
  0.000000000000000E+000
  0.000000000000000E+000
  0.000000000000000E+000
  0.000000000000000E+000
  0.000000000000000E+000
  0.000000000000000E+000
  0.000000000000000E+000
  0.000000000000000E+000
  0.000000000000000E+000
  0.000000000000000E+000
  0.000000000000000E+000
  0.000000000000000E+000
  0.000000000000000E+000
  0.000000000000000E+000
  0.000000000000000E+000
  0.000000000000000E+000
  0.000000000000000E+000
  0.000000000000000E+000
  0.000000000000000E+000
  0.000000000000000E+000
  0.000000000000000E+000
  0.000000000000000E+000
  0.000000000000000E+000
  0.000000000000000E+000
  0.000000000000000E+000
  0.000000000000000E+000
  0.000000000000000E+000
  0.000000000000000E+000
  0.000000000000000E+000
  0.000000000000000E+000
  0.000000000000000E+000
  0.000000000000000E+000
  0.000000000000000E+000
  0.000000000000000E+000
  0.000000000000000E+000
  0.000000000000000E+000
  0.000000000000000E+000
  0.000000000000000E+000
  0.000000000000000E+000
  0.000000000000000E+000
  0.000000000000000E+000
  0.000000000000000E+000
  0.000000000000000E+000
  0.000000000000000E+000
  0.000000000000000E+000
  0.000000000000000E+000
  0.000000000000000E+000
  0.000000000000000E+000
  0.000000000000000E+000
  0.000000000000000E+000
  0.000000000000000E+000
  0.000000000000000E+000
  0.000000000000000E+000
  0.000000000000000E+000
  0.000000000000000E+000
  0.000000000000000E+000
  0.000000000000000E+000
  0.000000000000000E+000
  0.000000000000000E+000
  0.000000000000000E+000
  0.000000000000000E+000
  0.000000000000000E+000
  0.000000000000000E+000
  0.000000000000000E+000
  0.000000000000000E+000
  0.000000000000000E+000
  0.000000000000000E+000
  0.000000000000000E+000
  0.000000000000000E+000
  0.000000000000000E+000
  0.000000000000000E+000
  0.000000000000000E+000
  0.000000000000000E+000
  0.000000000000000E+000
  0.000000000000000E+000
  0.000000000000000E+000
  0.000000000000000E+000
  0.000000000000000E+000
  0.000000000000000E+000
  0.000000000000000E+000
  0.000000000000000E+000
  0.000000000000000E+000
  0.000000000000000E+000
  0.000000000000000E+000
  0.000000000000000E+000
  0.000000000000000E+000
  0.000000000000000E+000
  0.000000000000000E+000
  0.000000000000000E+000
  0.000000000000000E+000
  0.000000000000000E+000
  0.000000000000000E+000
  0.000000000000000E+000
  0.000000000000000E+000
  0.000000000000000E+000
  0.000000000000000E+000
  0.000000000000000E+000
  0.000000000000000E+000
  0.000000000000000E+000
  0.000000000000000E+000
  0.000000000000000E+000
  0.000000000000000E+000
  0.000000000000000E+000
  0.000000000000000E+000
  0.000000000000000E+000
  0.000000000000000E+000
  0.000000000000000E+000
  0.000000000000000E+000
  0.000000000000000E+000
  0.000000000000000E+000
  0.000000000000000E+000
  0.000000000000000E+000
  0.000000000000000E+000
  0.000000000000000E+000
  0.000000000000000E+000
  0.000000000000000E+000
  0.000000000000000E+000
  0.000000000000000E+000
  0.000000000000000E+000
  0.000000000000000E+000
  0.000000000000000E+000
  0.000000000000000E+000
  0.000000000000000E+000
  0.000000000000000E+000
  0.000000000000000E+000
  0.000000000000000E+000
  0.000000000000000E+000
  0.000000000000000E+000
  0.000000000000000E+000
  0.000000000000000E+000
  0.000000000000000E+000
  0.000000000000000E+000
  0.000000000000000E+000
  0.000000000000000E+000
  0.000000000000000E+000
  0.000000000000000E+000
  0.000000000000000E+000
  0.000000000000000E+000
  0.000000000000000E+000
  0.000000000000000E+000
  0.000000000000000E+000
  0.000000000000000E+000
  0.000000000000000E+000
  0.000000000000000E+000
  0.000000000000000E+000
  0.000000000000000E+000
  0.000000000000000E+000
  0.000000000000000E+000
  0.000000000000000E+000
  0.000000000000000E+000
  0.000000000000000E+000
  0.000000000000000E+000
  0.000000000000000E+000
  0.000000000000000E+000
  0.000000000000000E+000
  0.000000000000000E+000
  0.000000000000000E+000
  0.000000000000000E+000
  0.000000000000000E+000
  0.000000000000000E+000
  0.000000000000000E+000
  0.000000000000000E+000
  0.000000000000000E+000
  0.000000000000000E+000
  0.000000000000000E+000
  0.000000000000000E+000
  0.000000000000000E+000
  0.000000000000000E+000
  0.000000000000000E+000
  0.000000000000000E+000
  0.000000000000000E+000
  0.000000000000000E+000
  0.000000000000000E+000
  0.000000000000000E+000
  0.000000000000000E+000
  0.000000000000000E+000
  0.000000000000000E+000
  0.000000000000000E+000
  0.000000000000000E+000
  0.000000000000000E+000
  0.000000000000000E+000
  0.000000000000000E+000
  0.000000000000000E+000
  0.000000000000000E+000
  0.000000000000000E+000
  0.000000000000000E+000
  0.000000000000000E+000
  0.000000000000000E+000
  0.000000000000000E+000
  0.000000000000000E+000
  0.000000000000000E+000
  0.000000000000000E+000
  0.000000000000000E+000
  0.000000000000000E+000
  0.000000000000000E+000
  0.000000000000000E+000
  0.000000000000000E+000
  0.000000000000000E+000
  0.000000000000000E+000
  0.000000000000000E+000
  0.000000000000000E+000
  0.000000000000000E+000
  0.000000000000000E+000
  0.000000000000000E+000
  0.000000000000000E+000
  0.000000000000000E+000
  0.000000000000000E+000
  0.000000000000000E+000
  0.000000000000000E+000
  0.000000000000000E+000
  0.000000000000000E+000
  0.000000000000000E+000
  0.000000000000000E+000
  0.000000000000000E+000
  0.000000000000000E+000
  0.000000000000000E+000
  0.000000000000000E+000
  0.000000000000000E+000
  0.000000000000000E+000
  0.000000000000000E+000
  0.000000000000000E+000
  0.000000000000000E+000
  0.000000000000000E+000
  0.000000000000000E+000
  0.000000000000000E+000
  0.000000000000000E+000
  0.000000000000000E+000
  0.000000000000000E+000
  0.000000000000000E+000
  0.000000000000000E+000
  0.000000000000000E+000
  0.000000000000000E+000
  0.000000000000000E+000
  0.000000000000000E+000
  0.000000000000000E+000
  0.000000000000000E+000
  0.000000000000000E+000
  0.000000000000000E+000
  0.000000000000000E+000
  0.000000000000000E+000
  0.000000000000000E+000
  0.000000000000000E+000
  0.000000000000000E+000
  0.000000000000000E+000
  0.000000000000000E+000
  0.000000000000000E+000
  0.000000000000000E+000
  0.000000000000000E+000
  0.000000000000000E+000
  0.000000000000000E+000
  0.000000000000000E+000
  0.000000000000000E+000
  0.000000000000000E+000
  0.000000000000000E+000
  0.000000000000000E+000
  0.000000000000000E+000
  0.000000000000000E+000
  0.000000000000000E+000
  0.000000000000000E+000
  0.000000000000000E+000
  0.000000000000000E+000
  0.000000000000000E+000
  0.000000000000000E+000
  0.000000000000000E+000
  0.000000000000000E+000
  0.000000000000000E+000
  0.000000000000000E+000
  0.000000000000000E+000
  0.000000000000000E+000
  0.000000000000000E+000
  0.000000000000000E+000
  0.000000000000000E+000
  0.000000000000000E+000
  0.000000000000000E+000
  0.000000000000000E+000
  0.000000000000000E+000
  0.000000000000000E+000
  0.000000000000000E+000
  0.000000000000000E+000
  0.000000000000000E+000
  0.000000000000000E+000
  0.000000000000000E+000
  0.000000000000000E+000
  0.000000000000000E+000
  0.000000000000000E+000
  0.000000000000000E+000
  0.000000000000000E+000
  0.000000000000000E+000
  0.000000000000000E+000
  0.000000000000000E+000
  0.000000000000000E+000
  0.000000000000000E+000
  0.000000000000000E+000
  0.000000000000000E+000
  0.000000000000000E+000
  0.000000000000000E+000
  0.000000000000000E+000
  0.000000000000000E+000
  0.000000000000000E+000
  0.000000000000000E+000
  0.000000000000000E+000
  0.000000000000000E+000
  0.000000000000000E+000
  0.000000000000000E+000
  0.000000000000000E+000
  0.000000000000000E+000
  0.000000000000000E+000
  0.000000000000000E+000
  0.000000000000000E+000
  0.000000000000000E+000
  0.000000000000000E+000
  0.000000000000000E+000
  0.000000000000000E+000
  0.000000000000000E+000
  0.000000000000000E+000
  0.000000000000000E+000
  0.000000000000000E+000
  0.000000000000000E+000
  0.000000000000000E+000
  0.000000000000000E+000
  0.000000000000000E+000
  0.000000000000000E+000
  0.000000000000000E+000
  0.000000000000000E+000
  0.000000000000000E+000
  0.000000000000000E+000
  0.000000000000000E+000
  0.000000000000000E+000
  0.000000000000000E+000
  0.000000000000000E+000
  0.000000000000000E+000
  0.000000000000000E+000
  0.000000000000000E+000
  0.000000000000000E+000
  0.000000000000000E+000
  0.000000000000000E+000
  0.000000000000000E+000
  0.000000000000000E+000
  0.000000000000000E+000
  0.000000000000000E+000
  0.000000000000000E+000
  0.000000000000000E+000
  0.000000000000000E+000
  0.000000000000000E+000
  0.000000000000000E+000
  0.000000000000000E+000
  0.000000000000000E+000
  0.000000000000000E+000
  0.000000000000000E+000
  0.000000000000000E+000
  0.000000000000000E+000
  0.000000000000000E+000
  0.000000000000000E+000
  0.000000000000000E+000
  0.000000000000000E+000
  0.000000000000000E+000
  0.000000000000000E+000
  0.000000000000000E+000
  0.000000000000000E+000
  0.000000000000000E+000
  0.000000000000000E+000
  0.000000000000000E+000
  0.000000000000000E+000
  0.000000000000000E+000
  0.000000000000000E+000
  0.000000000000000E+000
  0.000000000000000E+000
  0.000000000000000E+000
  0.000000000000000E+000
  0.000000000000000E+000
  0.000000000000000E+000
  0.000000000000000E+000
  0.000000000000000E+000
  0.000000000000000E+000
  0.000000000000000E+000
  0.000000000000000E+000
  0.000000000000000E+000
  0.000000000000000E+000
  0.000000000000000E+000
  0.000000000000000E+000
  0.000000000000000E+000
  0.000000000000000E+000
  0.000000000000000E+000
  0.000000000000000E+000
  0.000000000000000E+000
  0.000000000000000E+000
  0.000000000000000E+000
  0.000000000000000E+000
  0.000000000000000E+000
  0.000000000000000E+000
  0.000000000000000E+000
  0.000000000000000E+000
  0.000000000000000E+000
  0.000000000000000E+000
  0.000000000000000E+000
  0.000000000000000E+000
  0.000000000000000E+000
  0.000000000000000E+000
  0.000000000000000E+000
  0.000000000000000E+000
  0.000000000000000E+000
  0.000000000000000E+000
  0.000000000000000E+000
  0.000000000000000E+000
  0.000000000000000E+000
  0.000000000000000E+000
  0.000000000000000E+000
  0.000000000000000E+000
  0.000000000000000E+000
  0.000000000000000E+000
  0.000000000000000E+000
  0.000000000000000E+000
  0.000000000000000E+000
  0.000000000000000E+000
  0.000000000000000E+000
  0.000000000000000E+000
  0.000000000000000E+000
  0.000000000000000E+000
  0.000000000000000E+000
  0.000000000000000E+000
  0.000000000000000E+000
  0.000000000000000E+000
  0.000000000000000E+000
  0.000000000000000E+000
  0.000000000000000E+000
  0.000000000000000E+000
  0.000000000000000E+000
  0.000000000000000E+000
  0.000000000000000E+000
  0.000000000000000E+000
  0.000000000000000E+000
  0.000000000000000E+000
  0.000000000000000E+000
  0.000000000000000E+000
  0.000000000000000E+000
  0.000000000000000E+000
  0.000000000000000E+000
  0.000000000000000E+000
  0.000000000000000E+000
  0.000000000000000E+000
  0.000000000000000E+000
  0.000000000000000E+000
  0.000000000000000E+000
  0.000000000000000E+000
  0.000000000000000E+000
  0.000000000000000E+000
  0.000000000000000E+000
  0.000000000000000E+000
  0.000000000000000E+000
  0.000000000000000E+000
  0.000000000000000E+000
  0.000000000000000E+000
  0.000000000000000E+000
  0.000000000000000E+000
  0.000000000000000E+000
  0.000000000000000E+000
  0.000000000000000E+000
  0.000000000000000E+000
  0.000000000000000E+000
  0.000000000000000E+000
  0.000000000000000E+000
  0.000000000000000E+000
  0.000000000000000E+000
  0.000000000000000E+000
  0.000000000000000E+000
  0.000000000000000E+000
  0.000000000000000E+000
  0.000000000000000E+000
  0.000000000000000E+000
  0.000000000000000E+000
  0.000000000000000E+000
  0.000000000000000E+000
  0.000000000000000E+000
  0.000000000000000E+000
  0.000000000000000E+000
  0.000000000000000E+000
  0.000000000000000E+000
  0.000000000000000E+000
  0.000000000000000E+000
  0.000000000000000E+000
  0.000000000000000E+000
  0.000000000000000E+000
  0.000000000000000E+000
  0.000000000000000E+000
  0.000000000000000E+000
  0.000000000000000E+000
  0.000000000000000E+000
  0.000000000000000E+000
  0.000000000000000E+000
  0.000000000000000E+000
  0.000000000000000E+000
  0.000000000000000E+000
  0.000000000000000E+000
  0.000000000000000E+000
  0.000000000000000E+000
  0.000000000000000E+000
  0.000000000000000E+000
  0.000000000000000E+000
  0.000000000000000E+000
  0.000000000000000E+000
  0.000000000000000E+000
  0.000000000000000E+000
  0.000000000000000E+000
  0.000000000000000E+000
  0.000000000000000E+000
  0.000000000000000E+000
  0.000000000000000E+000
  0.000000000000000E+000
  0.000000000000000E+000
  0.000000000000000E+000
  0.000000000000000E+000
  0.000000000000000E+000
  0.000000000000000E+000
  0.000000000000000E+000
  0.000000000000000E+000
  0.000000000000000E+000
  0.000000000000000E+000
  0.000000000000000E+000
  0.000000000000000E+000
  0.000000000000000E+000
  0.000000000000000E+000
  0.000000000000000E+000
  0.000000000000000E+000
  0.000000000000000E+000
  0.000000000000000E+000
  0.000000000000000E+000
  0.000000000000000E+000
  0.000000000000000E+000
  0.000000000000000E+000
  0.000000000000000E+000
  0.000000000000000E+000
  0.000000000000000E+000
  0.000000000000000E+000
  0.000000000000000E+000
  0.000000000000000E+000
  0.000000000000000E+000
  0.000000000000000E+000
  0.000000000000000E+000
  0.000000000000000E+000
  0.000000000000000E+000
  0.000000000000000E+000
  0.000000000000000E+000
  0.000000000000000E+000
  0.000000000000000E+000
  0.000000000000000E+000
  0.000000000000000E+000
  0.000000000000000E+000
  0.000000000000000E+000
  0.000000000000000E+000
  0.000000000000000E+000
  0.000000000000000E+000
  0.000000000000000E+000
  0.000000000000000E+000
  0.000000000000000E+000
  0.000000000000000E+000
  0.000000000000000E+000
  0.000000000000000E+000
  0.000000000000000E+000
  0.000000000000000E+000
  0.000000000000000E+000
  0.000000000000000E+000
  0.000000000000000E+000
  0.000000000000000E+000
  0.000000000000000E+000
  0.000000000000000E+000
  0.000000000000000E+000
  0.000000000000000E+000
  0.000000000000000E+000
  0.000000000000000E+000
  0.000000000000000E+000
  0.000000000000000E+000
  0.000000000000000E+000
  0.000000000000000E+000
  0.000000000000000E+000
  0.000000000000000E+000
  0.000000000000000E+000
  0.000000000000000E+000
  0.000000000000000E+000
  0.000000000000000E+000
  0.000000000000000E+000
  0.000000000000000E+000
  0.000000000000000E+000
  0.000000000000000E+000
  0.000000000000000E+000
  0.000000000000000E+000
  0.000000000000000E+000
  0.000000000000000E+000
  0.000000000000000E+000
  0.000000000000000E+000
  0.000000000000000E+000
  0.000000000000000E+000
  0.000000000000000E+000
  0.000000000000000E+000
  0.000000000000000E+000
  0.000000000000000E+000
  0.000000000000000E+000
  0.000000000000000E+000
  0.000000000000000E+000
  0.000000000000000E+000
  0.000000000000000E+000
  0.000000000000000E+000
  0.000000000000000E+000
  0.000000000000000E+000
  0.000000000000000E+000
  0.000000000000000E+000
  0.000000000000000E+000
  0.000000000000000E+000
  0.000000000000000E+000
  0.000000000000000E+000
  0.000000000000000E+000
  0.000000000000000E+000
  0.000000000000000E+000
  0.000000000000000E+000
  0.000000000000000E+000
  0.000000000000000E+000
  0.000000000000000E+000
  0.000000000000000E+000
  0.000000000000000E+000
  0.000000000000000E+000
  0.000000000000000E+000
  0.000000000000000E+000
  0.000000000000000E+000
  0.000000000000000E+000
  0.000000000000000E+000
  0.000000000000000E+000
  0.000000000000000E+000
  0.000000000000000E+000
  0.000000000000000E+000
  0.000000000000000E+000
  0.000000000000000E+000
  0.000000000000000E+000
  0.000000000000000E+000
  0.000000000000000E+000
  0.000000000000000E+000
  0.000000000000000E+000
  0.000000000000000E+000
  0.000000000000000E+000
  0.000000000000000E+000
  0.000000000000000E+000
  0.000000000000000E+000
  0.000000000000000E+000
  0.000000000000000E+000
  0.000000000000000E+000
  0.000000000000000E+000
  0.000000000000000E+000
  0.000000000000000E+000
  0.000000000000000E+000
  0.000000000000000E+000
  0.000000000000000E+000
  0.000000000000000E+000
  0.000000000000000E+000
  0.000000000000000E+000
  0.000000000000000E+000
  0.000000000000000E+000
  0.000000000000000E+000
  0.000000000000000E+000
  0.000000000000000E+000
  0.000000000000000E+000
  0.000000000000000E+000
  0.000000000000000E+000
  0.000000000000000E+000
  0.000000000000000E+000
  0.000000000000000E+000
  0.000000000000000E+000
  0.000000000000000E+000
  0.000000000000000E+000
  0.000000000000000E+000
  0.000000000000000E+000
  0.000000000000000E+000
  0.000000000000000E+000
  0.000000000000000E+000
  0.000000000000000E+000
  0.000000000000000E+000
  0.000000000000000E+000
  0.000000000000000E+000
  0.000000000000000E+000
  0.000000000000000E+000
  0.000000000000000E+000
  0.000000000000000E+000
  0.000000000000000E+000
  0.000000000000000E+000
  0.000000000000000E+000
  0.000000000000000E+000
  0.000000000000000E+000
  0.000000000000000E+000
  0.000000000000000E+000
  0.000000000000000E+000
  0.000000000000000E+000
  0.000000000000000E+000
  0.000000000000000E+000
  0.000000000000000E+000
  0.000000000000000E+000
  0.000000000000000E+000
  0.000000000000000E+000
  0.000000000000000E+000
  0.000000000000000E+000
  0.000000000000000E+000
  0.000000000000000E+000
  0.000000000000000E+000
  0.000000000000000E+000
  0.000000000000000E+000
  0.000000000000000E+000
  0.000000000000000E+000
  0.000000000000000E+000
  0.000000000000000E+000
  0.000000000000000E+000
  0.000000000000000E+000
  0.000000000000000E+000
  0.000000000000000E+000
  0.000000000000000E+000
  0.000000000000000E+000
  0.000000000000000E+000
  0.000000000000000E+000
  0.000000000000000E+000
  0.000000000000000E+000
  0.000000000000000E+000
  0.000000000000000E+000
  0.000000000000000E+000
  0.000000000000000E+000
  0.000000000000000E+000
  0.000000000000000E+000
  0.000000000000000E+000
  0.000000000000000E+000
  0.000000000000000E+000
  0.000000000000000E+000
  0.000000000000000E+000
  0.000000000000000E+000
  0.000000000000000E+000
  0.000000000000000E+000
  0.000000000000000E+000
  0.000000000000000E+000
  0.000000000000000E+000
  0.000000000000000E+000
  0.000000000000000E+000
  0.000000000000000E+000
  0.000000000000000E+000
  0.000000000000000E+000
  0.000000000000000E+000
  0.000000000000000E+000
  0.000000000000000E+000
  0.000000000000000E+000
  0.000000000000000E+000
  0.000000000000000E+000
  0.000000000000000E+000
  0.000000000000000E+000
  0.000000000000000E+000
  0.000000000000000E+000
  0.000000000000000E+000
  0.000000000000000E+000
  0.000000000000000E+000
  0.000000000000000E+000
  0.000000000000000E+000
  0.000000000000000E+000
  0.000000000000000E+000
  0.000000000000000E+000
  0.000000000000000E+000
  0.000000000000000E+000
  0.000000000000000E+000
  0.000000000000000E+000
  0.000000000000000E+000
  0.000000000000000E+000
  0.000000000000000E+000
  0.000000000000000E+000
  0.000000000000000E+000
  0.000000000000000E+000
  0.000000000000000E+000
  0.000000000000000E+000
  0.000000000000000E+000
  0.000000000000000E+000
  0.000000000000000E+000
  0.000000000000000E+000
  0.000000000000000E+000
  0.000000000000000E+000
  0.000000000000000E+000
  0.000000000000000E+000
  0.000000000000000E+000
  0.000000000000000E+000
  0.000000000000000E+000
  0.000000000000000E+000
  0.000000000000000E+000
  0.000000000000000E+000
  0.000000000000000E+000
  0.000000000000000E+000
  0.000000000000000E+000
  0.000000000000000E+000
  0.000000000000000E+000
  0.000000000000000E+000
  0.000000000000000E+000
  0.000000000000000E+000
  0.000000000000000E+000
  0.000000000000000E+000
  0.000000000000000E+000
  0.000000000000000E+000
  0.000000000000000E+000
  0.000000000000000E+000
  0.000000000000000E+000
  0.000000000000000E+000
  0.000000000000000E+000
  0.000000000000000E+000
  0.000000000000000E+000
  0.000000000000000E+000
  0.000000000000000E+000
  0.000000000000000E+000
  0.000000000000000E+000
  0.000000000000000E+000
  0.000000000000000E+000
  0.000000000000000E+000
  0.000000000000000E+000
  0.000000000000000E+000
  0.000000000000000E+000
  0.000000000000000E+000
  0.000000000000000E+000
  0.000000000000000E+000
  0.000000000000000E+000
  0.000000000000000E+000
  0.000000000000000E+000
  0.000000000000000E+000
  0.000000000000000E+000
  0.000000000000000E+000
  0.000000000000000E+000
  0.000000000000000E+000
  0.000000000000000E+000
  0.000000000000000E+000
  0.000000000000000E+000
  0.000000000000000E+000
  0.000000000000000E+000
  0.000000000000000E+000
  0.000000000000000E+000
  0.000000000000000E+000
  0.000000000000000E+000
  0.000000000000000E+000
  0.000000000000000E+000
  0.000000000000000E+000
  0.000000000000000E+000
  0.000000000000000E+000
  0.000000000000000E+000
  0.000000000000000E+000
  0.000000000000000E+000
  0.000000000000000E+000
  0.000000000000000E+000
  0.000000000000000E+000
  0.000000000000000E+000
  0.000000000000000E+000
  0.000000000000000E+000
  0.000000000000000E+000
  0.000000000000000E+000
  0.000000000000000E+000
  0.000000000000000E+000
  0.000000000000000E+000
  0.000000000000000E+000
  0.000000000000000E+000
  0.000000000000000E+000
  0.000000000000000E+000
  0.000000000000000E+000
  0.000000000000000E+000
  0.000000000000000E+000
  0.000000000000000E+000
  0.000000000000000E+000
  0.000000000000000E+000
  0.000000000000000E+000
  0.000000000000000E+000
  0.000000000000000E+000
  0.000000000000000E+000
  0.000000000000000E+000
  0.000000000000000E+000
  0.000000000000000E+000
  0.000000000000000E+000
  0.000000000000000E+000
  0.000000000000000E+000
  0.000000000000000E+000
  0.000000000000000E+000
  0.000000000000000E+000
  0.000000000000000E+000
  0.000000000000000E+000
  0.000000000000000E+000
  0.000000000000000E+000
  0.000000000000000E+000
  0.000000000000000E+000
  0.000000000000000E+000
  0.000000000000000E+000
  0.000000000000000E+000
  0.000000000000000E+000
  0.000000000000000E+000
  0.000000000000000E+000
  0.000000000000000E+000
  0.000000000000000E+000
  0.000000000000000E+000
  0.000000000000000E+000
  0.000000000000000E+000
  0.000000000000000E+000
  0.000000000000000E+000
  0.000000000000000E+000
  0.000000000000000E+000
  0.000000000000000E+000
  0.000000000000000E+000
  0.000000000000000E+000
  0.000000000000000E+000
  0.000000000000000E+000
  0.000000000000000E+000
  0.000000000000000E+000
  0.000000000000000E+000
  0.000000000000000E+000
  0.000000000000000E+000
  0.000000000000000E+000
  0.000000000000000E+000
  0.000000000000000E+000
  0.000000000000000E+000
  0.000000000000000E+000
  0.000000000000000E+000
  0.000000000000000E+000
  0.000000000000000E+000
  0.000000000000000E+000
  0.000000000000000E+000
  0.000000000000000E+000
  0.000000000000000E+000
  0.000000000000000E+000
  0.000000000000000E+000
  0.000000000000000E+000
  0.000000000000000E+000
  0.000000000000000E+000
  0.000000000000000E+000
  0.000000000000000E+000
  0.000000000000000E+000
  0.000000000000000E+000
  0.000000000000000E+000
  0.000000000000000E+000
  0.000000000000000E+000
  0.000000000000000E+000
  0.000000000000000E+000
  0.000000000000000E+000
  0.000000000000000E+000
  0.000000000000000E+000
  0.000000000000000E+000
  0.000000000000000E+000
  0.000000000000000E+000
  0.000000000000000E+000
  0.000000000000000E+000
  0.000000000000000E+000
  0.000000000000000E+000
  0.000000000000000E+000
  0.000000000000000E+000
  0.000000000000000E+000
  0.000000000000000E+000
  0.000000000000000E+000
  0.000000000000000E+000
  0.000000000000000E+000
  0.000000000000000E+000
  0.000000000000000E+000
  0.000000000000000E+000
  0.000000000000000E+000
  0.000000000000000E+000
  0.000000000000000E+000
  0.000000000000000E+000
  0.000000000000000E+000
  0.000000000000000E+000
  0.000000000000000E+000
  0.000000000000000E+000
  0.000000000000000E+000
  0.000000000000000E+000
  0.000000000000000E+000
  0.000000000000000E+000
  0.000000000000000E+000
  0.000000000000000E+000
  0.000000000000000E+000
  0.000000000000000E+000
  0.000000000000000E+000
  0.000000000000000E+000
  0.000000000000000E+000
  0.000000000000000E+000
  0.000000000000000E+000
  0.000000000000000E+000
  0.000000000000000E+000
  0.000000000000000E+000
  0.000000000000000E+000
  0.000000000000000E+000
  0.000000000000000E+000
  0.000000000000000E+000
  0.000000000000000E+000
  0.000000000000000E+000
  0.000000000000000E+000
  0.000000000000000E+000
  0.000000000000000E+000
  0.000000000000000E+000
  0.000000000000000E+000
  0.000000000000000E+000
  0.000000000000000E+000
  0.000000000000000E+000
  0.000000000000000E+000
  0.000000000000000E+000
  0.000000000000000E+000
  0.000000000000000E+000
  0.000000000000000E+000
  0.000000000000000E+000
  0.000000000000000E+000
  0.000000000000000E+000
  0.000000000000000E+000
  0.000000000000000E+000
  0.000000000000000E+000
  0.000000000000000E+000
  0.000000000000000E+000
  0.000000000000000E+000
  0.000000000000000E+000
  0.000000000000000E+000
  0.000000000000000E+000
  0.000000000000000E+000
  0.000000000000000E+000
  0.000000000000000E+000
  0.000000000000000E+000
  0.000000000000000E+000
  0.000000000000000E+000
  0.000000000000000E+000
  0.000000000000000E+000
  0.000000000000000E+000
  0.000000000000000E+000
  0.000000000000000E+000
  0.000000000000000E+000
  0.000000000000000E+000
  0.000000000000000E+000
  0.000000000000000E+000
  0.000000000000000E+000
  0.000000000000000E+000
  0.000000000000000E+000
  0.000000000000000E+000
  0.000000000000000E+000
  0.000000000000000E+000
  0.000000000000000E+000
  0.000000000000000E+000
  0.000000000000000E+000
  0.000000000000000E+000
  0.000000000000000E+000
  0.000000000000000E+000
  0.000000000000000E+000
  0.000000000000000E+000
  0.000000000000000E+000
  0.000000000000000E+000
  0.000000000000000E+000
  0.000000000000000E+000
  0.000000000000000E+000
  0.000000000000000E+000
  0.000000000000000E+000
  0.000000000000000E+000
  0.000000000000000E+000
  0.000000000000000E+000
  0.000000000000000E+000
  0.000000000000000E+000
  0.000000000000000E+000
  0.000000000000000E+000
  0.000000000000000E+000
  0.000000000000000E+000
  0.000000000000000E+000
  0.000000000000000E+000
  0.000000000000000E+000
  0.000000000000000E+000
  0.000000000000000E+000
  0.000000000000000E+000
  0.000000000000000E+000
  0.000000000000000E+000
  0.000000000000000E+000
  0.000000000000000E+000
  0.000000000000000E+000
  0.000000000000000E+000
  0.000000000000000E+000
  0.000000000000000E+000
  0.000000000000000E+000
  0.000000000000000E+000
  0.000000000000000E+000
  0.000000000000000E+000
  0.000000000000000E+000
  0.000000000000000E+000
  0.000000000000000E+000
  0.000000000000000E+000
  0.000000000000000E+000
  0.000000000000000E+000
  0.000000000000000E+000
  0.000000000000000E+000
  0.000000000000000E+000
  0.000000000000000E+000
  0.000000000000000E+000
  0.000000000000000E+000
  0.000000000000000E+000
  0.000000000000000E+000
  0.000000000000000E+000
  0.000000000000000E+000
  0.000000000000000E+000
  0.000000000000000E+000
  0.000000000000000E+000
  0.000000000000000E+000
  0.000000000000000E+000
  0.000000000000000E+000
  0.000000000000000E+000
  0.000000000000000E+000
  0.000000000000000E+000
  0.000000000000000E+000
  0.000000000000000E+000
  0.000000000000000E+000
  0.000000000000000E+000
  0.000000000000000E+000
  0.000000000000000E+000
  0.000000000000000E+000
  0.000000000000000E+000
  0.000000000000000E+000
  0.000000000000000E+000
  0.000000000000000E+000
  0.000000000000000E+000
  0.000000000000000E+000
  0.000000000000000E+000
  0.000000000000000E+000
  0.000000000000000E+000
  0.000000000000000E+000
  0.000000000000000E+000
  0.000000000000000E+000
  0.000000000000000E+000
  0.000000000000000E+000
  0.000000000000000E+000
  0.000000000000000E+000
  0.000000000000000E+000
  0.000000000000000E+000
  0.000000000000000E+000
  0.000000000000000E+000
  0.000000000000000E+000
  0.000000000000000E+000
  0.000000000000000E+000
  0.000000000000000E+000
  0.000000000000000E+000
  0.000000000000000E+000
  0.000000000000000E+000
  0.000000000000000E+000
  0.000000000000000E+000
  0.000000000000000E+000
  0.000000000000000E+000
  0.000000000000000E+000
  0.000000000000000E+000
  0.000000000000000E+000
  0.000000000000000E+000
  0.000000000000000E+000
  0.000000000000000E+000
  0.000000000000000E+000
  0.000000000000000E+000
  0.000000000000000E+000
  0.000000000000000E+000
  0.000000000000000E+000
  0.000000000000000E+000
  0.000000000000000E+000
  0.000000000000000E+000
  0.000000000000000E+000
  0.000000000000000E+000
  0.000000000000000E+000
  0.000000000000000E+000
  0.000000000000000E+000
  0.000000000000000E+000
  0.000000000000000E+000
  0.000000000000000E+000
  0.000000000000000E+000
  0.000000000000000E+000
  0.000000000000000E+000
  0.000000000000000E+000
  0.000000000000000E+000
  0.000000000000000E+000
  0.000000000000000E+000
  0.000000000000000E+000
  0.000000000000000E+000
  0.000000000000000E+000
  0.000000000000000E+000
  0.000000000000000E+000
  0.000000000000000E+000
  0.000000000000000E+000
  0.000000000000000E+000
  0.000000000000000E+000
  0.000000000000000E+000
  0.000000000000000E+000
  0.000000000000000E+000
  0.000000000000000E+000
  0.000000000000000E+000
  0.000000000000000E+000
  0.000000000000000E+000
  0.000000000000000E+000
  0.000000000000000E+000
  0.000000000000000E+000
  0.000000000000000E+000
  0.000000000000000E+000
  0.000000000000000E+000
  0.000000000000000E+000
  0.000000000000000E+000
  0.000000000000000E+000
  0.000000000000000E+000
  0.000000000000000E+000
  0.000000000000000E+000
  0.000000000000000E+000
  0.000000000000000E+000
  0.000000000000000E+000
  0.000000000000000E+000
  0.000000000000000E+000
  0.000000000000000E+000
  0.000000000000000E+000
  0.000000000000000E+000
  0.000000000000000E+000
  0.000000000000000E+000
  0.000000000000000E+000
  0.000000000000000E+000
  0.000000000000000E+000
  0.000000000000000E+000
  0.000000000000000E+000
  0.000000000000000E+000
  0.000000000000000E+000
  0.000000000000000E+000
  0.000000000000000E+000
  0.000000000000000E+000
  0.000000000000000E+000
  0.000000000000000E+000
  0.000000000000000E+000
  0.000000000000000E+000
  0.000000000000000E+000
  0.000000000000000E+000
  0.000000000000000E+000
  0.000000000000000E+000
  0.000000000000000E+000
  0.000000000000000E+000
  0.000000000000000E+000
  0.000000000000000E+000
  0.000000000000000E+000
  0.000000000000000E+000
  0.000000000000000E+000
  0.000000000000000E+000
  0.000000000000000E+000
  0.000000000000000E+000
  0.000000000000000E+000
  0.000000000000000E+000
  0.000000000000000E+000
  0.000000000000000E+000
  0.000000000000000E+000
  0.000000000000000E+000
  0.000000000000000E+000
  0.000000000000000E+000
  0.000000000000000E+000
  0.000000000000000E+000
  0.000000000000000E+000
  0.000000000000000E+000
  0.000000000000000E+000
  0.000000000000000E+000
  0.000000000000000E+000
  0.000000000000000E+000
  0.000000000000000E+000
  0.000000000000000E+000
  0.000000000000000E+000
  0.000000000000000E+000
  0.000000000000000E+000
  0.000000000000000E+000
  0.000000000000000E+000
  0.000000000000000E+000
  0.000000000000000E+000
  0.000000000000000E+000
  0.000000000000000E+000
  0.000000000000000E+000
  0.000000000000000E+000
  0.000000000000000E+000
  0.000000000000000E+000
  0.000000000000000E+000
  0.000000000000000E+000
  0.000000000000000E+000
  0.000000000000000E+000
  0.000000000000000E+000
  0.000000000000000E+000
  0.000000000000000E+000
  0.000000000000000E+000
  0.000000000000000E+000
  0.000000000000000E+000
  0.000000000000000E+000
  0.000000000000000E+000
  0.000000000000000E+000
  0.000000000000000E+000
  0.000000000000000E+000
  0.000000000000000E+000
  0.000000000000000E+000
  0.000000000000000E+000
  0.000000000000000E+000
  0.000000000000000E+000
  0.000000000000000E+000
  0.000000000000000E+000
  0.000000000000000E+000
  0.000000000000000E+000
  0.000000000000000E+000
  0.000000000000000E+000
  0.000000000000000E+000
  0.000000000000000E+000
  0.000000000000000E+000
  0.000000000000000E+000
  0.000000000000000E+000
  0.000000000000000E+000
  0.000000000000000E+000
  0.000000000000000E+000
  0.000000000000000E+000
  0.000000000000000E+000
  0.000000000000000E+000
  0.000000000000000E+000
  0.000000000000000E+000
  0.000000000000000E+000
  0.000000000000000E+000
  0.000000000000000E+000
  0.000000000000000E+000
  0.000000000000000E+000
  0.000000000000000E+000
  0.000000000000000E+000
  0.000000000000000E+000
  0.000000000000000E+000
  0.000000000000000E+000
  0.000000000000000E+000
  0.000000000000000E+000
  0.000000000000000E+000
  0.000000000000000E+000
  0.000000000000000E+000
  0.000000000000000E+000
  0.000000000000000E+000
  0.000000000000000E+000
  0.000000000000000E+000
  0.000000000000000E+000
  0.000000000000000E+000
  0.000000000000000E+000
  0.000000000000000E+000
  0.000000000000000E+000
  0.000000000000000E+000
  0.000000000000000E+000
  0.000000000000000E+000
  0.000000000000000E+000
  0.000000000000000E+000
  0.000000000000000E+000
  0.000000000000000E+000
  0.000000000000000E+000
  0.000000000000000E+000
  0.000000000000000E+000
  0.000000000000000E+000
  0.000000000000000E+000
  0.000000000000000E+000
  0.000000000000000E+000
  0.000000000000000E+000
  0.000000000000000E+000
  0.000000000000000E+000
  0.000000000000000E+000
  0.000000000000000E+000
  0.000000000000000E+000
  0.000000000000000E+000
  0.000000000000000E+000
  0.000000000000000E+000
  0.000000000000000E+000
  0.000000000000000E+000
  0.000000000000000E+000
  0.000000000000000E+000
  0.000000000000000E+000
  0.000000000000000E+000
  0.000000000000000E+000
  0.000000000000000E+000
  0.000000000000000E+000
  0.000000000000000E+000
  0.000000000000000E+000
  0.000000000000000E+000
  0.000000000000000E+000
  0.000000000000000E+000
  0.000000000000000E+000
  0.000000000000000E+000
  0.000000000000000E+000
  0.000000000000000E+000
  0.000000000000000E+000
  0.000000000000000E+000
  0.000000000000000E+000
  0.000000000000000E+000
  0.000000000000000E+000
  0.000000000000000E+000
  0.000000000000000E+000
  0.000000000000000E+000
  0.000000000000000E+000
  0.000000000000000E+000
  0.000000000000000E+000
  0.000000000000000E+000
  0.000000000000000E+000
  0.000000000000000E+000
  0.000000000000000E+000
  0.000000000000000E+000
  0.000000000000000E+000
  0.000000000000000E+000
  0.000000000000000E+000
  0.000000000000000E+000
  0.000000000000000E+000
  0.000000000000000E+000
  0.000000000000000E+000
  0.000000000000000E+000
  0.000000000000000E+000
  0.000000000000000E+000
  0.000000000000000E+000
  0.000000000000000E+000
  0.000000000000000E+000
  0.000000000000000E+000
  0.000000000000000E+000
  0.000000000000000E+000
  0.000000000000000E+000
  0.000000000000000E+000
  0.000000000000000E+000
  0.000000000000000E+000
  0.000000000000000E+000
  0.000000000000000E+000
  0.000000000000000E+000
  0.000000000000000E+000
  0.000000000000000E+000
  0.000000000000000E+000
  0.000000000000000E+000
  0.000000000000000E+000
  0.000000000000000E+000
  0.000000000000000E+000
  0.000000000000000E+000
  0.000000000000000E+000
  0.000000000000000E+000
  0.000000000000000E+000
  0.000000000000000E+000
  0.000000000000000E+000
  0.000000000000000E+000
  0.000000000000000E+000
  0.000000000000000E+000
  0.000000000000000E+000
  0.000000000000000E+000
  0.000000000000000E+000
  0.000000000000000E+000
  0.000000000000000E+000
  0.000000000000000E+000
  0.000000000000000E+000
  0.000000000000000E+000
  0.000000000000000E+000
  0.000000000000000E+000
  0.000000000000000E+000
  0.000000000000000E+000
  0.000000000000000E+000
  0.000000000000000E+000
  0.000000000000000E+000
  0.000000000000000E+000
  0.000000000000000E+000
  0.000000000000000E+000
  0.000000000000000E+000
  0.000000000000000E+000
  0.000000000000000E+000
  0.000000000000000E+000
  0.000000000000000E+000
  0.000000000000000E+000
  0.000000000000000E+000
  0.000000000000000E+000
  0.000000000000000E+000
  0.000000000000000E+000
  0.000000000000000E+000
  0.000000000000000E+000
  0.000000000000000E+000
  0.000000000000000E+000
  0.000000000000000E+000
  0.000000000000000E+000
  0.000000000000000E+000
  0.000000000000000E+000
  0.000000000000000E+000
  0.000000000000000E+000
  0.000000000000000E+000
  0.000000000000000E+000
  0.000000000000000E+000
  0.000000000000000E+000
  0.000000000000000E+000
  0.000000000000000E+000
  0.000000000000000E+000
  0.000000000000000E+000
  0.000000000000000E+000
  0.000000000000000E+000
  0.000000000000000E+000
  0.000000000000000E+000
  0.000000000000000E+000
  0.000000000000000E+000
  0.000000000000000E+000
  0.000000000000000E+000
  0.000000000000000E+000
  0.000000000000000E+000
  0.000000000000000E+000
  0.000000000000000E+000
  0.000000000000000E+000
  0.000000000000000E+000
  0.000000000000000E+000
  0.000000000000000E+000
  0.000000000000000E+000
  0.000000000000000E+000
  0.000000000000000E+000
  0.000000000000000E+000
  0.000000000000000E+000
  0.000000000000000E+000
  0.000000000000000E+000
  0.000000000000000E+000
  0.000000000000000E+000
  0.000000000000000E+000
  0.000000000000000E+000
  0.000000000000000E+000
  0.000000000000000E+000
  0.000000000000000E+000
  0.000000000000000E+000
  0.000000000000000E+000
  0.000000000000000E+000
  0.000000000000000E+000
  0.000000000000000E+000
  0.000000000000000E+000
  0.000000000000000E+000
  0.000000000000000E+000
  0.000000000000000E+000
  0.000000000000000E+000
  0.000000000000000E+000
  0.000000000000000E+000
  0.000000000000000E+000
  0.000000000000000E+000
  0.000000000000000E+000
  0.000000000000000E+000
  0.000000000000000E+000
  0.000000000000000E+000
  0.000000000000000E+000
  0.000000000000000E+000
  0.000000000000000E+000
  0.000000000000000E+000
  0.000000000000000E+000
  0.000000000000000E+000
  0.000000000000000E+000
  0.000000000000000E+000
  0.000000000000000E+000
  0.000000000000000E+000
  0.000000000000000E+000
  0.000000000000000E+000
  0.000000000000000E+000
  0.000000000000000E+000
  0.000000000000000E+000
  0.000000000000000E+000
  0.000000000000000E+000
  0.000000000000000E+000
  0.000000000000000E+000
  0.000000000000000E+000
  0.000000000000000E+000
  0.000000000000000E+000
  0.000000000000000E+000
  0.000000000000000E+000
  0.000000000000000E+000
  0.000000000000000E+000
  0.000000000000000E+000
  0.000000000000000E+000
  0.000000000000000E+000
  0.000000000000000E+000
  0.000000000000000E+000
  0.000000000000000E+000
  0.000000000000000E+000
  0.000000000000000E+000
  0.000000000000000E+000
  0.000000000000000E+000
  0.000000000000000E+000
  0.000000000000000E+000
  0.000000000000000E+000
  0.000000000000000E+000
  0.000000000000000E+000
  0.000000000000000E+000
  0.000000000000000E+000
  0.000000000000000E+000
  0.000000000000000E+000
  0.000000000000000E+000
  0.000000000000000E+000
  0.000000000000000E+000
  0.000000000000000E+000
  0.000000000000000E+000
  0.000000000000000E+000
  0.000000000000000E+000
  0.000000000000000E+000
  0.000000000000000E+000
  0.000000000000000E+000
  0.000000000000000E+000
  0.000000000000000E+000
  0.000000000000000E+000
  0.000000000000000E+000
  0.000000000000000E+000
  0.000000000000000E+000
  0.000000000000000E+000
  0.000000000000000E+000
  0.000000000000000E+000
  0.000000000000000E+000
  0.000000000000000E+000
  0.000000000000000E+000
  0.000000000000000E+000
  0.000000000000000E+000
  0.000000000000000E+000
  0.000000000000000E+000
  0.000000000000000E+000
  0.000000000000000E+000
  0.000000000000000E+000
  0.000000000000000E+000
  0.000000000000000E+000
  0.000000000000000E+000
  0.000000000000000E+000
  0.000000000000000E+000
  0.000000000000000E+000
  0.000000000000000E+000
  0.000000000000000E+000
  0.000000000000000E+000
  0.000000000000000E+000
  0.000000000000000E+000
  0.000000000000000E+000
  0.000000000000000E+000
  0.000000000000000E+000
  0.000000000000000E+000
  0.000000000000000E+000
  0.000000000000000E+000
  0.000000000000000E+000
  0.000000000000000E+000
  0.000000000000000E+000
  0.000000000000000E+000
  0.000000000000000E+000
  0.000000000000000E+000
  0.000000000000000E+000
  0.000000000000000E+000
  0.000000000000000E+000
  0.000000000000000E+000
  0.000000000000000E+000
  0.000000000000000E+000
  0.000000000000000E+000
  0.000000000000000E+000
  0.000000000000000E+000
  0.000000000000000E+000
  0.000000000000000E+000
  0.000000000000000E+000
  0.000000000000000E+000
  0.000000000000000E+000
  0.000000000000000E+000
  0.000000000000000E+000
  0.000000000000000E+000
  0.000000000000000E+000
  0.000000000000000E+000
  0.000000000000000E+000
  0.000000000000000E+000
  0.000000000000000E+000
  0.000000000000000E+000
  0.000000000000000E+000
  0.000000000000000E+000
  0.000000000000000E+000
  0.000000000000000E+000
  0.000000000000000E+000
  0.000000000000000E+000
  0.000000000000000E+000
  0.000000000000000E+000
  0.000000000000000E+000
  0.000000000000000E+000
  0.000000000000000E+000
  0.000000000000000E+000
  0.000000000000000E+000
  0.000000000000000E+000
  0.000000000000000E+000
  0.000000000000000E+000
  0.000000000000000E+000
  0.000000000000000E+000
  0.000000000000000E+000
  0.000000000000000E+000
  0.000000000000000E+000
  0.000000000000000E+000
  0.000000000000000E+000
  0.000000000000000E+000
  0.000000000000000E+000
  0.000000000000000E+000
  0.000000000000000E+000
  0.000000000000000E+000
  0.000000000000000E+000
  0.000000000000000E+000
  0.000000000000000E+000
  0.000000000000000E+000
  0.000000000000000E+000
  0.000000000000000E+000
  0.000000000000000E+000
  0.000000000000000E+000
  0.000000000000000E+000
  0.000000000000000E+000
  0.000000000000000E+000
  0.000000000000000E+000
  0.000000000000000E+000
  0.000000000000000E+000
  0.000000000000000E+000
  0.000000000000000E+000
  0.000000000000000E+000
  0.000000000000000E+000
  0.000000000000000E+000
  0.000000000000000E+000
  0.000000000000000E+000
  0.000000000000000E+000
  0.000000000000000E+000
  0.000000000000000E+000
  0.000000000000000E+000
  0.000000000000000E+000
  0.000000000000000E+000
  0.000000000000000E+000
  0.000000000000000E+000
  0.000000000000000E+000
  0.000000000000000E+000
  0.000000000000000E+000
  0.000000000000000E+000
  0.000000000000000E+000
  0.000000000000000E+000
  0.000000000000000E+000
  0.000000000000000E+000
  0.000000000000000E+000
  0.000000000000000E+000
  0.000000000000000E+000
  0.000000000000000E+000
  0.000000000000000E+000
  0.000000000000000E+000
  0.000000000000000E+000
  0.000000000000000E+000
  0.000000000000000E+000
  0.000000000000000E+000
  0.000000000000000E+000
  0.000000000000000E+000
  0.000000000000000E+000
  0.000000000000000E+000
  0.000000000000000E+000
  0.000000000000000E+000
  0.000000000000000E+000
  0.000000000000000E+000
  0.000000000000000E+000
  0.000000000000000E+000
  0.000000000000000E+000
  0.000000000000000E+000
  0.000000000000000E+000
  0.000000000000000E+000
  0.000000000000000E+000
  0.000000000000000E+000
  0.000000000000000E+000
  0.000000000000000E+000
  0.000000000000000E+000
  0.000000000000000E+000
  0.000000000000000E+000
  0.000000000000000E+000
  0.000000000000000E+000
  0.000000000000000E+000
  0.000000000000000E+000
  0.000000000000000E+000
  0.000000000000000E+000
  0.000000000000000E+000
  0.000000000000000E+000
  0.000000000000000E+000
  0.000000000000000E+000
  0.000000000000000E+000
  0.000000000000000E+000
  0.000000000000000E+000
  0.000000000000000E+000
  0.000000000000000E+000
  0.000000000000000E+000
  0.000000000000000E+000
  0.000000000000000E+000
  0.000000000000000E+000
  0.000000000000000E+000
  0.000000000000000E+000
  0.000000000000000E+000
  0.000000000000000E+000
  0.000000000000000E+000
  0.000000000000000E+000
  0.000000000000000E+000
  0.000000000000000E+000
  0.000000000000000E+000
  0.000000000000000E+000
  0.000000000000000E+000
  0.000000000000000E+000
  0.000000000000000E+000
  0.000000000000000E+000
  0.000000000000000E+000
  0.000000000000000E+000
  0.000000000000000E+000
  0.000000000000000E+000
  0.000000000000000E+000
  0.000000000000000E+000
  0.000000000000000E+000
  0.000000000000000E+000
  0.000000000000000E+000
  0.000000000000000E+000
  0.000000000000000E+000
  0.000000000000000E+000
  0.000000000000000E+000
  0.000000000000000E+000
  0.000000000000000E+000
  0.000000000000000E+000
  0.000000000000000E+000
  0.000000000000000E+000
  0.000000000000000E+000
  0.000000000000000E+000
  0.000000000000000E+000
  0.000000000000000E+000
  0.000000000000000E+000
  0.000000000000000E+000
  0.000000000000000E+000
  0.000000000000000E+000
  0.000000000000000E+000
  0.000000000000000E+000
  0.000000000000000E+000
  0.000000000000000E+000
  0.000000000000000E+000
  0.000000000000000E+000
  0.000000000000000E+000
  0.000000000000000E+000
  0.000000000000000E+000
  0.000000000000000E+000
  0.000000000000000E+000
  0.000000000000000E+000
  0.000000000000000E+000
  0.000000000000000E+000
  0.000000000000000E+000
  0.000000000000000E+000
  0.000000000000000E+000
  0.000000000000000E+000
  0.000000000000000E+000
  0.000000000000000E+000
  0.000000000000000E+000
  0.000000000000000E+000
  0.000000000000000E+000
  0.000000000000000E+000
  0.000000000000000E+000
  0.000000000000000E+000
  0.000000000000000E+000
  0.000000000000000E+000
  0.000000000000000E+000
  0.000000000000000E+000
  0.000000000000000E+000
  0.000000000000000E+000
  0.000000000000000E+000
  0.000000000000000E+000
  0.000000000000000E+000
  0.000000000000000E+000
  0.000000000000000E+000
  0.000000000000000E+000
  0.000000000000000E+000
  0.000000000000000E+000
  0.000000000000000E+000
  0.000000000000000E+000
  0.000000000000000E+000
  0.000000000000000E+000
  0.000000000000000E+000
  0.000000000000000E+000
  0.000000000000000E+000
  0.000000000000000E+000
  0.000000000000000E+000
  0.000000000000000E+000
  0.000000000000000E+000
  0.000000000000000E+000
  0.000000000000000E+000
  0.000000000000000E+000
  0.000000000000000E+000
  0.000000000000000E+000
  0.000000000000000E+000
  0.000000000000000E+000
  0.000000000000000E+000
  0.000000000000000E+000
  0.000000000000000E+000
  0.000000000000000E+000
  0.000000000000000E+000
  0.000000000000000E+000
  0.000000000000000E+000
  0.000000000000000E+000
  0.000000000000000E+000
  0.000000000000000E+000
  0.000000000000000E+000
  0.000000000000000E+000
  0.000000000000000E+000
  0.000000000000000E+000
  0.000000000000000E+000
  0.000000000000000E+000
  0.000000000000000E+000
  0.000000000000000E+000
  0.000000000000000E+000
  0.000000000000000E+000
  0.000000000000000E+000
  0.000000000000000E+000
  0.000000000000000E+000
  0.000000000000000E+000
  0.000000000000000E+000
  0.000000000000000E+000
  0.000000000000000E+000
  0.000000000000000E+000
  0.000000000000000E+000
  0.000000000000000E+000
  0.000000000000000E+000
  0.000000000000000E+000
  0.000000000000000E+000
  0.000000000000000E+000
  0.000000000000000E+000
  0.000000000000000E+000
  0.000000000000000E+000
  0.000000000000000E+000
  0.000000000000000E+000
  0.000000000000000E+000
  0.000000000000000E+000
  0.000000000000000E+000
  0.000000000000000E+000
  0.000000000000000E+000
  0.000000000000000E+000
  0.000000000000000E+000
  0.000000000000000E+000
  0.000000000000000E+000
  0.000000000000000E+000
  0.000000000000000E+000
  0.000000000000000E+000
  0.000000000000000E+000
  0.000000000000000E+000
  0.000000000000000E+000
  0.000000000000000E+000
  0.000000000000000E+000
  0.000000000000000E+000
  0.000000000000000E+000
  0.000000000000000E+000
  0.000000000000000E+000
  0.000000000000000E+000
  0.000000000000000E+000
  0.000000000000000E+000
  0.000000000000000E+000
  0.000000000000000E+000
  0.000000000000000E+000
  0.000000000000000E+000
  0.000000000000000E+000
  0.000000000000000E+000
  0.000000000000000E+000
  0.000000000000000E+000
  0.000000000000000E+000
  0.000000000000000E+000
  0.000000000000000E+000
  0.000000000000000E+000
  0.000000000000000E+000
  0.000000000000000E+000
  0.000000000000000E+000
  0.000000000000000E+000
  0.000000000000000E+000
  0.000000000000000E+000
  0.000000000000000E+000
  0.000000000000000E+000
  0.000000000000000E+000
  0.000000000000000E+000
  0.000000000000000E+000
  0.000000000000000E+000
  0.000000000000000E+000
  0.000000000000000E+000
  0.000000000000000E+000
  0.000000000000000E+000
  0.000000000000000E+000
  0.000000000000000E+000
  0.000000000000000E+000
  0.000000000000000E+000
  0.000000000000000E+000
  0.000000000000000E+000
  0.000000000000000E+000
  0.000000000000000E+000
  0.000000000000000E+000
  0.000000000000000E+000
  0.000000000000000E+000
  0.000000000000000E+000
  0.000000000000000E+000
  0.000000000000000E+000
  0.000000000000000E+000
  0.000000000000000E+000
  0.000000000000000E+000
  0.000000000000000E+000
  0.000000000000000E+000
  0.000000000000000E+000
  0.000000000000000E+000
  0.000000000000000E+000
  0.000000000000000E+000
  0.000000000000000E+000
  0.000000000000000E+000
  0.000000000000000E+000
  0.000000000000000E+000
  0.000000000000000E+000
  0.000000000000000E+000
  0.000000000000000E+000
  0.000000000000000E+000
  0.000000000000000E+000
  0.000000000000000E+000
  0.000000000000000E+000
  0.000000000000000E+000
  0.000000000000000E+000
  0.000000000000000E+000
  0.000000000000000E+000
  0.000000000000000E+000
  0.000000000000000E+000
  0.000000000000000E+000
  0.000000000000000E+000
  0.000000000000000E+000
  0.000000000000000E+000
  0.000000000000000E+000
  0.000000000000000E+000
  0.000000000000000E+000
  0.000000000000000E+000
  0.000000000000000E+000
  0.000000000000000E+000
  0.000000000000000E+000
  0.000000000000000E+000
  0.000000000000000E+000
  0.000000000000000E+000
  0.000000000000000E+000
  0.000000000000000E+000
  0.000000000000000E+000
  0.000000000000000E+000
  0.000000000000000E+000
  0.000000000000000E+000
  0.000000000000000E+000
  0.000000000000000E+000
  0.000000000000000E+000
  0.000000000000000E+000
  0.000000000000000E+000
  0.000000000000000E+000
  0.000000000000000E+000
  0.000000000000000E+000
  0.000000000000000E+000
  0.000000000000000E+000
  0.000000000000000E+000
  0.000000000000000E+000
  0.000000000000000E+000
  0.000000000000000E+000
  0.000000000000000E+000
  0.000000000000000E+000
  0.000000000000000E+000
  0.000000000000000E+000
  0.000000000000000E+000
  0.000000000000000E+000
  0.000000000000000E+000
  0.000000000000000E+000
  0.000000000000000E+000
  0.000000000000000E+000
  0.000000000000000E+000
  0.000000000000000E+000
  0.000000000000000E+000
  0.000000000000000E+000
  0.000000000000000E+000
  0.000000000000000E+000
  0.000000000000000E+000
  0.000000000000000E+000
  0.000000000000000E+000
  0.000000000000000E+000
  0.000000000000000E+000
  0.000000000000000E+000
  0.000000000000000E+000
  0.000000000000000E+000
  0.000000000000000E+000
  0.000000000000000E+000
  0.000000000000000E+000
  0.000000000000000E+000
  0.000000000000000E+000
  0.000000000000000E+000
  0.000000000000000E+000
  0.000000000000000E+000
  0.000000000000000E+000
  0.000000000000000E+000
  0.000000000000000E+000
  0.000000000000000E+000
  0.000000000000000E+000
  0.000000000000000E+000
  0.000000000000000E+000
  0.000000000000000E+000
  0.000000000000000E+000
  0.000000000000000E+000
  0.000000000000000E+000
  0.000000000000000E+000
  0.000000000000000E+000
  0.000000000000000E+000
  0.000000000000000E+000
  0.000000000000000E+000
  0.000000000000000E+000
  0.000000000000000E+000
  0.000000000000000E+000
  0.000000000000000E+000
  0.000000000000000E+000
  0.000000000000000E+000
  0.000000000000000E+000
  0.000000000000000E+000
  0.000000000000000E+000
  0.000000000000000E+000
  0.000000000000000E+000
  0.000000000000000E+000
  0.000000000000000E+000
  0.000000000000000E+000
  0.000000000000000E+000
  0.000000000000000E+000
  0.000000000000000E+000
  0.000000000000000E+000
  0.000000000000000E+000
  0.000000000000000E+000
  0.000000000000000E+000
  0.000000000000000E+000
  0.000000000000000E+000
  0.000000000000000E+000
  0.000000000000000E+000
  0.000000000000000E+000
  0.000000000000000E+000
  0.000000000000000E+000
  0.000000000000000E+000
  0.000000000000000E+000
  0.000000000000000E+000
  0.000000000000000E+000
  0.000000000000000E+000
  0.000000000000000E+000
  0.000000000000000E+000
  0.000000000000000E+000
  0.000000000000000E+000
  0.000000000000000E+000
  0.000000000000000E+000
  0.000000000000000E+000
  0.000000000000000E+000
  0.000000000000000E+000
  0.000000000000000E+000
  0.000000000000000E+000
  0.000000000000000E+000
  0.000000000000000E+000
  0.000000000000000E+000
  0.000000000000000E+000
  0.000000000000000E+000
  0.000000000000000E+000
  0.000000000000000E+000
  0.000000000000000E+000
  0.000000000000000E+000
  0.000000000000000E+000
  0.000000000000000E+000
  0.000000000000000E+000
  0.000000000000000E+000
  0.000000000000000E+000
  0.000000000000000E+000
  0.000000000000000E+000
  0.000000000000000E+000
  0.000000000000000E+000
  0.000000000000000E+000
  0.000000000000000E+000
  0.000000000000000E+000
  0.000000000000000E+000
  0.000000000000000E+000
  0.000000000000000E+000
  0.000000000000000E+000
  0.000000000000000E+000
  0.000000000000000E+000
  0.000000000000000E+000
  0.000000000000000E+000
  0.000000000000000E+000
  0.000000000000000E+000
  0.000000000000000E+000
  0.000000000000000E+000
  0.000000000000000E+000
  0.000000000000000E+000
  0.000000000000000E+000
  0.000000000000000E+000
  0.000000000000000E+000
  0.000000000000000E+000
  0.000000000000000E+000
  0.000000000000000E+000
  0.000000000000000E+000
  0.000000000000000E+000
  0.000000000000000E+000
  0.000000000000000E+000
  0.000000000000000E+000
  0.000000000000000E+000
  0.000000000000000E+000
  0.000000000000000E+000
  0.000000000000000E+000
  0.000000000000000E+000
  0.000000000000000E+000
  0.000000000000000E+000
  0.000000000000000E+000
  0.000000000000000E+000
  0.000000000000000E+000
  0.000000000000000E+000
  0.000000000000000E+000
  0.000000000000000E+000
  0.000000000000000E+000
  0.000000000000000E+000
  0.000000000000000E+000
  0.000000000000000E+000
  0.000000000000000E+000
  0.000000000000000E+000
  0.000000000000000E+000
  0.000000000000000E+000
  0.000000000000000E+000
  0.000000000000000E+000
  0.000000000000000E+000
  0.000000000000000E+000
  0.000000000000000E+000
  0.000000000000000E+000
  0.000000000000000E+000
  0.000000000000000E+000
  0.000000000000000E+000
  0.000000000000000E+000
  0.000000000000000E+000
  0.000000000000000E+000
  0.000000000000000E+000
  0.000000000000000E+000
  0.000000000000000E+000
  0.000000000000000E+000
  0.000000000000000E+000
  0.000000000000000E+000
  0.000000000000000E+000
  0.000000000000000E+000
  0.000000000000000E+000
  0.000000000000000E+000
  0.000000000000000E+000
  0.000000000000000E+000
  0.000000000000000E+000
  0.000000000000000E+000
  0.000000000000000E+000
  0.000000000000000E+000
  0.000000000000000E+000
  0.000000000000000E+000
  0.000000000000000E+000
  0.000000000000000E+000
  0.000000000000000E+000
  0.000000000000000E+000
  0.000000000000000E+000
  0.000000000000000E+000
  0.000000000000000E+000
  0.000000000000000E+000
  0.000000000000000E+000
  0.000000000000000E+000
  0.000000000000000E+000
  0.000000000000000E+000
  0.000000000000000E+000
  0.000000000000000E+000
  0.000000000000000E+000
  0.000000000000000E+000
  0.000000000000000E+000
  0.000000000000000E+000
  0.000000000000000E+000
  0.000000000000000E+000
  0.000000000000000E+000
  0.000000000000000E+000
  0.000000000000000E+000
  0.000000000000000E+000
  0.000000000000000E+000
  0.000000000000000E+000
  0.000000000000000E+000
  0.000000000000000E+000
  0.000000000000000E+000
  0.000000000000000E+000
  0.000000000000000E+000
  0.000000000000000E+000
  0.000000000000000E+000
  0.000000000000000E+000
  0.000000000000000E+000
  0.000000000000000E+000
  0.000000000000000E+000
  0.000000000000000E+000
  0.000000000000000E+000
  0.000000000000000E+000
  0.000000000000000E+000
  0.000000000000000E+000
  0.000000000000000E+000
  0.000000000000000E+000
  0.000000000000000E+000
  0.000000000000000E+000
  0.000000000000000E+000
  0.000000000000000E+000
  0.000000000000000E+000
  0.000000000000000E+000
  0.000000000000000E+000
  0.000000000000000E+000
  0.000000000000000E+000
  0.000000000000000E+000
  0.000000000000000E+000
  0.000000000000000E+000
  0.000000000000000E+000
  0.000000000000000E+000
  0.000000000000000E+000
  0.000000000000000E+000
  0.000000000000000E+000
  0.000000000000000E+000
  0.000000000000000E+000
  0.000000000000000E+000
  0.000000000000000E+000
  0.000000000000000E+000
  0.000000000000000E+000
  0.000000000000000E+000
  0.000000000000000E+000
  0.000000000000000E+000
  0.000000000000000E+000
  0.000000000000000E+000
  0.000000000000000E+000
  0.000000000000000E+000
  0.000000000000000E+000
  0.000000000000000E+000
  0.000000000000000E+000
  0.000000000000000E+000
  0.000000000000000E+000
  0.000000000000000E+000
  0.000000000000000E+000
  0.000000000000000E+000
  0.000000000000000E+000
  0.000000000000000E+000
  0.000000000000000E+000
  0.000000000000000E+000
  0.000000000000000E+000
  0.000000000000000E+000
  0.000000000000000E+000
  0.000000000000000E+000
  0.000000000000000E+000
  0.000000000000000E+000
  0.000000000000000E+000
  0.000000000000000E+000
  0.000000000000000E+000
  0.000000000000000E+000
  0.000000000000000E+000
  0.000000000000000E+000
  0.000000000000000E+000
  0.000000000000000E+000
  0.000000000000000E+000
  0.000000000000000E+000
  0.000000000000000E+000
  0.000000000000000E+000
  0.000000000000000E+000
  0.000000000000000E+000
  0.000000000000000E+000
  0.000000000000000E+000
  0.000000000000000E+000
  0.000000000000000E+000
  0.000000000000000E+000
  0.000000000000000E+000
  0.000000000000000E+000
  0.000000000000000E+000
  0.000000000000000E+000
  0.000000000000000E+000
  0.000000000000000E+000
  0.000000000000000E+000
  0.000000000000000E+000
  0.000000000000000E+000
  0.000000000000000E+000
  0.000000000000000E+000
  0.000000000000000E+000
  0.000000000000000E+000
  0.000000000000000E+000
  0.000000000000000E+000
  0.000000000000000E+000
  0.000000000000000E+000
  0.000000000000000E+000
  0.000000000000000E+000
  0.000000000000000E+000
  0.000000000000000E+000
  0.000000000000000E+000
  0.000000000000000E+000
  0.000000000000000E+000
  0.000000000000000E+000
  0.000000000000000E+000
  0.000000000000000E+000
  0.000000000000000E+000
  0.000000000000000E+000
  0.000000000000000E+000
  0.000000000000000E+000
  0.000000000000000E+000
  0.000000000000000E+000
  0.000000000000000E+000
  0.000000000000000E+000
  0.000000000000000E+000
  0.000000000000000E+000
  0.000000000000000E+000
  0.000000000000000E+000
  0.000000000000000E+000
  0.000000000000000E+000
  0.000000000000000E+000
  0.000000000000000E+000
  0.000000000000000E+000
  0.000000000000000E+000
  0.000000000000000E+000
  0.000000000000000E+000
  0.000000000000000E+000
  0.000000000000000E+000
  0.000000000000000E+000
  0.000000000000000E+000
  0.000000000000000E+000
  0.000000000000000E+000
  0.000000000000000E+000
  0.000000000000000E+000
  0.000000000000000E+000
  0.000000000000000E+000
  0.000000000000000E+000
  0.000000000000000E+000
  0.000000000000000E+000
  0.000000000000000E+000
  0.000000000000000E+000
  0.000000000000000E+000
  0.000000000000000E+000
  0.000000000000000E+000
  0.000000000000000E+000
  0.000000000000000E+000
  0.000000000000000E+000
  0.000000000000000E+000
  0.000000000000000E+000
  0.000000000000000E+000
  0.000000000000000E+000
  0.000000000000000E+000
  0.000000000000000E+000
  0.000000000000000E+000
  0.000000000000000E+000
  0.000000000000000E+000
  0.000000000000000E+000
  0.000000000000000E+000
  0.000000000000000E+000
  0.000000000000000E+000
  0.000000000000000E+000
  0.000000000000000E+000
  0.000000000000000E+000
  0.000000000000000E+000
  0.000000000000000E+000
  0.000000000000000E+000
  0.000000000000000E+000
  0.000000000000000E+000
  0.000000000000000E+000
  0.000000000000000E+000
  0.000000000000000E+000
  0.000000000000000E+000
  0.000000000000000E+000
  0.000000000000000E+000
  0.000000000000000E+000
  0.000000000000000E+000
  0.000000000000000E+000
  0.000000000000000E+000
  0.000000000000000E+000
  0.000000000000000E+000
  0.000000000000000E+000
  0.000000000000000E+000
  0.000000000000000E+000
  0.000000000000000E+000
  0.000000000000000E+000
  0.000000000000000E+000
  0.000000000000000E+000
  0.000000000000000E+000
  0.000000000000000E+000
  0.000000000000000E+000
  0.000000000000000E+000
  0.000000000000000E+000
  0.000000000000000E+000
  0.000000000000000E+000
  0.000000000000000E+000
  0.000000000000000E+000
  0.000000000000000E+000
  0.000000000000000E+000
  0.000000000000000E+000
  0.000000000000000E+000
  0.000000000000000E+000
  0.000000000000000E+000
  0.000000000000000E+000
  0.000000000000000E+000
  0.000000000000000E+000
  0.000000000000000E+000
  0.000000000000000E+000
  0.000000000000000E+000
  0.000000000000000E+000
  0.000000000000000E+000
  0.000000000000000E+000
  0.000000000000000E+000
  0.000000000000000E+000
  0.000000000000000E+000
  0.000000000000000E+000
  0.000000000000000E+000
  0.000000000000000E+000
  0.000000000000000E+000
  0.000000000000000E+000
  0.000000000000000E+000
  0.000000000000000E+000
  0.000000000000000E+000
  0.000000000000000E+000
  0.000000000000000E+000
  0.000000000000000E+000
  0.000000000000000E+000
  0.000000000000000E+000
  0.000000000000000E+000
  0.000000000000000E+000
  0.000000000000000E+000
  0.000000000000000E+000
  0.000000000000000E+000
  0.000000000000000E+000
  0.000000000000000E+000
  0.000000000000000E+000
  0.000000000000000E+000
  0.000000000000000E+000
  0.000000000000000E+000
  0.000000000000000E+000
  0.000000000000000E+000
  0.000000000000000E+000
  0.000000000000000E+000
  0.000000000000000E+000
  0.000000000000000E+000
  0.000000000000000E+000
  0.000000000000000E+000
  0.000000000000000E+000
  0.000000000000000E+000
  0.000000000000000E+000
  0.000000000000000E+000
  0.000000000000000E+000
  0.000000000000000E+000
  0.000000000000000E+000
  0.000000000000000E+000
  0.000000000000000E+000
  0.000000000000000E+000
  0.000000000000000E+000
  0.000000000000000E+000
  0.000000000000000E+000
  0.000000000000000E+000
  0.000000000000000E+000
  0.000000000000000E+000
  0.000000000000000E+000
  0.000000000000000E+000
  0.000000000000000E+000
  0.000000000000000E+000
  0.000000000000000E+000
  0.000000000000000E+000
  0.000000000000000E+000
  0.000000000000000E+000
  0.000000000000000E+000
  0.000000000000000E+000
  0.000000000000000E+000
  0.000000000000000E+000
  0.000000000000000E+000
  0.000000000000000E+000
  0.000000000000000E+000
  0.000000000000000E+000
  0.000000000000000E+000
  0.000000000000000E+000
  0.000000000000000E+000
  0.000000000000000E+000
  0.000000000000000E+000
  0.000000000000000E+000
  0.000000000000000E+000
  0.000000000000000E+000
  0.000000000000000E+000
  0.000000000000000E+000
  0.000000000000000E+000
  0.000000000000000E+000
  0.000000000000000E+000
  0.000000000000000E+000
  0.000000000000000E+000
  0.000000000000000E+000
  0.000000000000000E+000
  0.000000000000000E+000
  0.000000000000000E+000
  0.000000000000000E+000
  0.000000000000000E+000
  0.000000000000000E+000
  0.000000000000000E+000
  0.000000000000000E+000
  0.000000000000000E+000
  0.000000000000000E+000
  0.000000000000000E+000
  0.000000000000000E+000
  0.000000000000000E+000
  0.000000000000000E+000
  0.000000000000000E+000
  0.000000000000000E+000
  0.000000000000000E+000
  0.000000000000000E+000
  0.000000000000000E+000
  0.000000000000000E+000
  0.000000000000000E+000
  0.000000000000000E+000
  0.000000000000000E+000
  0.000000000000000E+000
  0.000000000000000E+000
  0.000000000000000E+000
  0.000000000000000E+000
  0.000000000000000E+000
  0.000000000000000E+000
  0.000000000000000E+000
  0.000000000000000E+000
  0.000000000000000E+000
  0.000000000000000E+000
  0.000000000000000E+000
  0.000000000000000E+000
  0.000000000000000E+000
  0.000000000000000E+000
  0.000000000000000E+000
  0.000000000000000E+000
  0.000000000000000E+000
  0.000000000000000E+000
  0.000000000000000E+000
  0.000000000000000E+000
  0.000000000000000E+000
  0.000000000000000E+000
  0.000000000000000E+000
  0.000000000000000E+000
  0.000000000000000E+000
  0.000000000000000E+000
  0.000000000000000E+000
  0.000000000000000E+000
  0.000000000000000E+000
  0.000000000000000E+000
  0.000000000000000E+000
  0.000000000000000E+000
  0.000000000000000E+000
  0.000000000000000E+000
  0.000000000000000E+000
  0.000000000000000E+000
  0.000000000000000E+000
  0.000000000000000E+000
  0.000000000000000E+000
  0.000000000000000E+000
  0.000000000000000E+000
  0.000000000000000E+000
  0.000000000000000E+000
  0.000000000000000E+000
  0.000000000000000E+000
  0.000000000000000E+000
  0.000000000000000E+000
  0.000000000000000E+000
  0.000000000000000E+000
  0.000000000000000E+000
  0.000000000000000E+000
  0.000000000000000E+000
  0.000000000000000E+000
  0.000000000000000E+000
  0.000000000000000E+000
  0.000000000000000E+000
  0.000000000000000E+000
  0.000000000000000E+000
  0.000000000000000E+000
  0.000000000000000E+000
  0.000000000000000E+000
  0.000000000000000E+000
  0.000000000000000E+000
  0.000000000000000E+000
  0.000000000000000E+000
  0.000000000000000E+000
  0.000000000000000E+000
  0.000000000000000E+000
  0.000000000000000E+000
  0.000000000000000E+000
  0.000000000000000E+000
  0.000000000000000E+000
  0.000000000000000E+000
  0.000000000000000E+000
  0.000000000000000E+000
  0.000000000000000E+000
  0.000000000000000E+000
  0.000000000000000E+000
  0.000000000000000E+000
  0.000000000000000E+000
  0.000000000000000E+000
  0.000000000000000E+000
  0.000000000000000E+000
  0.000000000000000E+000
  0.000000000000000E+000
  0.000000000000000E+000
  0.000000000000000E+000
  0.000000000000000E+000
  0.000000000000000E+000
  0.000000000000000E+000
  0.000000000000000E+000
  0.000000000000000E+000
  0.000000000000000E+000
  0.000000000000000E+000
  0.000000000000000E+000
  0.000000000000000E+000
  0.000000000000000E+000
  0.000000000000000E+000
  0.000000000000000E+000
  0.000000000000000E+000
  0.000000000000000E+000
  0.000000000000000E+000
  0.000000000000000E+000
  0.000000000000000E+000
  0.000000000000000E+000
  0.000000000000000E+000
  0.000000000000000E+000
  0.000000000000000E+000
  0.000000000000000E+000
  0.000000000000000E+000
  0.000000000000000E+000
  0.000000000000000E+000
  0.000000000000000E+000
  0.000000000000000E+000
  0.000000000000000E+000
  0.000000000000000E+000
  0.000000000000000E+000
  0.000000000000000E+000
  0.000000000000000E+000
  0.000000000000000E+000
  0.000000000000000E+000
  0.000000000000000E+000
  0.000000000000000E+000
  0.000000000000000E+000
  0.000000000000000E+000
  0.000000000000000E+000
  0.000000000000000E+000
  0.000000000000000E+000
  0.000000000000000E+000
  0.000000000000000E+000
  0.000000000000000E+000
  0.000000000000000E+000
  0.000000000000000E+000
  0.000000000000000E+000
  0.000000000000000E+000
  0.000000000000000E+000
  0.000000000000000E+000
  0.000000000000000E+000
  0.000000000000000E+000
  0.000000000000000E+000
  0.000000000000000E+000
  0.000000000000000E+000
  0.000000000000000E+000
  0.000000000000000E+000
  0.000000000000000E+000
  0.000000000000000E+000
  0.000000000000000E+000
  0.000000000000000E+000
  0.000000000000000E+000
  0.000000000000000E+000
  0.000000000000000E+000
  0.000000000000000E+000
  0.000000000000000E+000
  0.000000000000000E+000
  0.000000000000000E+000
  0.000000000000000E+000
  0.000000000000000E+000
  0.000000000000000E+000
  0.000000000000000E+000
  0.000000000000000E+000
  0.000000000000000E+000
  0.000000000000000E+000
  0.000000000000000E+000
  0.000000000000000E+000
  0.000000000000000E+000
  0.000000000000000E+000
  0.000000000000000E+000
  0.000000000000000E+000
  0.000000000000000E+000
  0.000000000000000E+000
  0.000000000000000E+000
  0.000000000000000E+000
  0.000000000000000E+000
  0.000000000000000E+000
  0.000000000000000E+000
  0.000000000000000E+000
  0.000000000000000E+000
  0.000000000000000E+000
  0.000000000000000E+000
  0.000000000000000E+000
  0.000000000000000E+000
  0.000000000000000E+000
  0.000000000000000E+000
  0.000000000000000E+000
  0.000000000000000E+000
  0.000000000000000E+000
  0.000000000000000E+000
  0.000000000000000E+000
  0.000000000000000E+000
  0.000000000000000E+000
  0.000000000000000E+000
  0.000000000000000E+000
  0.000000000000000E+000
  0.000000000000000E+000
  0.000000000000000E+000
  0.000000000000000E+000
  0.000000000000000E+000
  0.000000000000000E+000
  0.000000000000000E+000
  0.000000000000000E+000
  0.000000000000000E+000
  0.000000000000000E+000
  0.000000000000000E+000
  0.000000000000000E+000
  0.000000000000000E+000
  0.000000000000000E+000
  0.000000000000000E+000
  0.000000000000000E+000
  0.000000000000000E+000
  0.000000000000000E+000
  0.000000000000000E+000
  0.000000000000000E+000
  0.000000000000000E+000
  0.000000000000000E+000
  0.000000000000000E+000
  0.000000000000000E+000
  0.000000000000000E+000
  0.000000000000000E+000
  0.000000000000000E+000
  0.000000000000000E+000
  0.000000000000000E+000
  0.000000000000000E+000
  0.000000000000000E+000
  0.000000000000000E+000
  0.000000000000000E+000
  0.000000000000000E+000
  0.000000000000000E+000
  0.000000000000000E+000
  0.000000000000000E+000
  0.000000000000000E+000
  0.000000000000000E+000
  0.000000000000000E+000
  0.000000000000000E+000
  0.000000000000000E+000
  0.000000000000000E+000
  0.000000000000000E+000
  0.000000000000000E+000
  0.000000000000000E+000
  0.000000000000000E+000
  0.000000000000000E+000
  0.000000000000000E+000
  0.000000000000000E+000
  0.000000000000000E+000
  0.000000000000000E+000
  0.000000000000000E+000
  0.000000000000000E+000
  0.000000000000000E+000
  0.000000000000000E+000
  0.000000000000000E+000
  0.000000000000000E+000
  0.000000000000000E+000
  0.000000000000000E+000
  0.000000000000000E+000
  0.000000000000000E+000
  0.000000000000000E+000
  0.000000000000000E+000
  0.000000000000000E+000
  0.000000000000000E+000
  0.000000000000000E+000
  0.000000000000000E+000
  0.000000000000000E+000
  0.000000000000000E+000
  0.000000000000000E+000
  0.000000000000000E+000
  0.000000000000000E+000
  0.000000000000000E+000
  0.000000000000000E+000
  0.000000000000000E+000
  0.000000000000000E+000
  0.000000000000000E+000
  0.000000000000000E+000
  0.000000000000000E+000
  0.000000000000000E+000
  0.000000000000000E+000
  0.000000000000000E+000
  0.000000000000000E+000
  0.000000000000000E+000
  0.000000000000000E+000
  0.000000000000000E+000
  0.000000000000000E+000
  0.000000000000000E+000
  0.000000000000000E+000
  0.000000000000000E+000
  0.000000000000000E+000
  0.000000000000000E+000
  0.000000000000000E+000
  0.000000000000000E+000
  0.000000000000000E+000
  0.000000000000000E+000
  0.000000000000000E+000
  0.000000000000000E+000
  0.000000000000000E+000
  0.000000000000000E+000
  0.000000000000000E+000
  0.000000000000000E+000
  0.000000000000000E+000
  0.000000000000000E+000
  0.000000000000000E+000
  0.000000000000000E+000
  0.000000000000000E+000
  0.000000000000000E+000
  0.000000000000000E+000
  0.000000000000000E+000
  0.000000000000000E+000
  0.000000000000000E+000
  0.000000000000000E+000
  0.000000000000000E+000
  0.000000000000000E+000
  0.000000000000000E+000
  0.000000000000000E+000
  0.000000000000000E+000
  0.000000000000000E+000
  0.000000000000000E+000
  0.000000000000000E+000
  0.000000000000000E+000
  0.000000000000000E+000
  0.000000000000000E+000
  0.000000000000000E+000
  0.000000000000000E+000
  0.000000000000000E+000
  0.000000000000000E+000
  0.000000000000000E+000
  0.000000000000000E+000
  0.000000000000000E+000
  0.000000000000000E+000
  0.000000000000000E+000
  0.000000000000000E+000
  0.000000000000000E+000
  0.000000000000000E+000
  0.000000000000000E+000
  0.000000000000000E+000
  0.000000000000000E+000
  0.000000000000000E+000
  0.000000000000000E+000
  0.000000000000000E+000
  0.000000000000000E+000
  0.000000000000000E+000
  0.000000000000000E+000
  0.000000000000000E+000
  0.000000000000000E+000
  0.000000000000000E+000
  0.000000000000000E+000
  0.000000000000000E+000
  0.000000000000000E+000
  0.000000000000000E+000
  0.000000000000000E+000
  0.000000000000000E+000
  0.000000000000000E+000
  0.000000000000000E+000
  0.000000000000000E+000
  0.000000000000000E+000
  0.000000000000000E+000
  0.000000000000000E+000
  0.000000000000000E+000
  0.000000000000000E+000
  0.000000000000000E+000
  0.000000000000000E+000
  0.000000000000000E+000
  0.000000000000000E+000
  0.000000000000000E+000
  0.000000000000000E+000
  0.000000000000000E+000
  0.000000000000000E+000
  0.000000000000000E+000
  0.000000000000000E+000
  0.000000000000000E+000
  0.000000000000000E+000
  0.000000000000000E+000
  0.000000000000000E+000
  0.000000000000000E+000
  0.000000000000000E+000
  0.000000000000000E+000
  0.000000000000000E+000
  0.000000000000000E+000
  0.000000000000000E+000
  0.000000000000000E+000
  0.000000000000000E+000
  0.000000000000000E+000
  0.000000000000000E+000
  0.000000000000000E+000
  0.000000000000000E+000
  0.000000000000000E+000
  0.000000000000000E+000
  0.000000000000000E+000
  0.000000000000000E+000
  0.000000000000000E+000
  0.000000000000000E+000
  0.000000000000000E+000
  0.000000000000000E+000
  0.000000000000000E+000
  0.000000000000000E+000
  0.000000000000000E+000
  0.000000000000000E+000
  0.000000000000000E+000
  0.000000000000000E+000
  0.000000000000000E+000
  0.000000000000000E+000
  0.000000000000000E+000
  0.000000000000000E+000
  0.000000000000000E+000
  0.000000000000000E+000
  0.000000000000000E+000
  0.000000000000000E+000
  0.000000000000000E+000
  0.000000000000000E+000
  0.000000000000000E+000
  0.000000000000000E+000
  0.000000000000000E+000
  0.000000000000000E+000
  0.000000000000000E+000
  0.000000000000000E+000
  0.000000000000000E+000
  0.000000000000000E+000
  0.000000000000000E+000
  0.000000000000000E+000
  0.000000000000000E+000
  0.000000000000000E+000
  0.000000000000000E+000
  0.000000000000000E+000
  0.000000000000000E+000
  0.000000000000000E+000
  0.000000000000000E+000
  0.000000000000000E+000
  0.000000000000000E+000
  0.000000000000000E+000
  0.000000000000000E+000
  0.000000000000000E+000
  0.000000000000000E+000
  0.000000000000000E+000
  0.000000000000000E+000
  0.000000000000000E+000
  0.000000000000000E+000
  0.000000000000000E+000
  0.000000000000000E+000
  0.000000000000000E+000
  0.000000000000000E+000
  0.000000000000000E+000
  0.000000000000000E+000
  0.000000000000000E+000
  0.000000000000000E+000
  0.000000000000000E+000
  0.000000000000000E+000
  0.000000000000000E+000
  0.000000000000000E+000
  0.000000000000000E+000
  0.000000000000000E+000
  0.000000000000000E+000
  0.000000000000000E+000
  0.000000000000000E+000
  0.000000000000000E+000
  0.000000000000000E+000
  0.000000000000000E+000
  0.000000000000000E+000
  0.000000000000000E+000
  0.000000000000000E+000
  0.000000000000000E+000
  0.000000000000000E+000
  0.000000000000000E+000
  0.000000000000000E+000
  0.000000000000000E+000
  0.000000000000000E+000
  0.000000000000000E+000
  0.000000000000000E+000
  0.000000000000000E+000
  0.000000000000000E+000
  0.000000000000000E+000
  0.000000000000000E+000
  0.000000000000000E+000
  0.000000000000000E+000
  0.000000000000000E+000
  0.000000000000000E+000
  0.000000000000000E+000
  0.000000000000000E+000
  0.000000000000000E+000
  0.000000000000000E+000
  0.000000000000000E+000
  0.000000000000000E+000
  0.000000000000000E+000
  0.000000000000000E+000
  0.000000000000000E+000
  0.000000000000000E+000
  0.000000000000000E+000
  0.000000000000000E+000
  0.000000000000000E+000
  0.000000000000000E+000
  0.000000000000000E+000
  0.000000000000000E+000
  0.000000000000000E+000
  0.000000000000000E+000
  0.000000000000000E+000
  0.000000000000000E+000
  0.000000000000000E+000
  0.000000000000000E+000
  0.000000000000000E+000
  0.000000000000000E+000
  0.000000000000000E+000
  0.000000000000000E+000
  0.000000000000000E+000
  0.000000000000000E+000
  0.000000000000000E+000
  0.000000000000000E+000
  0.000000000000000E+000
  0.000000000000000E+000
  0.000000000000000E+000
  0.000000000000000E+000
  0.000000000000000E+000
  0.000000000000000E+000
  0.000000000000000E+000
  0.000000000000000E+000
  0.000000000000000E+000
  0.000000000000000E+000
  0.000000000000000E+000
  0.000000000000000E+000
  0.000000000000000E+000
  0.000000000000000E+000
  0.000000000000000E+000
  0.000000000000000E+000
  0.000000000000000E+000
  0.000000000000000E+000
  0.000000000000000E+000
  0.000000000000000E+000
  0.000000000000000E+000
  0.000000000000000E+000
  0.000000000000000E+000
  0.000000000000000E+000
  0.000000000000000E+000
  0.000000000000000E+000
  0.000000000000000E+000
  0.000000000000000E+000
  0.000000000000000E+000
  0.000000000000000E+000
  0.000000000000000E+000
  0.000000000000000E+000
  0.000000000000000E+000
  0.000000000000000E+000
  0.000000000000000E+000
  0.000000000000000E+000
  0.000000000000000E+000
  0.000000000000000E+000
  0.000000000000000E+000
  0.000000000000000E+000
  0.000000000000000E+000
  0.000000000000000E+000
  0.000000000000000E+000
  0.000000000000000E+000
  0.000000000000000E+000
  0.000000000000000E+000
  0.000000000000000E+000
  0.000000000000000E+000
  0.000000000000000E+000
  0.000000000000000E+000
  0.000000000000000E+000
  0.000000000000000E+000
  0.000000000000000E+000
  0.000000000000000E+000
  0.000000000000000E+000
  0.000000000000000E+000
  0.000000000000000E+000
  0.000000000000000E+000
  0.000000000000000E+000
  0.000000000000000E+000
  0.000000000000000E+000
  0.000000000000000E+000
  0.000000000000000E+000
  0.000000000000000E+000
  0.000000000000000E+000
  0.000000000000000E+000
  0.000000000000000E+000
  0.000000000000000E+000
  0.000000000000000E+000
  0.000000000000000E+000
  0.000000000000000E+000
  0.000000000000000E+000
  0.000000000000000E+000
  0.000000000000000E+000
  0.000000000000000E+000
  0.000000000000000E+000
  0.000000000000000E+000
  0.000000000000000E+000
  0.000000000000000E+000
  0.000000000000000E+000
  0.000000000000000E+000
  0.000000000000000E+000
  0.000000000000000E+000
  0.000000000000000E+000
  0.000000000000000E+000
  0.000000000000000E+000
  0.000000000000000E+000
  0.000000000000000E+000
  0.000000000000000E+000
  0.000000000000000E+000
  0.000000000000000E+000
  0.000000000000000E+000
  0.000000000000000E+000
  0.000000000000000E+000
  0.000000000000000E+000
  0.000000000000000E+000
  0.000000000000000E+000
  0.000000000000000E+000
  0.000000000000000E+000
  0.000000000000000E+000
  0.000000000000000E+000
  0.000000000000000E+000
  0.000000000000000E+000
  0.000000000000000E+000
  0.000000000000000E+000
  0.000000000000000E+000
  0.000000000000000E+000
  0.000000000000000E+000
  0.000000000000000E+000
  0.000000000000000E+000
  0.000000000000000E+000
  0.000000000000000E+000
  0.000000000000000E+000
  0.000000000000000E+000
  0.000000000000000E+000
  0.000000000000000E+000
  0.000000000000000E+000
  0.000000000000000E+000
  0.000000000000000E+000
  0.000000000000000E+000
  0.000000000000000E+000
  0.000000000000000E+000
  0.000000000000000E+000
  0.000000000000000E+000
  0.000000000000000E+000
  0.000000000000000E+000
  0.000000000000000E+000
  0.000000000000000E+000
  0.000000000000000E+000
  0.000000000000000E+000
  0.000000000000000E+000
  0.000000000000000E+000
  0.000000000000000E+000
  0.000000000000000E+000
  0.000000000000000E+000
  0.000000000000000E+000
  0.000000000000000E+000
  0.000000000000000E+000
  0.000000000000000E+000
  0.000000000000000E+000
  0.000000000000000E+000
  0.000000000000000E+000
  0.000000000000000E+000
  0.000000000000000E+000
  0.000000000000000E+000
  0.000000000000000E+000
  0.000000000000000E+000
  0.000000000000000E+000
  0.000000000000000E+000
  0.000000000000000E+000
  0.000000000000000E+000
  0.000000000000000E+000
  0.000000000000000E+000
  0.000000000000000E+000
  0.000000000000000E+000
  0.000000000000000E+000
  0.000000000000000E+000
  0.000000000000000E+000
  0.000000000000000E+000
  0.000000000000000E+000
  0.000000000000000E+000
  0.000000000000000E+000
  0.000000000000000E+000
  0.000000000000000E+000
  0.000000000000000E+000
  0.000000000000000E+000
  0.000000000000000E+000
  0.000000000000000E+000
  0.000000000000000E+000
  0.000000000000000E+000
  0.000000000000000E+000
  0.000000000000000E+000
  0.000000000000000E+000
  0.000000000000000E+000
  0.000000000000000E+000
  0.000000000000000E+000
  0.000000000000000E+000
  0.000000000000000E+000
  0.000000000000000E+000
  0.000000000000000E+000
  0.000000000000000E+000
  0.000000000000000E+000
  0.000000000000000E+000
  0.000000000000000E+000
  0.000000000000000E+000
  0.000000000000000E+000
  0.000000000000000E+000
  0.000000000000000E+000
  0.000000000000000E+000
  0.000000000000000E+000
  0.000000000000000E+000
  0.000000000000000E+000
  0.000000000000000E+000
  0.000000000000000E+000
  0.000000000000000E+000
  0.000000000000000E+000
  0.000000000000000E+000
  0.000000000000000E+000
  0.000000000000000E+000
  0.000000000000000E+000
  0.000000000000000E+000
  0.000000000000000E+000
  0.000000000000000E+000
  0.000000000000000E+000
  0.000000000000000E+000
  0.000000000000000E+000
  0.000000000000000E+000
  0.000000000000000E+000
  0.000000000000000E+000
  0.000000000000000E+000
  0.000000000000000E+000
  0.000000000000000E+000
  0.000000000000000E+000
  0.000000000000000E+000
  0.000000000000000E+000
  0.000000000000000E+000
  0.000000000000000E+000
  0.000000000000000E+000
  0.000000000000000E+000
  0.000000000000000E+000
  0.000000000000000E+000
  0.000000000000000E+000
  0.000000000000000E+000
  0.000000000000000E+000
  0.000000000000000E+000
  0.000000000000000E+000
  0.000000000000000E+000
  0.000000000000000E+000
  0.000000000000000E+000
  0.000000000000000E+000
  0.000000000000000E+000
  0.000000000000000E+000
  0.000000000000000E+000
  0.000000000000000E+000
  0.000000000000000E+000
  0.000000000000000E+000
  0.000000000000000E+000
  0.000000000000000E+000
  0.000000000000000E+000
  0.000000000000000E+000
  0.000000000000000E+000
  0.000000000000000E+000
  0.000000000000000E+000
  0.000000000000000E+000
  0.000000000000000E+000
  0.000000000000000E+000
  0.000000000000000E+000
  0.000000000000000E+000
  0.000000000000000E+000
  0.000000000000000E+000
  0.000000000000000E+000
  0.000000000000000E+000
  0.000000000000000E+000
  0.000000000000000E+000
  0.000000000000000E+000
  0.000000000000000E+000
  0.000000000000000E+000
  0.000000000000000E+000
  0.000000000000000E+000
  0.000000000000000E+000
  0.000000000000000E+000
  0.000000000000000E+000
  0.000000000000000E+000
  0.000000000000000E+000
  0.000000000000000E+000
  0.000000000000000E+000
  0.000000000000000E+000
  0.000000000000000E+000
  0.000000000000000E+000
  0.000000000000000E+000
  0.000000000000000E+000
  0.000000000000000E+000
  0.000000000000000E+000
  0.000000000000000E+000
  0.000000000000000E+000
  0.000000000000000E+000
  0.000000000000000E+000
  0.000000000000000E+000
  0.000000000000000E+000
  0.000000000000000E+000
  0.000000000000000E+000
  0.000000000000000E+000
  0.000000000000000E+000
  0.000000000000000E+000
  0.000000000000000E+000
  0.000000000000000E+000
  0.000000000000000E+000
  0.000000000000000E+000
  0.000000000000000E+000
  0.000000000000000E+000
  0.000000000000000E+000
  0.000000000000000E+000
  0.000000000000000E+000
  0.000000000000000E+000
  0.000000000000000E+000
  0.000000000000000E+000
  0.000000000000000E+000
  0.000000000000000E+000
  0.000000000000000E+000
  0.000000000000000E+000
  0.000000000000000E+000
  0.000000000000000E+000
  0.000000000000000E+000
  0.000000000000000E+000
  0.000000000000000E+000
  0.000000000000000E+000
  0.000000000000000E+000
  0.000000000000000E+000
  0.000000000000000E+000
  0.000000000000000E+000
  0.000000000000000E+000
  0.000000000000000E+000
  0.000000000000000E+000
  0.000000000000000E+000
  0.000000000000000E+000
  0.000000000000000E+000
  0.000000000000000E+000
  0.000000000000000E+000
  0.000000000000000E+000
  0.000000000000000E+000
  0.000000000000000E+000
  0.000000000000000E+000
  0.000000000000000E+000
  0.000000000000000E+000
  0.000000000000000E+000
  0.000000000000000E+000
  0.000000000000000E+000
  0.000000000000000E+000
  0.000000000000000E+000
  0.000000000000000E+000
  0.000000000000000E+000
  0.000000000000000E+000
  0.000000000000000E+000
  0.000000000000000E+000
  0.000000000000000E+000
  0.000000000000000E+000
  0.000000000000000E+000
  0.000000000000000E+000
  0.000000000000000E+000
  0.000000000000000E+000
  0.000000000000000E+000
  0.000000000000000E+000
  0.000000000000000E+000
  0.000000000000000E+000
  0.000000000000000E+000
  0.000000000000000E+000
  0.000000000000000E+000
  0.000000000000000E+000
  0.000000000000000E+000
  0.000000000000000E+000
  0.000000000000000E+000
  0.000000000000000E+000
  0.000000000000000E+000
  0.000000000000000E+000
  0.000000000000000E+000
  0.000000000000000E+000
  0.000000000000000E+000
  0.000000000000000E+000
  0.000000000000000E+000
  0.000000000000000E+000
  0.000000000000000E+000
  0.000000000000000E+000
  0.000000000000000E+000
  0.000000000000000E+000
  0.000000000000000E+000
  0.000000000000000E+000
  0.000000000000000E+000
  0.000000000000000E+000
  0.000000000000000E+000
  0.000000000000000E+000
  0.000000000000000E+000
  0.000000000000000E+000
  0.000000000000000E+000
  0.000000000000000E+000
  0.000000000000000E+000
  0.000000000000000E+000
  0.000000000000000E+000
  0.000000000000000E+000
  0.000000000000000E+000
  0.000000000000000E+000
  0.000000000000000E+000
  0.000000000000000E+000
  0.000000000000000E+000
  0.000000000000000E+000
  0.000000000000000E+000
  0.000000000000000E+000
  0.000000000000000E+000
  0.000000000000000E+000
  0.000000000000000E+000
  0.000000000000000E+000
  0.000000000000000E+000
  0.000000000000000E+000
  0.000000000000000E+000
  0.000000000000000E+000
  0.000000000000000E+000
  0.000000000000000E+000
  0.000000000000000E+000
  0.000000000000000E+000
  0.000000000000000E+000
  0.000000000000000E+000
  0.000000000000000E+000
  0.000000000000000E+000
  0.000000000000000E+000
  0.000000000000000E+000
  0.000000000000000E+000
  0.000000000000000E+000
  0.000000000000000E+000
  0.000000000000000E+000
  0.000000000000000E+000
  0.000000000000000E+000
  0.000000000000000E+000
  0.000000000000000E+000
  0.000000000000000E+000
  0.000000000000000E+000
  0.000000000000000E+000
  0.000000000000000E+000
  0.000000000000000E+000
  0.000000000000000E+000
  0.000000000000000E+000
  0.000000000000000E+000
  0.000000000000000E+000
  0.000000000000000E+000
  0.000000000000000E+000
  0.000000000000000E+000
  0.000000000000000E+000
  0.000000000000000E+000
  0.000000000000000E+000
  0.000000000000000E+000
  0.000000000000000E+000
  0.000000000000000E+000
  0.000000000000000E+000
  0.000000000000000E+000
  0.000000000000000E+000
  0.000000000000000E+000
  0.000000000000000E+000
  0.000000000000000E+000
  0.000000000000000E+000
  0.000000000000000E+000
  0.000000000000000E+000
  0.000000000000000E+000
  0.000000000000000E+000
  0.000000000000000E+000
  0.000000000000000E+000
  0.000000000000000E+000
  0.000000000000000E+000
  0.000000000000000E+000
  0.000000000000000E+000
  0.000000000000000E+000
  0.000000000000000E+000
  0.000000000000000E+000
  0.000000000000000E+000
  0.000000000000000E+000
  0.000000000000000E+000
  0.000000000000000E+000
  0.000000000000000E+000
  0.000000000000000E+000
  0.000000000000000E+000
  0.000000000000000E+000
  0.000000000000000E+000
  0.000000000000000E+000
  0.000000000000000E+000
  0.000000000000000E+000
  0.000000000000000E+000
  0.000000000000000E+000
  0.000000000000000E+000
  0.000000000000000E+000
  0.000000000000000E+000
  0.000000000000000E+000
  0.000000000000000E+000
  0.000000000000000E+000
  0.000000000000000E+000
  0.000000000000000E+000
  0.000000000000000E+000
  0.000000000000000E+000
  0.000000000000000E+000
  0.000000000000000E+000
  0.000000000000000E+000
  0.000000000000000E+000
  0.000000000000000E+000
  0.000000000000000E+000
  0.000000000000000E+000
  0.000000000000000E+000
  0.000000000000000E+000
  0.000000000000000E+000
  0.000000000000000E+000
  0.000000000000000E+000
  0.000000000000000E+000
  0.000000000000000E+000
  0.000000000000000E+000
  0.000000000000000E+000
  0.000000000000000E+000
  0.000000000000000E+000
  0.000000000000000E+000
  0.000000000000000E+000
  0.000000000000000E+000
  0.000000000000000E+000
  0.000000000000000E+000
  0.000000000000000E+000
  0.000000000000000E+000
  0.000000000000000E+000
  0.000000000000000E+000
  0.000000000000000E+000
  0.000000000000000E+000
  0.000000000000000E+000
  0.000000000000000E+000
  0.000000000000000E+000
  0.000000000000000E+000
  0.000000000000000E+000
  0.000000000000000E+000
  0.000000000000000E+000
  0.000000000000000E+000
  0.000000000000000E+000
  0.000000000000000E+000
  0.000000000000000E+000
  0.000000000000000E+000
  0.000000000000000E+000
  0.000000000000000E+000
  0.000000000000000E+000
  0.000000000000000E+000
  0.000000000000000E+000
  0.000000000000000E+000
  0.000000000000000E+000
  0.000000000000000E+000
  0.000000000000000E+000
  0.000000000000000E+000
  0.000000000000000E+000
  0.000000000000000E+000
  0.000000000000000E+000
  0.000000000000000E+000
  0.000000000000000E+000
  0.000000000000000E+000
  0.000000000000000E+000
  0.000000000000000E+000
  0.000000000000000E+000
  0.000000000000000E+000
  0.000000000000000E+000
  0.000000000000000E+000
  0.000000000000000E+000
  0.000000000000000E+000
  0.000000000000000E+000
  0.000000000000000E+000
  0.000000000000000E+000
  0.000000000000000E+000
  0.000000000000000E+000
  0.000000000000000E+000
  0.000000000000000E+000
  0.000000000000000E+000
  0.000000000000000E+000
  0.000000000000000E+000
  0.000000000000000E+000
  0.000000000000000E+000
  0.000000000000000E+000
  0.000000000000000E+000
  0.000000000000000E+000
  0.000000000000000E+000
  0.000000000000000E+000
  0.000000000000000E+000
  0.000000000000000E+000
  0.000000000000000E+000
  0.000000000000000E+000
  0.000000000000000E+000
  0.000000000000000E+000
  0.000000000000000E+000
  0.000000000000000E+000
  0.000000000000000E+000
  0.000000000000000E+000
  0.000000000000000E+000
  0.000000000000000E+000
  0.000000000000000E+000
  0.000000000000000E+000
  0.000000000000000E+000
  0.000000000000000E+000
  0.000000000000000E+000
  0.000000000000000E+000
  0.000000000000000E+000
  0.000000000000000E+000
  0.000000000000000E+000
  0.000000000000000E+000
  0.000000000000000E+000
  0.000000000000000E+000
  0.000000000000000E+000
  0.000000000000000E+000
  0.000000000000000E+000
  0.000000000000000E+000
  0.000000000000000E+000
  0.000000000000000E+000
  0.000000000000000E+000
  0.000000000000000E+000
  0.000000000000000E+000
  0.000000000000000E+000
  0.000000000000000E+000
  0.000000000000000E+000
  0.000000000000000E+000
  0.000000000000000E+000
  0.000000000000000E+000
  0.000000000000000E+000
  0.000000000000000E+000
  0.000000000000000E+000
  0.000000000000000E+000
  0.000000000000000E+000
  0.000000000000000E+000
  0.000000000000000E+000
  0.000000000000000E+000
  0.000000000000000E+000
  0.000000000000000E+000
  0.000000000000000E+000
  0.000000000000000E+000
  0.000000000000000E+000
  0.000000000000000E+000
  0.000000000000000E+000
  0.000000000000000E+000
  0.000000000000000E+000
  0.000000000000000E+000
  0.000000000000000E+000
  0.000000000000000E+000
  0.000000000000000E+000
  0.000000000000000E+000
  0.000000000000000E+000
  0.000000000000000E+000
  0.000000000000000E+000
  0.000000000000000E+000
  0.000000000000000E+000
  0.000000000000000E+000
  0.000000000000000E+000
  0.000000000000000E+000
  0.000000000000000E+000
  0.000000000000000E+000
  0.000000000000000E+000
  0.000000000000000E+000
  0.000000000000000E+000
  0.000000000000000E+000
  0.000000000000000E+000
  0.000000000000000E+000
  0.000000000000000E+000
  0.000000000000000E+000
  0.000000000000000E+000
  0.000000000000000E+000
  0.000000000000000E+000
  0.000000000000000E+000
  0.000000000000000E+000
  0.000000000000000E+000
  0.000000000000000E+000
  0.000000000000000E+000
  0.000000000000000E+000
  0.000000000000000E+000
  0.000000000000000E+000
  0.000000000000000E+000
  0.000000000000000E+000
  0.000000000000000E+000
  0.000000000000000E+000
  0.000000000000000E+000
  0.000000000000000E+000
  0.000000000000000E+000
  0.000000000000000E+000
  0.000000000000000E+000
  0.000000000000000E+000
  0.000000000000000E+000
  0.000000000000000E+000
  0.000000000000000E+000
  0.000000000000000E+000
  0.000000000000000E+000
  0.000000000000000E+000
  0.000000000000000E+000
  0.000000000000000E+000
  0.000000000000000E+000
  0.000000000000000E+000
  0.000000000000000E+000
  0.000000000000000E+000
  0.000000000000000E+000
  0.000000000000000E+000
  0.000000000000000E+000
  0.000000000000000E+000
  0.000000000000000E+000
  0.000000000000000E+000
  0.000000000000000E+000
  0.000000000000000E+000
  0.000000000000000E+000
  0.000000000000000E+000
  0.000000000000000E+000
  0.000000000000000E+000
  0.000000000000000E+000
  0.000000000000000E+000
  0.000000000000000E+000
  0.000000000000000E+000
  0.000000000000000E+000
  0.000000000000000E+000
  0.000000000000000E+000
  0.000000000000000E+000
  0.000000000000000E+000
  0.000000000000000E+000
  0.000000000000000E+000
  0.000000000000000E+000
  0.000000000000000E+000
  0.000000000000000E+000
  0.000000000000000E+000
  0.000000000000000E+000
  0.000000000000000E+000
  0.000000000000000E+000
  0.000000000000000E+000
  0.000000000000000E+000
  0.000000000000000E+000
  0.000000000000000E+000
  0.000000000000000E+000
  0.000000000000000E+000
  0.000000000000000E+000
  0.000000000000000E+000
  0.000000000000000E+000
  0.000000000000000E+000
  0.000000000000000E+000
  0.000000000000000E+000
  0.000000000000000E+000
  0.000000000000000E+000
  0.000000000000000E+000
  0.000000000000000E+000
  0.000000000000000E+000
  0.000000000000000E+000
  0.000000000000000E+000
  0.000000000000000E+000
  0.000000000000000E+000
  0.000000000000000E+000
  0.000000000000000E+000
  0.000000000000000E+000
  0.000000000000000E+000
  0.000000000000000E+000
  0.000000000000000E+000
  0.000000000000000E+000
  0.000000000000000E+000
  0.000000000000000E+000
  0.000000000000000E+000
  0.000000000000000E+000
  0.000000000000000E+000
  0.000000000000000E+000
  0.000000000000000E+000
  0.000000000000000E+000
  0.000000000000000E+000
  0.000000000000000E+000
  0.000000000000000E+000
  0.000000000000000E+000
  0.000000000000000E+000
  0.000000000000000E+000
  0.000000000000000E+000
  0.000000000000000E+000
  0.000000000000000E+000
  0.000000000000000E+000
  0.000000000000000E+000
  0.000000000000000E+000
  0.000000000000000E+000
  0.000000000000000E+000
  0.000000000000000E+000
  0.000000000000000E+000
  0.000000000000000E+000
  0.000000000000000E+000
  0.000000000000000E+000
  0.000000000000000E+000
  0.000000000000000E+000
  0.000000000000000E+000
  0.000000000000000E+000
  0.000000000000000E+000
  0.000000000000000E+000
  0.000000000000000E+000
  0.000000000000000E+000
  0.000000000000000E+000
  0.000000000000000E+000
  0.000000000000000E+000
  0.000000000000000E+000
  0.000000000000000E+000
  0.000000000000000E+000
  0.000000000000000E+000
  0.000000000000000E+000
  0.000000000000000E+000
  0.000000000000000E+000
  0.000000000000000E+000
  0.000000000000000E+000
  0.000000000000000E+000
  0.000000000000000E+000
  0.000000000000000E+000
  0.000000000000000E+000
  0.000000000000000E+000
  0.000000000000000E+000
  0.000000000000000E+000
  0.000000000000000E+000
  0.000000000000000E+000
  0.000000000000000E+000
  0.000000000000000E+000
  0.000000000000000E+000
  0.000000000000000E+000
  0.000000000000000E+000
  0.000000000000000E+000
  0.000000000000000E+000
  0.000000000000000E+000
  0.000000000000000E+000
  0.000000000000000E+000
  0.000000000000000E+000
  0.000000000000000E+000
  0.000000000000000E+000
  0.000000000000000E+000
  0.000000000000000E+000
  0.000000000000000E+000
  0.000000000000000E+000
  0.000000000000000E+000
  0.000000000000000E+000
  0.000000000000000E+000
  0.000000000000000E+000
  0.000000000000000E+000
  0.000000000000000E+000
  0.000000000000000E+000
  0.000000000000000E+000
  0.000000000000000E+000
  0.000000000000000E+000
  0.000000000000000E+000
  0.000000000000000E+000
  0.000000000000000E+000
  0.000000000000000E+000
  0.000000000000000E+000
  0.000000000000000E+000
  0.000000000000000E+000
  0.000000000000000E+000
  0.000000000000000E+000
  0.000000000000000E+000
  0.000000000000000E+000
  0.000000000000000E+000
  0.000000000000000E+000
  0.000000000000000E+000
  0.000000000000000E+000
  0.000000000000000E+000
  0.000000000000000E+000
  0.000000000000000E+000
  0.000000000000000E+000
  0.000000000000000E+000
  0.000000000000000E+000
  0.000000000000000E+000
  0.000000000000000E+000
  0.000000000000000E+000
  0.000000000000000E+000
  0.000000000000000E+000
  0.000000000000000E+000
  0.000000000000000E+000
  0.000000000000000E+000
  0.000000000000000E+000
  0.000000000000000E+000
  0.000000000000000E+000
  0.000000000000000E+000
  0.000000000000000E+000
  0.000000000000000E+000
  0.000000000000000E+000
  0.000000000000000E+000
  0.000000000000000E+000
  0.000000000000000E+000
  0.000000000000000E+000
  0.000000000000000E+000
  0.000000000000000E+000
  0.000000000000000E+000
  0.000000000000000E+000
  0.000000000000000E+000
  0.000000000000000E+000
  0.000000000000000E+000
  0.000000000000000E+000
  0.000000000000000E+000
  0.000000000000000E+000
  0.000000000000000E+000
  0.000000000000000E+000
  0.000000000000000E+000
  0.000000000000000E+000
  0.000000000000000E+000
  0.000000000000000E+000
  0.000000000000000E+000
  0.000000000000000E+000
  0.000000000000000E+000
  0.000000000000000E+000
  0.000000000000000E+000
  0.000000000000000E+000
  0.000000000000000E+000
  0.000000000000000E+000
  0.000000000000000E+000
  0.000000000000000E+000
  0.000000000000000E+000
  0.000000000000000E+000
  0.000000000000000E+000
  0.000000000000000E+000
  0.000000000000000E+000
  0.000000000000000E+000
  0.000000000000000E+000
  0.000000000000000E+000
  0.000000000000000E+000
  0.000000000000000E+000
  0.000000000000000E+000
  0.000000000000000E+000
  0.000000000000000E+000
  0.000000000000000E+000
  0.000000000000000E+000
  0.000000000000000E+000
  0.000000000000000E+000
  0.000000000000000E+000
  0.000000000000000E+000
  0.000000000000000E+000
  0.000000000000000E+000
  0.000000000000000E+000
  0.000000000000000E+000
  0.000000000000000E+000
  0.000000000000000E+000
  0.000000000000000E+000
  0.000000000000000E+000
  0.000000000000000E+000
  0.000000000000000E+000
  0.000000000000000E+000
  0.000000000000000E+000
  0.000000000000000E+000
  0.000000000000000E+000
  0.000000000000000E+000
  0.000000000000000E+000
  0.000000000000000E+000
  0.000000000000000E+000
  0.000000000000000E+000
  0.000000000000000E+000
  0.000000000000000E+000
  0.000000000000000E+000
  0.000000000000000E+000
  0.000000000000000E+000
  0.000000000000000E+000
  0.000000000000000E+000
  0.000000000000000E+000
  0.000000000000000E+000
  0.000000000000000E+000
  0.000000000000000E+000
  0.000000000000000E+000
  0.000000000000000E+000
  0.000000000000000E+000
  0.000000000000000E+000
  0.000000000000000E+000
  0.000000000000000E+000
  0.000000000000000E+000
  0.000000000000000E+000
  0.000000000000000E+000
  0.000000000000000E+000
  0.000000000000000E+000
  0.000000000000000E+000
  0.000000000000000E+000
  0.000000000000000E+000
  0.000000000000000E+000
  0.000000000000000E+000
  0.000000000000000E+000
  0.000000000000000E+000
  0.000000000000000E+000
  0.000000000000000E+000
  0.000000000000000E+000
  0.000000000000000E+000
  0.000000000000000E+000
  0.000000000000000E+000
  0.000000000000000E+000
  0.000000000000000E+000
  0.000000000000000E+000
  0.000000000000000E+000
  0.000000000000000E+000
  0.000000000000000E+000
  0.000000000000000E+000
  0.000000000000000E+000
  0.000000000000000E+000
  0.000000000000000E+000
  0.000000000000000E+000
  0.000000000000000E+000
  0.000000000000000E+000
  0.000000000000000E+000
  0.000000000000000E+000
  0.000000000000000E+000
  0.000000000000000E+000
  0.000000000000000E+000
  0.000000000000000E+000
  0.000000000000000E+000
  0.000000000000000E+000
  0.000000000000000E+000
  0.000000000000000E+000
  0.000000000000000E+000
  0.000000000000000E+000
  0.000000000000000E+000
  0.000000000000000E+000
  0.000000000000000E+000
  0.000000000000000E+000
  0.000000000000000E+000
  0.000000000000000E+000
  0.000000000000000E+000
  0.000000000000000E+000
  0.000000000000000E+000
  0.000000000000000E+000
  0.000000000000000E+000
  0.000000000000000E+000
  0.000000000000000E+000
  0.000000000000000E+000
  0.000000000000000E+000
  0.000000000000000E+000
  0.000000000000000E+000
  0.000000000000000E+000
  0.000000000000000E+000
  0.000000000000000E+000
  0.000000000000000E+000
  0.000000000000000E+000
  0.000000000000000E+000
  0.000000000000000E+000
  0.000000000000000E+000
  0.000000000000000E+000
  0.000000000000000E+000
  0.000000000000000E+000
  0.000000000000000E+000
  0.000000000000000E+000
  0.000000000000000E+000
  0.000000000000000E+000
  0.000000000000000E+000
  0.000000000000000E+000
  0.000000000000000E+000
  0.000000000000000E+000
  0.000000000000000E+000
  0.000000000000000E+000
  0.000000000000000E+000
  0.000000000000000E+000
  0.000000000000000E+000
  0.000000000000000E+000
  0.000000000000000E+000
  0.000000000000000E+000
  0.000000000000000E+000
  0.000000000000000E+000
  0.000000000000000E+000
  0.000000000000000E+000
  0.000000000000000E+000
  0.000000000000000E+000
  0.000000000000000E+000
  0.000000000000000E+000
  0.000000000000000E+000
  0.000000000000000E+000
  0.000000000000000E+000
  0.000000000000000E+000
  0.000000000000000E+000
  0.000000000000000E+000
  0.000000000000000E+000
  0.000000000000000E+000
  0.000000000000000E+000
  0.000000000000000E+000
  0.000000000000000E+000
  0.000000000000000E+000
  0.000000000000000E+000
  0.000000000000000E+000
  0.000000000000000E+000
  0.000000000000000E+000
  0.000000000000000E+000
  0.000000000000000E+000
  0.000000000000000E+000
  0.000000000000000E+000
  0.000000000000000E+000
  0.000000000000000E+000
  0.000000000000000E+000
  0.000000000000000E+000
  0.000000000000000E+000
  0.000000000000000E+000
  0.000000000000000E+000
  0.000000000000000E+000
  0.000000000000000E+000
  0.000000000000000E+000
  0.000000000000000E+000
  0.000000000000000E+000
  0.000000000000000E+000
  0.000000000000000E+000
  0.000000000000000E+000
   1.00000000000000     
  0.000000000000000E+000
  0.000000000000000E+000
  0.000000000000000E+000
  0.000000000000000E+000
  0.000000000000000E+000
  0.000000000000000E+000
  0.000000000000000E+000
  0.000000000000000E+000
  0.000000000000000E+000
  0.000000000000000E+000
  0.000000000000000E+000
  0.000000000000000E+000
  0.000000000000000E+000
  0.000000000000000E+000
  0.000000000000000E+000
  0.000000000000000E+000
  0.000000000000000E+000
  0.000000000000000E+000
  0.000000000000000E+000
  0.000000000000000E+000
  0.000000000000000E+000
  0.000000000000000E+000
  0.000000000000000E+000
  0.000000000000000E+000
  0.000000000000000E+000
  0.000000000000000E+000
  0.000000000000000E+000
  0.000000000000000E+000
  0.000000000000000E+000
  0.000000000000000E+000
  0.000000000000000E+000
  0.000000000000000E+000
  0.000000000000000E+000
  0.000000000000000E+000
  0.000000000000000E+000
  0.000000000000000E+000
  0.000000000000000E+000
  0.000000000000000E+000
  0.000000000000000E+000
  0.000000000000000E+000
  0.000000000000000E+000
  0.000000000000000E+000
  0.000000000000000E+000
  0.000000000000000E+000
  0.000000000000000E+000
   1.00000000000000     
   1.00000000000000     
   1.00000000000000     
   1.00000000000000     
   1.00000000000000     
  0.000000000000000E+000
  0.000000000000000E+000
  0.000000000000000E+000
  0.000000000000000E+000
  0.000000000000000E+000
  0.000000000000000E+000
  0.000000000000000E+000
  0.000000000000000E+000
  0.000000000000000E+000
  0.000000000000000E+000
  0.000000000000000E+000
  0.000000000000000E+000
  0.000000000000000E+000
  0.000000000000000E+000
  0.000000000000000E+000
  0.000000000000000E+000
  0.000000000000000E+000
  0.000000000000000E+000
  0.000000000000000E+000
  0.000000000000000E+000
  0.000000000000000E+000
  0.000000000000000E+000
  0.000000000000000E+000
  0.000000000000000E+000
  0.000000000000000E+000
  0.000000000000000E+000
  0.000000000000000E+000
  0.000000000000000E+000
  0.000000000000000E+000
  0.000000000000000E+000
  0.000000000000000E+000
  0.000000000000000E+000
  0.000000000000000E+000
  0.000000000000000E+000
  0.000000000000000E+000
  0.000000000000000E+000
  0.000000000000000E+000
  0.000000000000000E+000
  0.000000000000000E+000
  0.000000000000000E+000
  0.000000000000000E+000
   1.00000000000000     
   1.00000000000000     
   1.00000000000000     
   1.00000000000000     
   1.00000000000000     
   1.00000000000000     
   1.00000000000000     
   1.00000000000000     
   1.00000000000000     
  0.000000000000000E+000
  0.000000000000000E+000
  0.000000000000000E+000
  0.000000000000000E+000
  0.000000000000000E+000
  0.000000000000000E+000
  0.000000000000000E+000
  0.000000000000000E+000
  0.000000000000000E+000
  0.000000000000000E+000
  0.000000000000000E+000
  0.000000000000000E+000
  0.000000000000000E+000
  0.000000000000000E+000
  0.000000000000000E+000
  0.000000000000000E+000
  0.000000000000000E+000
  0.000000000000000E+000
  0.000000000000000E+000
  0.000000000000000E+000
  0.000000000000000E+000
  0.000000000000000E+000
  0.000000000000000E+000
  0.000000000000000E+000
  0.000000000000000E+000
  0.000000000000000E+000
  0.000000000000000E+000
  0.000000000000000E+000
  0.000000000000000E+000
  0.000000000000000E+000
  0.000000000000000E+000
  0.000000000000000E+000
  0.000000000000000E+000
  0.000000000000000E+000
  0.000000000000000E+000
  0.000000000000000E+000
  0.000000000000000E+000
  0.000000000000000E+000
   1.00000000000000     
   1.00000000000000     
   1.00000000000000     
   1.00000000000000     
   1.00000000000000     
   1.00000000000000     
   1.00000000000000     
   1.00000000000000     
   1.00000000000000     
   1.00000000000000     
   1.00000000000000     
   1.00000000000000     
  0.000000000000000E+000
  0.000000000000000E+000
  0.000000000000000E+000
  0.000000000000000E+000
  0.000000000000000E+000
  0.000000000000000E+000
  0.000000000000000E+000
  0.000000000000000E+000
  0.000000000000000E+000
  0.000000000000000E+000
  0.000000000000000E+000
  0.000000000000000E+000
  0.000000000000000E+000
  0.000000000000000E+000
  0.000000000000000E+000
  0.000000000000000E+000
  0.000000000000000E+000
  0.000000000000000E+000
  0.000000000000000E+000
  0.000000000000000E+000
  0.000000000000000E+000
  0.000000000000000E+000
  0.000000000000000E+000
  0.000000000000000E+000
  0.000000000000000E+000
  0.000000000000000E+000
  0.000000000000000E+000
  0.000000000000000E+000
  0.000000000000000E+000
  0.000000000000000E+000
  0.000000000000000E+000
  0.000000000000000E+000
  0.000000000000000E+000
  0.000000000000000E+000
   1.00000000000000     
   1.00000000000000     
   1.00000000000000     
   1.00000000000000     
   1.00000000000000     
   1.00000000000000     
   1.00000000000000     
   1.00000000000000     
   1.00000000000000     
   1.00000000000000     
   1.00000000000000     
   1.00000000000000     
   1.00000000000000     
   1.00000000000000     
   1.00000000000000     
   1.00000000000000     
  0.000000000000000E+000
  0.000000000000000E+000
  0.000000000000000E+000
  0.000000000000000E+000
  0.000000000000000E+000
  0.000000000000000E+000
  0.000000000000000E+000
  0.000000000000000E+000
  0.000000000000000E+000
  0.000000000000000E+000
  0.000000000000000E+000
  0.000000000000000E+000
  0.000000000000000E+000
  0.000000000000000E+000
  0.000000000000000E+000
  0.000000000000000E+000
  0.000000000000000E+000
  0.000000000000000E+000
  0.000000000000000E+000
  0.000000000000000E+000
  0.000000000000000E+000
  0.000000000000000E+000
  0.000000000000000E+000
  0.000000000000000E+000
  0.000000000000000E+000
  0.000000000000000E+000
  0.000000000000000E+000
  0.000000000000000E+000
  0.000000000000000E+000
  0.000000000000000E+000
   1.00000000000000     
   1.00000000000000     
   1.00000000000000     
   1.00000000000000     
   1.00000000000000     
   1.00000000000000     
   1.00000000000000     
   1.00000000000000     
   1.00000000000000     
   1.00000000000000     
   1.00000000000000     
   1.00000000000000     
   1.00000000000000     
   1.00000000000000     
   1.00000000000000     
   1.00000000000000     
   1.00000000000000     
   1.00000000000000     
   1.00000000000000     
   1.00000000000000     
  0.000000000000000E+000
  0.000000000000000E+000
  0.000000000000000E+000
  0.000000000000000E+000
  0.000000000000000E+000
  0.000000000000000E+000
  0.000000000000000E+000
  0.000000000000000E+000
  0.000000000000000E+000
  0.000000000000000E+000
  0.000000000000000E+000
  0.000000000000000E+000
  0.000000000000000E+000
  0.000000000000000E+000
  0.000000000000000E+000
  0.000000000000000E+000
  0.000000000000000E+000
  0.000000000000000E+000
  0.000000000000000E+000
  0.000000000000000E+000
  0.000000000000000E+000
  0.000000000000000E+000
  0.000000000000000E+000
  0.000000000000000E+000
  0.000000000000000E+000
  0.000000000000000E+000
   1.00000000000000     
   1.00000000000000     
   1.00000000000000     
   1.00000000000000     
   1.00000000000000     
   1.00000000000000     
   1.00000000000000     
   1.00000000000000     
   1.00000000000000     
   1.00000000000000     
   1.00000000000000     
   1.00000000000000     
   1.00000000000000     
   1.00000000000000     
   1.00000000000000     
   1.00000000000000     
   1.00000000000000     
   1.00000000000000     
   1.00000000000000     
   1.00000000000000     
   1.00000000000000     
   1.00000000000000     
   1.00000000000000     
   1.00000000000000     
  0.000000000000000E+000
  0.000000000000000E+000
  0.000000000000000E+000
  0.000000000000000E+000
  0.000000000000000E+000
  0.000000000000000E+000
  0.000000000000000E+000
  0.000000000000000E+000
  0.000000000000000E+000
  0.000000000000000E+000
  0.000000000000000E+000
  0.000000000000000E+000
  0.000000000000000E+000
  0.000000000000000E+000
  0.000000000000000E+000
  0.000000000000000E+000
  0.000000000000000E+000
  0.000000000000000E+000
  0.000000000000000E+000
  0.000000000000000E+000
   1.00000000000000     
   1.00000000000000     
   1.00000000000000     
   1.00000000000000     
   1.00000000000000     
   1.00000000000000     
   1.00000000000000     
   1.00000000000000     
   1.00000000000000     
   1.00000000000000     
   1.00000000000000     
   1.00000000000000     
   1.00000000000000     
   1.00000000000000     
   1.00000000000000     
   1.00000000000000     
   1.00000000000000     
   1.00000000000000     
   1.00000000000000     
   1.00000000000000     
   1.00000000000000     
   1.00000000000000     
   1.00000000000000     
   1.00000000000000     
   1.00000000000000     
   1.00000000000000     
   1.00000000000000     
   1.00000000000000     
   1.00000000000000     
   1.00000000000000     
  0.000000000000000E+000
  0.000000000000000E+000
  0.000000000000000E+000
  0.000000000000000E+000
  0.000000000000000E+000
  0.000000000000000E+000
  0.000000000000000E+000
  0.000000000000000E+000
  0.000000000000000E+000
  0.000000000000000E+000
  0.000000000000000E+000
  0.000000000000000E+000
   1.00000000000000     
   1.00000000000000     
   1.00000000000000     
   1.00000000000000     
   1.00000000000000     
   1.00000000000000     
   1.00000000000000     
   1.00000000000000     
   1.00000000000000     
   1.00000000000000     
   1.00000000000000     
   1.00000000000000     
   1.00000000000000     
   1.00000000000000     
   1.00000000000000     
   1.00000000000000     
   1.00000000000000     
   1.00000000000000     
   1.00000000000000     
   1.00000000000000     
   1.00000000000000     
   1.00000000000000     
   1.00000000000000     
   1.00000000000000     
   1.00000000000000     
   1.00000000000000     
   1.00000000000000     
   1.00000000000000     
   1.00000000000000     
   1.00000000000000     
   1.00000000000000     
   1.00000000000000     
   1.00000000000000     
   1.00000000000000     
   1.00000000000000     
   1.00000000000000     
   1.00000000000000     
   1.00000000000000     
   1.00000000000000     
   1.00000000000000     
   1.00000000000000     
   1.00000000000000     
   1.00000000000000     
   1.00000000000000     
   1.00000000000000     
   1.00000000000000     
   1.00000000000000     
   1.00000000000000     
   1.00000000000000     
   1.00000000000000     
   1.00000000000000     
   1.00000000000000     
   1.00000000000000     
   1.00000000000000     
   1.00000000000000     
   1.00000000000000     
   1.00000000000000     
   1.00000000000000     
   1.00000000000000     
   1.00000000000000     
   1.00000000000000     
   1.00000000000000     
   1.00000000000000     
   1.00000000000000     
   1.00000000000000     
   1.00000000000000     
   1.00000000000000     
   1.00000000000000     
   1.00000000000000     
   1.00000000000000     
   1.00000000000000     
   1.00000000000000     
   1.00000000000000     
   1.00000000000000     
   1.00000000000000     
   1.00000000000000     
   1.00000000000000     
   1.00000000000000     
   1.00000000000000     
   1.00000000000000     
   1.00000000000000     
   1.00000000000000     
   1.00000000000000     
   1.00000000000000     
   1.00000000000000     
   1.00000000000000     
   1.00000000000000     
   1.00000000000000     
   1.00000000000000     
   1.00000000000000     
   1.00000000000000     
   1.00000000000000     
   1.00000000000000     
   1.00000000000000     
   1.00000000000000     
   1.00000000000000     
   1.00000000000000     
   1.00000000000000     
   1.00000000000000     
   1.00000000000000     
   1.00000000000000     
   1.00000000000000     
   1.00000000000000     
   1.00000000000000     
   1.00000000000000     
   1.00000000000000     
   1.00000000000000     
   1.00000000000000     
   1.00000000000000     
   1.00000000000000     
   1.00000000000000     
   1.00000000000000     
   1.00000000000000     
   1.00000000000000     
   1.00000000000000     
   1.00000000000000     
   1.00000000000000     
   1.00000000000000     
   1.00000000000000     
   1.00000000000000     
   1.00000000000000     
   1.00000000000000     
   1.00000000000000     
   1.00000000000000     
   1.00000000000000     
   1.00000000000000     
   1.00000000000000     
   1.00000000000000     
   1.00000000000000     
   1.00000000000000     
   1.00000000000000     
   1.00000000000000     
   1.00000000000000     
   1.00000000000000     
   1.00000000000000     
   1.00000000000000     
   1.00000000000000     
   1.00000000000000     
  0.000000000000000E+000
  0.000000000000000E+000
  0.000000000000000E+000
  0.000000000000000E+000
  0.000000000000000E+000
   1.00000000000000     
   1.00000000000000     
   1.00000000000000     
   1.00000000000000     
   1.00000000000000     
   1.00000000000000     
   1.00000000000000     
   1.00000000000000     
   1.00000000000000     
   1.00000000000000     
   1.00000000000000     
   1.00000000000000     
   1.00000000000000     
   1.00000000000000     
   1.00000000000000     
   1.00000000000000     
   1.00000000000000     
   1.00000000000000     
   1.00000000000000     
   1.00000000000000     
   1.00000000000000     
   1.00000000000000     
   1.00000000000000     
   1.00000000000000     
   1.00000000000000     
   1.00000000000000     
   1.00000000000000     
   1.00000000000000     
   1.00000000000000     
   1.00000000000000     
   1.00000000000000     
   1.00000000000000     
   1.00000000000000     
   1.00000000000000     
   1.00000000000000     
   1.00000000000000     
   1.00000000000000     
   1.00000000000000     
   1.00000000000000     
   1.00000000000000     
   1.00000000000000     
   1.00000000000000     
   1.00000000000000     
   1.00000000000000     
   1.00000000000000     
