# vtk DataFile Version 3.0
vtk output
ASCII
DATASET UNSTRUCTURED_GRID
POINTS      5151 double 
  0.00000000E+00  1.00000000E+02  0.00000000E+00
  0.00000000E+00  9.80000000E+01  0.00000000E+00
  0.00000000E+00  9.60000000E+01  0.00000000E+00
  0.00000000E+00  9.40000000E+01  0.00000000E+00
  0.00000000E+00  9.20000000E+01  0.00000000E+00
  0.00000000E+00  9.00000000E+01  0.00000000E+00
  0.00000000E+00  8.80000000E+01  0.00000000E+00
  0.00000000E+00  8.60000000E+01  0.00000000E+00
  0.00000000E+00  8.40000000E+01  0.00000000E+00
  0.00000000E+00  8.20000000E+01  0.00000000E+00
  0.00000000E+00  8.00000000E+01  0.00000000E+00
  0.00000000E+00  7.80000000E+01  0.00000000E+00
  0.00000000E+00  7.60000000E+01  0.00000000E+00
  0.00000000E+00  7.40000000E+01  0.00000000E+00
  0.00000000E+00  7.20000000E+01  0.00000000E+00
  0.00000000E+00  7.00000000E+01  0.00000000E+00
  0.00000000E+00  6.80000000E+01  0.00000000E+00
  0.00000000E+00  6.60000000E+01  0.00000000E+00
  0.00000000E+00  6.40000000E+01  0.00000000E+00
  0.00000000E+00  6.20000000E+01  0.00000000E+00
  0.00000000E+00  6.00000000E+01  0.00000000E+00
  0.00000000E+00  5.80000000E+01  0.00000000E+00
  0.00000000E+00  5.60000000E+01  0.00000000E+00
  0.00000000E+00  5.40000000E+01  0.00000000E+00
  0.00000000E+00  5.20000000E+01  0.00000000E+00
  0.00000000E+00  5.00000000E+01  0.00000000E+00
  0.00000000E+00  4.80000000E+01  0.00000000E+00
  0.00000000E+00  4.60000000E+01  0.00000000E+00
  0.00000000E+00  4.40000000E+01  0.00000000E+00
  0.00000000E+00  4.20000000E+01  0.00000000E+00
  0.00000000E+00  4.00000000E+01  0.00000000E+00
  0.00000000E+00  3.80000000E+01  0.00000000E+00
  0.00000000E+00  3.60000000E+01  0.00000000E+00
  0.00000000E+00  3.40000000E+01  0.00000000E+00
  0.00000000E+00  3.20000000E+01  0.00000000E+00
  0.00000000E+00  3.00000000E+01  0.00000000E+00
  0.00000000E+00  2.80000000E+01  0.00000000E+00
  0.00000000E+00  2.60000000E+01  0.00000000E+00
  0.00000000E+00  2.40000000E+01  0.00000000E+00
  0.00000000E+00  2.20000000E+01  0.00000000E+00
  0.00000000E+00  2.00000000E+01  0.00000000E+00
  0.00000000E+00  1.80000000E+01  0.00000000E+00
  0.00000000E+00  1.60000000E+01  0.00000000E+00
  0.00000000E+00  1.40000000E+01  0.00000000E+00
  0.00000000E+00  1.20000000E+01  0.00000000E+00
  0.00000000E+00  1.00000000E+01  0.00000000E+00
  0.00000000E+00  8.00000000E+00  0.00000000E+00
  0.00000000E+00  6.00000000E+00  0.00000000E+00
  0.00000000E+00  4.00000000E+00  0.00000000E+00
  0.00000000E+00  2.00000000E+00  0.00000000E+00
  0.00000000E+00 -3.33066907E-14  0.00000000E+00
  1.00000000E+01  1.00000000E+02  0.00000000E+00
  1.00000000E+01  9.80000000E+01  0.00000000E+00
  1.00000000E+01  9.60000000E+01  0.00000000E+00
  1.00000000E+01  9.40000000E+01  0.00000000E+00
  1.00000000E+01  9.20000000E+01  0.00000000E+00
  1.00000000E+01  9.00000000E+01  0.00000000E+00
  1.00000000E+01  8.80000000E+01  0.00000000E+00
  1.00000000E+01  8.60000000E+01  0.00000000E+00
  1.00000000E+01  8.40000000E+01  0.00000000E+00
  1.00000000E+01  8.20000000E+01  0.00000000E+00
  1.00000000E+01  8.00000000E+01  0.00000000E+00
  1.00000000E+01  7.80000000E+01  0.00000000E+00
  1.00000000E+01  7.60000000E+01  0.00000000E+00
  1.00000000E+01  7.40000000E+01  0.00000000E+00
  1.00000000E+01  7.20000000E+01  0.00000000E+00
  1.00000000E+01  7.00000000E+01  0.00000000E+00
  1.00000000E+01  6.80000000E+01  0.00000000E+00
  1.00000000E+01  6.60000000E+01  0.00000000E+00
  1.00000000E+01  6.40000000E+01  0.00000000E+00
  1.00000000E+01  6.20000000E+01  0.00000000E+00
  1.00000000E+01  6.00000000E+01  0.00000000E+00
  1.00000000E+01  5.80000000E+01  0.00000000E+00
  1.00000000E+01  5.60000000E+01  0.00000000E+00
  1.00000000E+01  5.40000000E+01  0.00000000E+00
  1.00000000E+01  5.20000000E+01  0.00000000E+00
  1.00000000E+01  5.00000000E+01  0.00000000E+00
  1.00000000E+01  4.80000000E+01  0.00000000E+00
  1.00000000E+01  4.60000000E+01  0.00000000E+00
  1.00000000E+01  4.40000000E+01  0.00000000E+00
  1.00000000E+01  4.20000000E+01  0.00000000E+00
  1.00000000E+01  4.00000000E+01  0.00000000E+00
  1.00000000E+01  3.80000000E+01  0.00000000E+00
  1.00000000E+01  3.60000000E+01  0.00000000E+00
  1.00000000E+01  3.40000000E+01  0.00000000E+00
  1.00000000E+01  3.20000000E+01  0.00000000E+00
  1.00000000E+01  3.00000000E+01  0.00000000E+00
  1.00000000E+01  2.80000000E+01  0.00000000E+00
  1.00000000E+01  2.60000000E+01  0.00000000E+00
  1.00000000E+01  2.40000000E+01  0.00000000E+00
  1.00000000E+01  2.20000000E+01  0.00000000E+00
  1.00000000E+01  2.00000000E+01  0.00000000E+00
  1.00000000E+01  1.80000000E+01  0.00000000E+00
  1.00000000E+01  1.60000000E+01  0.00000000E+00
  1.00000000E+01  1.40000000E+01  0.00000000E+00
  1.00000000E+01  1.20000000E+01  0.00000000E+00
  1.00000000E+01  1.00000000E+01  0.00000000E+00
  1.00000000E+01  8.00000000E+00  0.00000000E+00
  1.00000000E+01  6.00000000E+00  0.00000000E+00
  1.00000000E+01  4.00000000E+00  0.00000000E+00
  1.00000000E+01  2.00000000E+00  0.00000000E+00
  1.00000000E+01 -3.33066907E-14  0.00000000E+00
  2.00000000E+01  1.00000000E+02  0.00000000E+00
  2.00000000E+01  9.80000000E+01  0.00000000E+00
  2.00000000E+01  9.60000000E+01  0.00000000E+00
  2.00000000E+01  9.40000000E+01  0.00000000E+00
  2.00000000E+01  9.20000000E+01  0.00000000E+00
  2.00000000E+01  9.00000000E+01  0.00000000E+00
  2.00000000E+01  8.80000000E+01  0.00000000E+00
  2.00000000E+01  8.60000000E+01  0.00000000E+00
  2.00000000E+01  8.40000000E+01  0.00000000E+00
  2.00000000E+01  8.20000000E+01  0.00000000E+00
  2.00000000E+01  8.00000000E+01  0.00000000E+00
  2.00000000E+01  7.80000000E+01  0.00000000E+00
  2.00000000E+01  7.60000000E+01  0.00000000E+00
  2.00000000E+01  7.40000000E+01  0.00000000E+00
  2.00000000E+01  7.20000000E+01  0.00000000E+00
  2.00000000E+01  7.00000000E+01  0.00000000E+00
  2.00000000E+01  6.80000000E+01  0.00000000E+00
  2.00000000E+01  6.60000000E+01  0.00000000E+00
  2.00000000E+01  6.40000000E+01  0.00000000E+00
  2.00000000E+01  6.20000000E+01  0.00000000E+00
  2.00000000E+01  6.00000000E+01  0.00000000E+00
  2.00000000E+01  5.80000000E+01  0.00000000E+00
  2.00000000E+01  5.60000000E+01  0.00000000E+00
  2.00000000E+01  5.40000000E+01  0.00000000E+00
  2.00000000E+01  5.20000000E+01  0.00000000E+00
  2.00000000E+01  5.00000000E+01  0.00000000E+00
  2.00000000E+01  4.80000000E+01  0.00000000E+00
  2.00000000E+01  4.60000000E+01  0.00000000E+00
  2.00000000E+01  4.40000000E+01  0.00000000E+00
  2.00000000E+01  4.20000000E+01  0.00000000E+00
  2.00000000E+01  4.00000000E+01  0.00000000E+00
  2.00000000E+01  3.80000000E+01  0.00000000E+00
  2.00000000E+01  3.60000000E+01  0.00000000E+00
  2.00000000E+01  3.40000000E+01  0.00000000E+00
  2.00000000E+01  3.20000000E+01  0.00000000E+00
  2.00000000E+01  3.00000000E+01  0.00000000E+00
  2.00000000E+01  2.80000000E+01  0.00000000E+00
  2.00000000E+01  2.60000000E+01  0.00000000E+00
  2.00000000E+01  2.40000000E+01  0.00000000E+00
  2.00000000E+01  2.20000000E+01  0.00000000E+00
  2.00000000E+01  2.00000000E+01  0.00000000E+00
  2.00000000E+01  1.80000000E+01  0.00000000E+00
  2.00000000E+01  1.60000000E+01  0.00000000E+00
  2.00000000E+01  1.40000000E+01  0.00000000E+00
  2.00000000E+01  1.20000000E+01  0.00000000E+00
  2.00000000E+01  1.00000000E+01  0.00000000E+00
  2.00000000E+01  8.00000000E+00  0.00000000E+00
  2.00000000E+01  6.00000000E+00  0.00000000E+00
  2.00000000E+01  4.00000000E+00  0.00000000E+00
  2.00000000E+01  2.00000000E+00  0.00000000E+00
  2.00000000E+01 -3.33066907E-14  0.00000000E+00
  3.00000000E+01  1.00000000E+02  0.00000000E+00
  3.00000000E+01  9.80000000E+01  0.00000000E+00
  3.00000000E+01  9.60000000E+01  0.00000000E+00
  3.00000000E+01  9.40000000E+01  0.00000000E+00
  3.00000000E+01  9.20000000E+01  0.00000000E+00
  3.00000000E+01  9.00000000E+01  0.00000000E+00
  3.00000000E+01  8.80000000E+01  0.00000000E+00
  3.00000000E+01  8.60000000E+01  0.00000000E+00
  3.00000000E+01  8.40000000E+01  0.00000000E+00
  3.00000000E+01  8.20000000E+01  0.00000000E+00
  3.00000000E+01  8.00000000E+01  0.00000000E+00
  3.00000000E+01  7.80000000E+01  0.00000000E+00
  3.00000000E+01  7.60000000E+01  0.00000000E+00
  3.00000000E+01  7.40000000E+01  0.00000000E+00
  3.00000000E+01  7.20000000E+01  0.00000000E+00
  3.00000000E+01  7.00000000E+01  0.00000000E+00
  3.00000000E+01  6.80000000E+01  0.00000000E+00
  3.00000000E+01  6.60000000E+01  0.00000000E+00
  3.00000000E+01  6.40000000E+01  0.00000000E+00
  3.00000000E+01  6.20000000E+01  0.00000000E+00
  3.00000000E+01  6.00000000E+01  0.00000000E+00
  3.00000000E+01  5.80000000E+01  0.00000000E+00
  3.00000000E+01  5.60000000E+01  0.00000000E+00
  3.00000000E+01  5.40000000E+01  0.00000000E+00
  3.00000000E+01  5.20000000E+01  0.00000000E+00
  3.00000000E+01  5.00000000E+01  0.00000000E+00
  3.00000000E+01  4.80000000E+01  0.00000000E+00
  3.00000000E+01  4.60000000E+01  0.00000000E+00
  3.00000000E+01  4.40000000E+01  0.00000000E+00
  3.00000000E+01  4.20000000E+01  0.00000000E+00
  3.00000000E+01  4.00000000E+01  0.00000000E+00
  3.00000000E+01  3.80000000E+01  0.00000000E+00
  3.00000000E+01  3.60000000E+01  0.00000000E+00
  3.00000000E+01  3.40000000E+01  0.00000000E+00
  3.00000000E+01  3.20000000E+01  0.00000000E+00
  3.00000000E+01  3.00000000E+01  0.00000000E+00
  3.00000000E+01  2.80000000E+01  0.00000000E+00
  3.00000000E+01  2.60000000E+01  0.00000000E+00
  3.00000000E+01  2.40000000E+01  0.00000000E+00
  3.00000000E+01  2.20000000E+01  0.00000000E+00
  3.00000000E+01  2.00000000E+01  0.00000000E+00
  3.00000000E+01  1.80000000E+01  0.00000000E+00
  3.00000000E+01  1.60000000E+01  0.00000000E+00
  3.00000000E+01  1.40000000E+01  0.00000000E+00
  3.00000000E+01  1.20000000E+01  0.00000000E+00
  3.00000000E+01  1.00000000E+01  0.00000000E+00
  3.00000000E+01  8.00000000E+00  0.00000000E+00
  3.00000000E+01  6.00000000E+00  0.00000000E+00
  3.00000000E+01  4.00000000E+00  0.00000000E+00
  3.00000000E+01  2.00000000E+00  0.00000000E+00
  3.00000000E+01 -3.33066907E-14  0.00000000E+00
  4.00000000E+01  1.00000000E+02  0.00000000E+00
  4.00000000E+01  9.80000000E+01  0.00000000E+00
  4.00000000E+01  9.60000000E+01  0.00000000E+00
  4.00000000E+01  9.40000000E+01  0.00000000E+00
  4.00000000E+01  9.20000000E+01  0.00000000E+00
  4.00000000E+01  9.00000000E+01  0.00000000E+00
  4.00000000E+01  8.80000000E+01  0.00000000E+00
  4.00000000E+01  8.60000000E+01  0.00000000E+00
  4.00000000E+01  8.40000000E+01  0.00000000E+00
  4.00000000E+01  8.20000000E+01  0.00000000E+00
  4.00000000E+01  8.00000000E+01  0.00000000E+00
  4.00000000E+01  7.80000000E+01  0.00000000E+00
  4.00000000E+01  7.60000000E+01  0.00000000E+00
  4.00000000E+01  7.40000000E+01  0.00000000E+00
  4.00000000E+01  7.20000000E+01  0.00000000E+00
  4.00000000E+01  7.00000000E+01  0.00000000E+00
  4.00000000E+01  6.80000000E+01  0.00000000E+00
  4.00000000E+01  6.60000000E+01  0.00000000E+00
  4.00000000E+01  6.40000000E+01  0.00000000E+00
  4.00000000E+01  6.20000000E+01  0.00000000E+00
  4.00000000E+01  6.00000000E+01  0.00000000E+00
  4.00000000E+01  5.80000000E+01  0.00000000E+00
  4.00000000E+01  5.60000000E+01  0.00000000E+00
  4.00000000E+01  5.40000000E+01  0.00000000E+00
  4.00000000E+01  5.20000000E+01  0.00000000E+00
  4.00000000E+01  5.00000000E+01  0.00000000E+00
  4.00000000E+01  4.80000000E+01  0.00000000E+00
  4.00000000E+01  4.60000000E+01  0.00000000E+00
  4.00000000E+01  4.40000000E+01  0.00000000E+00
  4.00000000E+01  4.20000000E+01  0.00000000E+00
  4.00000000E+01  4.00000000E+01  0.00000000E+00
  4.00000000E+01  3.80000000E+01  0.00000000E+00
  4.00000000E+01  3.60000000E+01  0.00000000E+00
  4.00000000E+01  3.40000000E+01  0.00000000E+00
  4.00000000E+01  3.20000000E+01  0.00000000E+00
  4.00000000E+01  3.00000000E+01  0.00000000E+00
  4.00000000E+01  2.80000000E+01  0.00000000E+00
  4.00000000E+01  2.60000000E+01  0.00000000E+00
  4.00000000E+01  2.40000000E+01  0.00000000E+00
  4.00000000E+01  2.20000000E+01  0.00000000E+00
  4.00000000E+01  2.00000000E+01  0.00000000E+00
  4.00000000E+01  1.80000000E+01  0.00000000E+00
  4.00000000E+01  1.60000000E+01  0.00000000E+00
  4.00000000E+01  1.40000000E+01  0.00000000E+00
  4.00000000E+01  1.20000000E+01  0.00000000E+00
  4.00000000E+01  1.00000000E+01  0.00000000E+00
  4.00000000E+01  8.00000000E+00  0.00000000E+00
  4.00000000E+01  6.00000000E+00  0.00000000E+00
  4.00000000E+01  4.00000000E+00  0.00000000E+00
  4.00000000E+01  2.00000000E+00  0.00000000E+00
  4.00000000E+01 -3.33066907E-14  0.00000000E+00
  5.00000000E+01  1.00000000E+02  0.00000000E+00
  5.00000000E+01  9.80000000E+01  0.00000000E+00
  5.00000000E+01  9.60000000E+01  0.00000000E+00
  5.00000000E+01  9.40000000E+01  0.00000000E+00
  5.00000000E+01  9.20000000E+01  0.00000000E+00
  5.00000000E+01  9.00000000E+01  0.00000000E+00
  5.00000000E+01  8.80000000E+01  0.00000000E+00
  5.00000000E+01  8.60000000E+01  0.00000000E+00
  5.00000000E+01  8.40000000E+01  0.00000000E+00
  5.00000000E+01  8.20000000E+01  0.00000000E+00
  5.00000000E+01  8.00000000E+01  0.00000000E+00
  5.00000000E+01  7.80000000E+01  0.00000000E+00
  5.00000000E+01  7.60000000E+01  0.00000000E+00
  5.00000000E+01  7.40000000E+01  0.00000000E+00
  5.00000000E+01  7.20000000E+01  0.00000000E+00
  5.00000000E+01  7.00000000E+01  0.00000000E+00
  5.00000000E+01  6.80000000E+01  0.00000000E+00
  5.00000000E+01  6.60000000E+01  0.00000000E+00
  5.00000000E+01  6.40000000E+01  0.00000000E+00
  5.00000000E+01  6.20000000E+01  0.00000000E+00
  5.00000000E+01  6.00000000E+01  0.00000000E+00
  5.00000000E+01  5.80000000E+01  0.00000000E+00
  5.00000000E+01  5.60000000E+01  0.00000000E+00
  5.00000000E+01  5.40000000E+01  0.00000000E+00
  5.00000000E+01  5.20000000E+01  0.00000000E+00
  5.00000000E+01  5.00000000E+01  0.00000000E+00
  5.00000000E+01  4.80000000E+01  0.00000000E+00
  5.00000000E+01  4.60000000E+01  0.00000000E+00
  5.00000000E+01  4.40000000E+01  0.00000000E+00
  5.00000000E+01  4.20000000E+01  0.00000000E+00
  5.00000000E+01  4.00000000E+01  0.00000000E+00
  5.00000000E+01  3.80000000E+01  0.00000000E+00
  5.00000000E+01  3.60000000E+01  0.00000000E+00
  5.00000000E+01  3.40000000E+01  0.00000000E+00
  5.00000000E+01  3.20000000E+01  0.00000000E+00
  5.00000000E+01  3.00000000E+01  0.00000000E+00
  5.00000000E+01  2.80000000E+01  0.00000000E+00
  5.00000000E+01  2.60000000E+01  0.00000000E+00
  5.00000000E+01  2.40000000E+01  0.00000000E+00
  5.00000000E+01  2.20000000E+01  0.00000000E+00
  5.00000000E+01  2.00000000E+01  0.00000000E+00
  5.00000000E+01  1.80000000E+01  0.00000000E+00
  5.00000000E+01  1.60000000E+01  0.00000000E+00
  5.00000000E+01  1.40000000E+01  0.00000000E+00
  5.00000000E+01  1.20000000E+01  0.00000000E+00
  5.00000000E+01  1.00000000E+01  0.00000000E+00
  5.00000000E+01  8.00000000E+00  0.00000000E+00
  5.00000000E+01  6.00000000E+00  0.00000000E+00
  5.00000000E+01  4.00000000E+00  0.00000000E+00
  5.00000000E+01  2.00000000E+00  0.00000000E+00
  5.00000000E+01 -3.33066907E-14  0.00000000E+00
  6.00000000E+01  1.00000000E+02  0.00000000E+00
  6.00000000E+01  9.80000000E+01  0.00000000E+00
  6.00000000E+01  9.60000000E+01  0.00000000E+00
  6.00000000E+01  9.40000000E+01  0.00000000E+00
  6.00000000E+01  9.20000000E+01  0.00000000E+00
  6.00000000E+01  9.00000000E+01  0.00000000E+00
  6.00000000E+01  8.80000000E+01  0.00000000E+00
  6.00000000E+01  8.60000000E+01  0.00000000E+00
  6.00000000E+01  8.40000000E+01  0.00000000E+00
  6.00000000E+01  8.20000000E+01  0.00000000E+00
  6.00000000E+01  8.00000000E+01  0.00000000E+00
  6.00000000E+01  7.80000000E+01  0.00000000E+00
  6.00000000E+01  7.60000000E+01  0.00000000E+00
  6.00000000E+01  7.40000000E+01  0.00000000E+00
  6.00000000E+01  7.20000000E+01  0.00000000E+00
  6.00000000E+01  7.00000000E+01  0.00000000E+00
  6.00000000E+01  6.80000000E+01  0.00000000E+00
  6.00000000E+01  6.60000000E+01  0.00000000E+00
  6.00000000E+01  6.40000000E+01  0.00000000E+00
  6.00000000E+01  6.20000000E+01  0.00000000E+00
  6.00000000E+01  6.00000000E+01  0.00000000E+00
  6.00000000E+01  5.80000000E+01  0.00000000E+00
  6.00000000E+01  5.60000000E+01  0.00000000E+00
  6.00000000E+01  5.40000000E+01  0.00000000E+00
  6.00000000E+01  5.20000000E+01  0.00000000E+00
  6.00000000E+01  5.00000000E+01  0.00000000E+00
  6.00000000E+01  4.80000000E+01  0.00000000E+00
  6.00000000E+01  4.60000000E+01  0.00000000E+00
  6.00000000E+01  4.40000000E+01  0.00000000E+00
  6.00000000E+01  4.20000000E+01  0.00000000E+00
  6.00000000E+01  4.00000000E+01  0.00000000E+00
  6.00000000E+01  3.80000000E+01  0.00000000E+00
  6.00000000E+01  3.60000000E+01  0.00000000E+00
  6.00000000E+01  3.40000000E+01  0.00000000E+00
  6.00000000E+01  3.20000000E+01  0.00000000E+00
  6.00000000E+01  3.00000000E+01  0.00000000E+00
  6.00000000E+01  2.80000000E+01  0.00000000E+00
  6.00000000E+01  2.60000000E+01  0.00000000E+00
  6.00000000E+01  2.40000000E+01  0.00000000E+00
  6.00000000E+01  2.20000000E+01  0.00000000E+00
  6.00000000E+01  2.00000000E+01  0.00000000E+00
  6.00000000E+01  1.80000000E+01  0.00000000E+00
  6.00000000E+01  1.60000000E+01  0.00000000E+00
  6.00000000E+01  1.40000000E+01  0.00000000E+00
  6.00000000E+01  1.20000000E+01  0.00000000E+00
  6.00000000E+01  1.00000000E+01  0.00000000E+00
  6.00000000E+01  8.00000000E+00  0.00000000E+00
  6.00000000E+01  6.00000000E+00  0.00000000E+00
  6.00000000E+01  4.00000000E+00  0.00000000E+00
  6.00000000E+01  2.00000000E+00  0.00000000E+00
  6.00000000E+01 -3.33066907E-14  0.00000000E+00
  7.00000000E+01  1.00000000E+02  0.00000000E+00
  7.00000000E+01  9.80000000E+01  0.00000000E+00
  7.00000000E+01  9.60000000E+01  0.00000000E+00
  7.00000000E+01  9.40000000E+01  0.00000000E+00
  7.00000000E+01  9.20000000E+01  0.00000000E+00
  7.00000000E+01  9.00000000E+01  0.00000000E+00
  7.00000000E+01  8.80000000E+01  0.00000000E+00
  7.00000000E+01  8.60000000E+01  0.00000000E+00
  7.00000000E+01  8.40000000E+01  0.00000000E+00
  7.00000000E+01  8.20000000E+01  0.00000000E+00
  7.00000000E+01  8.00000000E+01  0.00000000E+00
  7.00000000E+01  7.80000000E+01  0.00000000E+00
  7.00000000E+01  7.60000000E+01  0.00000000E+00
  7.00000000E+01  7.40000000E+01  0.00000000E+00
  7.00000000E+01  7.20000000E+01  0.00000000E+00
  7.00000000E+01  7.00000000E+01  0.00000000E+00
  7.00000000E+01  6.80000000E+01  0.00000000E+00
  7.00000000E+01  6.60000000E+01  0.00000000E+00
  7.00000000E+01  6.40000000E+01  0.00000000E+00
  7.00000000E+01  6.20000000E+01  0.00000000E+00
  7.00000000E+01  6.00000000E+01  0.00000000E+00
  7.00000000E+01  5.80000000E+01  0.00000000E+00
  7.00000000E+01  5.60000000E+01  0.00000000E+00
  7.00000000E+01  5.40000000E+01  0.00000000E+00
  7.00000000E+01  5.20000000E+01  0.00000000E+00
  7.00000000E+01  5.00000000E+01  0.00000000E+00
  7.00000000E+01  4.80000000E+01  0.00000000E+00
  7.00000000E+01  4.60000000E+01  0.00000000E+00
  7.00000000E+01  4.40000000E+01  0.00000000E+00
  7.00000000E+01  4.20000000E+01  0.00000000E+00
  7.00000000E+01  4.00000000E+01  0.00000000E+00
  7.00000000E+01  3.80000000E+01  0.00000000E+00
  7.00000000E+01  3.60000000E+01  0.00000000E+00
  7.00000000E+01  3.40000000E+01  0.00000000E+00
  7.00000000E+01  3.20000000E+01  0.00000000E+00
  7.00000000E+01  3.00000000E+01  0.00000000E+00
  7.00000000E+01  2.80000000E+01  0.00000000E+00
  7.00000000E+01  2.60000000E+01  0.00000000E+00
  7.00000000E+01  2.40000000E+01  0.00000000E+00
  7.00000000E+01  2.20000000E+01  0.00000000E+00
  7.00000000E+01  2.00000000E+01  0.00000000E+00
  7.00000000E+01  1.80000000E+01  0.00000000E+00
  7.00000000E+01  1.60000000E+01  0.00000000E+00
  7.00000000E+01  1.40000000E+01  0.00000000E+00
  7.00000000E+01  1.20000000E+01  0.00000000E+00
  7.00000000E+01  1.00000000E+01  0.00000000E+00
  7.00000000E+01  8.00000000E+00  0.00000000E+00
  7.00000000E+01  6.00000000E+00  0.00000000E+00
  7.00000000E+01  4.00000000E+00  0.00000000E+00
  7.00000000E+01  2.00000000E+00  0.00000000E+00
  7.00000000E+01 -3.33066907E-14  0.00000000E+00
  8.00000000E+01  1.00000000E+02  0.00000000E+00
  8.00000000E+01  9.80000000E+01  0.00000000E+00
  8.00000000E+01  9.60000000E+01  0.00000000E+00
  8.00000000E+01  9.40000000E+01  0.00000000E+00
  8.00000000E+01  9.20000000E+01  0.00000000E+00
  8.00000000E+01  9.00000000E+01  0.00000000E+00
  8.00000000E+01  8.80000000E+01  0.00000000E+00
  8.00000000E+01  8.60000000E+01  0.00000000E+00
  8.00000000E+01  8.40000000E+01  0.00000000E+00
  8.00000000E+01  8.20000000E+01  0.00000000E+00
  8.00000000E+01  8.00000000E+01  0.00000000E+00
  8.00000000E+01  7.80000000E+01  0.00000000E+00
  8.00000000E+01  7.60000000E+01  0.00000000E+00
  8.00000000E+01  7.40000000E+01  0.00000000E+00
  8.00000000E+01  7.20000000E+01  0.00000000E+00
  8.00000000E+01  7.00000000E+01  0.00000000E+00
  8.00000000E+01  6.80000000E+01  0.00000000E+00
  8.00000000E+01  6.60000000E+01  0.00000000E+00
  8.00000000E+01  6.40000000E+01  0.00000000E+00
  8.00000000E+01  6.20000000E+01  0.00000000E+00
  8.00000000E+01  6.00000000E+01  0.00000000E+00
  8.00000000E+01  5.80000000E+01  0.00000000E+00
  8.00000000E+01  5.60000000E+01  0.00000000E+00
  8.00000000E+01  5.40000000E+01  0.00000000E+00
  8.00000000E+01  5.20000000E+01  0.00000000E+00
  8.00000000E+01  5.00000000E+01  0.00000000E+00
  8.00000000E+01  4.80000000E+01  0.00000000E+00
  8.00000000E+01  4.60000000E+01  0.00000000E+00
  8.00000000E+01  4.40000000E+01  0.00000000E+00
  8.00000000E+01  4.20000000E+01  0.00000000E+00
  8.00000000E+01  4.00000000E+01  0.00000000E+00
  8.00000000E+01  3.80000000E+01  0.00000000E+00
  8.00000000E+01  3.60000000E+01  0.00000000E+00
  8.00000000E+01  3.40000000E+01  0.00000000E+00
  8.00000000E+01  3.20000000E+01  0.00000000E+00
  8.00000000E+01  3.00000000E+01  0.00000000E+00
  8.00000000E+01  2.80000000E+01  0.00000000E+00
  8.00000000E+01  2.60000000E+01  0.00000000E+00
  8.00000000E+01  2.40000000E+01  0.00000000E+00
  8.00000000E+01  2.20000000E+01  0.00000000E+00
  8.00000000E+01  2.00000000E+01  0.00000000E+00
  8.00000000E+01  1.80000000E+01  0.00000000E+00
  8.00000000E+01  1.60000000E+01  0.00000000E+00
  8.00000000E+01  1.40000000E+01  0.00000000E+00
  8.00000000E+01  1.20000000E+01  0.00000000E+00
  8.00000000E+01  1.00000000E+01  0.00000000E+00
  8.00000000E+01  8.00000000E+00  0.00000000E+00
  8.00000000E+01  6.00000000E+00  0.00000000E+00
  8.00000000E+01  4.00000000E+00  0.00000000E+00
  8.00000000E+01  2.00000000E+00  0.00000000E+00
  8.00000000E+01 -3.33066907E-14  0.00000000E+00
  9.00000000E+01  1.00000000E+02  0.00000000E+00
  9.00000000E+01  9.80000000E+01  0.00000000E+00
  9.00000000E+01  9.60000000E+01  0.00000000E+00
  9.00000000E+01  9.40000000E+01  0.00000000E+00
  9.00000000E+01  9.20000000E+01  0.00000000E+00
  9.00000000E+01  9.00000000E+01  0.00000000E+00
  9.00000000E+01  8.80000000E+01  0.00000000E+00
  9.00000000E+01  8.60000000E+01  0.00000000E+00
  9.00000000E+01  8.40000000E+01  0.00000000E+00
  9.00000000E+01  8.20000000E+01  0.00000000E+00
  9.00000000E+01  8.00000000E+01  0.00000000E+00
  9.00000000E+01  7.80000000E+01  0.00000000E+00
  9.00000000E+01  7.60000000E+01  0.00000000E+00
  9.00000000E+01  7.40000000E+01  0.00000000E+00
  9.00000000E+01  7.20000000E+01  0.00000000E+00
  9.00000000E+01  7.00000000E+01  0.00000000E+00
  9.00000000E+01  6.80000000E+01  0.00000000E+00
  9.00000000E+01  6.60000000E+01  0.00000000E+00
  9.00000000E+01  6.40000000E+01  0.00000000E+00
  9.00000000E+01  6.20000000E+01  0.00000000E+00
  9.00000000E+01  6.00000000E+01  0.00000000E+00
  9.00000000E+01  5.80000000E+01  0.00000000E+00
  9.00000000E+01  5.60000000E+01  0.00000000E+00
  9.00000000E+01  5.40000000E+01  0.00000000E+00
  9.00000000E+01  5.20000000E+01  0.00000000E+00
  9.00000000E+01  5.00000000E+01  0.00000000E+00
  9.00000000E+01  4.80000000E+01  0.00000000E+00
  9.00000000E+01  4.60000000E+01  0.00000000E+00
  9.00000000E+01  4.40000000E+01  0.00000000E+00
  9.00000000E+01  4.20000000E+01  0.00000000E+00
  9.00000000E+01  4.00000000E+01  0.00000000E+00
  9.00000000E+01  3.80000000E+01  0.00000000E+00
  9.00000000E+01  3.60000000E+01  0.00000000E+00
  9.00000000E+01  3.40000000E+01  0.00000000E+00
  9.00000000E+01  3.20000000E+01  0.00000000E+00
  9.00000000E+01  3.00000000E+01  0.00000000E+00
  9.00000000E+01  2.80000000E+01  0.00000000E+00
  9.00000000E+01  2.60000000E+01  0.00000000E+00
  9.00000000E+01  2.40000000E+01  0.00000000E+00
  9.00000000E+01  2.20000000E+01  0.00000000E+00
  9.00000000E+01  2.00000000E+01  0.00000000E+00
  9.00000000E+01  1.80000000E+01  0.00000000E+00
  9.00000000E+01  1.60000000E+01  0.00000000E+00
  9.00000000E+01  1.40000000E+01  0.00000000E+00
  9.00000000E+01  1.20000000E+01  0.00000000E+00
  9.00000000E+01  1.00000000E+01  0.00000000E+00
  9.00000000E+01  8.00000000E+00  0.00000000E+00
  9.00000000E+01  6.00000000E+00  0.00000000E+00
  9.00000000E+01  4.00000000E+00  0.00000000E+00
  9.00000000E+01  2.00000000E+00  0.00000000E+00
  9.00000000E+01 -3.33066907E-14  0.00000000E+00
  1.00000000E+02  1.00000000E+02  0.00000000E+00
  1.00000000E+02  9.80000000E+01  0.00000000E+00
  1.00000000E+02  9.60000000E+01  0.00000000E+00
  1.00000000E+02  9.40000000E+01  0.00000000E+00
  1.00000000E+02  9.20000000E+01  0.00000000E+00
  1.00000000E+02  9.00000000E+01  0.00000000E+00
  1.00000000E+02  8.80000000E+01  0.00000000E+00
  1.00000000E+02  8.60000000E+01  0.00000000E+00
  1.00000000E+02  8.40000000E+01  0.00000000E+00
  1.00000000E+02  8.20000000E+01  0.00000000E+00
  1.00000000E+02  8.00000000E+01  0.00000000E+00
  1.00000000E+02  7.80000000E+01  0.00000000E+00
  1.00000000E+02  7.60000000E+01  0.00000000E+00
  1.00000000E+02  7.40000000E+01  0.00000000E+00
  1.00000000E+02  7.20000000E+01  0.00000000E+00
  1.00000000E+02  7.00000000E+01  0.00000000E+00
  1.00000000E+02  6.80000000E+01  0.00000000E+00
  1.00000000E+02  6.60000000E+01  0.00000000E+00
  1.00000000E+02  6.40000000E+01  0.00000000E+00
  1.00000000E+02  6.20000000E+01  0.00000000E+00
  1.00000000E+02  6.00000000E+01  0.00000000E+00
  1.00000000E+02  5.80000000E+01  0.00000000E+00
  1.00000000E+02  5.60000000E+01  0.00000000E+00
  1.00000000E+02  5.40000000E+01  0.00000000E+00
  1.00000000E+02  5.20000000E+01  0.00000000E+00
  1.00000000E+02  5.00000000E+01  0.00000000E+00
  1.00000000E+02  4.80000000E+01  0.00000000E+00
  1.00000000E+02  4.60000000E+01  0.00000000E+00
  1.00000000E+02  4.40000000E+01  0.00000000E+00
  1.00000000E+02  4.20000000E+01  0.00000000E+00
  1.00000000E+02  4.00000000E+01  0.00000000E+00
  1.00000000E+02  3.80000000E+01  0.00000000E+00
  1.00000000E+02  3.60000000E+01  0.00000000E+00
  1.00000000E+02  3.40000000E+01  0.00000000E+00
  1.00000000E+02  3.20000000E+01  0.00000000E+00
  1.00000000E+02  3.00000000E+01  0.00000000E+00
  1.00000000E+02  2.80000000E+01  0.00000000E+00
  1.00000000E+02  2.60000000E+01  0.00000000E+00
  1.00000000E+02  2.40000000E+01  0.00000000E+00
  1.00000000E+02  2.20000000E+01  0.00000000E+00
  1.00000000E+02  2.00000000E+01  0.00000000E+00
  1.00000000E+02  1.80000000E+01  0.00000000E+00
  1.00000000E+02  1.60000000E+01  0.00000000E+00
  1.00000000E+02  1.40000000E+01  0.00000000E+00
  1.00000000E+02  1.20000000E+01  0.00000000E+00
  1.00000000E+02  1.00000000E+01  0.00000000E+00
  1.00000000E+02  8.00000000E+00  0.00000000E+00
  1.00000000E+02  6.00000000E+00  0.00000000E+00
  1.00000000E+02  4.00000000E+00  0.00000000E+00
  1.00000000E+02  2.00000000E+00  0.00000000E+00
  1.00000000E+02 -3.33066907E-14  0.00000000E+00
  1.10000000E+02  1.00000000E+02  0.00000000E+00
  1.10000000E+02  9.80000000E+01  0.00000000E+00
  1.10000000E+02  9.60000000E+01  0.00000000E+00
  1.10000000E+02  9.40000000E+01  0.00000000E+00
  1.10000000E+02  9.20000000E+01  0.00000000E+00
  1.10000000E+02  9.00000000E+01  0.00000000E+00
  1.10000000E+02  8.80000000E+01  0.00000000E+00
  1.10000000E+02  8.60000000E+01  0.00000000E+00
  1.10000000E+02  8.40000000E+01  0.00000000E+00
  1.10000000E+02  8.20000000E+01  0.00000000E+00
  1.10000000E+02  8.00000000E+01  0.00000000E+00
  1.10000000E+02  7.80000000E+01  0.00000000E+00
  1.10000000E+02  7.60000000E+01  0.00000000E+00
  1.10000000E+02  7.40000000E+01  0.00000000E+00
  1.10000000E+02  7.20000000E+01  0.00000000E+00
  1.10000000E+02  7.00000000E+01  0.00000000E+00
  1.10000000E+02  6.80000000E+01  0.00000000E+00
  1.10000000E+02  6.60000000E+01  0.00000000E+00
  1.10000000E+02  6.40000000E+01  0.00000000E+00
  1.10000000E+02  6.20000000E+01  0.00000000E+00
  1.10000000E+02  6.00000000E+01  0.00000000E+00
  1.10000000E+02  5.80000000E+01  0.00000000E+00
  1.10000000E+02  5.60000000E+01  0.00000000E+00
  1.10000000E+02  5.40000000E+01  0.00000000E+00
  1.10000000E+02  5.20000000E+01  0.00000000E+00
  1.10000000E+02  5.00000000E+01  0.00000000E+00
  1.10000000E+02  4.80000000E+01  0.00000000E+00
  1.10000000E+02  4.60000000E+01  0.00000000E+00
  1.10000000E+02  4.40000000E+01  0.00000000E+00
  1.10000000E+02  4.20000000E+01  0.00000000E+00
  1.10000000E+02  4.00000000E+01  0.00000000E+00
  1.10000000E+02  3.80000000E+01  0.00000000E+00
  1.10000000E+02  3.60000000E+01  0.00000000E+00
  1.10000000E+02  3.40000000E+01  0.00000000E+00
  1.10000000E+02  3.20000000E+01  0.00000000E+00
  1.10000000E+02  3.00000000E+01  0.00000000E+00
  1.10000000E+02  2.80000000E+01  0.00000000E+00
  1.10000000E+02  2.60000000E+01  0.00000000E+00
  1.10000000E+02  2.40000000E+01  0.00000000E+00
  1.10000000E+02  2.20000000E+01  0.00000000E+00
  1.10000000E+02  2.00000000E+01  0.00000000E+00
  1.10000000E+02  1.80000000E+01  0.00000000E+00
  1.10000000E+02  1.60000000E+01  0.00000000E+00
  1.10000000E+02  1.40000000E+01  0.00000000E+00
  1.10000000E+02  1.20000000E+01  0.00000000E+00
  1.10000000E+02  1.00000000E+01  0.00000000E+00
  1.10000000E+02  8.00000000E+00  0.00000000E+00
  1.10000000E+02  6.00000000E+00  0.00000000E+00
  1.10000000E+02  4.00000000E+00  0.00000000E+00
  1.10000000E+02  2.00000000E+00  0.00000000E+00
  1.10000000E+02 -3.33066907E-14  0.00000000E+00
  1.20000000E+02  1.00000000E+02  0.00000000E+00
  1.20000000E+02  9.80000000E+01  0.00000000E+00
  1.20000000E+02  9.60000000E+01  0.00000000E+00
  1.20000000E+02  9.40000000E+01  0.00000000E+00
  1.20000000E+02  9.20000000E+01  0.00000000E+00
  1.20000000E+02  9.00000000E+01  0.00000000E+00
  1.20000000E+02  8.80000000E+01  0.00000000E+00
  1.20000000E+02  8.60000000E+01  0.00000000E+00
  1.20000000E+02  8.40000000E+01  0.00000000E+00
  1.20000000E+02  8.20000000E+01  0.00000000E+00
  1.20000000E+02  8.00000000E+01  0.00000000E+00
  1.20000000E+02  7.80000000E+01  0.00000000E+00
  1.20000000E+02  7.60000000E+01  0.00000000E+00
  1.20000000E+02  7.40000000E+01  0.00000000E+00
  1.20000000E+02  7.20000000E+01  0.00000000E+00
  1.20000000E+02  7.00000000E+01  0.00000000E+00
  1.20000000E+02  6.80000000E+01  0.00000000E+00
  1.20000000E+02  6.60000000E+01  0.00000000E+00
  1.20000000E+02  6.40000000E+01  0.00000000E+00
  1.20000000E+02  6.20000000E+01  0.00000000E+00
  1.20000000E+02  6.00000000E+01  0.00000000E+00
  1.20000000E+02  5.80000000E+01  0.00000000E+00
  1.20000000E+02  5.60000000E+01  0.00000000E+00
  1.20000000E+02  5.40000000E+01  0.00000000E+00
  1.20000000E+02  5.20000000E+01  0.00000000E+00
  1.20000000E+02  5.00000000E+01  0.00000000E+00
  1.20000000E+02  4.80000000E+01  0.00000000E+00
  1.20000000E+02  4.60000000E+01  0.00000000E+00
  1.20000000E+02  4.40000000E+01  0.00000000E+00
  1.20000000E+02  4.20000000E+01  0.00000000E+00
  1.20000000E+02  4.00000000E+01  0.00000000E+00
  1.20000000E+02  3.80000000E+01  0.00000000E+00
  1.20000000E+02  3.60000000E+01  0.00000000E+00
  1.20000000E+02  3.40000000E+01  0.00000000E+00
  1.20000000E+02  3.20000000E+01  0.00000000E+00
  1.20000000E+02  3.00000000E+01  0.00000000E+00
  1.20000000E+02  2.80000000E+01  0.00000000E+00
  1.20000000E+02  2.60000000E+01  0.00000000E+00
  1.20000000E+02  2.40000000E+01  0.00000000E+00
  1.20000000E+02  2.20000000E+01  0.00000000E+00
  1.20000000E+02  2.00000000E+01  0.00000000E+00
  1.20000000E+02  1.80000000E+01  0.00000000E+00
  1.20000000E+02  1.60000000E+01  0.00000000E+00
  1.20000000E+02  1.40000000E+01  0.00000000E+00
  1.20000000E+02  1.20000000E+01  0.00000000E+00
  1.20000000E+02  1.00000000E+01  0.00000000E+00
  1.20000000E+02  8.00000000E+00  0.00000000E+00
  1.20000000E+02  6.00000000E+00  0.00000000E+00
  1.20000000E+02  4.00000000E+00  0.00000000E+00
  1.20000000E+02  2.00000000E+00  0.00000000E+00
  1.20000000E+02 -3.33066907E-14  0.00000000E+00
  1.30000000E+02  1.00000000E+02  0.00000000E+00
  1.30000000E+02  9.80000000E+01  0.00000000E+00
  1.30000000E+02  9.60000000E+01  0.00000000E+00
  1.30000000E+02  9.40000000E+01  0.00000000E+00
  1.30000000E+02  9.20000000E+01  0.00000000E+00
  1.30000000E+02  9.00000000E+01  0.00000000E+00
  1.30000000E+02  8.80000000E+01  0.00000000E+00
  1.30000000E+02  8.60000000E+01  0.00000000E+00
  1.30000000E+02  8.40000000E+01  0.00000000E+00
  1.30000000E+02  8.20000000E+01  0.00000000E+00
  1.30000000E+02  8.00000000E+01  0.00000000E+00
  1.30000000E+02  7.80000000E+01  0.00000000E+00
  1.30000000E+02  7.60000000E+01  0.00000000E+00
  1.30000000E+02  7.40000000E+01  0.00000000E+00
  1.30000000E+02  7.20000000E+01  0.00000000E+00
  1.30000000E+02  7.00000000E+01  0.00000000E+00
  1.30000000E+02  6.80000000E+01  0.00000000E+00
  1.30000000E+02  6.60000000E+01  0.00000000E+00
  1.30000000E+02  6.40000000E+01  0.00000000E+00
  1.30000000E+02  6.20000000E+01  0.00000000E+00
  1.30000000E+02  6.00000000E+01  0.00000000E+00
  1.30000000E+02  5.80000000E+01  0.00000000E+00
  1.30000000E+02  5.60000000E+01  0.00000000E+00
  1.30000000E+02  5.40000000E+01  0.00000000E+00
  1.30000000E+02  5.20000000E+01  0.00000000E+00
  1.30000000E+02  5.00000000E+01  0.00000000E+00
  1.30000000E+02  4.80000000E+01  0.00000000E+00
  1.30000000E+02  4.60000000E+01  0.00000000E+00
  1.30000000E+02  4.40000000E+01  0.00000000E+00
  1.30000000E+02  4.20000000E+01  0.00000000E+00
  1.30000000E+02  4.00000000E+01  0.00000000E+00
  1.30000000E+02  3.80000000E+01  0.00000000E+00
  1.30000000E+02  3.60000000E+01  0.00000000E+00
  1.30000000E+02  3.40000000E+01  0.00000000E+00
  1.30000000E+02  3.20000000E+01  0.00000000E+00
  1.30000000E+02  3.00000000E+01  0.00000000E+00
  1.30000000E+02  2.80000000E+01  0.00000000E+00
  1.30000000E+02  2.60000000E+01  0.00000000E+00
  1.30000000E+02  2.40000000E+01  0.00000000E+00
  1.30000000E+02  2.20000000E+01  0.00000000E+00
  1.30000000E+02  2.00000000E+01  0.00000000E+00
  1.30000000E+02  1.80000000E+01  0.00000000E+00
  1.30000000E+02  1.60000000E+01  0.00000000E+00
  1.30000000E+02  1.40000000E+01  0.00000000E+00
  1.30000000E+02  1.20000000E+01  0.00000000E+00
  1.30000000E+02  1.00000000E+01  0.00000000E+00
  1.30000000E+02  8.00000000E+00  0.00000000E+00
  1.30000000E+02  6.00000000E+00  0.00000000E+00
  1.30000000E+02  4.00000000E+00  0.00000000E+00
  1.30000000E+02  2.00000000E+00  0.00000000E+00
  1.30000000E+02 -3.33066907E-14  0.00000000E+00
  1.40000000E+02  1.00000000E+02  0.00000000E+00
  1.40000000E+02  9.80000000E+01  0.00000000E+00
  1.40000000E+02  9.60000000E+01  0.00000000E+00
  1.40000000E+02  9.40000000E+01  0.00000000E+00
  1.40000000E+02  9.20000000E+01  0.00000000E+00
  1.40000000E+02  9.00000000E+01  0.00000000E+00
  1.40000000E+02  8.80000000E+01  0.00000000E+00
  1.40000000E+02  8.60000000E+01  0.00000000E+00
  1.40000000E+02  8.40000000E+01  0.00000000E+00
  1.40000000E+02  8.20000000E+01  0.00000000E+00
  1.40000000E+02  8.00000000E+01  0.00000000E+00
  1.40000000E+02  7.80000000E+01  0.00000000E+00
  1.40000000E+02  7.60000000E+01  0.00000000E+00
  1.40000000E+02  7.40000000E+01  0.00000000E+00
  1.40000000E+02  7.20000000E+01  0.00000000E+00
  1.40000000E+02  7.00000000E+01  0.00000000E+00
  1.40000000E+02  6.80000000E+01  0.00000000E+00
  1.40000000E+02  6.60000000E+01  0.00000000E+00
  1.40000000E+02  6.40000000E+01  0.00000000E+00
  1.40000000E+02  6.20000000E+01  0.00000000E+00
  1.40000000E+02  6.00000000E+01  0.00000000E+00
  1.40000000E+02  5.80000000E+01  0.00000000E+00
  1.40000000E+02  5.60000000E+01  0.00000000E+00
  1.40000000E+02  5.40000000E+01  0.00000000E+00
  1.40000000E+02  5.20000000E+01  0.00000000E+00
  1.40000000E+02  5.00000000E+01  0.00000000E+00
  1.40000000E+02  4.80000000E+01  0.00000000E+00
  1.40000000E+02  4.60000000E+01  0.00000000E+00
  1.40000000E+02  4.40000000E+01  0.00000000E+00
  1.40000000E+02  4.20000000E+01  0.00000000E+00
  1.40000000E+02  4.00000000E+01  0.00000000E+00
  1.40000000E+02  3.80000000E+01  0.00000000E+00
  1.40000000E+02  3.60000000E+01  0.00000000E+00
  1.40000000E+02  3.40000000E+01  0.00000000E+00
  1.40000000E+02  3.20000000E+01  0.00000000E+00
  1.40000000E+02  3.00000000E+01  0.00000000E+00
  1.40000000E+02  2.80000000E+01  0.00000000E+00
  1.40000000E+02  2.60000000E+01  0.00000000E+00
  1.40000000E+02  2.40000000E+01  0.00000000E+00
  1.40000000E+02  2.20000000E+01  0.00000000E+00
  1.40000000E+02  2.00000000E+01  0.00000000E+00
  1.40000000E+02  1.80000000E+01  0.00000000E+00
  1.40000000E+02  1.60000000E+01  0.00000000E+00
  1.40000000E+02  1.40000000E+01  0.00000000E+00
  1.40000000E+02  1.20000000E+01  0.00000000E+00
  1.40000000E+02  1.00000000E+01  0.00000000E+00
  1.40000000E+02  8.00000000E+00  0.00000000E+00
  1.40000000E+02  6.00000000E+00  0.00000000E+00
  1.40000000E+02  4.00000000E+00  0.00000000E+00
  1.40000000E+02  2.00000000E+00  0.00000000E+00
  1.40000000E+02 -3.33066907E-14  0.00000000E+00
  1.50000000E+02  1.00000000E+02  0.00000000E+00
  1.50000000E+02  9.80000000E+01  0.00000000E+00
  1.50000000E+02  9.60000000E+01  0.00000000E+00
  1.50000000E+02  9.40000000E+01  0.00000000E+00
  1.50000000E+02  9.20000000E+01  0.00000000E+00
  1.50000000E+02  9.00000000E+01  0.00000000E+00
  1.50000000E+02  8.80000000E+01  0.00000000E+00
  1.50000000E+02  8.60000000E+01  0.00000000E+00
  1.50000000E+02  8.40000000E+01  0.00000000E+00
  1.50000000E+02  8.20000000E+01  0.00000000E+00
  1.50000000E+02  8.00000000E+01  0.00000000E+00
  1.50000000E+02  7.80000000E+01  0.00000000E+00
  1.50000000E+02  7.60000000E+01  0.00000000E+00
  1.50000000E+02  7.40000000E+01  0.00000000E+00
  1.50000000E+02  7.20000000E+01  0.00000000E+00
  1.50000000E+02  7.00000000E+01  0.00000000E+00
  1.50000000E+02  6.80000000E+01  0.00000000E+00
  1.50000000E+02  6.60000000E+01  0.00000000E+00
  1.50000000E+02  6.40000000E+01  0.00000000E+00
  1.50000000E+02  6.20000000E+01  0.00000000E+00
  1.50000000E+02  6.00000000E+01  0.00000000E+00
  1.50000000E+02  5.80000000E+01  0.00000000E+00
  1.50000000E+02  5.60000000E+01  0.00000000E+00
  1.50000000E+02  5.40000000E+01  0.00000000E+00
  1.50000000E+02  5.20000000E+01  0.00000000E+00
  1.50000000E+02  5.00000000E+01  0.00000000E+00
  1.50000000E+02  4.80000000E+01  0.00000000E+00
  1.50000000E+02  4.60000000E+01  0.00000000E+00
  1.50000000E+02  4.40000000E+01  0.00000000E+00
  1.50000000E+02  4.20000000E+01  0.00000000E+00
  1.50000000E+02  4.00000000E+01  0.00000000E+00
  1.50000000E+02  3.80000000E+01  0.00000000E+00
  1.50000000E+02  3.60000000E+01  0.00000000E+00
  1.50000000E+02  3.40000000E+01  0.00000000E+00
  1.50000000E+02  3.20000000E+01  0.00000000E+00
  1.50000000E+02  3.00000000E+01  0.00000000E+00
  1.50000000E+02  2.80000000E+01  0.00000000E+00
  1.50000000E+02  2.60000000E+01  0.00000000E+00
  1.50000000E+02  2.40000000E+01  0.00000000E+00
  1.50000000E+02  2.20000000E+01  0.00000000E+00
  1.50000000E+02  2.00000000E+01  0.00000000E+00
  1.50000000E+02  1.80000000E+01  0.00000000E+00
  1.50000000E+02  1.60000000E+01  0.00000000E+00
  1.50000000E+02  1.40000000E+01  0.00000000E+00
  1.50000000E+02  1.20000000E+01  0.00000000E+00
  1.50000000E+02  1.00000000E+01  0.00000000E+00
  1.50000000E+02  8.00000000E+00  0.00000000E+00
  1.50000000E+02  6.00000000E+00  0.00000000E+00
  1.50000000E+02  4.00000000E+00  0.00000000E+00
  1.50000000E+02  2.00000000E+00  0.00000000E+00
  1.50000000E+02 -3.33066907E-14  0.00000000E+00
  1.60000000E+02  1.00000000E+02  0.00000000E+00
  1.60000000E+02  9.80000000E+01  0.00000000E+00
  1.60000000E+02  9.60000000E+01  0.00000000E+00
  1.60000000E+02  9.40000000E+01  0.00000000E+00
  1.60000000E+02  9.20000000E+01  0.00000000E+00
  1.60000000E+02  9.00000000E+01  0.00000000E+00
  1.60000000E+02  8.80000000E+01  0.00000000E+00
  1.60000000E+02  8.60000000E+01  0.00000000E+00
  1.60000000E+02  8.40000000E+01  0.00000000E+00
  1.60000000E+02  8.20000000E+01  0.00000000E+00
  1.60000000E+02  8.00000000E+01  0.00000000E+00
  1.60000000E+02  7.80000000E+01  0.00000000E+00
  1.60000000E+02  7.60000000E+01  0.00000000E+00
  1.60000000E+02  7.40000000E+01  0.00000000E+00
  1.60000000E+02  7.20000000E+01  0.00000000E+00
  1.60000000E+02  7.00000000E+01  0.00000000E+00
  1.60000000E+02  6.80000000E+01  0.00000000E+00
  1.60000000E+02  6.60000000E+01  0.00000000E+00
  1.60000000E+02  6.40000000E+01  0.00000000E+00
  1.60000000E+02  6.20000000E+01  0.00000000E+00
  1.60000000E+02  6.00000000E+01  0.00000000E+00
  1.60000000E+02  5.80000000E+01  0.00000000E+00
  1.60000000E+02  5.60000000E+01  0.00000000E+00
  1.60000000E+02  5.40000000E+01  0.00000000E+00
  1.60000000E+02  5.20000000E+01  0.00000000E+00
  1.60000000E+02  5.00000000E+01  0.00000000E+00
  1.60000000E+02  4.80000000E+01  0.00000000E+00
  1.60000000E+02  4.60000000E+01  0.00000000E+00
  1.60000000E+02  4.40000000E+01  0.00000000E+00
  1.60000000E+02  4.20000000E+01  0.00000000E+00
  1.60000000E+02  4.00000000E+01  0.00000000E+00
  1.60000000E+02  3.80000000E+01  0.00000000E+00
  1.60000000E+02  3.60000000E+01  0.00000000E+00
  1.60000000E+02  3.40000000E+01  0.00000000E+00
  1.60000000E+02  3.20000000E+01  0.00000000E+00
  1.60000000E+02  3.00000000E+01  0.00000000E+00
  1.60000000E+02  2.80000000E+01  0.00000000E+00
  1.60000000E+02  2.60000000E+01  0.00000000E+00
  1.60000000E+02  2.40000000E+01  0.00000000E+00
  1.60000000E+02  2.20000000E+01  0.00000000E+00
  1.60000000E+02  2.00000000E+01  0.00000000E+00
  1.60000000E+02  1.80000000E+01  0.00000000E+00
  1.60000000E+02  1.60000000E+01  0.00000000E+00
  1.60000000E+02  1.40000000E+01  0.00000000E+00
  1.60000000E+02  1.20000000E+01  0.00000000E+00
  1.60000000E+02  1.00000000E+01  0.00000000E+00
  1.60000000E+02  8.00000000E+00  0.00000000E+00
  1.60000000E+02  6.00000000E+00  0.00000000E+00
  1.60000000E+02  4.00000000E+00  0.00000000E+00
  1.60000000E+02  2.00000000E+00  0.00000000E+00
  1.60000000E+02 -3.33066907E-14  0.00000000E+00
  1.70000000E+02  1.00000000E+02  0.00000000E+00
  1.70000000E+02  9.80000000E+01  0.00000000E+00
  1.70000000E+02  9.60000000E+01  0.00000000E+00
  1.70000000E+02  9.40000000E+01  0.00000000E+00
  1.70000000E+02  9.20000000E+01  0.00000000E+00
  1.70000000E+02  9.00000000E+01  0.00000000E+00
  1.70000000E+02  8.80000000E+01  0.00000000E+00
  1.70000000E+02  8.60000000E+01  0.00000000E+00
  1.70000000E+02  8.40000000E+01  0.00000000E+00
  1.70000000E+02  8.20000000E+01  0.00000000E+00
  1.70000000E+02  8.00000000E+01  0.00000000E+00
  1.70000000E+02  7.80000000E+01  0.00000000E+00
  1.70000000E+02  7.60000000E+01  0.00000000E+00
  1.70000000E+02  7.40000000E+01  0.00000000E+00
  1.70000000E+02  7.20000000E+01  0.00000000E+00
  1.70000000E+02  7.00000000E+01  0.00000000E+00
  1.70000000E+02  6.80000000E+01  0.00000000E+00
  1.70000000E+02  6.60000000E+01  0.00000000E+00
  1.70000000E+02  6.40000000E+01  0.00000000E+00
  1.70000000E+02  6.20000000E+01  0.00000000E+00
  1.70000000E+02  6.00000000E+01  0.00000000E+00
  1.70000000E+02  5.80000000E+01  0.00000000E+00
  1.70000000E+02  5.60000000E+01  0.00000000E+00
  1.70000000E+02  5.40000000E+01  0.00000000E+00
  1.70000000E+02  5.20000000E+01  0.00000000E+00
  1.70000000E+02  5.00000000E+01  0.00000000E+00
  1.70000000E+02  4.80000000E+01  0.00000000E+00
  1.70000000E+02  4.60000000E+01  0.00000000E+00
  1.70000000E+02  4.40000000E+01  0.00000000E+00
  1.70000000E+02  4.20000000E+01  0.00000000E+00
  1.70000000E+02  4.00000000E+01  0.00000000E+00
  1.70000000E+02  3.80000000E+01  0.00000000E+00
  1.70000000E+02  3.60000000E+01  0.00000000E+00
  1.70000000E+02  3.40000000E+01  0.00000000E+00
  1.70000000E+02  3.20000000E+01  0.00000000E+00
  1.70000000E+02  3.00000000E+01  0.00000000E+00
  1.70000000E+02  2.80000000E+01  0.00000000E+00
  1.70000000E+02  2.60000000E+01  0.00000000E+00
  1.70000000E+02  2.40000000E+01  0.00000000E+00
  1.70000000E+02  2.20000000E+01  0.00000000E+00
  1.70000000E+02  2.00000000E+01  0.00000000E+00
  1.70000000E+02  1.80000000E+01  0.00000000E+00
  1.70000000E+02  1.60000000E+01  0.00000000E+00
  1.70000000E+02  1.40000000E+01  0.00000000E+00
  1.70000000E+02  1.20000000E+01  0.00000000E+00
  1.70000000E+02  1.00000000E+01  0.00000000E+00
  1.70000000E+02  8.00000000E+00  0.00000000E+00
  1.70000000E+02  6.00000000E+00  0.00000000E+00
  1.70000000E+02  4.00000000E+00  0.00000000E+00
  1.70000000E+02  2.00000000E+00  0.00000000E+00
  1.70000000E+02 -3.33066907E-14  0.00000000E+00
  1.80000000E+02  1.00000000E+02  0.00000000E+00
  1.80000000E+02  9.80000000E+01  0.00000000E+00
  1.80000000E+02  9.60000000E+01  0.00000000E+00
  1.80000000E+02  9.40000000E+01  0.00000000E+00
  1.80000000E+02  9.20000000E+01  0.00000000E+00
  1.80000000E+02  9.00000000E+01  0.00000000E+00
  1.80000000E+02  8.80000000E+01  0.00000000E+00
  1.80000000E+02  8.60000000E+01  0.00000000E+00
  1.80000000E+02  8.40000000E+01  0.00000000E+00
  1.80000000E+02  8.20000000E+01  0.00000000E+00
  1.80000000E+02  8.00000000E+01  0.00000000E+00
  1.80000000E+02  7.80000000E+01  0.00000000E+00
  1.80000000E+02  7.60000000E+01  0.00000000E+00
  1.80000000E+02  7.40000000E+01  0.00000000E+00
  1.80000000E+02  7.20000000E+01  0.00000000E+00
  1.80000000E+02  7.00000000E+01  0.00000000E+00
  1.80000000E+02  6.80000000E+01  0.00000000E+00
  1.80000000E+02  6.60000000E+01  0.00000000E+00
  1.80000000E+02  6.40000000E+01  0.00000000E+00
  1.80000000E+02  6.20000000E+01  0.00000000E+00
  1.80000000E+02  6.00000000E+01  0.00000000E+00
  1.80000000E+02  5.80000000E+01  0.00000000E+00
  1.80000000E+02  5.60000000E+01  0.00000000E+00
  1.80000000E+02  5.40000000E+01  0.00000000E+00
  1.80000000E+02  5.20000000E+01  0.00000000E+00
  1.80000000E+02  5.00000000E+01  0.00000000E+00
  1.80000000E+02  4.80000000E+01  0.00000000E+00
  1.80000000E+02  4.60000000E+01  0.00000000E+00
  1.80000000E+02  4.40000000E+01  0.00000000E+00
  1.80000000E+02  4.20000000E+01  0.00000000E+00
  1.80000000E+02  4.00000000E+01  0.00000000E+00
  1.80000000E+02  3.80000000E+01  0.00000000E+00
  1.80000000E+02  3.60000000E+01  0.00000000E+00
  1.80000000E+02  3.40000000E+01  0.00000000E+00
  1.80000000E+02  3.20000000E+01  0.00000000E+00
  1.80000000E+02  3.00000000E+01  0.00000000E+00
  1.80000000E+02  2.80000000E+01  0.00000000E+00
  1.80000000E+02  2.60000000E+01  0.00000000E+00
  1.80000000E+02  2.40000000E+01  0.00000000E+00
  1.80000000E+02  2.20000000E+01  0.00000000E+00
  1.80000000E+02  2.00000000E+01  0.00000000E+00
  1.80000000E+02  1.80000000E+01  0.00000000E+00
  1.80000000E+02  1.60000000E+01  0.00000000E+00
  1.80000000E+02  1.40000000E+01  0.00000000E+00
  1.80000000E+02  1.20000000E+01  0.00000000E+00
  1.80000000E+02  1.00000000E+01  0.00000000E+00
  1.80000000E+02  8.00000000E+00  0.00000000E+00
  1.80000000E+02  6.00000000E+00  0.00000000E+00
  1.80000000E+02  4.00000000E+00  0.00000000E+00
  1.80000000E+02  2.00000000E+00  0.00000000E+00
  1.80000000E+02 -3.33066907E-14  0.00000000E+00
  1.90000000E+02  1.00000000E+02  0.00000000E+00
  1.90000000E+02  9.80000000E+01  0.00000000E+00
  1.90000000E+02  9.60000000E+01  0.00000000E+00
  1.90000000E+02  9.40000000E+01  0.00000000E+00
  1.90000000E+02  9.20000000E+01  0.00000000E+00
  1.90000000E+02  9.00000000E+01  0.00000000E+00
  1.90000000E+02  8.80000000E+01  0.00000000E+00
  1.90000000E+02  8.60000000E+01  0.00000000E+00
  1.90000000E+02  8.40000000E+01  0.00000000E+00
  1.90000000E+02  8.20000000E+01  0.00000000E+00
  1.90000000E+02  8.00000000E+01  0.00000000E+00
  1.90000000E+02  7.80000000E+01  0.00000000E+00
  1.90000000E+02  7.60000000E+01  0.00000000E+00
  1.90000000E+02  7.40000000E+01  0.00000000E+00
  1.90000000E+02  7.20000000E+01  0.00000000E+00
  1.90000000E+02  7.00000000E+01  0.00000000E+00
  1.90000000E+02  6.80000000E+01  0.00000000E+00
  1.90000000E+02  6.60000000E+01  0.00000000E+00
  1.90000000E+02  6.40000000E+01  0.00000000E+00
  1.90000000E+02  6.20000000E+01  0.00000000E+00
  1.90000000E+02  6.00000000E+01  0.00000000E+00
  1.90000000E+02  5.80000000E+01  0.00000000E+00
  1.90000000E+02  5.60000000E+01  0.00000000E+00
  1.90000000E+02  5.40000000E+01  0.00000000E+00
  1.90000000E+02  5.20000000E+01  0.00000000E+00
  1.90000000E+02  5.00000000E+01  0.00000000E+00
  1.90000000E+02  4.80000000E+01  0.00000000E+00
  1.90000000E+02  4.60000000E+01  0.00000000E+00
  1.90000000E+02  4.40000000E+01  0.00000000E+00
  1.90000000E+02  4.20000000E+01  0.00000000E+00
  1.90000000E+02  4.00000000E+01  0.00000000E+00
  1.90000000E+02  3.80000000E+01  0.00000000E+00
  1.90000000E+02  3.60000000E+01  0.00000000E+00
  1.90000000E+02  3.40000000E+01  0.00000000E+00
  1.90000000E+02  3.20000000E+01  0.00000000E+00
  1.90000000E+02  3.00000000E+01  0.00000000E+00
  1.90000000E+02  2.80000000E+01  0.00000000E+00
  1.90000000E+02  2.60000000E+01  0.00000000E+00
  1.90000000E+02  2.40000000E+01  0.00000000E+00
  1.90000000E+02  2.20000000E+01  0.00000000E+00
  1.90000000E+02  2.00000000E+01  0.00000000E+00
  1.90000000E+02  1.80000000E+01  0.00000000E+00
  1.90000000E+02  1.60000000E+01  0.00000000E+00
  1.90000000E+02  1.40000000E+01  0.00000000E+00
  1.90000000E+02  1.20000000E+01  0.00000000E+00
  1.90000000E+02  1.00000000E+01  0.00000000E+00
  1.90000000E+02  8.00000000E+00  0.00000000E+00
  1.90000000E+02  6.00000000E+00  0.00000000E+00
  1.90000000E+02  4.00000000E+00  0.00000000E+00
  1.90000000E+02  2.00000000E+00  0.00000000E+00
  1.90000000E+02 -3.33066907E-14  0.00000000E+00
  2.00000000E+02  1.00000000E+02  0.00000000E+00
  2.00000000E+02  9.80000000E+01  0.00000000E+00
  2.00000000E+02  9.60000000E+01  0.00000000E+00
  2.00000000E+02  9.40000000E+01  0.00000000E+00
  2.00000000E+02  9.20000000E+01  0.00000000E+00
  2.00000000E+02  9.00000000E+01  0.00000000E+00
  2.00000000E+02  8.80000000E+01  0.00000000E+00
  2.00000000E+02  8.60000000E+01  0.00000000E+00
  2.00000000E+02  8.40000000E+01  0.00000000E+00
  2.00000000E+02  8.20000000E+01  0.00000000E+00
  2.00000000E+02  8.00000000E+01  0.00000000E+00
  2.00000000E+02  7.80000000E+01  0.00000000E+00
  2.00000000E+02  7.60000000E+01  0.00000000E+00
  2.00000000E+02  7.40000000E+01  0.00000000E+00
  2.00000000E+02  7.20000000E+01  0.00000000E+00
  2.00000000E+02  7.00000000E+01  0.00000000E+00
  2.00000000E+02  6.80000000E+01  0.00000000E+00
  2.00000000E+02  6.60000000E+01  0.00000000E+00
  2.00000000E+02  6.40000000E+01  0.00000000E+00
  2.00000000E+02  6.20000000E+01  0.00000000E+00
  2.00000000E+02  6.00000000E+01  0.00000000E+00
  2.00000000E+02  5.80000000E+01  0.00000000E+00
  2.00000000E+02  5.60000000E+01  0.00000000E+00
  2.00000000E+02  5.40000000E+01  0.00000000E+00
  2.00000000E+02  5.20000000E+01  0.00000000E+00
  2.00000000E+02  5.00000000E+01  0.00000000E+00
  2.00000000E+02  4.80000000E+01  0.00000000E+00
  2.00000000E+02  4.60000000E+01  0.00000000E+00
  2.00000000E+02  4.40000000E+01  0.00000000E+00
  2.00000000E+02  4.20000000E+01  0.00000000E+00
  2.00000000E+02  4.00000000E+01  0.00000000E+00
  2.00000000E+02  3.80000000E+01  0.00000000E+00
  2.00000000E+02  3.60000000E+01  0.00000000E+00
  2.00000000E+02  3.40000000E+01  0.00000000E+00
  2.00000000E+02  3.20000000E+01  0.00000000E+00
  2.00000000E+02  3.00000000E+01  0.00000000E+00
  2.00000000E+02  2.80000000E+01  0.00000000E+00
  2.00000000E+02  2.60000000E+01  0.00000000E+00
  2.00000000E+02  2.40000000E+01  0.00000000E+00
  2.00000000E+02  2.20000000E+01  0.00000000E+00
  2.00000000E+02  2.00000000E+01  0.00000000E+00
  2.00000000E+02  1.80000000E+01  0.00000000E+00
  2.00000000E+02  1.60000000E+01  0.00000000E+00
  2.00000000E+02  1.40000000E+01  0.00000000E+00
  2.00000000E+02  1.20000000E+01  0.00000000E+00
  2.00000000E+02  1.00000000E+01  0.00000000E+00
  2.00000000E+02  8.00000000E+00  0.00000000E+00
  2.00000000E+02  6.00000000E+00  0.00000000E+00
  2.00000000E+02  4.00000000E+00  0.00000000E+00
  2.00000000E+02  2.00000000E+00  0.00000000E+00
  2.00000000E+02 -3.33066907E-14  0.00000000E+00
  2.10000000E+02  1.00000000E+02  0.00000000E+00
  2.10000000E+02  9.80000000E+01  0.00000000E+00
  2.10000000E+02  9.60000000E+01  0.00000000E+00
  2.10000000E+02  9.40000000E+01  0.00000000E+00
  2.10000000E+02  9.20000000E+01  0.00000000E+00
  2.10000000E+02  9.00000000E+01  0.00000000E+00
  2.10000000E+02  8.80000000E+01  0.00000000E+00
  2.10000000E+02  8.60000000E+01  0.00000000E+00
  2.10000000E+02  8.40000000E+01  0.00000000E+00
  2.10000000E+02  8.20000000E+01  0.00000000E+00
  2.10000000E+02  8.00000000E+01  0.00000000E+00
  2.10000000E+02  7.80000000E+01  0.00000000E+00
  2.10000000E+02  7.60000000E+01  0.00000000E+00
  2.10000000E+02  7.40000000E+01  0.00000000E+00
  2.10000000E+02  7.20000000E+01  0.00000000E+00
  2.10000000E+02  7.00000000E+01  0.00000000E+00
  2.10000000E+02  6.80000000E+01  0.00000000E+00
  2.10000000E+02  6.60000000E+01  0.00000000E+00
  2.10000000E+02  6.40000000E+01  0.00000000E+00
  2.10000000E+02  6.20000000E+01  0.00000000E+00
  2.10000000E+02  6.00000000E+01  0.00000000E+00
  2.10000000E+02  5.80000000E+01  0.00000000E+00
  2.10000000E+02  5.60000000E+01  0.00000000E+00
  2.10000000E+02  5.40000000E+01  0.00000000E+00
  2.10000000E+02  5.20000000E+01  0.00000000E+00
  2.10000000E+02  5.00000000E+01  0.00000000E+00
  2.10000000E+02  4.80000000E+01  0.00000000E+00
  2.10000000E+02  4.60000000E+01  0.00000000E+00
  2.10000000E+02  4.40000000E+01  0.00000000E+00
  2.10000000E+02  4.20000000E+01  0.00000000E+00
  2.10000000E+02  4.00000000E+01  0.00000000E+00
  2.10000000E+02  3.80000000E+01  0.00000000E+00
  2.10000000E+02  3.60000000E+01  0.00000000E+00
  2.10000000E+02  3.40000000E+01  0.00000000E+00
  2.10000000E+02  3.20000000E+01  0.00000000E+00
  2.10000000E+02  3.00000000E+01  0.00000000E+00
  2.10000000E+02  2.80000000E+01  0.00000000E+00
  2.10000000E+02  2.60000000E+01  0.00000000E+00
  2.10000000E+02  2.40000000E+01  0.00000000E+00
  2.10000000E+02  2.20000000E+01  0.00000000E+00
  2.10000000E+02  2.00000000E+01  0.00000000E+00
  2.10000000E+02  1.80000000E+01  0.00000000E+00
  2.10000000E+02  1.60000000E+01  0.00000000E+00
  2.10000000E+02  1.40000000E+01  0.00000000E+00
  2.10000000E+02  1.20000000E+01  0.00000000E+00
  2.10000000E+02  1.00000000E+01  0.00000000E+00
  2.10000000E+02  8.00000000E+00  0.00000000E+00
  2.10000000E+02  6.00000000E+00  0.00000000E+00
  2.10000000E+02  4.00000000E+00  0.00000000E+00
  2.10000000E+02  2.00000000E+00  0.00000000E+00
  2.10000000E+02 -3.33066907E-14  0.00000000E+00
  2.20000000E+02  1.00000000E+02  0.00000000E+00
  2.20000000E+02  9.80000000E+01  0.00000000E+00
  2.20000000E+02  9.60000000E+01  0.00000000E+00
  2.20000000E+02  9.40000000E+01  0.00000000E+00
  2.20000000E+02  9.20000000E+01  0.00000000E+00
  2.20000000E+02  9.00000000E+01  0.00000000E+00
  2.20000000E+02  8.80000000E+01  0.00000000E+00
  2.20000000E+02  8.60000000E+01  0.00000000E+00
  2.20000000E+02  8.40000000E+01  0.00000000E+00
  2.20000000E+02  8.20000000E+01  0.00000000E+00
  2.20000000E+02  8.00000000E+01  0.00000000E+00
  2.20000000E+02  7.80000000E+01  0.00000000E+00
  2.20000000E+02  7.60000000E+01  0.00000000E+00
  2.20000000E+02  7.40000000E+01  0.00000000E+00
  2.20000000E+02  7.20000000E+01  0.00000000E+00
  2.20000000E+02  7.00000000E+01  0.00000000E+00
  2.20000000E+02  6.80000000E+01  0.00000000E+00
  2.20000000E+02  6.60000000E+01  0.00000000E+00
  2.20000000E+02  6.40000000E+01  0.00000000E+00
  2.20000000E+02  6.20000000E+01  0.00000000E+00
  2.20000000E+02  6.00000000E+01  0.00000000E+00
  2.20000000E+02  5.80000000E+01  0.00000000E+00
  2.20000000E+02  5.60000000E+01  0.00000000E+00
  2.20000000E+02  5.40000000E+01  0.00000000E+00
  2.20000000E+02  5.20000000E+01  0.00000000E+00
  2.20000000E+02  5.00000000E+01  0.00000000E+00
  2.20000000E+02  4.80000000E+01  0.00000000E+00
  2.20000000E+02  4.60000000E+01  0.00000000E+00
  2.20000000E+02  4.40000000E+01  0.00000000E+00
  2.20000000E+02  4.20000000E+01  0.00000000E+00
  2.20000000E+02  4.00000000E+01  0.00000000E+00
  2.20000000E+02  3.80000000E+01  0.00000000E+00
  2.20000000E+02  3.60000000E+01  0.00000000E+00
  2.20000000E+02  3.40000000E+01  0.00000000E+00
  2.20000000E+02  3.20000000E+01  0.00000000E+00
  2.20000000E+02  3.00000000E+01  0.00000000E+00
  2.20000000E+02  2.80000000E+01  0.00000000E+00
  2.20000000E+02  2.60000000E+01  0.00000000E+00
  2.20000000E+02  2.40000000E+01  0.00000000E+00
  2.20000000E+02  2.20000000E+01  0.00000000E+00
  2.20000000E+02  2.00000000E+01  0.00000000E+00
  2.20000000E+02  1.80000000E+01  0.00000000E+00
  2.20000000E+02  1.60000000E+01  0.00000000E+00
  2.20000000E+02  1.40000000E+01  0.00000000E+00
  2.20000000E+02  1.20000000E+01  0.00000000E+00
  2.20000000E+02  1.00000000E+01  0.00000000E+00
  2.20000000E+02  8.00000000E+00  0.00000000E+00
  2.20000000E+02  6.00000000E+00  0.00000000E+00
  2.20000000E+02  4.00000000E+00  0.00000000E+00
  2.20000000E+02  2.00000000E+00  0.00000000E+00
  2.20000000E+02 -3.33066907E-14  0.00000000E+00
  2.30000000E+02  1.00000000E+02  0.00000000E+00
  2.30000000E+02  9.80000000E+01  0.00000000E+00
  2.30000000E+02  9.60000000E+01  0.00000000E+00
  2.30000000E+02  9.40000000E+01  0.00000000E+00
  2.30000000E+02  9.20000000E+01  0.00000000E+00
  2.30000000E+02  9.00000000E+01  0.00000000E+00
  2.30000000E+02  8.80000000E+01  0.00000000E+00
  2.30000000E+02  8.60000000E+01  0.00000000E+00
  2.30000000E+02  8.40000000E+01  0.00000000E+00
  2.30000000E+02  8.20000000E+01  0.00000000E+00
  2.30000000E+02  8.00000000E+01  0.00000000E+00
  2.30000000E+02  7.80000000E+01  0.00000000E+00
  2.30000000E+02  7.60000000E+01  0.00000000E+00
  2.30000000E+02  7.40000000E+01  0.00000000E+00
  2.30000000E+02  7.20000000E+01  0.00000000E+00
  2.30000000E+02  7.00000000E+01  0.00000000E+00
  2.30000000E+02  6.80000000E+01  0.00000000E+00
  2.30000000E+02  6.60000000E+01  0.00000000E+00
  2.30000000E+02  6.40000000E+01  0.00000000E+00
  2.30000000E+02  6.20000000E+01  0.00000000E+00
  2.30000000E+02  6.00000000E+01  0.00000000E+00
  2.30000000E+02  5.80000000E+01  0.00000000E+00
  2.30000000E+02  5.60000000E+01  0.00000000E+00
  2.30000000E+02  5.40000000E+01  0.00000000E+00
  2.30000000E+02  5.20000000E+01  0.00000000E+00
  2.30000000E+02  5.00000000E+01  0.00000000E+00
  2.30000000E+02  4.80000000E+01  0.00000000E+00
  2.30000000E+02  4.60000000E+01  0.00000000E+00
  2.30000000E+02  4.40000000E+01  0.00000000E+00
  2.30000000E+02  4.20000000E+01  0.00000000E+00
  2.30000000E+02  4.00000000E+01  0.00000000E+00
  2.30000000E+02  3.80000000E+01  0.00000000E+00
  2.30000000E+02  3.60000000E+01  0.00000000E+00
  2.30000000E+02  3.40000000E+01  0.00000000E+00
  2.30000000E+02  3.20000000E+01  0.00000000E+00
  2.30000000E+02  3.00000000E+01  0.00000000E+00
  2.30000000E+02  2.80000000E+01  0.00000000E+00
  2.30000000E+02  2.60000000E+01  0.00000000E+00
  2.30000000E+02  2.40000000E+01  0.00000000E+00
  2.30000000E+02  2.20000000E+01  0.00000000E+00
  2.30000000E+02  2.00000000E+01  0.00000000E+00
  2.30000000E+02  1.80000000E+01  0.00000000E+00
  2.30000000E+02  1.60000000E+01  0.00000000E+00
  2.30000000E+02  1.40000000E+01  0.00000000E+00
  2.30000000E+02  1.20000000E+01  0.00000000E+00
  2.30000000E+02  1.00000000E+01  0.00000000E+00
  2.30000000E+02  8.00000000E+00  0.00000000E+00
  2.30000000E+02  6.00000000E+00  0.00000000E+00
  2.30000000E+02  4.00000000E+00  0.00000000E+00
  2.30000000E+02  2.00000000E+00  0.00000000E+00
  2.30000000E+02 -3.33066907E-14  0.00000000E+00
  2.40000000E+02  1.00000000E+02  0.00000000E+00
  2.40000000E+02  9.80000000E+01  0.00000000E+00
  2.40000000E+02  9.60000000E+01  0.00000000E+00
  2.40000000E+02  9.40000000E+01  0.00000000E+00
  2.40000000E+02  9.20000000E+01  0.00000000E+00
  2.40000000E+02  9.00000000E+01  0.00000000E+00
  2.40000000E+02  8.80000000E+01  0.00000000E+00
  2.40000000E+02  8.60000000E+01  0.00000000E+00
  2.40000000E+02  8.40000000E+01  0.00000000E+00
  2.40000000E+02  8.20000000E+01  0.00000000E+00
  2.40000000E+02  8.00000000E+01  0.00000000E+00
  2.40000000E+02  7.80000000E+01  0.00000000E+00
  2.40000000E+02  7.60000000E+01  0.00000000E+00
  2.40000000E+02  7.40000000E+01  0.00000000E+00
  2.40000000E+02  7.20000000E+01  0.00000000E+00
  2.40000000E+02  7.00000000E+01  0.00000000E+00
  2.40000000E+02  6.80000000E+01  0.00000000E+00
  2.40000000E+02  6.60000000E+01  0.00000000E+00
  2.40000000E+02  6.40000000E+01  0.00000000E+00
  2.40000000E+02  6.20000000E+01  0.00000000E+00
  2.40000000E+02  6.00000000E+01  0.00000000E+00
  2.40000000E+02  5.80000000E+01  0.00000000E+00
  2.40000000E+02  5.60000000E+01  0.00000000E+00
  2.40000000E+02  5.40000000E+01  0.00000000E+00
  2.40000000E+02  5.20000000E+01  0.00000000E+00
  2.40000000E+02  5.00000000E+01  0.00000000E+00
  2.40000000E+02  4.80000000E+01  0.00000000E+00
  2.40000000E+02  4.60000000E+01  0.00000000E+00
  2.40000000E+02  4.40000000E+01  0.00000000E+00
  2.40000000E+02  4.20000000E+01  0.00000000E+00
  2.40000000E+02  4.00000000E+01  0.00000000E+00
  2.40000000E+02  3.80000000E+01  0.00000000E+00
  2.40000000E+02  3.60000000E+01  0.00000000E+00
  2.40000000E+02  3.40000000E+01  0.00000000E+00
  2.40000000E+02  3.20000000E+01  0.00000000E+00
  2.40000000E+02  3.00000000E+01  0.00000000E+00
  2.40000000E+02  2.80000000E+01  0.00000000E+00
  2.40000000E+02  2.60000000E+01  0.00000000E+00
  2.40000000E+02  2.40000000E+01  0.00000000E+00
  2.40000000E+02  2.20000000E+01  0.00000000E+00
  2.40000000E+02  2.00000000E+01  0.00000000E+00
  2.40000000E+02  1.80000000E+01  0.00000000E+00
  2.40000000E+02  1.60000000E+01  0.00000000E+00
  2.40000000E+02  1.40000000E+01  0.00000000E+00
  2.40000000E+02  1.20000000E+01  0.00000000E+00
  2.40000000E+02  1.00000000E+01  0.00000000E+00
  2.40000000E+02  8.00000000E+00  0.00000000E+00
  2.40000000E+02  6.00000000E+00  0.00000000E+00
  2.40000000E+02  4.00000000E+00  0.00000000E+00
  2.40000000E+02  2.00000000E+00  0.00000000E+00
  2.40000000E+02 -3.33066907E-14  0.00000000E+00
  2.50000000E+02  1.00000000E+02  0.00000000E+00
  2.50000000E+02  9.80000000E+01  0.00000000E+00
  2.50000000E+02  9.60000000E+01  0.00000000E+00
  2.50000000E+02  9.40000000E+01  0.00000000E+00
  2.50000000E+02  9.20000000E+01  0.00000000E+00
  2.50000000E+02  9.00000000E+01  0.00000000E+00
  2.50000000E+02  8.80000000E+01  0.00000000E+00
  2.50000000E+02  8.60000000E+01  0.00000000E+00
  2.50000000E+02  8.40000000E+01  0.00000000E+00
  2.50000000E+02  8.20000000E+01  0.00000000E+00
  2.50000000E+02  8.00000000E+01  0.00000000E+00
  2.50000000E+02  7.80000000E+01  0.00000000E+00
  2.50000000E+02  7.60000000E+01  0.00000000E+00
  2.50000000E+02  7.40000000E+01  0.00000000E+00
  2.50000000E+02  7.20000000E+01  0.00000000E+00
  2.50000000E+02  7.00000000E+01  0.00000000E+00
  2.50000000E+02  6.80000000E+01  0.00000000E+00
  2.50000000E+02  6.60000000E+01  0.00000000E+00
  2.50000000E+02  6.40000000E+01  0.00000000E+00
  2.50000000E+02  6.20000000E+01  0.00000000E+00
  2.50000000E+02  6.00000000E+01  0.00000000E+00
  2.50000000E+02  5.80000000E+01  0.00000000E+00
  2.50000000E+02  5.60000000E+01  0.00000000E+00
  2.50000000E+02  5.40000000E+01  0.00000000E+00
  2.50000000E+02  5.20000000E+01  0.00000000E+00
  2.50000000E+02  5.00000000E+01  0.00000000E+00
  2.50000000E+02  4.80000000E+01  0.00000000E+00
  2.50000000E+02  4.60000000E+01  0.00000000E+00
  2.50000000E+02  4.40000000E+01  0.00000000E+00
  2.50000000E+02  4.20000000E+01  0.00000000E+00
  2.50000000E+02  4.00000000E+01  0.00000000E+00
  2.50000000E+02  3.80000000E+01  0.00000000E+00
  2.50000000E+02  3.60000000E+01  0.00000000E+00
  2.50000000E+02  3.40000000E+01  0.00000000E+00
  2.50000000E+02  3.20000000E+01  0.00000000E+00
  2.50000000E+02  3.00000000E+01  0.00000000E+00
  2.50000000E+02  2.80000000E+01  0.00000000E+00
  2.50000000E+02  2.60000000E+01  0.00000000E+00
  2.50000000E+02  2.40000000E+01  0.00000000E+00
  2.50000000E+02  2.20000000E+01  0.00000000E+00
  2.50000000E+02  2.00000000E+01  0.00000000E+00
  2.50000000E+02  1.80000000E+01  0.00000000E+00
  2.50000000E+02  1.60000000E+01  0.00000000E+00
  2.50000000E+02  1.40000000E+01  0.00000000E+00
  2.50000000E+02  1.20000000E+01  0.00000000E+00
  2.50000000E+02  1.00000000E+01  0.00000000E+00
  2.50000000E+02  8.00000000E+00  0.00000000E+00
  2.50000000E+02  6.00000000E+00  0.00000000E+00
  2.50000000E+02  4.00000000E+00  0.00000000E+00
  2.50000000E+02  2.00000000E+00  0.00000000E+00
  2.50000000E+02 -3.33066907E-14  0.00000000E+00
  2.60000000E+02  1.00000000E+02  0.00000000E+00
  2.60000000E+02  9.80000000E+01  0.00000000E+00
  2.60000000E+02  9.60000000E+01  0.00000000E+00
  2.60000000E+02  9.40000000E+01  0.00000000E+00
  2.60000000E+02  9.20000000E+01  0.00000000E+00
  2.60000000E+02  9.00000000E+01  0.00000000E+00
  2.60000000E+02  8.80000000E+01  0.00000000E+00
  2.60000000E+02  8.60000000E+01  0.00000000E+00
  2.60000000E+02  8.40000000E+01  0.00000000E+00
  2.60000000E+02  8.20000000E+01  0.00000000E+00
  2.60000000E+02  8.00000000E+01  0.00000000E+00
  2.60000000E+02  7.80000000E+01  0.00000000E+00
  2.60000000E+02  7.60000000E+01  0.00000000E+00
  2.60000000E+02  7.40000000E+01  0.00000000E+00
  2.60000000E+02  7.20000000E+01  0.00000000E+00
  2.60000000E+02  7.00000000E+01  0.00000000E+00
  2.60000000E+02  6.80000000E+01  0.00000000E+00
  2.60000000E+02  6.60000000E+01  0.00000000E+00
  2.60000000E+02  6.40000000E+01  0.00000000E+00
  2.60000000E+02  6.20000000E+01  0.00000000E+00
  2.60000000E+02  6.00000000E+01  0.00000000E+00
  2.60000000E+02  5.80000000E+01  0.00000000E+00
  2.60000000E+02  5.60000000E+01  0.00000000E+00
  2.60000000E+02  5.40000000E+01  0.00000000E+00
  2.60000000E+02  5.20000000E+01  0.00000000E+00
  2.60000000E+02  5.00000000E+01  0.00000000E+00
  2.60000000E+02  4.80000000E+01  0.00000000E+00
  2.60000000E+02  4.60000000E+01  0.00000000E+00
  2.60000000E+02  4.40000000E+01  0.00000000E+00
  2.60000000E+02  4.20000000E+01  0.00000000E+00
  2.60000000E+02  4.00000000E+01  0.00000000E+00
  2.60000000E+02  3.80000000E+01  0.00000000E+00
  2.60000000E+02  3.60000000E+01  0.00000000E+00
  2.60000000E+02  3.40000000E+01  0.00000000E+00
  2.60000000E+02  3.20000000E+01  0.00000000E+00
  2.60000000E+02  3.00000000E+01  0.00000000E+00
  2.60000000E+02  2.80000000E+01  0.00000000E+00
  2.60000000E+02  2.60000000E+01  0.00000000E+00
  2.60000000E+02  2.40000000E+01  0.00000000E+00
  2.60000000E+02  2.20000000E+01  0.00000000E+00
  2.60000000E+02  2.00000000E+01  0.00000000E+00
  2.60000000E+02  1.80000000E+01  0.00000000E+00
  2.60000000E+02  1.60000000E+01  0.00000000E+00
  2.60000000E+02  1.40000000E+01  0.00000000E+00
  2.60000000E+02  1.20000000E+01  0.00000000E+00
  2.60000000E+02  1.00000000E+01  0.00000000E+00
  2.60000000E+02  8.00000000E+00  0.00000000E+00
  2.60000000E+02  6.00000000E+00  0.00000000E+00
  2.60000000E+02  4.00000000E+00  0.00000000E+00
  2.60000000E+02  2.00000000E+00  0.00000000E+00
  2.60000000E+02 -3.33066907E-14  0.00000000E+00
  2.70000000E+02  1.00000000E+02  0.00000000E+00
  2.70000000E+02  9.80000000E+01  0.00000000E+00
  2.70000000E+02  9.60000000E+01  0.00000000E+00
  2.70000000E+02  9.40000000E+01  0.00000000E+00
  2.70000000E+02  9.20000000E+01  0.00000000E+00
  2.70000000E+02  9.00000000E+01  0.00000000E+00
  2.70000000E+02  8.80000000E+01  0.00000000E+00
  2.70000000E+02  8.60000000E+01  0.00000000E+00
  2.70000000E+02  8.40000000E+01  0.00000000E+00
  2.70000000E+02  8.20000000E+01  0.00000000E+00
  2.70000000E+02  8.00000000E+01  0.00000000E+00
  2.70000000E+02  7.80000000E+01  0.00000000E+00
  2.70000000E+02  7.60000000E+01  0.00000000E+00
  2.70000000E+02  7.40000000E+01  0.00000000E+00
  2.70000000E+02  7.20000000E+01  0.00000000E+00
  2.70000000E+02  7.00000000E+01  0.00000000E+00
  2.70000000E+02  6.80000000E+01  0.00000000E+00
  2.70000000E+02  6.60000000E+01  0.00000000E+00
  2.70000000E+02  6.40000000E+01  0.00000000E+00
  2.70000000E+02  6.20000000E+01  0.00000000E+00
  2.70000000E+02  6.00000000E+01  0.00000000E+00
  2.70000000E+02  5.80000000E+01  0.00000000E+00
  2.70000000E+02  5.60000000E+01  0.00000000E+00
  2.70000000E+02  5.40000000E+01  0.00000000E+00
  2.70000000E+02  5.20000000E+01  0.00000000E+00
  2.70000000E+02  5.00000000E+01  0.00000000E+00
  2.70000000E+02  4.80000000E+01  0.00000000E+00
  2.70000000E+02  4.60000000E+01  0.00000000E+00
  2.70000000E+02  4.40000000E+01  0.00000000E+00
  2.70000000E+02  4.20000000E+01  0.00000000E+00
  2.70000000E+02  4.00000000E+01  0.00000000E+00
  2.70000000E+02  3.80000000E+01  0.00000000E+00
  2.70000000E+02  3.60000000E+01  0.00000000E+00
  2.70000000E+02  3.40000000E+01  0.00000000E+00
  2.70000000E+02  3.20000000E+01  0.00000000E+00
  2.70000000E+02  3.00000000E+01  0.00000000E+00
  2.70000000E+02  2.80000000E+01  0.00000000E+00
  2.70000000E+02  2.60000000E+01  0.00000000E+00
  2.70000000E+02  2.40000000E+01  0.00000000E+00
  2.70000000E+02  2.20000000E+01  0.00000000E+00
  2.70000000E+02  2.00000000E+01  0.00000000E+00
  2.70000000E+02  1.80000000E+01  0.00000000E+00
  2.70000000E+02  1.60000000E+01  0.00000000E+00
  2.70000000E+02  1.40000000E+01  0.00000000E+00
  2.70000000E+02  1.20000000E+01  0.00000000E+00
  2.70000000E+02  1.00000000E+01  0.00000000E+00
  2.70000000E+02  8.00000000E+00  0.00000000E+00
  2.70000000E+02  6.00000000E+00  0.00000000E+00
  2.70000000E+02  4.00000000E+00  0.00000000E+00
  2.70000000E+02  2.00000000E+00  0.00000000E+00
  2.70000000E+02 -3.33066907E-14  0.00000000E+00
  2.80000000E+02  1.00000000E+02  0.00000000E+00
  2.80000000E+02  9.80000000E+01  0.00000000E+00
  2.80000000E+02  9.60000000E+01  0.00000000E+00
  2.80000000E+02  9.40000000E+01  0.00000000E+00
  2.80000000E+02  9.20000000E+01  0.00000000E+00
  2.80000000E+02  9.00000000E+01  0.00000000E+00
  2.80000000E+02  8.80000000E+01  0.00000000E+00
  2.80000000E+02  8.60000000E+01  0.00000000E+00
  2.80000000E+02  8.40000000E+01  0.00000000E+00
  2.80000000E+02  8.20000000E+01  0.00000000E+00
  2.80000000E+02  8.00000000E+01  0.00000000E+00
  2.80000000E+02  7.80000000E+01  0.00000000E+00
  2.80000000E+02  7.60000000E+01  0.00000000E+00
  2.80000000E+02  7.40000000E+01  0.00000000E+00
  2.80000000E+02  7.20000000E+01  0.00000000E+00
  2.80000000E+02  7.00000000E+01  0.00000000E+00
  2.80000000E+02  6.80000000E+01  0.00000000E+00
  2.80000000E+02  6.60000000E+01  0.00000000E+00
  2.80000000E+02  6.40000000E+01  0.00000000E+00
  2.80000000E+02  6.20000000E+01  0.00000000E+00
  2.80000000E+02  6.00000000E+01  0.00000000E+00
  2.80000000E+02  5.80000000E+01  0.00000000E+00
  2.80000000E+02  5.60000000E+01  0.00000000E+00
  2.80000000E+02  5.40000000E+01  0.00000000E+00
  2.80000000E+02  5.20000000E+01  0.00000000E+00
  2.80000000E+02  5.00000000E+01  0.00000000E+00
  2.80000000E+02  4.80000000E+01  0.00000000E+00
  2.80000000E+02  4.60000000E+01  0.00000000E+00
  2.80000000E+02  4.40000000E+01  0.00000000E+00
  2.80000000E+02  4.20000000E+01  0.00000000E+00
  2.80000000E+02  4.00000000E+01  0.00000000E+00
  2.80000000E+02  3.80000000E+01  0.00000000E+00
  2.80000000E+02  3.60000000E+01  0.00000000E+00
  2.80000000E+02  3.40000000E+01  0.00000000E+00
  2.80000000E+02  3.20000000E+01  0.00000000E+00
  2.80000000E+02  3.00000000E+01  0.00000000E+00
  2.80000000E+02  2.80000000E+01  0.00000000E+00
  2.80000000E+02  2.60000000E+01  0.00000000E+00
  2.80000000E+02  2.40000000E+01  0.00000000E+00
  2.80000000E+02  2.20000000E+01  0.00000000E+00
  2.80000000E+02  2.00000000E+01  0.00000000E+00
  2.80000000E+02  1.80000000E+01  0.00000000E+00
  2.80000000E+02  1.60000000E+01  0.00000000E+00
  2.80000000E+02  1.40000000E+01  0.00000000E+00
  2.80000000E+02  1.20000000E+01  0.00000000E+00
  2.80000000E+02  1.00000000E+01  0.00000000E+00
  2.80000000E+02  8.00000000E+00  0.00000000E+00
  2.80000000E+02  6.00000000E+00  0.00000000E+00
  2.80000000E+02  4.00000000E+00  0.00000000E+00
  2.80000000E+02  2.00000000E+00  0.00000000E+00
  2.80000000E+02 -3.33066907E-14  0.00000000E+00
  2.90000000E+02  1.00000000E+02  0.00000000E+00
  2.90000000E+02  9.80000000E+01  0.00000000E+00
  2.90000000E+02  9.60000000E+01  0.00000000E+00
  2.90000000E+02  9.40000000E+01  0.00000000E+00
  2.90000000E+02  9.20000000E+01  0.00000000E+00
  2.90000000E+02  9.00000000E+01  0.00000000E+00
  2.90000000E+02  8.80000000E+01  0.00000000E+00
  2.90000000E+02  8.60000000E+01  0.00000000E+00
  2.90000000E+02  8.40000000E+01  0.00000000E+00
  2.90000000E+02  8.20000000E+01  0.00000000E+00
  2.90000000E+02  8.00000000E+01  0.00000000E+00
  2.90000000E+02  7.80000000E+01  0.00000000E+00
  2.90000000E+02  7.60000000E+01  0.00000000E+00
  2.90000000E+02  7.40000000E+01  0.00000000E+00
  2.90000000E+02  7.20000000E+01  0.00000000E+00
  2.90000000E+02  7.00000000E+01  0.00000000E+00
  2.90000000E+02  6.80000000E+01  0.00000000E+00
  2.90000000E+02  6.60000000E+01  0.00000000E+00
  2.90000000E+02  6.40000000E+01  0.00000000E+00
  2.90000000E+02  6.20000000E+01  0.00000000E+00
  2.90000000E+02  6.00000000E+01  0.00000000E+00
  2.90000000E+02  5.80000000E+01  0.00000000E+00
  2.90000000E+02  5.60000000E+01  0.00000000E+00
  2.90000000E+02  5.40000000E+01  0.00000000E+00
  2.90000000E+02  5.20000000E+01  0.00000000E+00
  2.90000000E+02  5.00000000E+01  0.00000000E+00
  2.90000000E+02  4.80000000E+01  0.00000000E+00
  2.90000000E+02  4.60000000E+01  0.00000000E+00
  2.90000000E+02  4.40000000E+01  0.00000000E+00
  2.90000000E+02  4.20000000E+01  0.00000000E+00
  2.90000000E+02  4.00000000E+01  0.00000000E+00
  2.90000000E+02  3.80000000E+01  0.00000000E+00
  2.90000000E+02  3.60000000E+01  0.00000000E+00
  2.90000000E+02  3.40000000E+01  0.00000000E+00
  2.90000000E+02  3.20000000E+01  0.00000000E+00
  2.90000000E+02  3.00000000E+01  0.00000000E+00
  2.90000000E+02  2.80000000E+01  0.00000000E+00
  2.90000000E+02  2.60000000E+01  0.00000000E+00
  2.90000000E+02  2.40000000E+01  0.00000000E+00
  2.90000000E+02  2.20000000E+01  0.00000000E+00
  2.90000000E+02  2.00000000E+01  0.00000000E+00
  2.90000000E+02  1.80000000E+01  0.00000000E+00
  2.90000000E+02  1.60000000E+01  0.00000000E+00
  2.90000000E+02  1.40000000E+01  0.00000000E+00
  2.90000000E+02  1.20000000E+01  0.00000000E+00
  2.90000000E+02  1.00000000E+01  0.00000000E+00
  2.90000000E+02  8.00000000E+00  0.00000000E+00
  2.90000000E+02  6.00000000E+00  0.00000000E+00
  2.90000000E+02  4.00000000E+00  0.00000000E+00
  2.90000000E+02  2.00000000E+00  0.00000000E+00
  2.90000000E+02 -3.33066907E-14  0.00000000E+00
  3.00000000E+02  1.00000000E+02  0.00000000E+00
  3.00000000E+02  9.80000000E+01  0.00000000E+00
  3.00000000E+02  9.60000000E+01  0.00000000E+00
  3.00000000E+02  9.40000000E+01  0.00000000E+00
  3.00000000E+02  9.20000000E+01  0.00000000E+00
  3.00000000E+02  9.00000000E+01  0.00000000E+00
  3.00000000E+02  8.80000000E+01  0.00000000E+00
  3.00000000E+02  8.60000000E+01  0.00000000E+00
  3.00000000E+02  8.40000000E+01  0.00000000E+00
  3.00000000E+02  8.20000000E+01  0.00000000E+00
  3.00000000E+02  8.00000000E+01  0.00000000E+00
  3.00000000E+02  7.80000000E+01  0.00000000E+00
  3.00000000E+02  7.60000000E+01  0.00000000E+00
  3.00000000E+02  7.40000000E+01  0.00000000E+00
  3.00000000E+02  7.20000000E+01  0.00000000E+00
  3.00000000E+02  7.00000000E+01  0.00000000E+00
  3.00000000E+02  6.80000000E+01  0.00000000E+00
  3.00000000E+02  6.60000000E+01  0.00000000E+00
  3.00000000E+02  6.40000000E+01  0.00000000E+00
  3.00000000E+02  6.20000000E+01  0.00000000E+00
  3.00000000E+02  6.00000000E+01  0.00000000E+00
  3.00000000E+02  5.80000000E+01  0.00000000E+00
  3.00000000E+02  5.60000000E+01  0.00000000E+00
  3.00000000E+02  5.40000000E+01  0.00000000E+00
  3.00000000E+02  5.20000000E+01  0.00000000E+00
  3.00000000E+02  5.00000000E+01  0.00000000E+00
  3.00000000E+02  4.80000000E+01  0.00000000E+00
  3.00000000E+02  4.60000000E+01  0.00000000E+00
  3.00000000E+02  4.40000000E+01  0.00000000E+00
  3.00000000E+02  4.20000000E+01  0.00000000E+00
  3.00000000E+02  4.00000000E+01  0.00000000E+00
  3.00000000E+02  3.80000000E+01  0.00000000E+00
  3.00000000E+02  3.60000000E+01  0.00000000E+00
  3.00000000E+02  3.40000000E+01  0.00000000E+00
  3.00000000E+02  3.20000000E+01  0.00000000E+00
  3.00000000E+02  3.00000000E+01  0.00000000E+00
  3.00000000E+02  2.80000000E+01  0.00000000E+00
  3.00000000E+02  2.60000000E+01  0.00000000E+00
  3.00000000E+02  2.40000000E+01  0.00000000E+00
  3.00000000E+02  2.20000000E+01  0.00000000E+00
  3.00000000E+02  2.00000000E+01  0.00000000E+00
  3.00000000E+02  1.80000000E+01  0.00000000E+00
  3.00000000E+02  1.60000000E+01  0.00000000E+00
  3.00000000E+02  1.40000000E+01  0.00000000E+00
  3.00000000E+02  1.20000000E+01  0.00000000E+00
  3.00000000E+02  1.00000000E+01  0.00000000E+00
  3.00000000E+02  8.00000000E+00  0.00000000E+00
  3.00000000E+02  6.00000000E+00  0.00000000E+00
  3.00000000E+02  4.00000000E+00  0.00000000E+00
  3.00000000E+02  2.00000000E+00  0.00000000E+00
  3.00000000E+02 -3.33066907E-14  0.00000000E+00
  3.10000000E+02  1.00000000E+02  0.00000000E+00
  3.10000000E+02  9.80000000E+01  0.00000000E+00
  3.10000000E+02  9.60000000E+01  0.00000000E+00
  3.10000000E+02  9.40000000E+01  0.00000000E+00
  3.10000000E+02  9.20000000E+01  0.00000000E+00
  3.10000000E+02  9.00000000E+01  0.00000000E+00
  3.10000000E+02  8.80000000E+01  0.00000000E+00
  3.10000000E+02  8.60000000E+01  0.00000000E+00
  3.10000000E+02  8.40000000E+01  0.00000000E+00
  3.10000000E+02  8.20000000E+01  0.00000000E+00
  3.10000000E+02  8.00000000E+01  0.00000000E+00
  3.10000000E+02  7.80000000E+01  0.00000000E+00
  3.10000000E+02  7.60000000E+01  0.00000000E+00
  3.10000000E+02  7.40000000E+01  0.00000000E+00
  3.10000000E+02  7.20000000E+01  0.00000000E+00
  3.10000000E+02  7.00000000E+01  0.00000000E+00
  3.10000000E+02  6.80000000E+01  0.00000000E+00
  3.10000000E+02  6.60000000E+01  0.00000000E+00
  3.10000000E+02  6.40000000E+01  0.00000000E+00
  3.10000000E+02  6.20000000E+01  0.00000000E+00
  3.10000000E+02  6.00000000E+01  0.00000000E+00
  3.10000000E+02  5.80000000E+01  0.00000000E+00
  3.10000000E+02  5.60000000E+01  0.00000000E+00
  3.10000000E+02  5.40000000E+01  0.00000000E+00
  3.10000000E+02  5.20000000E+01  0.00000000E+00
  3.10000000E+02  5.00000000E+01  0.00000000E+00
  3.10000000E+02  4.80000000E+01  0.00000000E+00
  3.10000000E+02  4.60000000E+01  0.00000000E+00
  3.10000000E+02  4.40000000E+01  0.00000000E+00
  3.10000000E+02  4.20000000E+01  0.00000000E+00
  3.10000000E+02  4.00000000E+01  0.00000000E+00
  3.10000000E+02  3.80000000E+01  0.00000000E+00
  3.10000000E+02  3.60000000E+01  0.00000000E+00
  3.10000000E+02  3.40000000E+01  0.00000000E+00
  3.10000000E+02  3.20000000E+01  0.00000000E+00
  3.10000000E+02  3.00000000E+01  0.00000000E+00
  3.10000000E+02  2.80000000E+01  0.00000000E+00
  3.10000000E+02  2.60000000E+01  0.00000000E+00
  3.10000000E+02  2.40000000E+01  0.00000000E+00
  3.10000000E+02  2.20000000E+01  0.00000000E+00
  3.10000000E+02  2.00000000E+01  0.00000000E+00
  3.10000000E+02  1.80000000E+01  0.00000000E+00
  3.10000000E+02  1.60000000E+01  0.00000000E+00
  3.10000000E+02  1.40000000E+01  0.00000000E+00
  3.10000000E+02  1.20000000E+01  0.00000000E+00
  3.10000000E+02  1.00000000E+01  0.00000000E+00
  3.10000000E+02  8.00000000E+00  0.00000000E+00
  3.10000000E+02  6.00000000E+00  0.00000000E+00
  3.10000000E+02  4.00000000E+00  0.00000000E+00
  3.10000000E+02  2.00000000E+00  0.00000000E+00
  3.10000000E+02 -3.33066907E-14  0.00000000E+00
  3.20000000E+02  1.00000000E+02  0.00000000E+00
  3.20000000E+02  9.80000000E+01  0.00000000E+00
  3.20000000E+02  9.60000000E+01  0.00000000E+00
  3.20000000E+02  9.40000000E+01  0.00000000E+00
  3.20000000E+02  9.20000000E+01  0.00000000E+00
  3.20000000E+02  9.00000000E+01  0.00000000E+00
  3.20000000E+02  8.80000000E+01  0.00000000E+00
  3.20000000E+02  8.60000000E+01  0.00000000E+00
  3.20000000E+02  8.40000000E+01  0.00000000E+00
  3.20000000E+02  8.20000000E+01  0.00000000E+00
  3.20000000E+02  8.00000000E+01  0.00000000E+00
  3.20000000E+02  7.80000000E+01  0.00000000E+00
  3.20000000E+02  7.60000000E+01  0.00000000E+00
  3.20000000E+02  7.40000000E+01  0.00000000E+00
  3.20000000E+02  7.20000000E+01  0.00000000E+00
  3.20000000E+02  7.00000000E+01  0.00000000E+00
  3.20000000E+02  6.80000000E+01  0.00000000E+00
  3.20000000E+02  6.60000000E+01  0.00000000E+00
  3.20000000E+02  6.40000000E+01  0.00000000E+00
  3.20000000E+02  6.20000000E+01  0.00000000E+00
  3.20000000E+02  6.00000000E+01  0.00000000E+00
  3.20000000E+02  5.80000000E+01  0.00000000E+00
  3.20000000E+02  5.60000000E+01  0.00000000E+00
  3.20000000E+02  5.40000000E+01  0.00000000E+00
  3.20000000E+02  5.20000000E+01  0.00000000E+00
  3.20000000E+02  5.00000000E+01  0.00000000E+00
  3.20000000E+02  4.80000000E+01  0.00000000E+00
  3.20000000E+02  4.60000000E+01  0.00000000E+00
  3.20000000E+02  4.40000000E+01  0.00000000E+00
  3.20000000E+02  4.20000000E+01  0.00000000E+00
  3.20000000E+02  4.00000000E+01  0.00000000E+00
  3.20000000E+02  3.80000000E+01  0.00000000E+00
  3.20000000E+02  3.60000000E+01  0.00000000E+00
  3.20000000E+02  3.40000000E+01  0.00000000E+00
  3.20000000E+02  3.20000000E+01  0.00000000E+00
  3.20000000E+02  3.00000000E+01  0.00000000E+00
  3.20000000E+02  2.80000000E+01  0.00000000E+00
  3.20000000E+02  2.60000000E+01  0.00000000E+00
  3.20000000E+02  2.40000000E+01  0.00000000E+00
  3.20000000E+02  2.20000000E+01  0.00000000E+00
  3.20000000E+02  2.00000000E+01  0.00000000E+00
  3.20000000E+02  1.80000000E+01  0.00000000E+00
  3.20000000E+02  1.60000000E+01  0.00000000E+00
  3.20000000E+02  1.40000000E+01  0.00000000E+00
  3.20000000E+02  1.20000000E+01  0.00000000E+00
  3.20000000E+02  1.00000000E+01  0.00000000E+00
  3.20000000E+02  8.00000000E+00  0.00000000E+00
  3.20000000E+02  6.00000000E+00  0.00000000E+00
  3.20000000E+02  4.00000000E+00  0.00000000E+00
  3.20000000E+02  2.00000000E+00  0.00000000E+00
  3.20000000E+02 -3.33066907E-14  0.00000000E+00
  3.30000000E+02  1.00000000E+02  0.00000000E+00
  3.30000000E+02  9.80000000E+01  0.00000000E+00
  3.30000000E+02  9.60000000E+01  0.00000000E+00
  3.30000000E+02  9.40000000E+01  0.00000000E+00
  3.30000000E+02  9.20000000E+01  0.00000000E+00
  3.30000000E+02  9.00000000E+01  0.00000000E+00
  3.30000000E+02  8.80000000E+01  0.00000000E+00
  3.30000000E+02  8.60000000E+01  0.00000000E+00
  3.30000000E+02  8.40000000E+01  0.00000000E+00
  3.30000000E+02  8.20000000E+01  0.00000000E+00
  3.30000000E+02  8.00000000E+01  0.00000000E+00
  3.30000000E+02  7.80000000E+01  0.00000000E+00
  3.30000000E+02  7.60000000E+01  0.00000000E+00
  3.30000000E+02  7.40000000E+01  0.00000000E+00
  3.30000000E+02  7.20000000E+01  0.00000000E+00
  3.30000000E+02  7.00000000E+01  0.00000000E+00
  3.30000000E+02  6.80000000E+01  0.00000000E+00
  3.30000000E+02  6.60000000E+01  0.00000000E+00
  3.30000000E+02  6.40000000E+01  0.00000000E+00
  3.30000000E+02  6.20000000E+01  0.00000000E+00
  3.30000000E+02  6.00000000E+01  0.00000000E+00
  3.30000000E+02  5.80000000E+01  0.00000000E+00
  3.30000000E+02  5.60000000E+01  0.00000000E+00
  3.30000000E+02  5.40000000E+01  0.00000000E+00
  3.30000000E+02  5.20000000E+01  0.00000000E+00
  3.30000000E+02  5.00000000E+01  0.00000000E+00
  3.30000000E+02  4.80000000E+01  0.00000000E+00
  3.30000000E+02  4.60000000E+01  0.00000000E+00
  3.30000000E+02  4.40000000E+01  0.00000000E+00
  3.30000000E+02  4.20000000E+01  0.00000000E+00
  3.30000000E+02  4.00000000E+01  0.00000000E+00
  3.30000000E+02  3.80000000E+01  0.00000000E+00
  3.30000000E+02  3.60000000E+01  0.00000000E+00
  3.30000000E+02  3.40000000E+01  0.00000000E+00
  3.30000000E+02  3.20000000E+01  0.00000000E+00
  3.30000000E+02  3.00000000E+01  0.00000000E+00
  3.30000000E+02  2.80000000E+01  0.00000000E+00
  3.30000000E+02  2.60000000E+01  0.00000000E+00
  3.30000000E+02  2.40000000E+01  0.00000000E+00
  3.30000000E+02  2.20000000E+01  0.00000000E+00
  3.30000000E+02  2.00000000E+01  0.00000000E+00
  3.30000000E+02  1.80000000E+01  0.00000000E+00
  3.30000000E+02  1.60000000E+01  0.00000000E+00
  3.30000000E+02  1.40000000E+01  0.00000000E+00
  3.30000000E+02  1.20000000E+01  0.00000000E+00
  3.30000000E+02  1.00000000E+01  0.00000000E+00
  3.30000000E+02  8.00000000E+00  0.00000000E+00
  3.30000000E+02  6.00000000E+00  0.00000000E+00
  3.30000000E+02  4.00000000E+00  0.00000000E+00
  3.30000000E+02  2.00000000E+00  0.00000000E+00
  3.30000000E+02 -3.33066907E-14  0.00000000E+00
  3.40000000E+02  1.00000000E+02  0.00000000E+00
  3.40000000E+02  9.80000000E+01  0.00000000E+00
  3.40000000E+02  9.60000000E+01  0.00000000E+00
  3.40000000E+02  9.40000000E+01  0.00000000E+00
  3.40000000E+02  9.20000000E+01  0.00000000E+00
  3.40000000E+02  9.00000000E+01  0.00000000E+00
  3.40000000E+02  8.80000000E+01  0.00000000E+00
  3.40000000E+02  8.60000000E+01  0.00000000E+00
  3.40000000E+02  8.40000000E+01  0.00000000E+00
  3.40000000E+02  8.20000000E+01  0.00000000E+00
  3.40000000E+02  8.00000000E+01  0.00000000E+00
  3.40000000E+02  7.80000000E+01  0.00000000E+00
  3.40000000E+02  7.60000000E+01  0.00000000E+00
  3.40000000E+02  7.40000000E+01  0.00000000E+00
  3.40000000E+02  7.20000000E+01  0.00000000E+00
  3.40000000E+02  7.00000000E+01  0.00000000E+00
  3.40000000E+02  6.80000000E+01  0.00000000E+00
  3.40000000E+02  6.60000000E+01  0.00000000E+00
  3.40000000E+02  6.40000000E+01  0.00000000E+00
  3.40000000E+02  6.20000000E+01  0.00000000E+00
  3.40000000E+02  6.00000000E+01  0.00000000E+00
  3.40000000E+02  5.80000000E+01  0.00000000E+00
  3.40000000E+02  5.60000000E+01  0.00000000E+00
  3.40000000E+02  5.40000000E+01  0.00000000E+00
  3.40000000E+02  5.20000000E+01  0.00000000E+00
  3.40000000E+02  5.00000000E+01  0.00000000E+00
  3.40000000E+02  4.80000000E+01  0.00000000E+00
  3.40000000E+02  4.60000000E+01  0.00000000E+00
  3.40000000E+02  4.40000000E+01  0.00000000E+00
  3.40000000E+02  4.20000000E+01  0.00000000E+00
  3.40000000E+02  4.00000000E+01  0.00000000E+00
  3.40000000E+02  3.80000000E+01  0.00000000E+00
  3.40000000E+02  3.60000000E+01  0.00000000E+00
  3.40000000E+02  3.40000000E+01  0.00000000E+00
  3.40000000E+02  3.20000000E+01  0.00000000E+00
  3.40000000E+02  3.00000000E+01  0.00000000E+00
  3.40000000E+02  2.80000000E+01  0.00000000E+00
  3.40000000E+02  2.60000000E+01  0.00000000E+00
  3.40000000E+02  2.40000000E+01  0.00000000E+00
  3.40000000E+02  2.20000000E+01  0.00000000E+00
  3.40000000E+02  2.00000000E+01  0.00000000E+00
  3.40000000E+02  1.80000000E+01  0.00000000E+00
  3.40000000E+02  1.60000000E+01  0.00000000E+00
  3.40000000E+02  1.40000000E+01  0.00000000E+00
  3.40000000E+02  1.20000000E+01  0.00000000E+00
  3.40000000E+02  1.00000000E+01  0.00000000E+00
  3.40000000E+02  8.00000000E+00  0.00000000E+00
  3.40000000E+02  6.00000000E+00  0.00000000E+00
  3.40000000E+02  4.00000000E+00  0.00000000E+00
  3.40000000E+02  2.00000000E+00  0.00000000E+00
  3.40000000E+02 -3.33066907E-14  0.00000000E+00
  3.50000000E+02  1.00000000E+02  0.00000000E+00
  3.50000000E+02  9.80000000E+01  0.00000000E+00
  3.50000000E+02  9.60000000E+01  0.00000000E+00
  3.50000000E+02  9.40000000E+01  0.00000000E+00
  3.50000000E+02  9.20000000E+01  0.00000000E+00
  3.50000000E+02  9.00000000E+01  0.00000000E+00
  3.50000000E+02  8.80000000E+01  0.00000000E+00
  3.50000000E+02  8.60000000E+01  0.00000000E+00
  3.50000000E+02  8.40000000E+01  0.00000000E+00
  3.50000000E+02  8.20000000E+01  0.00000000E+00
  3.50000000E+02  8.00000000E+01  0.00000000E+00
  3.50000000E+02  7.80000000E+01  0.00000000E+00
  3.50000000E+02  7.60000000E+01  0.00000000E+00
  3.50000000E+02  7.40000000E+01  0.00000000E+00
  3.50000000E+02  7.20000000E+01  0.00000000E+00
  3.50000000E+02  7.00000000E+01  0.00000000E+00
  3.50000000E+02  6.80000000E+01  0.00000000E+00
  3.50000000E+02  6.60000000E+01  0.00000000E+00
  3.50000000E+02  6.40000000E+01  0.00000000E+00
  3.50000000E+02  6.20000000E+01  0.00000000E+00
  3.50000000E+02  6.00000000E+01  0.00000000E+00
  3.50000000E+02  5.80000000E+01  0.00000000E+00
  3.50000000E+02  5.60000000E+01  0.00000000E+00
  3.50000000E+02  5.40000000E+01  0.00000000E+00
  3.50000000E+02  5.20000000E+01  0.00000000E+00
  3.50000000E+02  5.00000000E+01  0.00000000E+00
  3.50000000E+02  4.80000000E+01  0.00000000E+00
  3.50000000E+02  4.60000000E+01  0.00000000E+00
  3.50000000E+02  4.40000000E+01  0.00000000E+00
  3.50000000E+02  4.20000000E+01  0.00000000E+00
  3.50000000E+02  4.00000000E+01  0.00000000E+00
  3.50000000E+02  3.80000000E+01  0.00000000E+00
  3.50000000E+02  3.60000000E+01  0.00000000E+00
  3.50000000E+02  3.40000000E+01  0.00000000E+00
  3.50000000E+02  3.20000000E+01  0.00000000E+00
  3.50000000E+02  3.00000000E+01  0.00000000E+00
  3.50000000E+02  2.80000000E+01  0.00000000E+00
  3.50000000E+02  2.60000000E+01  0.00000000E+00
  3.50000000E+02  2.40000000E+01  0.00000000E+00
  3.50000000E+02  2.20000000E+01  0.00000000E+00
  3.50000000E+02  2.00000000E+01  0.00000000E+00
  3.50000000E+02  1.80000000E+01  0.00000000E+00
  3.50000000E+02  1.60000000E+01  0.00000000E+00
  3.50000000E+02  1.40000000E+01  0.00000000E+00
  3.50000000E+02  1.20000000E+01  0.00000000E+00
  3.50000000E+02  1.00000000E+01  0.00000000E+00
  3.50000000E+02  8.00000000E+00  0.00000000E+00
  3.50000000E+02  6.00000000E+00  0.00000000E+00
  3.50000000E+02  4.00000000E+00  0.00000000E+00
  3.50000000E+02  2.00000000E+00  0.00000000E+00
  3.50000000E+02 -3.33066907E-14  0.00000000E+00
  3.60000000E+02  1.00000000E+02  0.00000000E+00
  3.60000000E+02  9.80000000E+01  0.00000000E+00
  3.60000000E+02  9.60000000E+01  0.00000000E+00
  3.60000000E+02  9.40000000E+01  0.00000000E+00
  3.60000000E+02  9.20000000E+01  0.00000000E+00
  3.60000000E+02  9.00000000E+01  0.00000000E+00
  3.60000000E+02  8.80000000E+01  0.00000000E+00
  3.60000000E+02  8.60000000E+01  0.00000000E+00
  3.60000000E+02  8.40000000E+01  0.00000000E+00
  3.60000000E+02  8.20000000E+01  0.00000000E+00
  3.60000000E+02  8.00000000E+01  0.00000000E+00
  3.60000000E+02  7.80000000E+01  0.00000000E+00
  3.60000000E+02  7.60000000E+01  0.00000000E+00
  3.60000000E+02  7.40000000E+01  0.00000000E+00
  3.60000000E+02  7.20000000E+01  0.00000000E+00
  3.60000000E+02  7.00000000E+01  0.00000000E+00
  3.60000000E+02  6.80000000E+01  0.00000000E+00
  3.60000000E+02  6.60000000E+01  0.00000000E+00
  3.60000000E+02  6.40000000E+01  0.00000000E+00
  3.60000000E+02  6.20000000E+01  0.00000000E+00
  3.60000000E+02  6.00000000E+01  0.00000000E+00
  3.60000000E+02  5.80000000E+01  0.00000000E+00
  3.60000000E+02  5.60000000E+01  0.00000000E+00
  3.60000000E+02  5.40000000E+01  0.00000000E+00
  3.60000000E+02  5.20000000E+01  0.00000000E+00
  3.60000000E+02  5.00000000E+01  0.00000000E+00
  3.60000000E+02  4.80000000E+01  0.00000000E+00
  3.60000000E+02  4.60000000E+01  0.00000000E+00
  3.60000000E+02  4.40000000E+01  0.00000000E+00
  3.60000000E+02  4.20000000E+01  0.00000000E+00
  3.60000000E+02  4.00000000E+01  0.00000000E+00
  3.60000000E+02  3.80000000E+01  0.00000000E+00
  3.60000000E+02  3.60000000E+01  0.00000000E+00
  3.60000000E+02  3.40000000E+01  0.00000000E+00
  3.60000000E+02  3.20000000E+01  0.00000000E+00
  3.60000000E+02  3.00000000E+01  0.00000000E+00
  3.60000000E+02  2.80000000E+01  0.00000000E+00
  3.60000000E+02  2.60000000E+01  0.00000000E+00
  3.60000000E+02  2.40000000E+01  0.00000000E+00
  3.60000000E+02  2.20000000E+01  0.00000000E+00
  3.60000000E+02  2.00000000E+01  0.00000000E+00
  3.60000000E+02  1.80000000E+01  0.00000000E+00
  3.60000000E+02  1.60000000E+01  0.00000000E+00
  3.60000000E+02  1.40000000E+01  0.00000000E+00
  3.60000000E+02  1.20000000E+01  0.00000000E+00
  3.60000000E+02  1.00000000E+01  0.00000000E+00
  3.60000000E+02  8.00000000E+00  0.00000000E+00
  3.60000000E+02  6.00000000E+00  0.00000000E+00
  3.60000000E+02  4.00000000E+00  0.00000000E+00
  3.60000000E+02  2.00000000E+00  0.00000000E+00
  3.60000000E+02 -3.33066907E-14  0.00000000E+00
  3.70000000E+02  1.00000000E+02  0.00000000E+00
  3.70000000E+02  9.80000000E+01  0.00000000E+00
  3.70000000E+02  9.60000000E+01  0.00000000E+00
  3.70000000E+02  9.40000000E+01  0.00000000E+00
  3.70000000E+02  9.20000000E+01  0.00000000E+00
  3.70000000E+02  9.00000000E+01  0.00000000E+00
  3.70000000E+02  8.80000000E+01  0.00000000E+00
  3.70000000E+02  8.60000000E+01  0.00000000E+00
  3.70000000E+02  8.40000000E+01  0.00000000E+00
  3.70000000E+02  8.20000000E+01  0.00000000E+00
  3.70000000E+02  8.00000000E+01  0.00000000E+00
  3.70000000E+02  7.80000000E+01  0.00000000E+00
  3.70000000E+02  7.60000000E+01  0.00000000E+00
  3.70000000E+02  7.40000000E+01  0.00000000E+00
  3.70000000E+02  7.20000000E+01  0.00000000E+00
  3.70000000E+02  7.00000000E+01  0.00000000E+00
  3.70000000E+02  6.80000000E+01  0.00000000E+00
  3.70000000E+02  6.60000000E+01  0.00000000E+00
  3.70000000E+02  6.40000000E+01  0.00000000E+00
  3.70000000E+02  6.20000000E+01  0.00000000E+00
  3.70000000E+02  6.00000000E+01  0.00000000E+00
  3.70000000E+02  5.80000000E+01  0.00000000E+00
  3.70000000E+02  5.60000000E+01  0.00000000E+00
  3.70000000E+02  5.40000000E+01  0.00000000E+00
  3.70000000E+02  5.20000000E+01  0.00000000E+00
  3.70000000E+02  5.00000000E+01  0.00000000E+00
  3.70000000E+02  4.80000000E+01  0.00000000E+00
  3.70000000E+02  4.60000000E+01  0.00000000E+00
  3.70000000E+02  4.40000000E+01  0.00000000E+00
  3.70000000E+02  4.20000000E+01  0.00000000E+00
  3.70000000E+02  4.00000000E+01  0.00000000E+00
  3.70000000E+02  3.80000000E+01  0.00000000E+00
  3.70000000E+02  3.60000000E+01  0.00000000E+00
  3.70000000E+02  3.40000000E+01  0.00000000E+00
  3.70000000E+02  3.20000000E+01  0.00000000E+00
  3.70000000E+02  3.00000000E+01  0.00000000E+00
  3.70000000E+02  2.80000000E+01  0.00000000E+00
  3.70000000E+02  2.60000000E+01  0.00000000E+00
  3.70000000E+02  2.40000000E+01  0.00000000E+00
  3.70000000E+02  2.20000000E+01  0.00000000E+00
  3.70000000E+02  2.00000000E+01  0.00000000E+00
  3.70000000E+02  1.80000000E+01  0.00000000E+00
  3.70000000E+02  1.60000000E+01  0.00000000E+00
  3.70000000E+02  1.40000000E+01  0.00000000E+00
  3.70000000E+02  1.20000000E+01  0.00000000E+00
  3.70000000E+02  1.00000000E+01  0.00000000E+00
  3.70000000E+02  8.00000000E+00  0.00000000E+00
  3.70000000E+02  6.00000000E+00  0.00000000E+00
  3.70000000E+02  4.00000000E+00  0.00000000E+00
  3.70000000E+02  2.00000000E+00  0.00000000E+00
  3.70000000E+02 -3.33066907E-14  0.00000000E+00
  3.80000000E+02  1.00000000E+02  0.00000000E+00
  3.80000000E+02  9.80000000E+01  0.00000000E+00
  3.80000000E+02  9.60000000E+01  0.00000000E+00
  3.80000000E+02  9.40000000E+01  0.00000000E+00
  3.80000000E+02  9.20000000E+01  0.00000000E+00
  3.80000000E+02  9.00000000E+01  0.00000000E+00
  3.80000000E+02  8.80000000E+01  0.00000000E+00
  3.80000000E+02  8.60000000E+01  0.00000000E+00
  3.80000000E+02  8.40000000E+01  0.00000000E+00
  3.80000000E+02  8.20000000E+01  0.00000000E+00
  3.80000000E+02  8.00000000E+01  0.00000000E+00
  3.80000000E+02  7.80000000E+01  0.00000000E+00
  3.80000000E+02  7.60000000E+01  0.00000000E+00
  3.80000000E+02  7.40000000E+01  0.00000000E+00
  3.80000000E+02  7.20000000E+01  0.00000000E+00
  3.80000000E+02  7.00000000E+01  0.00000000E+00
  3.80000000E+02  6.80000000E+01  0.00000000E+00
  3.80000000E+02  6.60000000E+01  0.00000000E+00
  3.80000000E+02  6.40000000E+01  0.00000000E+00
  3.80000000E+02  6.20000000E+01  0.00000000E+00
  3.80000000E+02  6.00000000E+01  0.00000000E+00
  3.80000000E+02  5.80000000E+01  0.00000000E+00
  3.80000000E+02  5.60000000E+01  0.00000000E+00
  3.80000000E+02  5.40000000E+01  0.00000000E+00
  3.80000000E+02  5.20000000E+01  0.00000000E+00
  3.80000000E+02  5.00000000E+01  0.00000000E+00
  3.80000000E+02  4.80000000E+01  0.00000000E+00
  3.80000000E+02  4.60000000E+01  0.00000000E+00
  3.80000000E+02  4.40000000E+01  0.00000000E+00
  3.80000000E+02  4.20000000E+01  0.00000000E+00
  3.80000000E+02  4.00000000E+01  0.00000000E+00
  3.80000000E+02  3.80000000E+01  0.00000000E+00
  3.80000000E+02  3.60000000E+01  0.00000000E+00
  3.80000000E+02  3.40000000E+01  0.00000000E+00
  3.80000000E+02  3.20000000E+01  0.00000000E+00
  3.80000000E+02  3.00000000E+01  0.00000000E+00
  3.80000000E+02  2.80000000E+01  0.00000000E+00
  3.80000000E+02  2.60000000E+01  0.00000000E+00
  3.80000000E+02  2.40000000E+01  0.00000000E+00
  3.80000000E+02  2.20000000E+01  0.00000000E+00
  3.80000000E+02  2.00000000E+01  0.00000000E+00
  3.80000000E+02  1.80000000E+01  0.00000000E+00
  3.80000000E+02  1.60000000E+01  0.00000000E+00
  3.80000000E+02  1.40000000E+01  0.00000000E+00
  3.80000000E+02  1.20000000E+01  0.00000000E+00
  3.80000000E+02  1.00000000E+01  0.00000000E+00
  3.80000000E+02  8.00000000E+00  0.00000000E+00
  3.80000000E+02  6.00000000E+00  0.00000000E+00
  3.80000000E+02  4.00000000E+00  0.00000000E+00
  3.80000000E+02  2.00000000E+00  0.00000000E+00
  3.80000000E+02 -3.33066907E-14  0.00000000E+00
  3.90000000E+02  1.00000000E+02  0.00000000E+00
  3.90000000E+02  9.80000000E+01  0.00000000E+00
  3.90000000E+02  9.60000000E+01  0.00000000E+00
  3.90000000E+02  9.40000000E+01  0.00000000E+00
  3.90000000E+02  9.20000000E+01  0.00000000E+00
  3.90000000E+02  9.00000000E+01  0.00000000E+00
  3.90000000E+02  8.80000000E+01  0.00000000E+00
  3.90000000E+02  8.60000000E+01  0.00000000E+00
  3.90000000E+02  8.40000000E+01  0.00000000E+00
  3.90000000E+02  8.20000000E+01  0.00000000E+00
  3.90000000E+02  8.00000000E+01  0.00000000E+00
  3.90000000E+02  7.80000000E+01  0.00000000E+00
  3.90000000E+02  7.60000000E+01  0.00000000E+00
  3.90000000E+02  7.40000000E+01  0.00000000E+00
  3.90000000E+02  7.20000000E+01  0.00000000E+00
  3.90000000E+02  7.00000000E+01  0.00000000E+00
  3.90000000E+02  6.80000000E+01  0.00000000E+00
  3.90000000E+02  6.60000000E+01  0.00000000E+00
  3.90000000E+02  6.40000000E+01  0.00000000E+00
  3.90000000E+02  6.20000000E+01  0.00000000E+00
  3.90000000E+02  6.00000000E+01  0.00000000E+00
  3.90000000E+02  5.80000000E+01  0.00000000E+00
  3.90000000E+02  5.60000000E+01  0.00000000E+00
  3.90000000E+02  5.40000000E+01  0.00000000E+00
  3.90000000E+02  5.20000000E+01  0.00000000E+00
  3.90000000E+02  5.00000000E+01  0.00000000E+00
  3.90000000E+02  4.80000000E+01  0.00000000E+00
  3.90000000E+02  4.60000000E+01  0.00000000E+00
  3.90000000E+02  4.40000000E+01  0.00000000E+00
  3.90000000E+02  4.20000000E+01  0.00000000E+00
  3.90000000E+02  4.00000000E+01  0.00000000E+00
  3.90000000E+02  3.80000000E+01  0.00000000E+00
  3.90000000E+02  3.60000000E+01  0.00000000E+00
  3.90000000E+02  3.40000000E+01  0.00000000E+00
  3.90000000E+02  3.20000000E+01  0.00000000E+00
  3.90000000E+02  3.00000000E+01  0.00000000E+00
  3.90000000E+02  2.80000000E+01  0.00000000E+00
  3.90000000E+02  2.60000000E+01  0.00000000E+00
  3.90000000E+02  2.40000000E+01  0.00000000E+00
  3.90000000E+02  2.20000000E+01  0.00000000E+00
  3.90000000E+02  2.00000000E+01  0.00000000E+00
  3.90000000E+02  1.80000000E+01  0.00000000E+00
  3.90000000E+02  1.60000000E+01  0.00000000E+00
  3.90000000E+02  1.40000000E+01  0.00000000E+00
  3.90000000E+02  1.20000000E+01  0.00000000E+00
  3.90000000E+02  1.00000000E+01  0.00000000E+00
  3.90000000E+02  8.00000000E+00  0.00000000E+00
  3.90000000E+02  6.00000000E+00  0.00000000E+00
  3.90000000E+02  4.00000000E+00  0.00000000E+00
  3.90000000E+02  2.00000000E+00  0.00000000E+00
  3.90000000E+02 -3.33066907E-14  0.00000000E+00
  4.00000000E+02  1.00000000E+02  0.00000000E+00
  4.00000000E+02  9.80000000E+01  0.00000000E+00
  4.00000000E+02  9.60000000E+01  0.00000000E+00
  4.00000000E+02  9.40000000E+01  0.00000000E+00
  4.00000000E+02  9.20000000E+01  0.00000000E+00
  4.00000000E+02  9.00000000E+01  0.00000000E+00
  4.00000000E+02  8.80000000E+01  0.00000000E+00
  4.00000000E+02  8.60000000E+01  0.00000000E+00
  4.00000000E+02  8.40000000E+01  0.00000000E+00
  4.00000000E+02  8.20000000E+01  0.00000000E+00
  4.00000000E+02  8.00000000E+01  0.00000000E+00
  4.00000000E+02  7.80000000E+01  0.00000000E+00
  4.00000000E+02  7.60000000E+01  0.00000000E+00
  4.00000000E+02  7.40000000E+01  0.00000000E+00
  4.00000000E+02  7.20000000E+01  0.00000000E+00
  4.00000000E+02  7.00000000E+01  0.00000000E+00
  4.00000000E+02  6.80000000E+01  0.00000000E+00
  4.00000000E+02  6.60000000E+01  0.00000000E+00
  4.00000000E+02  6.40000000E+01  0.00000000E+00
  4.00000000E+02  6.20000000E+01  0.00000000E+00
  4.00000000E+02  6.00000000E+01  0.00000000E+00
  4.00000000E+02  5.80000000E+01  0.00000000E+00
  4.00000000E+02  5.60000000E+01  0.00000000E+00
  4.00000000E+02  5.40000000E+01  0.00000000E+00
  4.00000000E+02  5.20000000E+01  0.00000000E+00
  4.00000000E+02  5.00000000E+01  0.00000000E+00
  4.00000000E+02  4.80000000E+01  0.00000000E+00
  4.00000000E+02  4.60000000E+01  0.00000000E+00
  4.00000000E+02  4.40000000E+01  0.00000000E+00
  4.00000000E+02  4.20000000E+01  0.00000000E+00
  4.00000000E+02  4.00000000E+01  0.00000000E+00
  4.00000000E+02  3.80000000E+01  0.00000000E+00
  4.00000000E+02  3.60000000E+01  0.00000000E+00
  4.00000000E+02  3.40000000E+01  0.00000000E+00
  4.00000000E+02  3.20000000E+01  0.00000000E+00
  4.00000000E+02  3.00000000E+01  0.00000000E+00
  4.00000000E+02  2.80000000E+01  0.00000000E+00
  4.00000000E+02  2.60000000E+01  0.00000000E+00
  4.00000000E+02  2.40000000E+01  0.00000000E+00
  4.00000000E+02  2.20000000E+01  0.00000000E+00
  4.00000000E+02  2.00000000E+01  0.00000000E+00
  4.00000000E+02  1.80000000E+01  0.00000000E+00
  4.00000000E+02  1.60000000E+01  0.00000000E+00
  4.00000000E+02  1.40000000E+01  0.00000000E+00
  4.00000000E+02  1.20000000E+01  0.00000000E+00
  4.00000000E+02  1.00000000E+01  0.00000000E+00
  4.00000000E+02  8.00000000E+00  0.00000000E+00
  4.00000000E+02  6.00000000E+00  0.00000000E+00
  4.00000000E+02  4.00000000E+00  0.00000000E+00
  4.00000000E+02  2.00000000E+00  0.00000000E+00
  4.00000000E+02 -3.33066907E-14  0.00000000E+00
  4.10000000E+02  1.00000000E+02  0.00000000E+00
  4.10000000E+02  9.80000000E+01  0.00000000E+00
  4.10000000E+02  9.60000000E+01  0.00000000E+00
  4.10000000E+02  9.40000000E+01  0.00000000E+00
  4.10000000E+02  9.20000000E+01  0.00000000E+00
  4.10000000E+02  9.00000000E+01  0.00000000E+00
  4.10000000E+02  8.80000000E+01  0.00000000E+00
  4.10000000E+02  8.60000000E+01  0.00000000E+00
  4.10000000E+02  8.40000000E+01  0.00000000E+00
  4.10000000E+02  8.20000000E+01  0.00000000E+00
  4.10000000E+02  8.00000000E+01  0.00000000E+00
  4.10000000E+02  7.80000000E+01  0.00000000E+00
  4.10000000E+02  7.60000000E+01  0.00000000E+00
  4.10000000E+02  7.40000000E+01  0.00000000E+00
  4.10000000E+02  7.20000000E+01  0.00000000E+00
  4.10000000E+02  7.00000000E+01  0.00000000E+00
  4.10000000E+02  6.80000000E+01  0.00000000E+00
  4.10000000E+02  6.60000000E+01  0.00000000E+00
  4.10000000E+02  6.40000000E+01  0.00000000E+00
  4.10000000E+02  6.20000000E+01  0.00000000E+00
  4.10000000E+02  6.00000000E+01  0.00000000E+00
  4.10000000E+02  5.80000000E+01  0.00000000E+00
  4.10000000E+02  5.60000000E+01  0.00000000E+00
  4.10000000E+02  5.40000000E+01  0.00000000E+00
  4.10000000E+02  5.20000000E+01  0.00000000E+00
  4.10000000E+02  5.00000000E+01  0.00000000E+00
  4.10000000E+02  4.80000000E+01  0.00000000E+00
  4.10000000E+02  4.60000000E+01  0.00000000E+00
  4.10000000E+02  4.40000000E+01  0.00000000E+00
  4.10000000E+02  4.20000000E+01  0.00000000E+00
  4.10000000E+02  4.00000000E+01  0.00000000E+00
  4.10000000E+02  3.80000000E+01  0.00000000E+00
  4.10000000E+02  3.60000000E+01  0.00000000E+00
  4.10000000E+02  3.40000000E+01  0.00000000E+00
  4.10000000E+02  3.20000000E+01  0.00000000E+00
  4.10000000E+02  3.00000000E+01  0.00000000E+00
  4.10000000E+02  2.80000000E+01  0.00000000E+00
  4.10000000E+02  2.60000000E+01  0.00000000E+00
  4.10000000E+02  2.40000000E+01  0.00000000E+00
  4.10000000E+02  2.20000000E+01  0.00000000E+00
  4.10000000E+02  2.00000000E+01  0.00000000E+00
  4.10000000E+02  1.80000000E+01  0.00000000E+00
  4.10000000E+02  1.60000000E+01  0.00000000E+00
  4.10000000E+02  1.40000000E+01  0.00000000E+00
  4.10000000E+02  1.20000000E+01  0.00000000E+00
  4.10000000E+02  1.00000000E+01  0.00000000E+00
  4.10000000E+02  8.00000000E+00  0.00000000E+00
  4.10000000E+02  6.00000000E+00  0.00000000E+00
  4.10000000E+02  4.00000000E+00  0.00000000E+00
  4.10000000E+02  2.00000000E+00  0.00000000E+00
  4.10000000E+02 -3.33066907E-14  0.00000000E+00
  4.20000000E+02  1.00000000E+02  0.00000000E+00
  4.20000000E+02  9.80000000E+01  0.00000000E+00
  4.20000000E+02  9.60000000E+01  0.00000000E+00
  4.20000000E+02  9.40000000E+01  0.00000000E+00
  4.20000000E+02  9.20000000E+01  0.00000000E+00
  4.20000000E+02  9.00000000E+01  0.00000000E+00
  4.20000000E+02  8.80000000E+01  0.00000000E+00
  4.20000000E+02  8.60000000E+01  0.00000000E+00
  4.20000000E+02  8.40000000E+01  0.00000000E+00
  4.20000000E+02  8.20000000E+01  0.00000000E+00
  4.20000000E+02  8.00000000E+01  0.00000000E+00
  4.20000000E+02  7.80000000E+01  0.00000000E+00
  4.20000000E+02  7.60000000E+01  0.00000000E+00
  4.20000000E+02  7.40000000E+01  0.00000000E+00
  4.20000000E+02  7.20000000E+01  0.00000000E+00
  4.20000000E+02  7.00000000E+01  0.00000000E+00
  4.20000000E+02  6.80000000E+01  0.00000000E+00
  4.20000000E+02  6.60000000E+01  0.00000000E+00
  4.20000000E+02  6.40000000E+01  0.00000000E+00
  4.20000000E+02  6.20000000E+01  0.00000000E+00
  4.20000000E+02  6.00000000E+01  0.00000000E+00
  4.20000000E+02  5.80000000E+01  0.00000000E+00
  4.20000000E+02  5.60000000E+01  0.00000000E+00
  4.20000000E+02  5.40000000E+01  0.00000000E+00
  4.20000000E+02  5.20000000E+01  0.00000000E+00
  4.20000000E+02  5.00000000E+01  0.00000000E+00
  4.20000000E+02  4.80000000E+01  0.00000000E+00
  4.20000000E+02  4.60000000E+01  0.00000000E+00
  4.20000000E+02  4.40000000E+01  0.00000000E+00
  4.20000000E+02  4.20000000E+01  0.00000000E+00
  4.20000000E+02  4.00000000E+01  0.00000000E+00
  4.20000000E+02  3.80000000E+01  0.00000000E+00
  4.20000000E+02  3.60000000E+01  0.00000000E+00
  4.20000000E+02  3.40000000E+01  0.00000000E+00
  4.20000000E+02  3.20000000E+01  0.00000000E+00
  4.20000000E+02  3.00000000E+01  0.00000000E+00
  4.20000000E+02  2.80000000E+01  0.00000000E+00
  4.20000000E+02  2.60000000E+01  0.00000000E+00
  4.20000000E+02  2.40000000E+01  0.00000000E+00
  4.20000000E+02  2.20000000E+01  0.00000000E+00
  4.20000000E+02  2.00000000E+01  0.00000000E+00
  4.20000000E+02  1.80000000E+01  0.00000000E+00
  4.20000000E+02  1.60000000E+01  0.00000000E+00
  4.20000000E+02  1.40000000E+01  0.00000000E+00
  4.20000000E+02  1.20000000E+01  0.00000000E+00
  4.20000000E+02  1.00000000E+01  0.00000000E+00
  4.20000000E+02  8.00000000E+00  0.00000000E+00
  4.20000000E+02  6.00000000E+00  0.00000000E+00
  4.20000000E+02  4.00000000E+00  0.00000000E+00
  4.20000000E+02  2.00000000E+00  0.00000000E+00
  4.20000000E+02 -3.33066907E-14  0.00000000E+00
  4.30000000E+02  1.00000000E+02  0.00000000E+00
  4.30000000E+02  9.80000000E+01  0.00000000E+00
  4.30000000E+02  9.60000000E+01  0.00000000E+00
  4.30000000E+02  9.40000000E+01  0.00000000E+00
  4.30000000E+02  9.20000000E+01  0.00000000E+00
  4.30000000E+02  9.00000000E+01  0.00000000E+00
  4.30000000E+02  8.80000000E+01  0.00000000E+00
  4.30000000E+02  8.60000000E+01  0.00000000E+00
  4.30000000E+02  8.40000000E+01  0.00000000E+00
  4.30000000E+02  8.20000000E+01  0.00000000E+00
  4.30000000E+02  8.00000000E+01  0.00000000E+00
  4.30000000E+02  7.80000000E+01  0.00000000E+00
  4.30000000E+02  7.60000000E+01  0.00000000E+00
  4.30000000E+02  7.40000000E+01  0.00000000E+00
  4.30000000E+02  7.20000000E+01  0.00000000E+00
  4.30000000E+02  7.00000000E+01  0.00000000E+00
  4.30000000E+02  6.80000000E+01  0.00000000E+00
  4.30000000E+02  6.60000000E+01  0.00000000E+00
  4.30000000E+02  6.40000000E+01  0.00000000E+00
  4.30000000E+02  6.20000000E+01  0.00000000E+00
  4.30000000E+02  6.00000000E+01  0.00000000E+00
  4.30000000E+02  5.80000000E+01  0.00000000E+00
  4.30000000E+02  5.60000000E+01  0.00000000E+00
  4.30000000E+02  5.40000000E+01  0.00000000E+00
  4.30000000E+02  5.20000000E+01  0.00000000E+00
  4.30000000E+02  5.00000000E+01  0.00000000E+00
  4.30000000E+02  4.80000000E+01  0.00000000E+00
  4.30000000E+02  4.60000000E+01  0.00000000E+00
  4.30000000E+02  4.40000000E+01  0.00000000E+00
  4.30000000E+02  4.20000000E+01  0.00000000E+00
  4.30000000E+02  4.00000000E+01  0.00000000E+00
  4.30000000E+02  3.80000000E+01  0.00000000E+00
  4.30000000E+02  3.60000000E+01  0.00000000E+00
  4.30000000E+02  3.40000000E+01  0.00000000E+00
  4.30000000E+02  3.20000000E+01  0.00000000E+00
  4.30000000E+02  3.00000000E+01  0.00000000E+00
  4.30000000E+02  2.80000000E+01  0.00000000E+00
  4.30000000E+02  2.60000000E+01  0.00000000E+00
  4.30000000E+02  2.40000000E+01  0.00000000E+00
  4.30000000E+02  2.20000000E+01  0.00000000E+00
  4.30000000E+02  2.00000000E+01  0.00000000E+00
  4.30000000E+02  1.80000000E+01  0.00000000E+00
  4.30000000E+02  1.60000000E+01  0.00000000E+00
  4.30000000E+02  1.40000000E+01  0.00000000E+00
  4.30000000E+02  1.20000000E+01  0.00000000E+00
  4.30000000E+02  1.00000000E+01  0.00000000E+00
  4.30000000E+02  8.00000000E+00  0.00000000E+00
  4.30000000E+02  6.00000000E+00  0.00000000E+00
  4.30000000E+02  4.00000000E+00  0.00000000E+00
  4.30000000E+02  2.00000000E+00  0.00000000E+00
  4.30000000E+02 -3.33066907E-14  0.00000000E+00
  4.40000000E+02  1.00000000E+02  0.00000000E+00
  4.40000000E+02  9.80000000E+01  0.00000000E+00
  4.40000000E+02  9.60000000E+01  0.00000000E+00
  4.40000000E+02  9.40000000E+01  0.00000000E+00
  4.40000000E+02  9.20000000E+01  0.00000000E+00
  4.40000000E+02  9.00000000E+01  0.00000000E+00
  4.40000000E+02  8.80000000E+01  0.00000000E+00
  4.40000000E+02  8.60000000E+01  0.00000000E+00
  4.40000000E+02  8.40000000E+01  0.00000000E+00
  4.40000000E+02  8.20000000E+01  0.00000000E+00
  4.40000000E+02  8.00000000E+01  0.00000000E+00
  4.40000000E+02  7.80000000E+01  0.00000000E+00
  4.40000000E+02  7.60000000E+01  0.00000000E+00
  4.40000000E+02  7.40000000E+01  0.00000000E+00
  4.40000000E+02  7.20000000E+01  0.00000000E+00
  4.40000000E+02  7.00000000E+01  0.00000000E+00
  4.40000000E+02  6.80000000E+01  0.00000000E+00
  4.40000000E+02  6.60000000E+01  0.00000000E+00
  4.40000000E+02  6.40000000E+01  0.00000000E+00
  4.40000000E+02  6.20000000E+01  0.00000000E+00
  4.40000000E+02  6.00000000E+01  0.00000000E+00
  4.40000000E+02  5.80000000E+01  0.00000000E+00
  4.40000000E+02  5.60000000E+01  0.00000000E+00
  4.40000000E+02  5.40000000E+01  0.00000000E+00
  4.40000000E+02  5.20000000E+01  0.00000000E+00
  4.40000000E+02  5.00000000E+01  0.00000000E+00
  4.40000000E+02  4.80000000E+01  0.00000000E+00
  4.40000000E+02  4.60000000E+01  0.00000000E+00
  4.40000000E+02  4.40000000E+01  0.00000000E+00
  4.40000000E+02  4.20000000E+01  0.00000000E+00
  4.40000000E+02  4.00000000E+01  0.00000000E+00
  4.40000000E+02  3.80000000E+01  0.00000000E+00
  4.40000000E+02  3.60000000E+01  0.00000000E+00
  4.40000000E+02  3.40000000E+01  0.00000000E+00
  4.40000000E+02  3.20000000E+01  0.00000000E+00
  4.40000000E+02  3.00000000E+01  0.00000000E+00
  4.40000000E+02  2.80000000E+01  0.00000000E+00
  4.40000000E+02  2.60000000E+01  0.00000000E+00
  4.40000000E+02  2.40000000E+01  0.00000000E+00
  4.40000000E+02  2.20000000E+01  0.00000000E+00
  4.40000000E+02  2.00000000E+01  0.00000000E+00
  4.40000000E+02  1.80000000E+01  0.00000000E+00
  4.40000000E+02  1.60000000E+01  0.00000000E+00
  4.40000000E+02  1.40000000E+01  0.00000000E+00
  4.40000000E+02  1.20000000E+01  0.00000000E+00
  4.40000000E+02  1.00000000E+01  0.00000000E+00
  4.40000000E+02  8.00000000E+00  0.00000000E+00
  4.40000000E+02  6.00000000E+00  0.00000000E+00
  4.40000000E+02  4.00000000E+00  0.00000000E+00
  4.40000000E+02  2.00000000E+00  0.00000000E+00
  4.40000000E+02 -3.33066907E-14  0.00000000E+00
  4.50000000E+02  1.00000000E+02  0.00000000E+00
  4.50000000E+02  9.80000000E+01  0.00000000E+00
  4.50000000E+02  9.60000000E+01  0.00000000E+00
  4.50000000E+02  9.40000000E+01  0.00000000E+00
  4.50000000E+02  9.20000000E+01  0.00000000E+00
  4.50000000E+02  9.00000000E+01  0.00000000E+00
  4.50000000E+02  8.80000000E+01  0.00000000E+00
  4.50000000E+02  8.60000000E+01  0.00000000E+00
  4.50000000E+02  8.40000000E+01  0.00000000E+00
  4.50000000E+02  8.20000000E+01  0.00000000E+00
  4.50000000E+02  8.00000000E+01  0.00000000E+00
  4.50000000E+02  7.80000000E+01  0.00000000E+00
  4.50000000E+02  7.60000000E+01  0.00000000E+00
  4.50000000E+02  7.40000000E+01  0.00000000E+00
  4.50000000E+02  7.20000000E+01  0.00000000E+00
  4.50000000E+02  7.00000000E+01  0.00000000E+00
  4.50000000E+02  6.80000000E+01  0.00000000E+00
  4.50000000E+02  6.60000000E+01  0.00000000E+00
  4.50000000E+02  6.40000000E+01  0.00000000E+00
  4.50000000E+02  6.20000000E+01  0.00000000E+00
  4.50000000E+02  6.00000000E+01  0.00000000E+00
  4.50000000E+02  5.80000000E+01  0.00000000E+00
  4.50000000E+02  5.60000000E+01  0.00000000E+00
  4.50000000E+02  5.40000000E+01  0.00000000E+00
  4.50000000E+02  5.20000000E+01  0.00000000E+00
  4.50000000E+02  5.00000000E+01  0.00000000E+00
  4.50000000E+02  4.80000000E+01  0.00000000E+00
  4.50000000E+02  4.60000000E+01  0.00000000E+00
  4.50000000E+02  4.40000000E+01  0.00000000E+00
  4.50000000E+02  4.20000000E+01  0.00000000E+00
  4.50000000E+02  4.00000000E+01  0.00000000E+00
  4.50000000E+02  3.80000000E+01  0.00000000E+00
  4.50000000E+02  3.60000000E+01  0.00000000E+00
  4.50000000E+02  3.40000000E+01  0.00000000E+00
  4.50000000E+02  3.20000000E+01  0.00000000E+00
  4.50000000E+02  3.00000000E+01  0.00000000E+00
  4.50000000E+02  2.80000000E+01  0.00000000E+00
  4.50000000E+02  2.60000000E+01  0.00000000E+00
  4.50000000E+02  2.40000000E+01  0.00000000E+00
  4.50000000E+02  2.20000000E+01  0.00000000E+00
  4.50000000E+02  2.00000000E+01  0.00000000E+00
  4.50000000E+02  1.80000000E+01  0.00000000E+00
  4.50000000E+02  1.60000000E+01  0.00000000E+00
  4.50000000E+02  1.40000000E+01  0.00000000E+00
  4.50000000E+02  1.20000000E+01  0.00000000E+00
  4.50000000E+02  1.00000000E+01  0.00000000E+00
  4.50000000E+02  8.00000000E+00  0.00000000E+00
  4.50000000E+02  6.00000000E+00  0.00000000E+00
  4.50000000E+02  4.00000000E+00  0.00000000E+00
  4.50000000E+02  2.00000000E+00  0.00000000E+00
  4.50000000E+02 -3.33066907E-14  0.00000000E+00
  4.60000000E+02  1.00000000E+02  0.00000000E+00
  4.60000000E+02  9.80000000E+01  0.00000000E+00
  4.60000000E+02  9.60000000E+01  0.00000000E+00
  4.60000000E+02  9.40000000E+01  0.00000000E+00
  4.60000000E+02  9.20000000E+01  0.00000000E+00
  4.60000000E+02  9.00000000E+01  0.00000000E+00
  4.60000000E+02  8.80000000E+01  0.00000000E+00
  4.60000000E+02  8.60000000E+01  0.00000000E+00
  4.60000000E+02  8.40000000E+01  0.00000000E+00
  4.60000000E+02  8.20000000E+01  0.00000000E+00
  4.60000000E+02  8.00000000E+01  0.00000000E+00
  4.60000000E+02  7.80000000E+01  0.00000000E+00
  4.60000000E+02  7.60000000E+01  0.00000000E+00
  4.60000000E+02  7.40000000E+01  0.00000000E+00
  4.60000000E+02  7.20000000E+01  0.00000000E+00
  4.60000000E+02  7.00000000E+01  0.00000000E+00
  4.60000000E+02  6.80000000E+01  0.00000000E+00
  4.60000000E+02  6.60000000E+01  0.00000000E+00
  4.60000000E+02  6.40000000E+01  0.00000000E+00
  4.60000000E+02  6.20000000E+01  0.00000000E+00
  4.60000000E+02  6.00000000E+01  0.00000000E+00
  4.60000000E+02  5.80000000E+01  0.00000000E+00
  4.60000000E+02  5.60000000E+01  0.00000000E+00
  4.60000000E+02  5.40000000E+01  0.00000000E+00
  4.60000000E+02  5.20000000E+01  0.00000000E+00
  4.60000000E+02  5.00000000E+01  0.00000000E+00
  4.60000000E+02  4.80000000E+01  0.00000000E+00
  4.60000000E+02  4.60000000E+01  0.00000000E+00
  4.60000000E+02  4.40000000E+01  0.00000000E+00
  4.60000000E+02  4.20000000E+01  0.00000000E+00
  4.60000000E+02  4.00000000E+01  0.00000000E+00
  4.60000000E+02  3.80000000E+01  0.00000000E+00
  4.60000000E+02  3.60000000E+01  0.00000000E+00
  4.60000000E+02  3.40000000E+01  0.00000000E+00
  4.60000000E+02  3.20000000E+01  0.00000000E+00
  4.60000000E+02  3.00000000E+01  0.00000000E+00
  4.60000000E+02  2.80000000E+01  0.00000000E+00
  4.60000000E+02  2.60000000E+01  0.00000000E+00
  4.60000000E+02  2.40000000E+01  0.00000000E+00
  4.60000000E+02  2.20000000E+01  0.00000000E+00
  4.60000000E+02  2.00000000E+01  0.00000000E+00
  4.60000000E+02  1.80000000E+01  0.00000000E+00
  4.60000000E+02  1.60000000E+01  0.00000000E+00
  4.60000000E+02  1.40000000E+01  0.00000000E+00
  4.60000000E+02  1.20000000E+01  0.00000000E+00
  4.60000000E+02  1.00000000E+01  0.00000000E+00
  4.60000000E+02  8.00000000E+00  0.00000000E+00
  4.60000000E+02  6.00000000E+00  0.00000000E+00
  4.60000000E+02  4.00000000E+00  0.00000000E+00
  4.60000000E+02  2.00000000E+00  0.00000000E+00
  4.60000000E+02 -3.33066907E-14  0.00000000E+00
  4.70000000E+02  1.00000000E+02  0.00000000E+00
  4.70000000E+02  9.80000000E+01  0.00000000E+00
  4.70000000E+02  9.60000000E+01  0.00000000E+00
  4.70000000E+02  9.40000000E+01  0.00000000E+00
  4.70000000E+02  9.20000000E+01  0.00000000E+00
  4.70000000E+02  9.00000000E+01  0.00000000E+00
  4.70000000E+02  8.80000000E+01  0.00000000E+00
  4.70000000E+02  8.60000000E+01  0.00000000E+00
  4.70000000E+02  8.40000000E+01  0.00000000E+00
  4.70000000E+02  8.20000000E+01  0.00000000E+00
  4.70000000E+02  8.00000000E+01  0.00000000E+00
  4.70000000E+02  7.80000000E+01  0.00000000E+00
  4.70000000E+02  7.60000000E+01  0.00000000E+00
  4.70000000E+02  7.40000000E+01  0.00000000E+00
  4.70000000E+02  7.20000000E+01  0.00000000E+00
  4.70000000E+02  7.00000000E+01  0.00000000E+00
  4.70000000E+02  6.80000000E+01  0.00000000E+00
  4.70000000E+02  6.60000000E+01  0.00000000E+00
  4.70000000E+02  6.40000000E+01  0.00000000E+00
  4.70000000E+02  6.20000000E+01  0.00000000E+00
  4.70000000E+02  6.00000000E+01  0.00000000E+00
  4.70000000E+02  5.80000000E+01  0.00000000E+00
  4.70000000E+02  5.60000000E+01  0.00000000E+00
  4.70000000E+02  5.40000000E+01  0.00000000E+00
  4.70000000E+02  5.20000000E+01  0.00000000E+00
  4.70000000E+02  5.00000000E+01  0.00000000E+00
  4.70000000E+02  4.80000000E+01  0.00000000E+00
  4.70000000E+02  4.60000000E+01  0.00000000E+00
  4.70000000E+02  4.40000000E+01  0.00000000E+00
  4.70000000E+02  4.20000000E+01  0.00000000E+00
  4.70000000E+02  4.00000000E+01  0.00000000E+00
  4.70000000E+02  3.80000000E+01  0.00000000E+00
  4.70000000E+02  3.60000000E+01  0.00000000E+00
  4.70000000E+02  3.40000000E+01  0.00000000E+00
  4.70000000E+02  3.20000000E+01  0.00000000E+00
  4.70000000E+02  3.00000000E+01  0.00000000E+00
  4.70000000E+02  2.80000000E+01  0.00000000E+00
  4.70000000E+02  2.60000000E+01  0.00000000E+00
  4.70000000E+02  2.40000000E+01  0.00000000E+00
  4.70000000E+02  2.20000000E+01  0.00000000E+00
  4.70000000E+02  2.00000000E+01  0.00000000E+00
  4.70000000E+02  1.80000000E+01  0.00000000E+00
  4.70000000E+02  1.60000000E+01  0.00000000E+00
  4.70000000E+02  1.40000000E+01  0.00000000E+00
  4.70000000E+02  1.20000000E+01  0.00000000E+00
  4.70000000E+02  1.00000000E+01  0.00000000E+00
  4.70000000E+02  8.00000000E+00  0.00000000E+00
  4.70000000E+02  6.00000000E+00  0.00000000E+00
  4.70000000E+02  4.00000000E+00  0.00000000E+00
  4.70000000E+02  2.00000000E+00  0.00000000E+00
  4.70000000E+02 -3.33066907E-14  0.00000000E+00
  4.80000000E+02  1.00000000E+02  0.00000000E+00
  4.80000000E+02  9.80000000E+01  0.00000000E+00
  4.80000000E+02  9.60000000E+01  0.00000000E+00
  4.80000000E+02  9.40000000E+01  0.00000000E+00
  4.80000000E+02  9.20000000E+01  0.00000000E+00
  4.80000000E+02  9.00000000E+01  0.00000000E+00
  4.80000000E+02  8.80000000E+01  0.00000000E+00
  4.80000000E+02  8.60000000E+01  0.00000000E+00
  4.80000000E+02  8.40000000E+01  0.00000000E+00
  4.80000000E+02  8.20000000E+01  0.00000000E+00
  4.80000000E+02  8.00000000E+01  0.00000000E+00
  4.80000000E+02  7.80000000E+01  0.00000000E+00
  4.80000000E+02  7.60000000E+01  0.00000000E+00
  4.80000000E+02  7.40000000E+01  0.00000000E+00
  4.80000000E+02  7.20000000E+01  0.00000000E+00
  4.80000000E+02  7.00000000E+01  0.00000000E+00
  4.80000000E+02  6.80000000E+01  0.00000000E+00
  4.80000000E+02  6.60000000E+01  0.00000000E+00
  4.80000000E+02  6.40000000E+01  0.00000000E+00
  4.80000000E+02  6.20000000E+01  0.00000000E+00
  4.80000000E+02  6.00000000E+01  0.00000000E+00
  4.80000000E+02  5.80000000E+01  0.00000000E+00
  4.80000000E+02  5.60000000E+01  0.00000000E+00
  4.80000000E+02  5.40000000E+01  0.00000000E+00
  4.80000000E+02  5.20000000E+01  0.00000000E+00
  4.80000000E+02  5.00000000E+01  0.00000000E+00
  4.80000000E+02  4.80000000E+01  0.00000000E+00
  4.80000000E+02  4.60000000E+01  0.00000000E+00
  4.80000000E+02  4.40000000E+01  0.00000000E+00
  4.80000000E+02  4.20000000E+01  0.00000000E+00
  4.80000000E+02  4.00000000E+01  0.00000000E+00
  4.80000000E+02  3.80000000E+01  0.00000000E+00
  4.80000000E+02  3.60000000E+01  0.00000000E+00
  4.80000000E+02  3.40000000E+01  0.00000000E+00
  4.80000000E+02  3.20000000E+01  0.00000000E+00
  4.80000000E+02  3.00000000E+01  0.00000000E+00
  4.80000000E+02  2.80000000E+01  0.00000000E+00
  4.80000000E+02  2.60000000E+01  0.00000000E+00
  4.80000000E+02  2.40000000E+01  0.00000000E+00
  4.80000000E+02  2.20000000E+01  0.00000000E+00
  4.80000000E+02  2.00000000E+01  0.00000000E+00
  4.80000000E+02  1.80000000E+01  0.00000000E+00
  4.80000000E+02  1.60000000E+01  0.00000000E+00
  4.80000000E+02  1.40000000E+01  0.00000000E+00
  4.80000000E+02  1.20000000E+01  0.00000000E+00
  4.80000000E+02  1.00000000E+01  0.00000000E+00
  4.80000000E+02  8.00000000E+00  0.00000000E+00
  4.80000000E+02  6.00000000E+00  0.00000000E+00
  4.80000000E+02  4.00000000E+00  0.00000000E+00
  4.80000000E+02  2.00000000E+00  0.00000000E+00
  4.80000000E+02 -3.33066907E-14  0.00000000E+00
  4.90000000E+02  1.00000000E+02  0.00000000E+00
  4.90000000E+02  9.80000000E+01  0.00000000E+00
  4.90000000E+02  9.60000000E+01  0.00000000E+00
  4.90000000E+02  9.40000000E+01  0.00000000E+00
  4.90000000E+02  9.20000000E+01  0.00000000E+00
  4.90000000E+02  9.00000000E+01  0.00000000E+00
  4.90000000E+02  8.80000000E+01  0.00000000E+00
  4.90000000E+02  8.60000000E+01  0.00000000E+00
  4.90000000E+02  8.40000000E+01  0.00000000E+00
  4.90000000E+02  8.20000000E+01  0.00000000E+00
  4.90000000E+02  8.00000000E+01  0.00000000E+00
  4.90000000E+02  7.80000000E+01  0.00000000E+00
  4.90000000E+02  7.60000000E+01  0.00000000E+00
  4.90000000E+02  7.40000000E+01  0.00000000E+00
  4.90000000E+02  7.20000000E+01  0.00000000E+00
  4.90000000E+02  7.00000000E+01  0.00000000E+00
  4.90000000E+02  6.80000000E+01  0.00000000E+00
  4.90000000E+02  6.60000000E+01  0.00000000E+00
  4.90000000E+02  6.40000000E+01  0.00000000E+00
  4.90000000E+02  6.20000000E+01  0.00000000E+00
  4.90000000E+02  6.00000000E+01  0.00000000E+00
  4.90000000E+02  5.80000000E+01  0.00000000E+00
  4.90000000E+02  5.60000000E+01  0.00000000E+00
  4.90000000E+02  5.40000000E+01  0.00000000E+00
  4.90000000E+02  5.20000000E+01  0.00000000E+00
  4.90000000E+02  5.00000000E+01  0.00000000E+00
  4.90000000E+02  4.80000000E+01  0.00000000E+00
  4.90000000E+02  4.60000000E+01  0.00000000E+00
  4.90000000E+02  4.40000000E+01  0.00000000E+00
  4.90000000E+02  4.20000000E+01  0.00000000E+00
  4.90000000E+02  4.00000000E+01  0.00000000E+00
  4.90000000E+02  3.80000000E+01  0.00000000E+00
  4.90000000E+02  3.60000000E+01  0.00000000E+00
  4.90000000E+02  3.40000000E+01  0.00000000E+00
  4.90000000E+02  3.20000000E+01  0.00000000E+00
  4.90000000E+02  3.00000000E+01  0.00000000E+00
  4.90000000E+02  2.80000000E+01  0.00000000E+00
  4.90000000E+02  2.60000000E+01  0.00000000E+00
  4.90000000E+02  2.40000000E+01  0.00000000E+00
  4.90000000E+02  2.20000000E+01  0.00000000E+00
  4.90000000E+02  2.00000000E+01  0.00000000E+00
  4.90000000E+02  1.80000000E+01  0.00000000E+00
  4.90000000E+02  1.60000000E+01  0.00000000E+00
  4.90000000E+02  1.40000000E+01  0.00000000E+00
  4.90000000E+02  1.20000000E+01  0.00000000E+00
  4.90000000E+02  1.00000000E+01  0.00000000E+00
  4.90000000E+02  8.00000000E+00  0.00000000E+00
  4.90000000E+02  6.00000000E+00  0.00000000E+00
  4.90000000E+02  4.00000000E+00  0.00000000E+00
  4.90000000E+02  2.00000000E+00  0.00000000E+00
  4.90000000E+02 -3.33066907E-14  0.00000000E+00
  5.00000000E+02  1.00000000E+02  0.00000000E+00
  5.00000000E+02  9.80000000E+01  0.00000000E+00
  5.00000000E+02  9.60000000E+01  0.00000000E+00
  5.00000000E+02  9.40000000E+01  0.00000000E+00
  5.00000000E+02  9.20000000E+01  0.00000000E+00
  5.00000000E+02  9.00000000E+01  0.00000000E+00
  5.00000000E+02  8.80000000E+01  0.00000000E+00
  5.00000000E+02  8.60000000E+01  0.00000000E+00
  5.00000000E+02  8.40000000E+01  0.00000000E+00
  5.00000000E+02  8.20000000E+01  0.00000000E+00
  5.00000000E+02  8.00000000E+01  0.00000000E+00
  5.00000000E+02  7.80000000E+01  0.00000000E+00
  5.00000000E+02  7.60000000E+01  0.00000000E+00
  5.00000000E+02  7.40000000E+01  0.00000000E+00
  5.00000000E+02  7.20000000E+01  0.00000000E+00
  5.00000000E+02  7.00000000E+01  0.00000000E+00
  5.00000000E+02  6.80000000E+01  0.00000000E+00
  5.00000000E+02  6.60000000E+01  0.00000000E+00
  5.00000000E+02  6.40000000E+01  0.00000000E+00
  5.00000000E+02  6.20000000E+01  0.00000000E+00
  5.00000000E+02  6.00000000E+01  0.00000000E+00
  5.00000000E+02  5.80000000E+01  0.00000000E+00
  5.00000000E+02  5.60000000E+01  0.00000000E+00
  5.00000000E+02  5.40000000E+01  0.00000000E+00
  5.00000000E+02  5.20000000E+01  0.00000000E+00
  5.00000000E+02  5.00000000E+01  0.00000000E+00
  5.00000000E+02  4.80000000E+01  0.00000000E+00
  5.00000000E+02  4.60000000E+01  0.00000000E+00
  5.00000000E+02  4.40000000E+01  0.00000000E+00
  5.00000000E+02  4.20000000E+01  0.00000000E+00
  5.00000000E+02  4.00000000E+01  0.00000000E+00
  5.00000000E+02  3.80000000E+01  0.00000000E+00
  5.00000000E+02  3.60000000E+01  0.00000000E+00
  5.00000000E+02  3.40000000E+01  0.00000000E+00
  5.00000000E+02  3.20000000E+01  0.00000000E+00
  5.00000000E+02  3.00000000E+01  0.00000000E+00
  5.00000000E+02  2.80000000E+01  0.00000000E+00
  5.00000000E+02  2.60000000E+01  0.00000000E+00
  5.00000000E+02  2.40000000E+01  0.00000000E+00
  5.00000000E+02  2.20000000E+01  0.00000000E+00
  5.00000000E+02  2.00000000E+01  0.00000000E+00
  5.00000000E+02  1.80000000E+01  0.00000000E+00
  5.00000000E+02  1.60000000E+01  0.00000000E+00
  5.00000000E+02  1.40000000E+01  0.00000000E+00
  5.00000000E+02  1.20000000E+01  0.00000000E+00
  5.00000000E+02  1.00000000E+01  0.00000000E+00
  5.00000000E+02  8.00000000E+00  0.00000000E+00
  5.00000000E+02  6.00000000E+00  0.00000000E+00
  5.00000000E+02  4.00000000E+00  0.00000000E+00
  5.00000000E+02  2.00000000E+00  0.00000000E+00
  5.00000000E+02 -3.33066907E-14  0.00000000E+00
  5.10000000E+02  1.00000000E+02  0.00000000E+00
  5.10000000E+02  9.80000000E+01  0.00000000E+00
  5.10000000E+02  9.60000000E+01  0.00000000E+00
  5.10000000E+02  9.40000000E+01  0.00000000E+00
  5.10000000E+02  9.20000000E+01  0.00000000E+00
  5.10000000E+02  9.00000000E+01  0.00000000E+00
  5.10000000E+02  8.80000000E+01  0.00000000E+00
  5.10000000E+02  8.60000000E+01  0.00000000E+00
  5.10000000E+02  8.40000000E+01  0.00000000E+00
  5.10000000E+02  8.20000000E+01  0.00000000E+00
  5.10000000E+02  8.00000000E+01  0.00000000E+00
  5.10000000E+02  7.80000000E+01  0.00000000E+00
  5.10000000E+02  7.60000000E+01  0.00000000E+00
  5.10000000E+02  7.40000000E+01  0.00000000E+00
  5.10000000E+02  7.20000000E+01  0.00000000E+00
  5.10000000E+02  7.00000000E+01  0.00000000E+00
  5.10000000E+02  6.80000000E+01  0.00000000E+00
  5.10000000E+02  6.60000000E+01  0.00000000E+00
  5.10000000E+02  6.40000000E+01  0.00000000E+00
  5.10000000E+02  6.20000000E+01  0.00000000E+00
  5.10000000E+02  6.00000000E+01  0.00000000E+00
  5.10000000E+02  5.80000000E+01  0.00000000E+00
  5.10000000E+02  5.60000000E+01  0.00000000E+00
  5.10000000E+02  5.40000000E+01  0.00000000E+00
  5.10000000E+02  5.20000000E+01  0.00000000E+00
  5.10000000E+02  5.00000000E+01  0.00000000E+00
  5.10000000E+02  4.80000000E+01  0.00000000E+00
  5.10000000E+02  4.60000000E+01  0.00000000E+00
  5.10000000E+02  4.40000000E+01  0.00000000E+00
  5.10000000E+02  4.20000000E+01  0.00000000E+00
  5.10000000E+02  4.00000000E+01  0.00000000E+00
  5.10000000E+02  3.80000000E+01  0.00000000E+00
  5.10000000E+02  3.60000000E+01  0.00000000E+00
  5.10000000E+02  3.40000000E+01  0.00000000E+00
  5.10000000E+02  3.20000000E+01  0.00000000E+00
  5.10000000E+02  3.00000000E+01  0.00000000E+00
  5.10000000E+02  2.80000000E+01  0.00000000E+00
  5.10000000E+02  2.60000000E+01  0.00000000E+00
  5.10000000E+02  2.40000000E+01  0.00000000E+00
  5.10000000E+02  2.20000000E+01  0.00000000E+00
  5.10000000E+02  2.00000000E+01  0.00000000E+00
  5.10000000E+02  1.80000000E+01  0.00000000E+00
  5.10000000E+02  1.60000000E+01  0.00000000E+00
  5.10000000E+02  1.40000000E+01  0.00000000E+00
  5.10000000E+02  1.20000000E+01  0.00000000E+00
  5.10000000E+02  1.00000000E+01  0.00000000E+00
  5.10000000E+02  8.00000000E+00  0.00000000E+00
  5.10000000E+02  6.00000000E+00  0.00000000E+00
  5.10000000E+02  4.00000000E+00  0.00000000E+00
  5.10000000E+02  2.00000000E+00  0.00000000E+00
  5.10000000E+02 -3.33066907E-14  0.00000000E+00
  5.20000000E+02  1.00000000E+02  0.00000000E+00
  5.20000000E+02  9.80000000E+01  0.00000000E+00
  5.20000000E+02  9.60000000E+01  0.00000000E+00
  5.20000000E+02  9.40000000E+01  0.00000000E+00
  5.20000000E+02  9.20000000E+01  0.00000000E+00
  5.20000000E+02  9.00000000E+01  0.00000000E+00
  5.20000000E+02  8.80000000E+01  0.00000000E+00
  5.20000000E+02  8.60000000E+01  0.00000000E+00
  5.20000000E+02  8.40000000E+01  0.00000000E+00
  5.20000000E+02  8.20000000E+01  0.00000000E+00
  5.20000000E+02  8.00000000E+01  0.00000000E+00
  5.20000000E+02  7.80000000E+01  0.00000000E+00
  5.20000000E+02  7.60000000E+01  0.00000000E+00
  5.20000000E+02  7.40000000E+01  0.00000000E+00
  5.20000000E+02  7.20000000E+01  0.00000000E+00
  5.20000000E+02  7.00000000E+01  0.00000000E+00
  5.20000000E+02  6.80000000E+01  0.00000000E+00
  5.20000000E+02  6.60000000E+01  0.00000000E+00
  5.20000000E+02  6.40000000E+01  0.00000000E+00
  5.20000000E+02  6.20000000E+01  0.00000000E+00
  5.20000000E+02  6.00000000E+01  0.00000000E+00
  5.20000000E+02  5.80000000E+01  0.00000000E+00
  5.20000000E+02  5.60000000E+01  0.00000000E+00
  5.20000000E+02  5.40000000E+01  0.00000000E+00
  5.20000000E+02  5.20000000E+01  0.00000000E+00
  5.20000000E+02  5.00000000E+01  0.00000000E+00
  5.20000000E+02  4.80000000E+01  0.00000000E+00
  5.20000000E+02  4.60000000E+01  0.00000000E+00
  5.20000000E+02  4.40000000E+01  0.00000000E+00
  5.20000000E+02  4.20000000E+01  0.00000000E+00
  5.20000000E+02  4.00000000E+01  0.00000000E+00
  5.20000000E+02  3.80000000E+01  0.00000000E+00
  5.20000000E+02  3.60000000E+01  0.00000000E+00
  5.20000000E+02  3.40000000E+01  0.00000000E+00
  5.20000000E+02  3.20000000E+01  0.00000000E+00
  5.20000000E+02  3.00000000E+01  0.00000000E+00
  5.20000000E+02  2.80000000E+01  0.00000000E+00
  5.20000000E+02  2.60000000E+01  0.00000000E+00
  5.20000000E+02  2.40000000E+01  0.00000000E+00
  5.20000000E+02  2.20000000E+01  0.00000000E+00
  5.20000000E+02  2.00000000E+01  0.00000000E+00
  5.20000000E+02  1.80000000E+01  0.00000000E+00
  5.20000000E+02  1.60000000E+01  0.00000000E+00
  5.20000000E+02  1.40000000E+01  0.00000000E+00
  5.20000000E+02  1.20000000E+01  0.00000000E+00
  5.20000000E+02  1.00000000E+01  0.00000000E+00
  5.20000000E+02  8.00000000E+00  0.00000000E+00
  5.20000000E+02  6.00000000E+00  0.00000000E+00
  5.20000000E+02  4.00000000E+00  0.00000000E+00
  5.20000000E+02  2.00000000E+00  0.00000000E+00
  5.20000000E+02 -3.33066907E-14  0.00000000E+00
  5.30000000E+02  1.00000000E+02  0.00000000E+00
  5.30000000E+02  9.80000000E+01  0.00000000E+00
  5.30000000E+02  9.60000000E+01  0.00000000E+00
  5.30000000E+02  9.40000000E+01  0.00000000E+00
  5.30000000E+02  9.20000000E+01  0.00000000E+00
  5.30000000E+02  9.00000000E+01  0.00000000E+00
  5.30000000E+02  8.80000000E+01  0.00000000E+00
  5.30000000E+02  8.60000000E+01  0.00000000E+00
  5.30000000E+02  8.40000000E+01  0.00000000E+00
  5.30000000E+02  8.20000000E+01  0.00000000E+00
  5.30000000E+02  8.00000000E+01  0.00000000E+00
  5.30000000E+02  7.80000000E+01  0.00000000E+00
  5.30000000E+02  7.60000000E+01  0.00000000E+00
  5.30000000E+02  7.40000000E+01  0.00000000E+00
  5.30000000E+02  7.20000000E+01  0.00000000E+00
  5.30000000E+02  7.00000000E+01  0.00000000E+00
  5.30000000E+02  6.80000000E+01  0.00000000E+00
  5.30000000E+02  6.60000000E+01  0.00000000E+00
  5.30000000E+02  6.40000000E+01  0.00000000E+00
  5.30000000E+02  6.20000000E+01  0.00000000E+00
  5.30000000E+02  6.00000000E+01  0.00000000E+00
  5.30000000E+02  5.80000000E+01  0.00000000E+00
  5.30000000E+02  5.60000000E+01  0.00000000E+00
  5.30000000E+02  5.40000000E+01  0.00000000E+00
  5.30000000E+02  5.20000000E+01  0.00000000E+00
  5.30000000E+02  5.00000000E+01  0.00000000E+00
  5.30000000E+02  4.80000000E+01  0.00000000E+00
  5.30000000E+02  4.60000000E+01  0.00000000E+00
  5.30000000E+02  4.40000000E+01  0.00000000E+00
  5.30000000E+02  4.20000000E+01  0.00000000E+00
  5.30000000E+02  4.00000000E+01  0.00000000E+00
  5.30000000E+02  3.80000000E+01  0.00000000E+00
  5.30000000E+02  3.60000000E+01  0.00000000E+00
  5.30000000E+02  3.40000000E+01  0.00000000E+00
  5.30000000E+02  3.20000000E+01  0.00000000E+00
  5.30000000E+02  3.00000000E+01  0.00000000E+00
  5.30000000E+02  2.80000000E+01  0.00000000E+00
  5.30000000E+02  2.60000000E+01  0.00000000E+00
  5.30000000E+02  2.40000000E+01  0.00000000E+00
  5.30000000E+02  2.20000000E+01  0.00000000E+00
  5.30000000E+02  2.00000000E+01  0.00000000E+00
  5.30000000E+02  1.80000000E+01  0.00000000E+00
  5.30000000E+02  1.60000000E+01  0.00000000E+00
  5.30000000E+02  1.40000000E+01  0.00000000E+00
  5.30000000E+02  1.20000000E+01  0.00000000E+00
  5.30000000E+02  1.00000000E+01  0.00000000E+00
  5.30000000E+02  8.00000000E+00  0.00000000E+00
  5.30000000E+02  6.00000000E+00  0.00000000E+00
  5.30000000E+02  4.00000000E+00  0.00000000E+00
  5.30000000E+02  2.00000000E+00  0.00000000E+00
  5.30000000E+02 -3.33066907E-14  0.00000000E+00
  5.40000000E+02  1.00000000E+02  0.00000000E+00
  5.40000000E+02  9.80000000E+01  0.00000000E+00
  5.40000000E+02  9.60000000E+01  0.00000000E+00
  5.40000000E+02  9.40000000E+01  0.00000000E+00
  5.40000000E+02  9.20000000E+01  0.00000000E+00
  5.40000000E+02  9.00000000E+01  0.00000000E+00
  5.40000000E+02  8.80000000E+01  0.00000000E+00
  5.40000000E+02  8.60000000E+01  0.00000000E+00
  5.40000000E+02  8.40000000E+01  0.00000000E+00
  5.40000000E+02  8.20000000E+01  0.00000000E+00
  5.40000000E+02  8.00000000E+01  0.00000000E+00
  5.40000000E+02  7.80000000E+01  0.00000000E+00
  5.40000000E+02  7.60000000E+01  0.00000000E+00
  5.40000000E+02  7.40000000E+01  0.00000000E+00
  5.40000000E+02  7.20000000E+01  0.00000000E+00
  5.40000000E+02  7.00000000E+01  0.00000000E+00
  5.40000000E+02  6.80000000E+01  0.00000000E+00
  5.40000000E+02  6.60000000E+01  0.00000000E+00
  5.40000000E+02  6.40000000E+01  0.00000000E+00
  5.40000000E+02  6.20000000E+01  0.00000000E+00
  5.40000000E+02  6.00000000E+01  0.00000000E+00
  5.40000000E+02  5.80000000E+01  0.00000000E+00
  5.40000000E+02  5.60000000E+01  0.00000000E+00
  5.40000000E+02  5.40000000E+01  0.00000000E+00
  5.40000000E+02  5.20000000E+01  0.00000000E+00
  5.40000000E+02  5.00000000E+01  0.00000000E+00
  5.40000000E+02  4.80000000E+01  0.00000000E+00
  5.40000000E+02  4.60000000E+01  0.00000000E+00
  5.40000000E+02  4.40000000E+01  0.00000000E+00
  5.40000000E+02  4.20000000E+01  0.00000000E+00
  5.40000000E+02  4.00000000E+01  0.00000000E+00
  5.40000000E+02  3.80000000E+01  0.00000000E+00
  5.40000000E+02  3.60000000E+01  0.00000000E+00
  5.40000000E+02  3.40000000E+01  0.00000000E+00
  5.40000000E+02  3.20000000E+01  0.00000000E+00
  5.40000000E+02  3.00000000E+01  0.00000000E+00
  5.40000000E+02  2.80000000E+01  0.00000000E+00
  5.40000000E+02  2.60000000E+01  0.00000000E+00
  5.40000000E+02  2.40000000E+01  0.00000000E+00
  5.40000000E+02  2.20000000E+01  0.00000000E+00
  5.40000000E+02  2.00000000E+01  0.00000000E+00
  5.40000000E+02  1.80000000E+01  0.00000000E+00
  5.40000000E+02  1.60000000E+01  0.00000000E+00
  5.40000000E+02  1.40000000E+01  0.00000000E+00
  5.40000000E+02  1.20000000E+01  0.00000000E+00
  5.40000000E+02  1.00000000E+01  0.00000000E+00
  5.40000000E+02  8.00000000E+00  0.00000000E+00
  5.40000000E+02  6.00000000E+00  0.00000000E+00
  5.40000000E+02  4.00000000E+00  0.00000000E+00
  5.40000000E+02  2.00000000E+00  0.00000000E+00
  5.40000000E+02 -3.33066907E-14  0.00000000E+00
  5.50000000E+02  1.00000000E+02  0.00000000E+00
  5.50000000E+02  9.80000000E+01  0.00000000E+00
  5.50000000E+02  9.60000000E+01  0.00000000E+00
  5.50000000E+02  9.40000000E+01  0.00000000E+00
  5.50000000E+02  9.20000000E+01  0.00000000E+00
  5.50000000E+02  9.00000000E+01  0.00000000E+00
  5.50000000E+02  8.80000000E+01  0.00000000E+00
  5.50000000E+02  8.60000000E+01  0.00000000E+00
  5.50000000E+02  8.40000000E+01  0.00000000E+00
  5.50000000E+02  8.20000000E+01  0.00000000E+00
  5.50000000E+02  8.00000000E+01  0.00000000E+00
  5.50000000E+02  7.80000000E+01  0.00000000E+00
  5.50000000E+02  7.60000000E+01  0.00000000E+00
  5.50000000E+02  7.40000000E+01  0.00000000E+00
  5.50000000E+02  7.20000000E+01  0.00000000E+00
  5.50000000E+02  7.00000000E+01  0.00000000E+00
  5.50000000E+02  6.80000000E+01  0.00000000E+00
  5.50000000E+02  6.60000000E+01  0.00000000E+00
  5.50000000E+02  6.40000000E+01  0.00000000E+00
  5.50000000E+02  6.20000000E+01  0.00000000E+00
  5.50000000E+02  6.00000000E+01  0.00000000E+00
  5.50000000E+02  5.80000000E+01  0.00000000E+00
  5.50000000E+02  5.60000000E+01  0.00000000E+00
  5.50000000E+02  5.40000000E+01  0.00000000E+00
  5.50000000E+02  5.20000000E+01  0.00000000E+00
  5.50000000E+02  5.00000000E+01  0.00000000E+00
  5.50000000E+02  4.80000000E+01  0.00000000E+00
  5.50000000E+02  4.60000000E+01  0.00000000E+00
  5.50000000E+02  4.40000000E+01  0.00000000E+00
  5.50000000E+02  4.20000000E+01  0.00000000E+00
  5.50000000E+02  4.00000000E+01  0.00000000E+00
  5.50000000E+02  3.80000000E+01  0.00000000E+00
  5.50000000E+02  3.60000000E+01  0.00000000E+00
  5.50000000E+02  3.40000000E+01  0.00000000E+00
  5.50000000E+02  3.20000000E+01  0.00000000E+00
  5.50000000E+02  3.00000000E+01  0.00000000E+00
  5.50000000E+02  2.80000000E+01  0.00000000E+00
  5.50000000E+02  2.60000000E+01  0.00000000E+00
  5.50000000E+02  2.40000000E+01  0.00000000E+00
  5.50000000E+02  2.20000000E+01  0.00000000E+00
  5.50000000E+02  2.00000000E+01  0.00000000E+00
  5.50000000E+02  1.80000000E+01  0.00000000E+00
  5.50000000E+02  1.60000000E+01  0.00000000E+00
  5.50000000E+02  1.40000000E+01  0.00000000E+00
  5.50000000E+02  1.20000000E+01  0.00000000E+00
  5.50000000E+02  1.00000000E+01  0.00000000E+00
  5.50000000E+02  8.00000000E+00  0.00000000E+00
  5.50000000E+02  6.00000000E+00  0.00000000E+00
  5.50000000E+02  4.00000000E+00  0.00000000E+00
  5.50000000E+02  2.00000000E+00  0.00000000E+00
  5.50000000E+02 -3.33066907E-14  0.00000000E+00
  5.60000000E+02  1.00000000E+02  0.00000000E+00
  5.60000000E+02  9.80000000E+01  0.00000000E+00
  5.60000000E+02  9.60000000E+01  0.00000000E+00
  5.60000000E+02  9.40000000E+01  0.00000000E+00
  5.60000000E+02  9.20000000E+01  0.00000000E+00
  5.60000000E+02  9.00000000E+01  0.00000000E+00
  5.60000000E+02  8.80000000E+01  0.00000000E+00
  5.60000000E+02  8.60000000E+01  0.00000000E+00
  5.60000000E+02  8.40000000E+01  0.00000000E+00
  5.60000000E+02  8.20000000E+01  0.00000000E+00
  5.60000000E+02  8.00000000E+01  0.00000000E+00
  5.60000000E+02  7.80000000E+01  0.00000000E+00
  5.60000000E+02  7.60000000E+01  0.00000000E+00
  5.60000000E+02  7.40000000E+01  0.00000000E+00
  5.60000000E+02  7.20000000E+01  0.00000000E+00
  5.60000000E+02  7.00000000E+01  0.00000000E+00
  5.60000000E+02  6.80000000E+01  0.00000000E+00
  5.60000000E+02  6.60000000E+01  0.00000000E+00
  5.60000000E+02  6.40000000E+01  0.00000000E+00
  5.60000000E+02  6.20000000E+01  0.00000000E+00
  5.60000000E+02  6.00000000E+01  0.00000000E+00
  5.60000000E+02  5.80000000E+01  0.00000000E+00
  5.60000000E+02  5.60000000E+01  0.00000000E+00
  5.60000000E+02  5.40000000E+01  0.00000000E+00
  5.60000000E+02  5.20000000E+01  0.00000000E+00
  5.60000000E+02  5.00000000E+01  0.00000000E+00
  5.60000000E+02  4.80000000E+01  0.00000000E+00
  5.60000000E+02  4.60000000E+01  0.00000000E+00
  5.60000000E+02  4.40000000E+01  0.00000000E+00
  5.60000000E+02  4.20000000E+01  0.00000000E+00
  5.60000000E+02  4.00000000E+01  0.00000000E+00
  5.60000000E+02  3.80000000E+01  0.00000000E+00
  5.60000000E+02  3.60000000E+01  0.00000000E+00
  5.60000000E+02  3.40000000E+01  0.00000000E+00
  5.60000000E+02  3.20000000E+01  0.00000000E+00
  5.60000000E+02  3.00000000E+01  0.00000000E+00
  5.60000000E+02  2.80000000E+01  0.00000000E+00
  5.60000000E+02  2.60000000E+01  0.00000000E+00
  5.60000000E+02  2.40000000E+01  0.00000000E+00
  5.60000000E+02  2.20000000E+01  0.00000000E+00
  5.60000000E+02  2.00000000E+01  0.00000000E+00
  5.60000000E+02  1.80000000E+01  0.00000000E+00
  5.60000000E+02  1.60000000E+01  0.00000000E+00
  5.60000000E+02  1.40000000E+01  0.00000000E+00
  5.60000000E+02  1.20000000E+01  0.00000000E+00
  5.60000000E+02  1.00000000E+01  0.00000000E+00
  5.60000000E+02  8.00000000E+00  0.00000000E+00
  5.60000000E+02  6.00000000E+00  0.00000000E+00
  5.60000000E+02  4.00000000E+00  0.00000000E+00
  5.60000000E+02  2.00000000E+00  0.00000000E+00
  5.60000000E+02 -3.33066907E-14  0.00000000E+00
  5.70000000E+02  1.00000000E+02  0.00000000E+00
  5.70000000E+02  9.80000000E+01  0.00000000E+00
  5.70000000E+02  9.60000000E+01  0.00000000E+00
  5.70000000E+02  9.40000000E+01  0.00000000E+00
  5.70000000E+02  9.20000000E+01  0.00000000E+00
  5.70000000E+02  9.00000000E+01  0.00000000E+00
  5.70000000E+02  8.80000000E+01  0.00000000E+00
  5.70000000E+02  8.60000000E+01  0.00000000E+00
  5.70000000E+02  8.40000000E+01  0.00000000E+00
  5.70000000E+02  8.20000000E+01  0.00000000E+00
  5.70000000E+02  8.00000000E+01  0.00000000E+00
  5.70000000E+02  7.80000000E+01  0.00000000E+00
  5.70000000E+02  7.60000000E+01  0.00000000E+00
  5.70000000E+02  7.40000000E+01  0.00000000E+00
  5.70000000E+02  7.20000000E+01  0.00000000E+00
  5.70000000E+02  7.00000000E+01  0.00000000E+00
  5.70000000E+02  6.80000000E+01  0.00000000E+00
  5.70000000E+02  6.60000000E+01  0.00000000E+00
  5.70000000E+02  6.40000000E+01  0.00000000E+00
  5.70000000E+02  6.20000000E+01  0.00000000E+00
  5.70000000E+02  6.00000000E+01  0.00000000E+00
  5.70000000E+02  5.80000000E+01  0.00000000E+00
  5.70000000E+02  5.60000000E+01  0.00000000E+00
  5.70000000E+02  5.40000000E+01  0.00000000E+00
  5.70000000E+02  5.20000000E+01  0.00000000E+00
  5.70000000E+02  5.00000000E+01  0.00000000E+00
  5.70000000E+02  4.80000000E+01  0.00000000E+00
  5.70000000E+02  4.60000000E+01  0.00000000E+00
  5.70000000E+02  4.40000000E+01  0.00000000E+00
  5.70000000E+02  4.20000000E+01  0.00000000E+00
  5.70000000E+02  4.00000000E+01  0.00000000E+00
  5.70000000E+02  3.80000000E+01  0.00000000E+00
  5.70000000E+02  3.60000000E+01  0.00000000E+00
  5.70000000E+02  3.40000000E+01  0.00000000E+00
  5.70000000E+02  3.20000000E+01  0.00000000E+00
  5.70000000E+02  3.00000000E+01  0.00000000E+00
  5.70000000E+02  2.80000000E+01  0.00000000E+00
  5.70000000E+02  2.60000000E+01  0.00000000E+00
  5.70000000E+02  2.40000000E+01  0.00000000E+00
  5.70000000E+02  2.20000000E+01  0.00000000E+00
  5.70000000E+02  2.00000000E+01  0.00000000E+00
  5.70000000E+02  1.80000000E+01  0.00000000E+00
  5.70000000E+02  1.60000000E+01  0.00000000E+00
  5.70000000E+02  1.40000000E+01  0.00000000E+00
  5.70000000E+02  1.20000000E+01  0.00000000E+00
  5.70000000E+02  1.00000000E+01  0.00000000E+00
  5.70000000E+02  8.00000000E+00  0.00000000E+00
  5.70000000E+02  6.00000000E+00  0.00000000E+00
  5.70000000E+02  4.00000000E+00  0.00000000E+00
  5.70000000E+02  2.00000000E+00  0.00000000E+00
  5.70000000E+02 -3.33066907E-14  0.00000000E+00
  5.80000000E+02  1.00000000E+02  0.00000000E+00
  5.80000000E+02  9.80000000E+01  0.00000000E+00
  5.80000000E+02  9.60000000E+01  0.00000000E+00
  5.80000000E+02  9.40000000E+01  0.00000000E+00
  5.80000000E+02  9.20000000E+01  0.00000000E+00
  5.80000000E+02  9.00000000E+01  0.00000000E+00
  5.80000000E+02  8.80000000E+01  0.00000000E+00
  5.80000000E+02  8.60000000E+01  0.00000000E+00
  5.80000000E+02  8.40000000E+01  0.00000000E+00
  5.80000000E+02  8.20000000E+01  0.00000000E+00
  5.80000000E+02  8.00000000E+01  0.00000000E+00
  5.80000000E+02  7.80000000E+01  0.00000000E+00
  5.80000000E+02  7.60000000E+01  0.00000000E+00
  5.80000000E+02  7.40000000E+01  0.00000000E+00
  5.80000000E+02  7.20000000E+01  0.00000000E+00
  5.80000000E+02  7.00000000E+01  0.00000000E+00
  5.80000000E+02  6.80000000E+01  0.00000000E+00
  5.80000000E+02  6.60000000E+01  0.00000000E+00
  5.80000000E+02  6.40000000E+01  0.00000000E+00
  5.80000000E+02  6.20000000E+01  0.00000000E+00
  5.80000000E+02  6.00000000E+01  0.00000000E+00
  5.80000000E+02  5.80000000E+01  0.00000000E+00
  5.80000000E+02  5.60000000E+01  0.00000000E+00
  5.80000000E+02  5.40000000E+01  0.00000000E+00
  5.80000000E+02  5.20000000E+01  0.00000000E+00
  5.80000000E+02  5.00000000E+01  0.00000000E+00
  5.80000000E+02  4.80000000E+01  0.00000000E+00
  5.80000000E+02  4.60000000E+01  0.00000000E+00
  5.80000000E+02  4.40000000E+01  0.00000000E+00
  5.80000000E+02  4.20000000E+01  0.00000000E+00
  5.80000000E+02  4.00000000E+01  0.00000000E+00
  5.80000000E+02  3.80000000E+01  0.00000000E+00
  5.80000000E+02  3.60000000E+01  0.00000000E+00
  5.80000000E+02  3.40000000E+01  0.00000000E+00
  5.80000000E+02  3.20000000E+01  0.00000000E+00
  5.80000000E+02  3.00000000E+01  0.00000000E+00
  5.80000000E+02  2.80000000E+01  0.00000000E+00
  5.80000000E+02  2.60000000E+01  0.00000000E+00
  5.80000000E+02  2.40000000E+01  0.00000000E+00
  5.80000000E+02  2.20000000E+01  0.00000000E+00
  5.80000000E+02  2.00000000E+01  0.00000000E+00
  5.80000000E+02  1.80000000E+01  0.00000000E+00
  5.80000000E+02  1.60000000E+01  0.00000000E+00
  5.80000000E+02  1.40000000E+01  0.00000000E+00
  5.80000000E+02  1.20000000E+01  0.00000000E+00
  5.80000000E+02  1.00000000E+01  0.00000000E+00
  5.80000000E+02  8.00000000E+00  0.00000000E+00
  5.80000000E+02  6.00000000E+00  0.00000000E+00
  5.80000000E+02  4.00000000E+00  0.00000000E+00
  5.80000000E+02  2.00000000E+00  0.00000000E+00
  5.80000000E+02 -3.33066907E-14  0.00000000E+00
  5.90000000E+02  1.00000000E+02  0.00000000E+00
  5.90000000E+02  9.80000000E+01  0.00000000E+00
  5.90000000E+02  9.60000000E+01  0.00000000E+00
  5.90000000E+02  9.40000000E+01  0.00000000E+00
  5.90000000E+02  9.20000000E+01  0.00000000E+00
  5.90000000E+02  9.00000000E+01  0.00000000E+00
  5.90000000E+02  8.80000000E+01  0.00000000E+00
  5.90000000E+02  8.60000000E+01  0.00000000E+00
  5.90000000E+02  8.40000000E+01  0.00000000E+00
  5.90000000E+02  8.20000000E+01  0.00000000E+00
  5.90000000E+02  8.00000000E+01  0.00000000E+00
  5.90000000E+02  7.80000000E+01  0.00000000E+00
  5.90000000E+02  7.60000000E+01  0.00000000E+00
  5.90000000E+02  7.40000000E+01  0.00000000E+00
  5.90000000E+02  7.20000000E+01  0.00000000E+00
  5.90000000E+02  7.00000000E+01  0.00000000E+00
  5.90000000E+02  6.80000000E+01  0.00000000E+00
  5.90000000E+02  6.60000000E+01  0.00000000E+00
  5.90000000E+02  6.40000000E+01  0.00000000E+00
  5.90000000E+02  6.20000000E+01  0.00000000E+00
  5.90000000E+02  6.00000000E+01  0.00000000E+00
  5.90000000E+02  5.80000000E+01  0.00000000E+00
  5.90000000E+02  5.60000000E+01  0.00000000E+00
  5.90000000E+02  5.40000000E+01  0.00000000E+00
  5.90000000E+02  5.20000000E+01  0.00000000E+00
  5.90000000E+02  5.00000000E+01  0.00000000E+00
  5.90000000E+02  4.80000000E+01  0.00000000E+00
  5.90000000E+02  4.60000000E+01  0.00000000E+00
  5.90000000E+02  4.40000000E+01  0.00000000E+00
  5.90000000E+02  4.20000000E+01  0.00000000E+00
  5.90000000E+02  4.00000000E+01  0.00000000E+00
  5.90000000E+02  3.80000000E+01  0.00000000E+00
  5.90000000E+02  3.60000000E+01  0.00000000E+00
  5.90000000E+02  3.40000000E+01  0.00000000E+00
  5.90000000E+02  3.20000000E+01  0.00000000E+00
  5.90000000E+02  3.00000000E+01  0.00000000E+00
  5.90000000E+02  2.80000000E+01  0.00000000E+00
  5.90000000E+02  2.60000000E+01  0.00000000E+00
  5.90000000E+02  2.40000000E+01  0.00000000E+00
  5.90000000E+02  2.20000000E+01  0.00000000E+00
  5.90000000E+02  2.00000000E+01  0.00000000E+00
  5.90000000E+02  1.80000000E+01  0.00000000E+00
  5.90000000E+02  1.60000000E+01  0.00000000E+00
  5.90000000E+02  1.40000000E+01  0.00000000E+00
  5.90000000E+02  1.20000000E+01  0.00000000E+00
  5.90000000E+02  1.00000000E+01  0.00000000E+00
  5.90000000E+02  8.00000000E+00  0.00000000E+00
  5.90000000E+02  6.00000000E+00  0.00000000E+00
  5.90000000E+02  4.00000000E+00  0.00000000E+00
  5.90000000E+02  2.00000000E+00  0.00000000E+00
  5.90000000E+02 -3.33066907E-14  0.00000000E+00
  6.00000000E+02  1.00000000E+02  0.00000000E+00
  6.00000000E+02  9.80000000E+01  0.00000000E+00
  6.00000000E+02  9.60000000E+01  0.00000000E+00
  6.00000000E+02  9.40000000E+01  0.00000000E+00
  6.00000000E+02  9.20000000E+01  0.00000000E+00
  6.00000000E+02  9.00000000E+01  0.00000000E+00
  6.00000000E+02  8.80000000E+01  0.00000000E+00
  6.00000000E+02  8.60000000E+01  0.00000000E+00
  6.00000000E+02  8.40000000E+01  0.00000000E+00
  6.00000000E+02  8.20000000E+01  0.00000000E+00
  6.00000000E+02  8.00000000E+01  0.00000000E+00
  6.00000000E+02  7.80000000E+01  0.00000000E+00
  6.00000000E+02  7.60000000E+01  0.00000000E+00
  6.00000000E+02  7.40000000E+01  0.00000000E+00
  6.00000000E+02  7.20000000E+01  0.00000000E+00
  6.00000000E+02  7.00000000E+01  0.00000000E+00
  6.00000000E+02  6.80000000E+01  0.00000000E+00
  6.00000000E+02  6.60000000E+01  0.00000000E+00
  6.00000000E+02  6.40000000E+01  0.00000000E+00
  6.00000000E+02  6.20000000E+01  0.00000000E+00
  6.00000000E+02  6.00000000E+01  0.00000000E+00
  6.00000000E+02  5.80000000E+01  0.00000000E+00
  6.00000000E+02  5.60000000E+01  0.00000000E+00
  6.00000000E+02  5.40000000E+01  0.00000000E+00
  6.00000000E+02  5.20000000E+01  0.00000000E+00
  6.00000000E+02  5.00000000E+01  0.00000000E+00
  6.00000000E+02  4.80000000E+01  0.00000000E+00
  6.00000000E+02  4.60000000E+01  0.00000000E+00
  6.00000000E+02  4.40000000E+01  0.00000000E+00
  6.00000000E+02  4.20000000E+01  0.00000000E+00
  6.00000000E+02  4.00000000E+01  0.00000000E+00
  6.00000000E+02  3.80000000E+01  0.00000000E+00
  6.00000000E+02  3.60000000E+01  0.00000000E+00
  6.00000000E+02  3.40000000E+01  0.00000000E+00
  6.00000000E+02  3.20000000E+01  0.00000000E+00
  6.00000000E+02  3.00000000E+01  0.00000000E+00
  6.00000000E+02  2.80000000E+01  0.00000000E+00
  6.00000000E+02  2.60000000E+01  0.00000000E+00
  6.00000000E+02  2.40000000E+01  0.00000000E+00
  6.00000000E+02  2.20000000E+01  0.00000000E+00
  6.00000000E+02  2.00000000E+01  0.00000000E+00
  6.00000000E+02  1.80000000E+01  0.00000000E+00
  6.00000000E+02  1.60000000E+01  0.00000000E+00
  6.00000000E+02  1.40000000E+01  0.00000000E+00
  6.00000000E+02  1.20000000E+01  0.00000000E+00
  6.00000000E+02  1.00000000E+01  0.00000000E+00
  6.00000000E+02  8.00000000E+00  0.00000000E+00
  6.00000000E+02  6.00000000E+00  0.00000000E+00
  6.00000000E+02  4.00000000E+00  0.00000000E+00
  6.00000000E+02  2.00000000E+00  0.00000000E+00
  6.00000000E+02 -3.33066907E-14  0.00000000E+00
  6.10000000E+02  1.00000000E+02  0.00000000E+00
  6.10000000E+02  9.80000000E+01  0.00000000E+00
  6.10000000E+02  9.60000000E+01  0.00000000E+00
  6.10000000E+02  9.40000000E+01  0.00000000E+00
  6.10000000E+02  9.20000000E+01  0.00000000E+00
  6.10000000E+02  9.00000000E+01  0.00000000E+00
  6.10000000E+02  8.80000000E+01  0.00000000E+00
  6.10000000E+02  8.60000000E+01  0.00000000E+00
  6.10000000E+02  8.40000000E+01  0.00000000E+00
  6.10000000E+02  8.20000000E+01  0.00000000E+00
  6.10000000E+02  8.00000000E+01  0.00000000E+00
  6.10000000E+02  7.80000000E+01  0.00000000E+00
  6.10000000E+02  7.60000000E+01  0.00000000E+00
  6.10000000E+02  7.40000000E+01  0.00000000E+00
  6.10000000E+02  7.20000000E+01  0.00000000E+00
  6.10000000E+02  7.00000000E+01  0.00000000E+00
  6.10000000E+02  6.80000000E+01  0.00000000E+00
  6.10000000E+02  6.60000000E+01  0.00000000E+00
  6.10000000E+02  6.40000000E+01  0.00000000E+00
  6.10000000E+02  6.20000000E+01  0.00000000E+00
  6.10000000E+02  6.00000000E+01  0.00000000E+00
  6.10000000E+02  5.80000000E+01  0.00000000E+00
  6.10000000E+02  5.60000000E+01  0.00000000E+00
  6.10000000E+02  5.40000000E+01  0.00000000E+00
  6.10000000E+02  5.20000000E+01  0.00000000E+00
  6.10000000E+02  5.00000000E+01  0.00000000E+00
  6.10000000E+02  4.80000000E+01  0.00000000E+00
  6.10000000E+02  4.60000000E+01  0.00000000E+00
  6.10000000E+02  4.40000000E+01  0.00000000E+00
  6.10000000E+02  4.20000000E+01  0.00000000E+00
  6.10000000E+02  4.00000000E+01  0.00000000E+00
  6.10000000E+02  3.80000000E+01  0.00000000E+00
  6.10000000E+02  3.60000000E+01  0.00000000E+00
  6.10000000E+02  3.40000000E+01  0.00000000E+00
  6.10000000E+02  3.20000000E+01  0.00000000E+00
  6.10000000E+02  3.00000000E+01  0.00000000E+00
  6.10000000E+02  2.80000000E+01  0.00000000E+00
  6.10000000E+02  2.60000000E+01  0.00000000E+00
  6.10000000E+02  2.40000000E+01  0.00000000E+00
  6.10000000E+02  2.20000000E+01  0.00000000E+00
  6.10000000E+02  2.00000000E+01  0.00000000E+00
  6.10000000E+02  1.80000000E+01  0.00000000E+00
  6.10000000E+02  1.60000000E+01  0.00000000E+00
  6.10000000E+02  1.40000000E+01  0.00000000E+00
  6.10000000E+02  1.20000000E+01  0.00000000E+00
  6.10000000E+02  1.00000000E+01  0.00000000E+00
  6.10000000E+02  8.00000000E+00  0.00000000E+00
  6.10000000E+02  6.00000000E+00  0.00000000E+00
  6.10000000E+02  4.00000000E+00  0.00000000E+00
  6.10000000E+02  2.00000000E+00  0.00000000E+00
  6.10000000E+02 -3.33066907E-14  0.00000000E+00
  6.20000000E+02  1.00000000E+02  0.00000000E+00
  6.20000000E+02  9.80000000E+01  0.00000000E+00
  6.20000000E+02  9.60000000E+01  0.00000000E+00
  6.20000000E+02  9.40000000E+01  0.00000000E+00
  6.20000000E+02  9.20000000E+01  0.00000000E+00
  6.20000000E+02  9.00000000E+01  0.00000000E+00
  6.20000000E+02  8.80000000E+01  0.00000000E+00
  6.20000000E+02  8.60000000E+01  0.00000000E+00
  6.20000000E+02  8.40000000E+01  0.00000000E+00
  6.20000000E+02  8.20000000E+01  0.00000000E+00
  6.20000000E+02  8.00000000E+01  0.00000000E+00
  6.20000000E+02  7.80000000E+01  0.00000000E+00
  6.20000000E+02  7.60000000E+01  0.00000000E+00
  6.20000000E+02  7.40000000E+01  0.00000000E+00
  6.20000000E+02  7.20000000E+01  0.00000000E+00
  6.20000000E+02  7.00000000E+01  0.00000000E+00
  6.20000000E+02  6.80000000E+01  0.00000000E+00
  6.20000000E+02  6.60000000E+01  0.00000000E+00
  6.20000000E+02  6.40000000E+01  0.00000000E+00
  6.20000000E+02  6.20000000E+01  0.00000000E+00
  6.20000000E+02  6.00000000E+01  0.00000000E+00
  6.20000000E+02  5.80000000E+01  0.00000000E+00
  6.20000000E+02  5.60000000E+01  0.00000000E+00
  6.20000000E+02  5.40000000E+01  0.00000000E+00
  6.20000000E+02  5.20000000E+01  0.00000000E+00
  6.20000000E+02  5.00000000E+01  0.00000000E+00
  6.20000000E+02  4.80000000E+01  0.00000000E+00
  6.20000000E+02  4.60000000E+01  0.00000000E+00
  6.20000000E+02  4.40000000E+01  0.00000000E+00
  6.20000000E+02  4.20000000E+01  0.00000000E+00
  6.20000000E+02  4.00000000E+01  0.00000000E+00
  6.20000000E+02  3.80000000E+01  0.00000000E+00
  6.20000000E+02  3.60000000E+01  0.00000000E+00
  6.20000000E+02  3.40000000E+01  0.00000000E+00
  6.20000000E+02  3.20000000E+01  0.00000000E+00
  6.20000000E+02  3.00000000E+01  0.00000000E+00
  6.20000000E+02  2.80000000E+01  0.00000000E+00
  6.20000000E+02  2.60000000E+01  0.00000000E+00
  6.20000000E+02  2.40000000E+01  0.00000000E+00
  6.20000000E+02  2.20000000E+01  0.00000000E+00
  6.20000000E+02  2.00000000E+01  0.00000000E+00
  6.20000000E+02  1.80000000E+01  0.00000000E+00
  6.20000000E+02  1.60000000E+01  0.00000000E+00
  6.20000000E+02  1.40000000E+01  0.00000000E+00
  6.20000000E+02  1.20000000E+01  0.00000000E+00
  6.20000000E+02  1.00000000E+01  0.00000000E+00
  6.20000000E+02  8.00000000E+00  0.00000000E+00
  6.20000000E+02  6.00000000E+00  0.00000000E+00
  6.20000000E+02  4.00000000E+00  0.00000000E+00
  6.20000000E+02  2.00000000E+00  0.00000000E+00
  6.20000000E+02 -3.33066907E-14  0.00000000E+00
  6.30000000E+02  1.00000000E+02  0.00000000E+00
  6.30000000E+02  9.80000000E+01  0.00000000E+00
  6.30000000E+02  9.60000000E+01  0.00000000E+00
  6.30000000E+02  9.40000000E+01  0.00000000E+00
  6.30000000E+02  9.20000000E+01  0.00000000E+00
  6.30000000E+02  9.00000000E+01  0.00000000E+00
  6.30000000E+02  8.80000000E+01  0.00000000E+00
  6.30000000E+02  8.60000000E+01  0.00000000E+00
  6.30000000E+02  8.40000000E+01  0.00000000E+00
  6.30000000E+02  8.20000000E+01  0.00000000E+00
  6.30000000E+02  8.00000000E+01  0.00000000E+00
  6.30000000E+02  7.80000000E+01  0.00000000E+00
  6.30000000E+02  7.60000000E+01  0.00000000E+00
  6.30000000E+02  7.40000000E+01  0.00000000E+00
  6.30000000E+02  7.20000000E+01  0.00000000E+00
  6.30000000E+02  7.00000000E+01  0.00000000E+00
  6.30000000E+02  6.80000000E+01  0.00000000E+00
  6.30000000E+02  6.60000000E+01  0.00000000E+00
  6.30000000E+02  6.40000000E+01  0.00000000E+00
  6.30000000E+02  6.20000000E+01  0.00000000E+00
  6.30000000E+02  6.00000000E+01  0.00000000E+00
  6.30000000E+02  5.80000000E+01  0.00000000E+00
  6.30000000E+02  5.60000000E+01  0.00000000E+00
  6.30000000E+02  5.40000000E+01  0.00000000E+00
  6.30000000E+02  5.20000000E+01  0.00000000E+00
  6.30000000E+02  5.00000000E+01  0.00000000E+00
  6.30000000E+02  4.80000000E+01  0.00000000E+00
  6.30000000E+02  4.60000000E+01  0.00000000E+00
  6.30000000E+02  4.40000000E+01  0.00000000E+00
  6.30000000E+02  4.20000000E+01  0.00000000E+00
  6.30000000E+02  4.00000000E+01  0.00000000E+00
  6.30000000E+02  3.80000000E+01  0.00000000E+00
  6.30000000E+02  3.60000000E+01  0.00000000E+00
  6.30000000E+02  3.40000000E+01  0.00000000E+00
  6.30000000E+02  3.20000000E+01  0.00000000E+00
  6.30000000E+02  3.00000000E+01  0.00000000E+00
  6.30000000E+02  2.80000000E+01  0.00000000E+00
  6.30000000E+02  2.60000000E+01  0.00000000E+00
  6.30000000E+02  2.40000000E+01  0.00000000E+00
  6.30000000E+02  2.20000000E+01  0.00000000E+00
  6.30000000E+02  2.00000000E+01  0.00000000E+00
  6.30000000E+02  1.80000000E+01  0.00000000E+00
  6.30000000E+02  1.60000000E+01  0.00000000E+00
  6.30000000E+02  1.40000000E+01  0.00000000E+00
  6.30000000E+02  1.20000000E+01  0.00000000E+00
  6.30000000E+02  1.00000000E+01  0.00000000E+00
  6.30000000E+02  8.00000000E+00  0.00000000E+00
  6.30000000E+02  6.00000000E+00  0.00000000E+00
  6.30000000E+02  4.00000000E+00  0.00000000E+00
  6.30000000E+02  2.00000000E+00  0.00000000E+00
  6.30000000E+02 -3.33066907E-14  0.00000000E+00
  6.40000000E+02  1.00000000E+02  0.00000000E+00
  6.40000000E+02  9.80000000E+01  0.00000000E+00
  6.40000000E+02  9.60000000E+01  0.00000000E+00
  6.40000000E+02  9.40000000E+01  0.00000000E+00
  6.40000000E+02  9.20000000E+01  0.00000000E+00
  6.40000000E+02  9.00000000E+01  0.00000000E+00
  6.40000000E+02  8.80000000E+01  0.00000000E+00
  6.40000000E+02  8.60000000E+01  0.00000000E+00
  6.40000000E+02  8.40000000E+01  0.00000000E+00
  6.40000000E+02  8.20000000E+01  0.00000000E+00
  6.40000000E+02  8.00000000E+01  0.00000000E+00
  6.40000000E+02  7.80000000E+01  0.00000000E+00
  6.40000000E+02  7.60000000E+01  0.00000000E+00
  6.40000000E+02  7.40000000E+01  0.00000000E+00
  6.40000000E+02  7.20000000E+01  0.00000000E+00
  6.40000000E+02  7.00000000E+01  0.00000000E+00
  6.40000000E+02  6.80000000E+01  0.00000000E+00
  6.40000000E+02  6.60000000E+01  0.00000000E+00
  6.40000000E+02  6.40000000E+01  0.00000000E+00
  6.40000000E+02  6.20000000E+01  0.00000000E+00
  6.40000000E+02  6.00000000E+01  0.00000000E+00
  6.40000000E+02  5.80000000E+01  0.00000000E+00
  6.40000000E+02  5.60000000E+01  0.00000000E+00
  6.40000000E+02  5.40000000E+01  0.00000000E+00
  6.40000000E+02  5.20000000E+01  0.00000000E+00
  6.40000000E+02  5.00000000E+01  0.00000000E+00
  6.40000000E+02  4.80000000E+01  0.00000000E+00
  6.40000000E+02  4.60000000E+01  0.00000000E+00
  6.40000000E+02  4.40000000E+01  0.00000000E+00
  6.40000000E+02  4.20000000E+01  0.00000000E+00
  6.40000000E+02  4.00000000E+01  0.00000000E+00
  6.40000000E+02  3.80000000E+01  0.00000000E+00
  6.40000000E+02  3.60000000E+01  0.00000000E+00
  6.40000000E+02  3.40000000E+01  0.00000000E+00
  6.40000000E+02  3.20000000E+01  0.00000000E+00
  6.40000000E+02  3.00000000E+01  0.00000000E+00
  6.40000000E+02  2.80000000E+01  0.00000000E+00
  6.40000000E+02  2.60000000E+01  0.00000000E+00
  6.40000000E+02  2.40000000E+01  0.00000000E+00
  6.40000000E+02  2.20000000E+01  0.00000000E+00
  6.40000000E+02  2.00000000E+01  0.00000000E+00
  6.40000000E+02  1.80000000E+01  0.00000000E+00
  6.40000000E+02  1.60000000E+01  0.00000000E+00
  6.40000000E+02  1.40000000E+01  0.00000000E+00
  6.40000000E+02  1.20000000E+01  0.00000000E+00
  6.40000000E+02  1.00000000E+01  0.00000000E+00
  6.40000000E+02  8.00000000E+00  0.00000000E+00
  6.40000000E+02  6.00000000E+00  0.00000000E+00
  6.40000000E+02  4.00000000E+00  0.00000000E+00
  6.40000000E+02  2.00000000E+00  0.00000000E+00
  6.40000000E+02 -3.33066907E-14  0.00000000E+00
  6.50000000E+02  1.00000000E+02  0.00000000E+00
  6.50000000E+02  9.80000000E+01  0.00000000E+00
  6.50000000E+02  9.60000000E+01  0.00000000E+00
  6.50000000E+02  9.40000000E+01  0.00000000E+00
  6.50000000E+02  9.20000000E+01  0.00000000E+00
  6.50000000E+02  9.00000000E+01  0.00000000E+00
  6.50000000E+02  8.80000000E+01  0.00000000E+00
  6.50000000E+02  8.60000000E+01  0.00000000E+00
  6.50000000E+02  8.40000000E+01  0.00000000E+00
  6.50000000E+02  8.20000000E+01  0.00000000E+00
  6.50000000E+02  8.00000000E+01  0.00000000E+00
  6.50000000E+02  7.80000000E+01  0.00000000E+00
  6.50000000E+02  7.60000000E+01  0.00000000E+00
  6.50000000E+02  7.40000000E+01  0.00000000E+00
  6.50000000E+02  7.20000000E+01  0.00000000E+00
  6.50000000E+02  7.00000000E+01  0.00000000E+00
  6.50000000E+02  6.80000000E+01  0.00000000E+00
  6.50000000E+02  6.60000000E+01  0.00000000E+00
  6.50000000E+02  6.40000000E+01  0.00000000E+00
  6.50000000E+02  6.20000000E+01  0.00000000E+00
  6.50000000E+02  6.00000000E+01  0.00000000E+00
  6.50000000E+02  5.80000000E+01  0.00000000E+00
  6.50000000E+02  5.60000000E+01  0.00000000E+00
  6.50000000E+02  5.40000000E+01  0.00000000E+00
  6.50000000E+02  5.20000000E+01  0.00000000E+00
  6.50000000E+02  5.00000000E+01  0.00000000E+00
  6.50000000E+02  4.80000000E+01  0.00000000E+00
  6.50000000E+02  4.60000000E+01  0.00000000E+00
  6.50000000E+02  4.40000000E+01  0.00000000E+00
  6.50000000E+02  4.20000000E+01  0.00000000E+00
  6.50000000E+02  4.00000000E+01  0.00000000E+00
  6.50000000E+02  3.80000000E+01  0.00000000E+00
  6.50000000E+02  3.60000000E+01  0.00000000E+00
  6.50000000E+02  3.40000000E+01  0.00000000E+00
  6.50000000E+02  3.20000000E+01  0.00000000E+00
  6.50000000E+02  3.00000000E+01  0.00000000E+00
  6.50000000E+02  2.80000000E+01  0.00000000E+00
  6.50000000E+02  2.60000000E+01  0.00000000E+00
  6.50000000E+02  2.40000000E+01  0.00000000E+00
  6.50000000E+02  2.20000000E+01  0.00000000E+00
  6.50000000E+02  2.00000000E+01  0.00000000E+00
  6.50000000E+02  1.80000000E+01  0.00000000E+00
  6.50000000E+02  1.60000000E+01  0.00000000E+00
  6.50000000E+02  1.40000000E+01  0.00000000E+00
  6.50000000E+02  1.20000000E+01  0.00000000E+00
  6.50000000E+02  1.00000000E+01  0.00000000E+00
  6.50000000E+02  8.00000000E+00  0.00000000E+00
  6.50000000E+02  6.00000000E+00  0.00000000E+00
  6.50000000E+02  4.00000000E+00  0.00000000E+00
  6.50000000E+02  2.00000000E+00  0.00000000E+00
  6.50000000E+02 -3.33066907E-14  0.00000000E+00
  6.60000000E+02  1.00000000E+02  0.00000000E+00
  6.60000000E+02  9.80000000E+01  0.00000000E+00
  6.60000000E+02  9.60000000E+01  0.00000000E+00
  6.60000000E+02  9.40000000E+01  0.00000000E+00
  6.60000000E+02  9.20000000E+01  0.00000000E+00
  6.60000000E+02  9.00000000E+01  0.00000000E+00
  6.60000000E+02  8.80000000E+01  0.00000000E+00
  6.60000000E+02  8.60000000E+01  0.00000000E+00
  6.60000000E+02  8.40000000E+01  0.00000000E+00
  6.60000000E+02  8.20000000E+01  0.00000000E+00
  6.60000000E+02  8.00000000E+01  0.00000000E+00
  6.60000000E+02  7.80000000E+01  0.00000000E+00
  6.60000000E+02  7.60000000E+01  0.00000000E+00
  6.60000000E+02  7.40000000E+01  0.00000000E+00
  6.60000000E+02  7.20000000E+01  0.00000000E+00
  6.60000000E+02  7.00000000E+01  0.00000000E+00
  6.60000000E+02  6.80000000E+01  0.00000000E+00
  6.60000000E+02  6.60000000E+01  0.00000000E+00
  6.60000000E+02  6.40000000E+01  0.00000000E+00
  6.60000000E+02  6.20000000E+01  0.00000000E+00
  6.60000000E+02  6.00000000E+01  0.00000000E+00
  6.60000000E+02  5.80000000E+01  0.00000000E+00
  6.60000000E+02  5.60000000E+01  0.00000000E+00
  6.60000000E+02  5.40000000E+01  0.00000000E+00
  6.60000000E+02  5.20000000E+01  0.00000000E+00
  6.60000000E+02  5.00000000E+01  0.00000000E+00
  6.60000000E+02  4.80000000E+01  0.00000000E+00
  6.60000000E+02  4.60000000E+01  0.00000000E+00
  6.60000000E+02  4.40000000E+01  0.00000000E+00
  6.60000000E+02  4.20000000E+01  0.00000000E+00
  6.60000000E+02  4.00000000E+01  0.00000000E+00
  6.60000000E+02  3.80000000E+01  0.00000000E+00
  6.60000000E+02  3.60000000E+01  0.00000000E+00
  6.60000000E+02  3.40000000E+01  0.00000000E+00
  6.60000000E+02  3.20000000E+01  0.00000000E+00
  6.60000000E+02  3.00000000E+01  0.00000000E+00
  6.60000000E+02  2.80000000E+01  0.00000000E+00
  6.60000000E+02  2.60000000E+01  0.00000000E+00
  6.60000000E+02  2.40000000E+01  0.00000000E+00
  6.60000000E+02  2.20000000E+01  0.00000000E+00
  6.60000000E+02  2.00000000E+01  0.00000000E+00
  6.60000000E+02  1.80000000E+01  0.00000000E+00
  6.60000000E+02  1.60000000E+01  0.00000000E+00
  6.60000000E+02  1.40000000E+01  0.00000000E+00
  6.60000000E+02  1.20000000E+01  0.00000000E+00
  6.60000000E+02  1.00000000E+01  0.00000000E+00
  6.60000000E+02  8.00000000E+00  0.00000000E+00
  6.60000000E+02  6.00000000E+00  0.00000000E+00
  6.60000000E+02  4.00000000E+00  0.00000000E+00
  6.60000000E+02  2.00000000E+00  0.00000000E+00
  6.60000000E+02 -3.33066907E-14  0.00000000E+00
  6.70000000E+02  1.00000000E+02  0.00000000E+00
  6.70000000E+02  9.80000000E+01  0.00000000E+00
  6.70000000E+02  9.60000000E+01  0.00000000E+00
  6.70000000E+02  9.40000000E+01  0.00000000E+00
  6.70000000E+02  9.20000000E+01  0.00000000E+00
  6.70000000E+02  9.00000000E+01  0.00000000E+00
  6.70000000E+02  8.80000000E+01  0.00000000E+00
  6.70000000E+02  8.60000000E+01  0.00000000E+00
  6.70000000E+02  8.40000000E+01  0.00000000E+00
  6.70000000E+02  8.20000000E+01  0.00000000E+00
  6.70000000E+02  8.00000000E+01  0.00000000E+00
  6.70000000E+02  7.80000000E+01  0.00000000E+00
  6.70000000E+02  7.60000000E+01  0.00000000E+00
  6.70000000E+02  7.40000000E+01  0.00000000E+00
  6.70000000E+02  7.20000000E+01  0.00000000E+00
  6.70000000E+02  7.00000000E+01  0.00000000E+00
  6.70000000E+02  6.80000000E+01  0.00000000E+00
  6.70000000E+02  6.60000000E+01  0.00000000E+00
  6.70000000E+02  6.40000000E+01  0.00000000E+00
  6.70000000E+02  6.20000000E+01  0.00000000E+00
  6.70000000E+02  6.00000000E+01  0.00000000E+00
  6.70000000E+02  5.80000000E+01  0.00000000E+00
  6.70000000E+02  5.60000000E+01  0.00000000E+00
  6.70000000E+02  5.40000000E+01  0.00000000E+00
  6.70000000E+02  5.20000000E+01  0.00000000E+00
  6.70000000E+02  5.00000000E+01  0.00000000E+00
  6.70000000E+02  4.80000000E+01  0.00000000E+00
  6.70000000E+02  4.60000000E+01  0.00000000E+00
  6.70000000E+02  4.40000000E+01  0.00000000E+00
  6.70000000E+02  4.20000000E+01  0.00000000E+00
  6.70000000E+02  4.00000000E+01  0.00000000E+00
  6.70000000E+02  3.80000000E+01  0.00000000E+00
  6.70000000E+02  3.60000000E+01  0.00000000E+00
  6.70000000E+02  3.40000000E+01  0.00000000E+00
  6.70000000E+02  3.20000000E+01  0.00000000E+00
  6.70000000E+02  3.00000000E+01  0.00000000E+00
  6.70000000E+02  2.80000000E+01  0.00000000E+00
  6.70000000E+02  2.60000000E+01  0.00000000E+00
  6.70000000E+02  2.40000000E+01  0.00000000E+00
  6.70000000E+02  2.20000000E+01  0.00000000E+00
  6.70000000E+02  2.00000000E+01  0.00000000E+00
  6.70000000E+02  1.80000000E+01  0.00000000E+00
  6.70000000E+02  1.60000000E+01  0.00000000E+00
  6.70000000E+02  1.40000000E+01  0.00000000E+00
  6.70000000E+02  1.20000000E+01  0.00000000E+00
  6.70000000E+02  1.00000000E+01  0.00000000E+00
  6.70000000E+02  8.00000000E+00  0.00000000E+00
  6.70000000E+02  6.00000000E+00  0.00000000E+00
  6.70000000E+02  4.00000000E+00  0.00000000E+00
  6.70000000E+02  2.00000000E+00  0.00000000E+00
  6.70000000E+02 -3.33066907E-14  0.00000000E+00
  6.80000000E+02  1.00000000E+02  0.00000000E+00
  6.80000000E+02  9.80000000E+01  0.00000000E+00
  6.80000000E+02  9.60000000E+01  0.00000000E+00
  6.80000000E+02  9.40000000E+01  0.00000000E+00
  6.80000000E+02  9.20000000E+01  0.00000000E+00
  6.80000000E+02  9.00000000E+01  0.00000000E+00
  6.80000000E+02  8.80000000E+01  0.00000000E+00
  6.80000000E+02  8.60000000E+01  0.00000000E+00
  6.80000000E+02  8.40000000E+01  0.00000000E+00
  6.80000000E+02  8.20000000E+01  0.00000000E+00
  6.80000000E+02  8.00000000E+01  0.00000000E+00
  6.80000000E+02  7.80000000E+01  0.00000000E+00
  6.80000000E+02  7.60000000E+01  0.00000000E+00
  6.80000000E+02  7.40000000E+01  0.00000000E+00
  6.80000000E+02  7.20000000E+01  0.00000000E+00
  6.80000000E+02  7.00000000E+01  0.00000000E+00
  6.80000000E+02  6.80000000E+01  0.00000000E+00
  6.80000000E+02  6.60000000E+01  0.00000000E+00
  6.80000000E+02  6.40000000E+01  0.00000000E+00
  6.80000000E+02  6.20000000E+01  0.00000000E+00
  6.80000000E+02  6.00000000E+01  0.00000000E+00
  6.80000000E+02  5.80000000E+01  0.00000000E+00
  6.80000000E+02  5.60000000E+01  0.00000000E+00
  6.80000000E+02  5.40000000E+01  0.00000000E+00
  6.80000000E+02  5.20000000E+01  0.00000000E+00
  6.80000000E+02  5.00000000E+01  0.00000000E+00
  6.80000000E+02  4.80000000E+01  0.00000000E+00
  6.80000000E+02  4.60000000E+01  0.00000000E+00
  6.80000000E+02  4.40000000E+01  0.00000000E+00
  6.80000000E+02  4.20000000E+01  0.00000000E+00
  6.80000000E+02  4.00000000E+01  0.00000000E+00
  6.80000000E+02  3.80000000E+01  0.00000000E+00
  6.80000000E+02  3.60000000E+01  0.00000000E+00
  6.80000000E+02  3.40000000E+01  0.00000000E+00
  6.80000000E+02  3.20000000E+01  0.00000000E+00
  6.80000000E+02  3.00000000E+01  0.00000000E+00
  6.80000000E+02  2.80000000E+01  0.00000000E+00
  6.80000000E+02  2.60000000E+01  0.00000000E+00
  6.80000000E+02  2.40000000E+01  0.00000000E+00
  6.80000000E+02  2.20000000E+01  0.00000000E+00
  6.80000000E+02  2.00000000E+01  0.00000000E+00
  6.80000000E+02  1.80000000E+01  0.00000000E+00
  6.80000000E+02  1.60000000E+01  0.00000000E+00
  6.80000000E+02  1.40000000E+01  0.00000000E+00
  6.80000000E+02  1.20000000E+01  0.00000000E+00
  6.80000000E+02  1.00000000E+01  0.00000000E+00
  6.80000000E+02  8.00000000E+00  0.00000000E+00
  6.80000000E+02  6.00000000E+00  0.00000000E+00
  6.80000000E+02  4.00000000E+00  0.00000000E+00
  6.80000000E+02  2.00000000E+00  0.00000000E+00
  6.80000000E+02 -3.33066907E-14  0.00000000E+00
  6.90000000E+02  1.00000000E+02  0.00000000E+00
  6.90000000E+02  9.80000000E+01  0.00000000E+00
  6.90000000E+02  9.60000000E+01  0.00000000E+00
  6.90000000E+02  9.40000000E+01  0.00000000E+00
  6.90000000E+02  9.20000000E+01  0.00000000E+00
  6.90000000E+02  9.00000000E+01  0.00000000E+00
  6.90000000E+02  8.80000000E+01  0.00000000E+00
  6.90000000E+02  8.60000000E+01  0.00000000E+00
  6.90000000E+02  8.40000000E+01  0.00000000E+00
  6.90000000E+02  8.20000000E+01  0.00000000E+00
  6.90000000E+02  8.00000000E+01  0.00000000E+00
  6.90000000E+02  7.80000000E+01  0.00000000E+00
  6.90000000E+02  7.60000000E+01  0.00000000E+00
  6.90000000E+02  7.40000000E+01  0.00000000E+00
  6.90000000E+02  7.20000000E+01  0.00000000E+00
  6.90000000E+02  7.00000000E+01  0.00000000E+00
  6.90000000E+02  6.80000000E+01  0.00000000E+00
  6.90000000E+02  6.60000000E+01  0.00000000E+00
  6.90000000E+02  6.40000000E+01  0.00000000E+00
  6.90000000E+02  6.20000000E+01  0.00000000E+00
  6.90000000E+02  6.00000000E+01  0.00000000E+00
  6.90000000E+02  5.80000000E+01  0.00000000E+00
  6.90000000E+02  5.60000000E+01  0.00000000E+00
  6.90000000E+02  5.40000000E+01  0.00000000E+00
  6.90000000E+02  5.20000000E+01  0.00000000E+00
  6.90000000E+02  5.00000000E+01  0.00000000E+00
  6.90000000E+02  4.80000000E+01  0.00000000E+00
  6.90000000E+02  4.60000000E+01  0.00000000E+00
  6.90000000E+02  4.40000000E+01  0.00000000E+00
  6.90000000E+02  4.20000000E+01  0.00000000E+00
  6.90000000E+02  4.00000000E+01  0.00000000E+00
  6.90000000E+02  3.80000000E+01  0.00000000E+00
  6.90000000E+02  3.60000000E+01  0.00000000E+00
  6.90000000E+02  3.40000000E+01  0.00000000E+00
  6.90000000E+02  3.20000000E+01  0.00000000E+00
  6.90000000E+02  3.00000000E+01  0.00000000E+00
  6.90000000E+02  2.80000000E+01  0.00000000E+00
  6.90000000E+02  2.60000000E+01  0.00000000E+00
  6.90000000E+02  2.40000000E+01  0.00000000E+00
  6.90000000E+02  2.20000000E+01  0.00000000E+00
  6.90000000E+02  2.00000000E+01  0.00000000E+00
  6.90000000E+02  1.80000000E+01  0.00000000E+00
  6.90000000E+02  1.60000000E+01  0.00000000E+00
  6.90000000E+02  1.40000000E+01  0.00000000E+00
  6.90000000E+02  1.20000000E+01  0.00000000E+00
  6.90000000E+02  1.00000000E+01  0.00000000E+00
  6.90000000E+02  8.00000000E+00  0.00000000E+00
  6.90000000E+02  6.00000000E+00  0.00000000E+00
  6.90000000E+02  4.00000000E+00  0.00000000E+00
  6.90000000E+02  2.00000000E+00  0.00000000E+00
  6.90000000E+02 -3.33066907E-14  0.00000000E+00
  7.00000000E+02  1.00000000E+02  0.00000000E+00
  7.00000000E+02  9.80000000E+01  0.00000000E+00
  7.00000000E+02  9.60000000E+01  0.00000000E+00
  7.00000000E+02  9.40000000E+01  0.00000000E+00
  7.00000000E+02  9.20000000E+01  0.00000000E+00
  7.00000000E+02  9.00000000E+01  0.00000000E+00
  7.00000000E+02  8.80000000E+01  0.00000000E+00
  7.00000000E+02  8.60000000E+01  0.00000000E+00
  7.00000000E+02  8.40000000E+01  0.00000000E+00
  7.00000000E+02  8.20000000E+01  0.00000000E+00
  7.00000000E+02  8.00000000E+01  0.00000000E+00
  7.00000000E+02  7.80000000E+01  0.00000000E+00
  7.00000000E+02  7.60000000E+01  0.00000000E+00
  7.00000000E+02  7.40000000E+01  0.00000000E+00
  7.00000000E+02  7.20000000E+01  0.00000000E+00
  7.00000000E+02  7.00000000E+01  0.00000000E+00
  7.00000000E+02  6.80000000E+01  0.00000000E+00
  7.00000000E+02  6.60000000E+01  0.00000000E+00
  7.00000000E+02  6.40000000E+01  0.00000000E+00
  7.00000000E+02  6.20000000E+01  0.00000000E+00
  7.00000000E+02  6.00000000E+01  0.00000000E+00
  7.00000000E+02  5.80000000E+01  0.00000000E+00
  7.00000000E+02  5.60000000E+01  0.00000000E+00
  7.00000000E+02  5.40000000E+01  0.00000000E+00
  7.00000000E+02  5.20000000E+01  0.00000000E+00
  7.00000000E+02  5.00000000E+01  0.00000000E+00
  7.00000000E+02  4.80000000E+01  0.00000000E+00
  7.00000000E+02  4.60000000E+01  0.00000000E+00
  7.00000000E+02  4.40000000E+01  0.00000000E+00
  7.00000000E+02  4.20000000E+01  0.00000000E+00
  7.00000000E+02  4.00000000E+01  0.00000000E+00
  7.00000000E+02  3.80000000E+01  0.00000000E+00
  7.00000000E+02  3.60000000E+01  0.00000000E+00
  7.00000000E+02  3.40000000E+01  0.00000000E+00
  7.00000000E+02  3.20000000E+01  0.00000000E+00
  7.00000000E+02  3.00000000E+01  0.00000000E+00
  7.00000000E+02  2.80000000E+01  0.00000000E+00
  7.00000000E+02  2.60000000E+01  0.00000000E+00
  7.00000000E+02  2.40000000E+01  0.00000000E+00
  7.00000000E+02  2.20000000E+01  0.00000000E+00
  7.00000000E+02  2.00000000E+01  0.00000000E+00
  7.00000000E+02  1.80000000E+01  0.00000000E+00
  7.00000000E+02  1.60000000E+01  0.00000000E+00
  7.00000000E+02  1.40000000E+01  0.00000000E+00
  7.00000000E+02  1.20000000E+01  0.00000000E+00
  7.00000000E+02  1.00000000E+01  0.00000000E+00
  7.00000000E+02  8.00000000E+00  0.00000000E+00
  7.00000000E+02  6.00000000E+00  0.00000000E+00
  7.00000000E+02  4.00000000E+00  0.00000000E+00
  7.00000000E+02  2.00000000E+00  0.00000000E+00
  7.00000000E+02 -3.33066907E-14  0.00000000E+00
  7.10000000E+02  1.00000000E+02  0.00000000E+00
  7.10000000E+02  9.80000000E+01  0.00000000E+00
  7.10000000E+02  9.60000000E+01  0.00000000E+00
  7.10000000E+02  9.40000000E+01  0.00000000E+00
  7.10000000E+02  9.20000000E+01  0.00000000E+00
  7.10000000E+02  9.00000000E+01  0.00000000E+00
  7.10000000E+02  8.80000000E+01  0.00000000E+00
  7.10000000E+02  8.60000000E+01  0.00000000E+00
  7.10000000E+02  8.40000000E+01  0.00000000E+00
  7.10000000E+02  8.20000000E+01  0.00000000E+00
  7.10000000E+02  8.00000000E+01  0.00000000E+00
  7.10000000E+02  7.80000000E+01  0.00000000E+00
  7.10000000E+02  7.60000000E+01  0.00000000E+00
  7.10000000E+02  7.40000000E+01  0.00000000E+00
  7.10000000E+02  7.20000000E+01  0.00000000E+00
  7.10000000E+02  7.00000000E+01  0.00000000E+00
  7.10000000E+02  6.80000000E+01  0.00000000E+00
  7.10000000E+02  6.60000000E+01  0.00000000E+00
  7.10000000E+02  6.40000000E+01  0.00000000E+00
  7.10000000E+02  6.20000000E+01  0.00000000E+00
  7.10000000E+02  6.00000000E+01  0.00000000E+00
  7.10000000E+02  5.80000000E+01  0.00000000E+00
  7.10000000E+02  5.60000000E+01  0.00000000E+00
  7.10000000E+02  5.40000000E+01  0.00000000E+00
  7.10000000E+02  5.20000000E+01  0.00000000E+00
  7.10000000E+02  5.00000000E+01  0.00000000E+00
  7.10000000E+02  4.80000000E+01  0.00000000E+00
  7.10000000E+02  4.60000000E+01  0.00000000E+00
  7.10000000E+02  4.40000000E+01  0.00000000E+00
  7.10000000E+02  4.20000000E+01  0.00000000E+00
  7.10000000E+02  4.00000000E+01  0.00000000E+00
  7.10000000E+02  3.80000000E+01  0.00000000E+00
  7.10000000E+02  3.60000000E+01  0.00000000E+00
  7.10000000E+02  3.40000000E+01  0.00000000E+00
  7.10000000E+02  3.20000000E+01  0.00000000E+00
  7.10000000E+02  3.00000000E+01  0.00000000E+00
  7.10000000E+02  2.80000000E+01  0.00000000E+00
  7.10000000E+02  2.60000000E+01  0.00000000E+00
  7.10000000E+02  2.40000000E+01  0.00000000E+00
  7.10000000E+02  2.20000000E+01  0.00000000E+00
  7.10000000E+02  2.00000000E+01  0.00000000E+00
  7.10000000E+02  1.80000000E+01  0.00000000E+00
  7.10000000E+02  1.60000000E+01  0.00000000E+00
  7.10000000E+02  1.40000000E+01  0.00000000E+00
  7.10000000E+02  1.20000000E+01  0.00000000E+00
  7.10000000E+02  1.00000000E+01  0.00000000E+00
  7.10000000E+02  8.00000000E+00  0.00000000E+00
  7.10000000E+02  6.00000000E+00  0.00000000E+00
  7.10000000E+02  4.00000000E+00  0.00000000E+00
  7.10000000E+02  2.00000000E+00  0.00000000E+00
  7.10000000E+02 -3.33066907E-14  0.00000000E+00
  7.20000000E+02  1.00000000E+02  0.00000000E+00
  7.20000000E+02  9.80000000E+01  0.00000000E+00
  7.20000000E+02  9.60000000E+01  0.00000000E+00
  7.20000000E+02  9.40000000E+01  0.00000000E+00
  7.20000000E+02  9.20000000E+01  0.00000000E+00
  7.20000000E+02  9.00000000E+01  0.00000000E+00
  7.20000000E+02  8.80000000E+01  0.00000000E+00
  7.20000000E+02  8.60000000E+01  0.00000000E+00
  7.20000000E+02  8.40000000E+01  0.00000000E+00
  7.20000000E+02  8.20000000E+01  0.00000000E+00
  7.20000000E+02  8.00000000E+01  0.00000000E+00
  7.20000000E+02  7.80000000E+01  0.00000000E+00
  7.20000000E+02  7.60000000E+01  0.00000000E+00
  7.20000000E+02  7.40000000E+01  0.00000000E+00
  7.20000000E+02  7.20000000E+01  0.00000000E+00
  7.20000000E+02  7.00000000E+01  0.00000000E+00
  7.20000000E+02  6.80000000E+01  0.00000000E+00
  7.20000000E+02  6.60000000E+01  0.00000000E+00
  7.20000000E+02  6.40000000E+01  0.00000000E+00
  7.20000000E+02  6.20000000E+01  0.00000000E+00
  7.20000000E+02  6.00000000E+01  0.00000000E+00
  7.20000000E+02  5.80000000E+01  0.00000000E+00
  7.20000000E+02  5.60000000E+01  0.00000000E+00
  7.20000000E+02  5.40000000E+01  0.00000000E+00
  7.20000000E+02  5.20000000E+01  0.00000000E+00
  7.20000000E+02  5.00000000E+01  0.00000000E+00
  7.20000000E+02  4.80000000E+01  0.00000000E+00
  7.20000000E+02  4.60000000E+01  0.00000000E+00
  7.20000000E+02  4.40000000E+01  0.00000000E+00
  7.20000000E+02  4.20000000E+01  0.00000000E+00
  7.20000000E+02  4.00000000E+01  0.00000000E+00
  7.20000000E+02  3.80000000E+01  0.00000000E+00
  7.20000000E+02  3.60000000E+01  0.00000000E+00
  7.20000000E+02  3.40000000E+01  0.00000000E+00
  7.20000000E+02  3.20000000E+01  0.00000000E+00
  7.20000000E+02  3.00000000E+01  0.00000000E+00
  7.20000000E+02  2.80000000E+01  0.00000000E+00
  7.20000000E+02  2.60000000E+01  0.00000000E+00
  7.20000000E+02  2.40000000E+01  0.00000000E+00
  7.20000000E+02  2.20000000E+01  0.00000000E+00
  7.20000000E+02  2.00000000E+01  0.00000000E+00
  7.20000000E+02  1.80000000E+01  0.00000000E+00
  7.20000000E+02  1.60000000E+01  0.00000000E+00
  7.20000000E+02  1.40000000E+01  0.00000000E+00
  7.20000000E+02  1.20000000E+01  0.00000000E+00
  7.20000000E+02  1.00000000E+01  0.00000000E+00
  7.20000000E+02  8.00000000E+00  0.00000000E+00
  7.20000000E+02  6.00000000E+00  0.00000000E+00
  7.20000000E+02  4.00000000E+00  0.00000000E+00
  7.20000000E+02  2.00000000E+00  0.00000000E+00
  7.20000000E+02 -3.33066907E-14  0.00000000E+00
  7.30000000E+02  1.00000000E+02  0.00000000E+00
  7.30000000E+02  9.80000000E+01  0.00000000E+00
  7.30000000E+02  9.60000000E+01  0.00000000E+00
  7.30000000E+02  9.40000000E+01  0.00000000E+00
  7.30000000E+02  9.20000000E+01  0.00000000E+00
  7.30000000E+02  9.00000000E+01  0.00000000E+00
  7.30000000E+02  8.80000000E+01  0.00000000E+00
  7.30000000E+02  8.60000000E+01  0.00000000E+00
  7.30000000E+02  8.40000000E+01  0.00000000E+00
  7.30000000E+02  8.20000000E+01  0.00000000E+00
  7.30000000E+02  8.00000000E+01  0.00000000E+00
  7.30000000E+02  7.80000000E+01  0.00000000E+00
  7.30000000E+02  7.60000000E+01  0.00000000E+00
  7.30000000E+02  7.40000000E+01  0.00000000E+00
  7.30000000E+02  7.20000000E+01  0.00000000E+00
  7.30000000E+02  7.00000000E+01  0.00000000E+00
  7.30000000E+02  6.80000000E+01  0.00000000E+00
  7.30000000E+02  6.60000000E+01  0.00000000E+00
  7.30000000E+02  6.40000000E+01  0.00000000E+00
  7.30000000E+02  6.20000000E+01  0.00000000E+00
  7.30000000E+02  6.00000000E+01  0.00000000E+00
  7.30000000E+02  5.80000000E+01  0.00000000E+00
  7.30000000E+02  5.60000000E+01  0.00000000E+00
  7.30000000E+02  5.40000000E+01  0.00000000E+00
  7.30000000E+02  5.20000000E+01  0.00000000E+00
  7.30000000E+02  5.00000000E+01  0.00000000E+00
  7.30000000E+02  4.80000000E+01  0.00000000E+00
  7.30000000E+02  4.60000000E+01  0.00000000E+00
  7.30000000E+02  4.40000000E+01  0.00000000E+00
  7.30000000E+02  4.20000000E+01  0.00000000E+00
  7.30000000E+02  4.00000000E+01  0.00000000E+00
  7.30000000E+02  3.80000000E+01  0.00000000E+00
  7.30000000E+02  3.60000000E+01  0.00000000E+00
  7.30000000E+02  3.40000000E+01  0.00000000E+00
  7.30000000E+02  3.20000000E+01  0.00000000E+00
  7.30000000E+02  3.00000000E+01  0.00000000E+00
  7.30000000E+02  2.80000000E+01  0.00000000E+00
  7.30000000E+02  2.60000000E+01  0.00000000E+00
  7.30000000E+02  2.40000000E+01  0.00000000E+00
  7.30000000E+02  2.20000000E+01  0.00000000E+00
  7.30000000E+02  2.00000000E+01  0.00000000E+00
  7.30000000E+02  1.80000000E+01  0.00000000E+00
  7.30000000E+02  1.60000000E+01  0.00000000E+00
  7.30000000E+02  1.40000000E+01  0.00000000E+00
  7.30000000E+02  1.20000000E+01  0.00000000E+00
  7.30000000E+02  1.00000000E+01  0.00000000E+00
  7.30000000E+02  8.00000000E+00  0.00000000E+00
  7.30000000E+02  6.00000000E+00  0.00000000E+00
  7.30000000E+02  4.00000000E+00  0.00000000E+00
  7.30000000E+02  2.00000000E+00  0.00000000E+00
  7.30000000E+02 -3.33066907E-14  0.00000000E+00
  7.40000000E+02  1.00000000E+02  0.00000000E+00
  7.40000000E+02  9.80000000E+01  0.00000000E+00
  7.40000000E+02  9.60000000E+01  0.00000000E+00
  7.40000000E+02  9.40000000E+01  0.00000000E+00
  7.40000000E+02  9.20000000E+01  0.00000000E+00
  7.40000000E+02  9.00000000E+01  0.00000000E+00
  7.40000000E+02  8.80000000E+01  0.00000000E+00
  7.40000000E+02  8.60000000E+01  0.00000000E+00
  7.40000000E+02  8.40000000E+01  0.00000000E+00
  7.40000000E+02  8.20000000E+01  0.00000000E+00
  7.40000000E+02  8.00000000E+01  0.00000000E+00
  7.40000000E+02  7.80000000E+01  0.00000000E+00
  7.40000000E+02  7.60000000E+01  0.00000000E+00
  7.40000000E+02  7.40000000E+01  0.00000000E+00
  7.40000000E+02  7.20000000E+01  0.00000000E+00
  7.40000000E+02  7.00000000E+01  0.00000000E+00
  7.40000000E+02  6.80000000E+01  0.00000000E+00
  7.40000000E+02  6.60000000E+01  0.00000000E+00
  7.40000000E+02  6.40000000E+01  0.00000000E+00
  7.40000000E+02  6.20000000E+01  0.00000000E+00
  7.40000000E+02  6.00000000E+01  0.00000000E+00
  7.40000000E+02  5.80000000E+01  0.00000000E+00
  7.40000000E+02  5.60000000E+01  0.00000000E+00
  7.40000000E+02  5.40000000E+01  0.00000000E+00
  7.40000000E+02  5.20000000E+01  0.00000000E+00
  7.40000000E+02  5.00000000E+01  0.00000000E+00
  7.40000000E+02  4.80000000E+01  0.00000000E+00
  7.40000000E+02  4.60000000E+01  0.00000000E+00
  7.40000000E+02  4.40000000E+01  0.00000000E+00
  7.40000000E+02  4.20000000E+01  0.00000000E+00
  7.40000000E+02  4.00000000E+01  0.00000000E+00
  7.40000000E+02  3.80000000E+01  0.00000000E+00
  7.40000000E+02  3.60000000E+01  0.00000000E+00
  7.40000000E+02  3.40000000E+01  0.00000000E+00
  7.40000000E+02  3.20000000E+01  0.00000000E+00
  7.40000000E+02  3.00000000E+01  0.00000000E+00
  7.40000000E+02  2.80000000E+01  0.00000000E+00
  7.40000000E+02  2.60000000E+01  0.00000000E+00
  7.40000000E+02  2.40000000E+01  0.00000000E+00
  7.40000000E+02  2.20000000E+01  0.00000000E+00
  7.40000000E+02  2.00000000E+01  0.00000000E+00
  7.40000000E+02  1.80000000E+01  0.00000000E+00
  7.40000000E+02  1.60000000E+01  0.00000000E+00
  7.40000000E+02  1.40000000E+01  0.00000000E+00
  7.40000000E+02  1.20000000E+01  0.00000000E+00
  7.40000000E+02  1.00000000E+01  0.00000000E+00
  7.40000000E+02  8.00000000E+00  0.00000000E+00
  7.40000000E+02  6.00000000E+00  0.00000000E+00
  7.40000000E+02  4.00000000E+00  0.00000000E+00
  7.40000000E+02  2.00000000E+00  0.00000000E+00
  7.40000000E+02 -3.33066907E-14  0.00000000E+00
  7.50000000E+02  1.00000000E+02  0.00000000E+00
  7.50000000E+02  9.80000000E+01  0.00000000E+00
  7.50000000E+02  9.60000000E+01  0.00000000E+00
  7.50000000E+02  9.40000000E+01  0.00000000E+00
  7.50000000E+02  9.20000000E+01  0.00000000E+00
  7.50000000E+02  9.00000000E+01  0.00000000E+00
  7.50000000E+02  8.80000000E+01  0.00000000E+00
  7.50000000E+02  8.60000000E+01  0.00000000E+00
  7.50000000E+02  8.40000000E+01  0.00000000E+00
  7.50000000E+02  8.20000000E+01  0.00000000E+00
  7.50000000E+02  8.00000000E+01  0.00000000E+00
  7.50000000E+02  7.80000000E+01  0.00000000E+00
  7.50000000E+02  7.60000000E+01  0.00000000E+00
  7.50000000E+02  7.40000000E+01  0.00000000E+00
  7.50000000E+02  7.20000000E+01  0.00000000E+00
  7.50000000E+02  7.00000000E+01  0.00000000E+00
  7.50000000E+02  6.80000000E+01  0.00000000E+00
  7.50000000E+02  6.60000000E+01  0.00000000E+00
  7.50000000E+02  6.40000000E+01  0.00000000E+00
  7.50000000E+02  6.20000000E+01  0.00000000E+00
  7.50000000E+02  6.00000000E+01  0.00000000E+00
  7.50000000E+02  5.80000000E+01  0.00000000E+00
  7.50000000E+02  5.60000000E+01  0.00000000E+00
  7.50000000E+02  5.40000000E+01  0.00000000E+00
  7.50000000E+02  5.20000000E+01  0.00000000E+00
  7.50000000E+02  5.00000000E+01  0.00000000E+00
  7.50000000E+02  4.80000000E+01  0.00000000E+00
  7.50000000E+02  4.60000000E+01  0.00000000E+00
  7.50000000E+02  4.40000000E+01  0.00000000E+00
  7.50000000E+02  4.20000000E+01  0.00000000E+00
  7.50000000E+02  4.00000000E+01  0.00000000E+00
  7.50000000E+02  3.80000000E+01  0.00000000E+00
  7.50000000E+02  3.60000000E+01  0.00000000E+00
  7.50000000E+02  3.40000000E+01  0.00000000E+00
  7.50000000E+02  3.20000000E+01  0.00000000E+00
  7.50000000E+02  3.00000000E+01  0.00000000E+00
  7.50000000E+02  2.80000000E+01  0.00000000E+00
  7.50000000E+02  2.60000000E+01  0.00000000E+00
  7.50000000E+02  2.40000000E+01  0.00000000E+00
  7.50000000E+02  2.20000000E+01  0.00000000E+00
  7.50000000E+02  2.00000000E+01  0.00000000E+00
  7.50000000E+02  1.80000000E+01  0.00000000E+00
  7.50000000E+02  1.60000000E+01  0.00000000E+00
  7.50000000E+02  1.40000000E+01  0.00000000E+00
  7.50000000E+02  1.20000000E+01  0.00000000E+00
  7.50000000E+02  1.00000000E+01  0.00000000E+00
  7.50000000E+02  8.00000000E+00  0.00000000E+00
  7.50000000E+02  6.00000000E+00  0.00000000E+00
  7.50000000E+02  4.00000000E+00  0.00000000E+00
  7.50000000E+02  2.00000000E+00  0.00000000E+00
  7.50000000E+02 -3.33066907E-14  0.00000000E+00
  7.60000000E+02  1.00000000E+02  0.00000000E+00
  7.60000000E+02  9.80000000E+01  0.00000000E+00
  7.60000000E+02  9.60000000E+01  0.00000000E+00
  7.60000000E+02  9.40000000E+01  0.00000000E+00
  7.60000000E+02  9.20000000E+01  0.00000000E+00
  7.60000000E+02  9.00000000E+01  0.00000000E+00
  7.60000000E+02  8.80000000E+01  0.00000000E+00
  7.60000000E+02  8.60000000E+01  0.00000000E+00
  7.60000000E+02  8.40000000E+01  0.00000000E+00
  7.60000000E+02  8.20000000E+01  0.00000000E+00
  7.60000000E+02  8.00000000E+01  0.00000000E+00
  7.60000000E+02  7.80000000E+01  0.00000000E+00
  7.60000000E+02  7.60000000E+01  0.00000000E+00
  7.60000000E+02  7.40000000E+01  0.00000000E+00
  7.60000000E+02  7.20000000E+01  0.00000000E+00
  7.60000000E+02  7.00000000E+01  0.00000000E+00
  7.60000000E+02  6.80000000E+01  0.00000000E+00
  7.60000000E+02  6.60000000E+01  0.00000000E+00
  7.60000000E+02  6.40000000E+01  0.00000000E+00
  7.60000000E+02  6.20000000E+01  0.00000000E+00
  7.60000000E+02  6.00000000E+01  0.00000000E+00
  7.60000000E+02  5.80000000E+01  0.00000000E+00
  7.60000000E+02  5.60000000E+01  0.00000000E+00
  7.60000000E+02  5.40000000E+01  0.00000000E+00
  7.60000000E+02  5.20000000E+01  0.00000000E+00
  7.60000000E+02  5.00000000E+01  0.00000000E+00
  7.60000000E+02  4.80000000E+01  0.00000000E+00
  7.60000000E+02  4.60000000E+01  0.00000000E+00
  7.60000000E+02  4.40000000E+01  0.00000000E+00
  7.60000000E+02  4.20000000E+01  0.00000000E+00
  7.60000000E+02  4.00000000E+01  0.00000000E+00
  7.60000000E+02  3.80000000E+01  0.00000000E+00
  7.60000000E+02  3.60000000E+01  0.00000000E+00
  7.60000000E+02  3.40000000E+01  0.00000000E+00
  7.60000000E+02  3.20000000E+01  0.00000000E+00
  7.60000000E+02  3.00000000E+01  0.00000000E+00
  7.60000000E+02  2.80000000E+01  0.00000000E+00
  7.60000000E+02  2.60000000E+01  0.00000000E+00
  7.60000000E+02  2.40000000E+01  0.00000000E+00
  7.60000000E+02  2.20000000E+01  0.00000000E+00
  7.60000000E+02  2.00000000E+01  0.00000000E+00
  7.60000000E+02  1.80000000E+01  0.00000000E+00
  7.60000000E+02  1.60000000E+01  0.00000000E+00
  7.60000000E+02  1.40000000E+01  0.00000000E+00
  7.60000000E+02  1.20000000E+01  0.00000000E+00
  7.60000000E+02  1.00000000E+01  0.00000000E+00
  7.60000000E+02  8.00000000E+00  0.00000000E+00
  7.60000000E+02  6.00000000E+00  0.00000000E+00
  7.60000000E+02  4.00000000E+00  0.00000000E+00
  7.60000000E+02  2.00000000E+00  0.00000000E+00
  7.60000000E+02 -3.33066907E-14  0.00000000E+00
  7.70000000E+02  1.00000000E+02  0.00000000E+00
  7.70000000E+02  9.80000000E+01  0.00000000E+00
  7.70000000E+02  9.60000000E+01  0.00000000E+00
  7.70000000E+02  9.40000000E+01  0.00000000E+00
  7.70000000E+02  9.20000000E+01  0.00000000E+00
  7.70000000E+02  9.00000000E+01  0.00000000E+00
  7.70000000E+02  8.80000000E+01  0.00000000E+00
  7.70000000E+02  8.60000000E+01  0.00000000E+00
  7.70000000E+02  8.40000000E+01  0.00000000E+00
  7.70000000E+02  8.20000000E+01  0.00000000E+00
  7.70000000E+02  8.00000000E+01  0.00000000E+00
  7.70000000E+02  7.80000000E+01  0.00000000E+00
  7.70000000E+02  7.60000000E+01  0.00000000E+00
  7.70000000E+02  7.40000000E+01  0.00000000E+00
  7.70000000E+02  7.20000000E+01  0.00000000E+00
  7.70000000E+02  7.00000000E+01  0.00000000E+00
  7.70000000E+02  6.80000000E+01  0.00000000E+00
  7.70000000E+02  6.60000000E+01  0.00000000E+00
  7.70000000E+02  6.40000000E+01  0.00000000E+00
  7.70000000E+02  6.20000000E+01  0.00000000E+00
  7.70000000E+02  6.00000000E+01  0.00000000E+00
  7.70000000E+02  5.80000000E+01  0.00000000E+00
  7.70000000E+02  5.60000000E+01  0.00000000E+00
  7.70000000E+02  5.40000000E+01  0.00000000E+00
  7.70000000E+02  5.20000000E+01  0.00000000E+00
  7.70000000E+02  5.00000000E+01  0.00000000E+00
  7.70000000E+02  4.80000000E+01  0.00000000E+00
  7.70000000E+02  4.60000000E+01  0.00000000E+00
  7.70000000E+02  4.40000000E+01  0.00000000E+00
  7.70000000E+02  4.20000000E+01  0.00000000E+00
  7.70000000E+02  4.00000000E+01  0.00000000E+00
  7.70000000E+02  3.80000000E+01  0.00000000E+00
  7.70000000E+02  3.60000000E+01  0.00000000E+00
  7.70000000E+02  3.40000000E+01  0.00000000E+00
  7.70000000E+02  3.20000000E+01  0.00000000E+00
  7.70000000E+02  3.00000000E+01  0.00000000E+00
  7.70000000E+02  2.80000000E+01  0.00000000E+00
  7.70000000E+02  2.60000000E+01  0.00000000E+00
  7.70000000E+02  2.40000000E+01  0.00000000E+00
  7.70000000E+02  2.20000000E+01  0.00000000E+00
  7.70000000E+02  2.00000000E+01  0.00000000E+00
  7.70000000E+02  1.80000000E+01  0.00000000E+00
  7.70000000E+02  1.60000000E+01  0.00000000E+00
  7.70000000E+02  1.40000000E+01  0.00000000E+00
  7.70000000E+02  1.20000000E+01  0.00000000E+00
  7.70000000E+02  1.00000000E+01  0.00000000E+00
  7.70000000E+02  8.00000000E+00  0.00000000E+00
  7.70000000E+02  6.00000000E+00  0.00000000E+00
  7.70000000E+02  4.00000000E+00  0.00000000E+00
  7.70000000E+02  2.00000000E+00  0.00000000E+00
  7.70000000E+02 -3.33066907E-14  0.00000000E+00
  7.80000000E+02  1.00000000E+02  0.00000000E+00
  7.80000000E+02  9.80000000E+01  0.00000000E+00
  7.80000000E+02  9.60000000E+01  0.00000000E+00
  7.80000000E+02  9.40000000E+01  0.00000000E+00
  7.80000000E+02  9.20000000E+01  0.00000000E+00
  7.80000000E+02  9.00000000E+01  0.00000000E+00
  7.80000000E+02  8.80000000E+01  0.00000000E+00
  7.80000000E+02  8.60000000E+01  0.00000000E+00
  7.80000000E+02  8.40000000E+01  0.00000000E+00
  7.80000000E+02  8.20000000E+01  0.00000000E+00
  7.80000000E+02  8.00000000E+01  0.00000000E+00
  7.80000000E+02  7.80000000E+01  0.00000000E+00
  7.80000000E+02  7.60000000E+01  0.00000000E+00
  7.80000000E+02  7.40000000E+01  0.00000000E+00
  7.80000000E+02  7.20000000E+01  0.00000000E+00
  7.80000000E+02  7.00000000E+01  0.00000000E+00
  7.80000000E+02  6.80000000E+01  0.00000000E+00
  7.80000000E+02  6.60000000E+01  0.00000000E+00
  7.80000000E+02  6.40000000E+01  0.00000000E+00
  7.80000000E+02  6.20000000E+01  0.00000000E+00
  7.80000000E+02  6.00000000E+01  0.00000000E+00
  7.80000000E+02  5.80000000E+01  0.00000000E+00
  7.80000000E+02  5.60000000E+01  0.00000000E+00
  7.80000000E+02  5.40000000E+01  0.00000000E+00
  7.80000000E+02  5.20000000E+01  0.00000000E+00
  7.80000000E+02  5.00000000E+01  0.00000000E+00
  7.80000000E+02  4.80000000E+01  0.00000000E+00
  7.80000000E+02  4.60000000E+01  0.00000000E+00
  7.80000000E+02  4.40000000E+01  0.00000000E+00
  7.80000000E+02  4.20000000E+01  0.00000000E+00
  7.80000000E+02  4.00000000E+01  0.00000000E+00
  7.80000000E+02  3.80000000E+01  0.00000000E+00
  7.80000000E+02  3.60000000E+01  0.00000000E+00
  7.80000000E+02  3.40000000E+01  0.00000000E+00
  7.80000000E+02  3.20000000E+01  0.00000000E+00
  7.80000000E+02  3.00000000E+01  0.00000000E+00
  7.80000000E+02  2.80000000E+01  0.00000000E+00
  7.80000000E+02  2.60000000E+01  0.00000000E+00
  7.80000000E+02  2.40000000E+01  0.00000000E+00
  7.80000000E+02  2.20000000E+01  0.00000000E+00
  7.80000000E+02  2.00000000E+01  0.00000000E+00
  7.80000000E+02  1.80000000E+01  0.00000000E+00
  7.80000000E+02  1.60000000E+01  0.00000000E+00
  7.80000000E+02  1.40000000E+01  0.00000000E+00
  7.80000000E+02  1.20000000E+01  0.00000000E+00
  7.80000000E+02  1.00000000E+01  0.00000000E+00
  7.80000000E+02  8.00000000E+00  0.00000000E+00
  7.80000000E+02  6.00000000E+00  0.00000000E+00
  7.80000000E+02  4.00000000E+00  0.00000000E+00
  7.80000000E+02  2.00000000E+00  0.00000000E+00
  7.80000000E+02 -3.33066907E-14  0.00000000E+00
  7.90000000E+02  1.00000000E+02  0.00000000E+00
  7.90000000E+02  9.80000000E+01  0.00000000E+00
  7.90000000E+02  9.60000000E+01  0.00000000E+00
  7.90000000E+02  9.40000000E+01  0.00000000E+00
  7.90000000E+02  9.20000000E+01  0.00000000E+00
  7.90000000E+02  9.00000000E+01  0.00000000E+00
  7.90000000E+02  8.80000000E+01  0.00000000E+00
  7.90000000E+02  8.60000000E+01  0.00000000E+00
  7.90000000E+02  8.40000000E+01  0.00000000E+00
  7.90000000E+02  8.20000000E+01  0.00000000E+00
  7.90000000E+02  8.00000000E+01  0.00000000E+00
  7.90000000E+02  7.80000000E+01  0.00000000E+00
  7.90000000E+02  7.60000000E+01  0.00000000E+00
  7.90000000E+02  7.40000000E+01  0.00000000E+00
  7.90000000E+02  7.20000000E+01  0.00000000E+00
  7.90000000E+02  7.00000000E+01  0.00000000E+00
  7.90000000E+02  6.80000000E+01  0.00000000E+00
  7.90000000E+02  6.60000000E+01  0.00000000E+00
  7.90000000E+02  6.40000000E+01  0.00000000E+00
  7.90000000E+02  6.20000000E+01  0.00000000E+00
  7.90000000E+02  6.00000000E+01  0.00000000E+00
  7.90000000E+02  5.80000000E+01  0.00000000E+00
  7.90000000E+02  5.60000000E+01  0.00000000E+00
  7.90000000E+02  5.40000000E+01  0.00000000E+00
  7.90000000E+02  5.20000000E+01  0.00000000E+00
  7.90000000E+02  5.00000000E+01  0.00000000E+00
  7.90000000E+02  4.80000000E+01  0.00000000E+00
  7.90000000E+02  4.60000000E+01  0.00000000E+00
  7.90000000E+02  4.40000000E+01  0.00000000E+00
  7.90000000E+02  4.20000000E+01  0.00000000E+00
  7.90000000E+02  4.00000000E+01  0.00000000E+00
  7.90000000E+02  3.80000000E+01  0.00000000E+00
  7.90000000E+02  3.60000000E+01  0.00000000E+00
  7.90000000E+02  3.40000000E+01  0.00000000E+00
  7.90000000E+02  3.20000000E+01  0.00000000E+00
  7.90000000E+02  3.00000000E+01  0.00000000E+00
  7.90000000E+02  2.80000000E+01  0.00000000E+00
  7.90000000E+02  2.60000000E+01  0.00000000E+00
  7.90000000E+02  2.40000000E+01  0.00000000E+00
  7.90000000E+02  2.20000000E+01  0.00000000E+00
  7.90000000E+02  2.00000000E+01  0.00000000E+00
  7.90000000E+02  1.80000000E+01  0.00000000E+00
  7.90000000E+02  1.60000000E+01  0.00000000E+00
  7.90000000E+02  1.40000000E+01  0.00000000E+00
  7.90000000E+02  1.20000000E+01  0.00000000E+00
  7.90000000E+02  1.00000000E+01  0.00000000E+00
  7.90000000E+02  8.00000000E+00  0.00000000E+00
  7.90000000E+02  6.00000000E+00  0.00000000E+00
  7.90000000E+02  4.00000000E+00  0.00000000E+00
  7.90000000E+02  2.00000000E+00  0.00000000E+00
  7.90000000E+02 -3.33066907E-14  0.00000000E+00
  8.00000000E+02  1.00000000E+02  0.00000000E+00
  8.00000000E+02  9.80000000E+01  0.00000000E+00
  8.00000000E+02  9.60000000E+01  0.00000000E+00
  8.00000000E+02  9.40000000E+01  0.00000000E+00
  8.00000000E+02  9.20000000E+01  0.00000000E+00
  8.00000000E+02  9.00000000E+01  0.00000000E+00
  8.00000000E+02  8.80000000E+01  0.00000000E+00
  8.00000000E+02  8.60000000E+01  0.00000000E+00
  8.00000000E+02  8.40000000E+01  0.00000000E+00
  8.00000000E+02  8.20000000E+01  0.00000000E+00
  8.00000000E+02  8.00000000E+01  0.00000000E+00
  8.00000000E+02  7.80000000E+01  0.00000000E+00
  8.00000000E+02  7.60000000E+01  0.00000000E+00
  8.00000000E+02  7.40000000E+01  0.00000000E+00
  8.00000000E+02  7.20000000E+01  0.00000000E+00
  8.00000000E+02  7.00000000E+01  0.00000000E+00
  8.00000000E+02  6.80000000E+01  0.00000000E+00
  8.00000000E+02  6.60000000E+01  0.00000000E+00
  8.00000000E+02  6.40000000E+01  0.00000000E+00
  8.00000000E+02  6.20000000E+01  0.00000000E+00
  8.00000000E+02  6.00000000E+01  0.00000000E+00
  8.00000000E+02  5.80000000E+01  0.00000000E+00
  8.00000000E+02  5.60000000E+01  0.00000000E+00
  8.00000000E+02  5.40000000E+01  0.00000000E+00
  8.00000000E+02  5.20000000E+01  0.00000000E+00
  8.00000000E+02  5.00000000E+01  0.00000000E+00
  8.00000000E+02  4.80000000E+01  0.00000000E+00
  8.00000000E+02  4.60000000E+01  0.00000000E+00
  8.00000000E+02  4.40000000E+01  0.00000000E+00
  8.00000000E+02  4.20000000E+01  0.00000000E+00
  8.00000000E+02  4.00000000E+01  0.00000000E+00
  8.00000000E+02  3.80000000E+01  0.00000000E+00
  8.00000000E+02  3.60000000E+01  0.00000000E+00
  8.00000000E+02  3.40000000E+01  0.00000000E+00
  8.00000000E+02  3.20000000E+01  0.00000000E+00
  8.00000000E+02  3.00000000E+01  0.00000000E+00
  8.00000000E+02  2.80000000E+01  0.00000000E+00
  8.00000000E+02  2.60000000E+01  0.00000000E+00
  8.00000000E+02  2.40000000E+01  0.00000000E+00
  8.00000000E+02  2.20000000E+01  0.00000000E+00
  8.00000000E+02  2.00000000E+01  0.00000000E+00
  8.00000000E+02  1.80000000E+01  0.00000000E+00
  8.00000000E+02  1.60000000E+01  0.00000000E+00
  8.00000000E+02  1.40000000E+01  0.00000000E+00
  8.00000000E+02  1.20000000E+01  0.00000000E+00
  8.00000000E+02  1.00000000E+01  0.00000000E+00
  8.00000000E+02  8.00000000E+00  0.00000000E+00
  8.00000000E+02  6.00000000E+00  0.00000000E+00
  8.00000000E+02  4.00000000E+00  0.00000000E+00
  8.00000000E+02  2.00000000E+00  0.00000000E+00
  8.00000000E+02 -3.33066907E-14  0.00000000E+00
  8.10000000E+02  1.00000000E+02  0.00000000E+00
  8.10000000E+02  9.80000000E+01  0.00000000E+00
  8.10000000E+02  9.60000000E+01  0.00000000E+00
  8.10000000E+02  9.40000000E+01  0.00000000E+00
  8.10000000E+02  9.20000000E+01  0.00000000E+00
  8.10000000E+02  9.00000000E+01  0.00000000E+00
  8.10000000E+02  8.80000000E+01  0.00000000E+00
  8.10000000E+02  8.60000000E+01  0.00000000E+00
  8.10000000E+02  8.40000000E+01  0.00000000E+00
  8.10000000E+02  8.20000000E+01  0.00000000E+00
  8.10000000E+02  8.00000000E+01  0.00000000E+00
  8.10000000E+02  7.80000000E+01  0.00000000E+00
  8.10000000E+02  7.60000000E+01  0.00000000E+00
  8.10000000E+02  7.40000000E+01  0.00000000E+00
  8.10000000E+02  7.20000000E+01  0.00000000E+00
  8.10000000E+02  7.00000000E+01  0.00000000E+00
  8.10000000E+02  6.80000000E+01  0.00000000E+00
  8.10000000E+02  6.60000000E+01  0.00000000E+00
  8.10000000E+02  6.40000000E+01  0.00000000E+00
  8.10000000E+02  6.20000000E+01  0.00000000E+00
  8.10000000E+02  6.00000000E+01  0.00000000E+00
  8.10000000E+02  5.80000000E+01  0.00000000E+00
  8.10000000E+02  5.60000000E+01  0.00000000E+00
  8.10000000E+02  5.40000000E+01  0.00000000E+00
  8.10000000E+02  5.20000000E+01  0.00000000E+00
  8.10000000E+02  5.00000000E+01  0.00000000E+00
  8.10000000E+02  4.80000000E+01  0.00000000E+00
  8.10000000E+02  4.60000000E+01  0.00000000E+00
  8.10000000E+02  4.40000000E+01  0.00000000E+00
  8.10000000E+02  4.20000000E+01  0.00000000E+00
  8.10000000E+02  4.00000000E+01  0.00000000E+00
  8.10000000E+02  3.80000000E+01  0.00000000E+00
  8.10000000E+02  3.60000000E+01  0.00000000E+00
  8.10000000E+02  3.40000000E+01  0.00000000E+00
  8.10000000E+02  3.20000000E+01  0.00000000E+00
  8.10000000E+02  3.00000000E+01  0.00000000E+00
  8.10000000E+02  2.80000000E+01  0.00000000E+00
  8.10000000E+02  2.60000000E+01  0.00000000E+00
  8.10000000E+02  2.40000000E+01  0.00000000E+00
  8.10000000E+02  2.20000000E+01  0.00000000E+00
  8.10000000E+02  2.00000000E+01  0.00000000E+00
  8.10000000E+02  1.80000000E+01  0.00000000E+00
  8.10000000E+02  1.60000000E+01  0.00000000E+00
  8.10000000E+02  1.40000000E+01  0.00000000E+00
  8.10000000E+02  1.20000000E+01  0.00000000E+00
  8.10000000E+02  1.00000000E+01  0.00000000E+00
  8.10000000E+02  8.00000000E+00  0.00000000E+00
  8.10000000E+02  6.00000000E+00  0.00000000E+00
  8.10000000E+02  4.00000000E+00  0.00000000E+00
  8.10000000E+02  2.00000000E+00  0.00000000E+00
  8.10000000E+02 -3.33066907E-14  0.00000000E+00
  8.20000000E+02  1.00000000E+02  0.00000000E+00
  8.20000000E+02  9.80000000E+01  0.00000000E+00
  8.20000000E+02  9.60000000E+01  0.00000000E+00
  8.20000000E+02  9.40000000E+01  0.00000000E+00
  8.20000000E+02  9.20000000E+01  0.00000000E+00
  8.20000000E+02  9.00000000E+01  0.00000000E+00
  8.20000000E+02  8.80000000E+01  0.00000000E+00
  8.20000000E+02  8.60000000E+01  0.00000000E+00
  8.20000000E+02  8.40000000E+01  0.00000000E+00
  8.20000000E+02  8.20000000E+01  0.00000000E+00
  8.20000000E+02  8.00000000E+01  0.00000000E+00
  8.20000000E+02  7.80000000E+01  0.00000000E+00
  8.20000000E+02  7.60000000E+01  0.00000000E+00
  8.20000000E+02  7.40000000E+01  0.00000000E+00
  8.20000000E+02  7.20000000E+01  0.00000000E+00
  8.20000000E+02  7.00000000E+01  0.00000000E+00
  8.20000000E+02  6.80000000E+01  0.00000000E+00
  8.20000000E+02  6.60000000E+01  0.00000000E+00
  8.20000000E+02  6.40000000E+01  0.00000000E+00
  8.20000000E+02  6.20000000E+01  0.00000000E+00
  8.20000000E+02  6.00000000E+01  0.00000000E+00
  8.20000000E+02  5.80000000E+01  0.00000000E+00
  8.20000000E+02  5.60000000E+01  0.00000000E+00
  8.20000000E+02  5.40000000E+01  0.00000000E+00
  8.20000000E+02  5.20000000E+01  0.00000000E+00
  8.20000000E+02  5.00000000E+01  0.00000000E+00
  8.20000000E+02  4.80000000E+01  0.00000000E+00
  8.20000000E+02  4.60000000E+01  0.00000000E+00
  8.20000000E+02  4.40000000E+01  0.00000000E+00
  8.20000000E+02  4.20000000E+01  0.00000000E+00
  8.20000000E+02  4.00000000E+01  0.00000000E+00
  8.20000000E+02  3.80000000E+01  0.00000000E+00
  8.20000000E+02  3.60000000E+01  0.00000000E+00
  8.20000000E+02  3.40000000E+01  0.00000000E+00
  8.20000000E+02  3.20000000E+01  0.00000000E+00
  8.20000000E+02  3.00000000E+01  0.00000000E+00
  8.20000000E+02  2.80000000E+01  0.00000000E+00
  8.20000000E+02  2.60000000E+01  0.00000000E+00
  8.20000000E+02  2.40000000E+01  0.00000000E+00
  8.20000000E+02  2.20000000E+01  0.00000000E+00
  8.20000000E+02  2.00000000E+01  0.00000000E+00
  8.20000000E+02  1.80000000E+01  0.00000000E+00
  8.20000000E+02  1.60000000E+01  0.00000000E+00
  8.20000000E+02  1.40000000E+01  0.00000000E+00
  8.20000000E+02  1.20000000E+01  0.00000000E+00
  8.20000000E+02  1.00000000E+01  0.00000000E+00
  8.20000000E+02  8.00000000E+00  0.00000000E+00
  8.20000000E+02  6.00000000E+00  0.00000000E+00
  8.20000000E+02  4.00000000E+00  0.00000000E+00
  8.20000000E+02  2.00000000E+00  0.00000000E+00
  8.20000000E+02 -3.33066907E-14  0.00000000E+00
  8.30000000E+02  1.00000000E+02  0.00000000E+00
  8.30000000E+02  9.80000000E+01  0.00000000E+00
  8.30000000E+02  9.60000000E+01  0.00000000E+00
  8.30000000E+02  9.40000000E+01  0.00000000E+00
  8.30000000E+02  9.20000000E+01  0.00000000E+00
  8.30000000E+02  9.00000000E+01  0.00000000E+00
  8.30000000E+02  8.80000000E+01  0.00000000E+00
  8.30000000E+02  8.60000000E+01  0.00000000E+00
  8.30000000E+02  8.40000000E+01  0.00000000E+00
  8.30000000E+02  8.20000000E+01  0.00000000E+00
  8.30000000E+02  8.00000000E+01  0.00000000E+00
  8.30000000E+02  7.80000000E+01  0.00000000E+00
  8.30000000E+02  7.60000000E+01  0.00000000E+00
  8.30000000E+02  7.40000000E+01  0.00000000E+00
  8.30000000E+02  7.20000000E+01  0.00000000E+00
  8.30000000E+02  7.00000000E+01  0.00000000E+00
  8.30000000E+02  6.80000000E+01  0.00000000E+00
  8.30000000E+02  6.60000000E+01  0.00000000E+00
  8.30000000E+02  6.40000000E+01  0.00000000E+00
  8.30000000E+02  6.20000000E+01  0.00000000E+00
  8.30000000E+02  6.00000000E+01  0.00000000E+00
  8.30000000E+02  5.80000000E+01  0.00000000E+00
  8.30000000E+02  5.60000000E+01  0.00000000E+00
  8.30000000E+02  5.40000000E+01  0.00000000E+00
  8.30000000E+02  5.20000000E+01  0.00000000E+00
  8.30000000E+02  5.00000000E+01  0.00000000E+00
  8.30000000E+02  4.80000000E+01  0.00000000E+00
  8.30000000E+02  4.60000000E+01  0.00000000E+00
  8.30000000E+02  4.40000000E+01  0.00000000E+00
  8.30000000E+02  4.20000000E+01  0.00000000E+00
  8.30000000E+02  4.00000000E+01  0.00000000E+00
  8.30000000E+02  3.80000000E+01  0.00000000E+00
  8.30000000E+02  3.60000000E+01  0.00000000E+00
  8.30000000E+02  3.40000000E+01  0.00000000E+00
  8.30000000E+02  3.20000000E+01  0.00000000E+00
  8.30000000E+02  3.00000000E+01  0.00000000E+00
  8.30000000E+02  2.80000000E+01  0.00000000E+00
  8.30000000E+02  2.60000000E+01  0.00000000E+00
  8.30000000E+02  2.40000000E+01  0.00000000E+00
  8.30000000E+02  2.20000000E+01  0.00000000E+00
  8.30000000E+02  2.00000000E+01  0.00000000E+00
  8.30000000E+02  1.80000000E+01  0.00000000E+00
  8.30000000E+02  1.60000000E+01  0.00000000E+00
  8.30000000E+02  1.40000000E+01  0.00000000E+00
  8.30000000E+02  1.20000000E+01  0.00000000E+00
  8.30000000E+02  1.00000000E+01  0.00000000E+00
  8.30000000E+02  8.00000000E+00  0.00000000E+00
  8.30000000E+02  6.00000000E+00  0.00000000E+00
  8.30000000E+02  4.00000000E+00  0.00000000E+00
  8.30000000E+02  2.00000000E+00  0.00000000E+00
  8.30000000E+02 -3.33066907E-14  0.00000000E+00
  8.40000000E+02  1.00000000E+02  0.00000000E+00
  8.40000000E+02  9.80000000E+01  0.00000000E+00
  8.40000000E+02  9.60000000E+01  0.00000000E+00
  8.40000000E+02  9.40000000E+01  0.00000000E+00
  8.40000000E+02  9.20000000E+01  0.00000000E+00
  8.40000000E+02  9.00000000E+01  0.00000000E+00
  8.40000000E+02  8.80000000E+01  0.00000000E+00
  8.40000000E+02  8.60000000E+01  0.00000000E+00
  8.40000000E+02  8.40000000E+01  0.00000000E+00
  8.40000000E+02  8.20000000E+01  0.00000000E+00
  8.40000000E+02  8.00000000E+01  0.00000000E+00
  8.40000000E+02  7.80000000E+01  0.00000000E+00
  8.40000000E+02  7.60000000E+01  0.00000000E+00
  8.40000000E+02  7.40000000E+01  0.00000000E+00
  8.40000000E+02  7.20000000E+01  0.00000000E+00
  8.40000000E+02  7.00000000E+01  0.00000000E+00
  8.40000000E+02  6.80000000E+01  0.00000000E+00
  8.40000000E+02  6.60000000E+01  0.00000000E+00
  8.40000000E+02  6.40000000E+01  0.00000000E+00
  8.40000000E+02  6.20000000E+01  0.00000000E+00
  8.40000000E+02  6.00000000E+01  0.00000000E+00
  8.40000000E+02  5.80000000E+01  0.00000000E+00
  8.40000000E+02  5.60000000E+01  0.00000000E+00
  8.40000000E+02  5.40000000E+01  0.00000000E+00
  8.40000000E+02  5.20000000E+01  0.00000000E+00
  8.40000000E+02  5.00000000E+01  0.00000000E+00
  8.40000000E+02  4.80000000E+01  0.00000000E+00
  8.40000000E+02  4.60000000E+01  0.00000000E+00
  8.40000000E+02  4.40000000E+01  0.00000000E+00
  8.40000000E+02  4.20000000E+01  0.00000000E+00
  8.40000000E+02  4.00000000E+01  0.00000000E+00
  8.40000000E+02  3.80000000E+01  0.00000000E+00
  8.40000000E+02  3.60000000E+01  0.00000000E+00
  8.40000000E+02  3.40000000E+01  0.00000000E+00
  8.40000000E+02  3.20000000E+01  0.00000000E+00
  8.40000000E+02  3.00000000E+01  0.00000000E+00
  8.40000000E+02  2.80000000E+01  0.00000000E+00
  8.40000000E+02  2.60000000E+01  0.00000000E+00
  8.40000000E+02  2.40000000E+01  0.00000000E+00
  8.40000000E+02  2.20000000E+01  0.00000000E+00
  8.40000000E+02  2.00000000E+01  0.00000000E+00
  8.40000000E+02  1.80000000E+01  0.00000000E+00
  8.40000000E+02  1.60000000E+01  0.00000000E+00
  8.40000000E+02  1.40000000E+01  0.00000000E+00
  8.40000000E+02  1.20000000E+01  0.00000000E+00
  8.40000000E+02  1.00000000E+01  0.00000000E+00
  8.40000000E+02  8.00000000E+00  0.00000000E+00
  8.40000000E+02  6.00000000E+00  0.00000000E+00
  8.40000000E+02  4.00000000E+00  0.00000000E+00
  8.40000000E+02  2.00000000E+00  0.00000000E+00
  8.40000000E+02 -3.33066907E-14  0.00000000E+00
  8.50000000E+02  1.00000000E+02  0.00000000E+00
  8.50000000E+02  9.80000000E+01  0.00000000E+00
  8.50000000E+02  9.60000000E+01  0.00000000E+00
  8.50000000E+02  9.40000000E+01  0.00000000E+00
  8.50000000E+02  9.20000000E+01  0.00000000E+00
  8.50000000E+02  9.00000000E+01  0.00000000E+00
  8.50000000E+02  8.80000000E+01  0.00000000E+00
  8.50000000E+02  8.60000000E+01  0.00000000E+00
  8.50000000E+02  8.40000000E+01  0.00000000E+00
  8.50000000E+02  8.20000000E+01  0.00000000E+00
  8.50000000E+02  8.00000000E+01  0.00000000E+00
  8.50000000E+02  7.80000000E+01  0.00000000E+00
  8.50000000E+02  7.60000000E+01  0.00000000E+00
  8.50000000E+02  7.40000000E+01  0.00000000E+00
  8.50000000E+02  7.20000000E+01  0.00000000E+00
  8.50000000E+02  7.00000000E+01  0.00000000E+00
  8.50000000E+02  6.80000000E+01  0.00000000E+00
  8.50000000E+02  6.60000000E+01  0.00000000E+00
  8.50000000E+02  6.40000000E+01  0.00000000E+00
  8.50000000E+02  6.20000000E+01  0.00000000E+00
  8.50000000E+02  6.00000000E+01  0.00000000E+00
  8.50000000E+02  5.80000000E+01  0.00000000E+00
  8.50000000E+02  5.60000000E+01  0.00000000E+00
  8.50000000E+02  5.40000000E+01  0.00000000E+00
  8.50000000E+02  5.20000000E+01  0.00000000E+00
  8.50000000E+02  5.00000000E+01  0.00000000E+00
  8.50000000E+02  4.80000000E+01  0.00000000E+00
  8.50000000E+02  4.60000000E+01  0.00000000E+00
  8.50000000E+02  4.40000000E+01  0.00000000E+00
  8.50000000E+02  4.20000000E+01  0.00000000E+00
  8.50000000E+02  4.00000000E+01  0.00000000E+00
  8.50000000E+02  3.80000000E+01  0.00000000E+00
  8.50000000E+02  3.60000000E+01  0.00000000E+00
  8.50000000E+02  3.40000000E+01  0.00000000E+00
  8.50000000E+02  3.20000000E+01  0.00000000E+00
  8.50000000E+02  3.00000000E+01  0.00000000E+00
  8.50000000E+02  2.80000000E+01  0.00000000E+00
  8.50000000E+02  2.60000000E+01  0.00000000E+00
  8.50000000E+02  2.40000000E+01  0.00000000E+00
  8.50000000E+02  2.20000000E+01  0.00000000E+00
  8.50000000E+02  2.00000000E+01  0.00000000E+00
  8.50000000E+02  1.80000000E+01  0.00000000E+00
  8.50000000E+02  1.60000000E+01  0.00000000E+00
  8.50000000E+02  1.40000000E+01  0.00000000E+00
  8.50000000E+02  1.20000000E+01  0.00000000E+00
  8.50000000E+02  1.00000000E+01  0.00000000E+00
  8.50000000E+02  8.00000000E+00  0.00000000E+00
  8.50000000E+02  6.00000000E+00  0.00000000E+00
  8.50000000E+02  4.00000000E+00  0.00000000E+00
  8.50000000E+02  2.00000000E+00  0.00000000E+00
  8.50000000E+02 -3.33066907E-14  0.00000000E+00
  8.60000000E+02  1.00000000E+02  0.00000000E+00
  8.60000000E+02  9.80000000E+01  0.00000000E+00
  8.60000000E+02  9.60000000E+01  0.00000000E+00
  8.60000000E+02  9.40000000E+01  0.00000000E+00
  8.60000000E+02  9.20000000E+01  0.00000000E+00
  8.60000000E+02  9.00000000E+01  0.00000000E+00
  8.60000000E+02  8.80000000E+01  0.00000000E+00
  8.60000000E+02  8.60000000E+01  0.00000000E+00
  8.60000000E+02  8.40000000E+01  0.00000000E+00
  8.60000000E+02  8.20000000E+01  0.00000000E+00
  8.60000000E+02  8.00000000E+01  0.00000000E+00
  8.60000000E+02  7.80000000E+01  0.00000000E+00
  8.60000000E+02  7.60000000E+01  0.00000000E+00
  8.60000000E+02  7.40000000E+01  0.00000000E+00
  8.60000000E+02  7.20000000E+01  0.00000000E+00
  8.60000000E+02  7.00000000E+01  0.00000000E+00
  8.60000000E+02  6.80000000E+01  0.00000000E+00
  8.60000000E+02  6.60000000E+01  0.00000000E+00
  8.60000000E+02  6.40000000E+01  0.00000000E+00
  8.60000000E+02  6.20000000E+01  0.00000000E+00
  8.60000000E+02  6.00000000E+01  0.00000000E+00
  8.60000000E+02  5.80000000E+01  0.00000000E+00
  8.60000000E+02  5.60000000E+01  0.00000000E+00
  8.60000000E+02  5.40000000E+01  0.00000000E+00
  8.60000000E+02  5.20000000E+01  0.00000000E+00
  8.60000000E+02  5.00000000E+01  0.00000000E+00
  8.60000000E+02  4.80000000E+01  0.00000000E+00
  8.60000000E+02  4.60000000E+01  0.00000000E+00
  8.60000000E+02  4.40000000E+01  0.00000000E+00
  8.60000000E+02  4.20000000E+01  0.00000000E+00
  8.60000000E+02  4.00000000E+01  0.00000000E+00
  8.60000000E+02  3.80000000E+01  0.00000000E+00
  8.60000000E+02  3.60000000E+01  0.00000000E+00
  8.60000000E+02  3.40000000E+01  0.00000000E+00
  8.60000000E+02  3.20000000E+01  0.00000000E+00
  8.60000000E+02  3.00000000E+01  0.00000000E+00
  8.60000000E+02  2.80000000E+01  0.00000000E+00
  8.60000000E+02  2.60000000E+01  0.00000000E+00
  8.60000000E+02  2.40000000E+01  0.00000000E+00
  8.60000000E+02  2.20000000E+01  0.00000000E+00
  8.60000000E+02  2.00000000E+01  0.00000000E+00
  8.60000000E+02  1.80000000E+01  0.00000000E+00
  8.60000000E+02  1.60000000E+01  0.00000000E+00
  8.60000000E+02  1.40000000E+01  0.00000000E+00
  8.60000000E+02  1.20000000E+01  0.00000000E+00
  8.60000000E+02  1.00000000E+01  0.00000000E+00
  8.60000000E+02  8.00000000E+00  0.00000000E+00
  8.60000000E+02  6.00000000E+00  0.00000000E+00
  8.60000000E+02  4.00000000E+00  0.00000000E+00
  8.60000000E+02  2.00000000E+00  0.00000000E+00
  8.60000000E+02 -3.33066907E-14  0.00000000E+00
  8.70000000E+02  1.00000000E+02  0.00000000E+00
  8.70000000E+02  9.80000000E+01  0.00000000E+00
  8.70000000E+02  9.60000000E+01  0.00000000E+00
  8.70000000E+02  9.40000000E+01  0.00000000E+00
  8.70000000E+02  9.20000000E+01  0.00000000E+00
  8.70000000E+02  9.00000000E+01  0.00000000E+00
  8.70000000E+02  8.80000000E+01  0.00000000E+00
  8.70000000E+02  8.60000000E+01  0.00000000E+00
  8.70000000E+02  8.40000000E+01  0.00000000E+00
  8.70000000E+02  8.20000000E+01  0.00000000E+00
  8.70000000E+02  8.00000000E+01  0.00000000E+00
  8.70000000E+02  7.80000000E+01  0.00000000E+00
  8.70000000E+02  7.60000000E+01  0.00000000E+00
  8.70000000E+02  7.40000000E+01  0.00000000E+00
  8.70000000E+02  7.20000000E+01  0.00000000E+00
  8.70000000E+02  7.00000000E+01  0.00000000E+00
  8.70000000E+02  6.80000000E+01  0.00000000E+00
  8.70000000E+02  6.60000000E+01  0.00000000E+00
  8.70000000E+02  6.40000000E+01  0.00000000E+00
  8.70000000E+02  6.20000000E+01  0.00000000E+00
  8.70000000E+02  6.00000000E+01  0.00000000E+00
  8.70000000E+02  5.80000000E+01  0.00000000E+00
  8.70000000E+02  5.60000000E+01  0.00000000E+00
  8.70000000E+02  5.40000000E+01  0.00000000E+00
  8.70000000E+02  5.20000000E+01  0.00000000E+00
  8.70000000E+02  5.00000000E+01  0.00000000E+00
  8.70000000E+02  4.80000000E+01  0.00000000E+00
  8.70000000E+02  4.60000000E+01  0.00000000E+00
  8.70000000E+02  4.40000000E+01  0.00000000E+00
  8.70000000E+02  4.20000000E+01  0.00000000E+00
  8.70000000E+02  4.00000000E+01  0.00000000E+00
  8.70000000E+02  3.80000000E+01  0.00000000E+00
  8.70000000E+02  3.60000000E+01  0.00000000E+00
  8.70000000E+02  3.40000000E+01  0.00000000E+00
  8.70000000E+02  3.20000000E+01  0.00000000E+00
  8.70000000E+02  3.00000000E+01  0.00000000E+00
  8.70000000E+02  2.80000000E+01  0.00000000E+00
  8.70000000E+02  2.60000000E+01  0.00000000E+00
  8.70000000E+02  2.40000000E+01  0.00000000E+00
  8.70000000E+02  2.20000000E+01  0.00000000E+00
  8.70000000E+02  2.00000000E+01  0.00000000E+00
  8.70000000E+02  1.80000000E+01  0.00000000E+00
  8.70000000E+02  1.60000000E+01  0.00000000E+00
  8.70000000E+02  1.40000000E+01  0.00000000E+00
  8.70000000E+02  1.20000000E+01  0.00000000E+00
  8.70000000E+02  1.00000000E+01  0.00000000E+00
  8.70000000E+02  8.00000000E+00  0.00000000E+00
  8.70000000E+02  6.00000000E+00  0.00000000E+00
  8.70000000E+02  4.00000000E+00  0.00000000E+00
  8.70000000E+02  2.00000000E+00  0.00000000E+00
  8.70000000E+02 -3.33066907E-14  0.00000000E+00
  8.80000000E+02  1.00000000E+02  0.00000000E+00
  8.80000000E+02  9.80000000E+01  0.00000000E+00
  8.80000000E+02  9.60000000E+01  0.00000000E+00
  8.80000000E+02  9.40000000E+01  0.00000000E+00
  8.80000000E+02  9.20000000E+01  0.00000000E+00
  8.80000000E+02  9.00000000E+01  0.00000000E+00
  8.80000000E+02  8.80000000E+01  0.00000000E+00
  8.80000000E+02  8.60000000E+01  0.00000000E+00
  8.80000000E+02  8.40000000E+01  0.00000000E+00
  8.80000000E+02  8.20000000E+01  0.00000000E+00
  8.80000000E+02  8.00000000E+01  0.00000000E+00
  8.80000000E+02  7.80000000E+01  0.00000000E+00
  8.80000000E+02  7.60000000E+01  0.00000000E+00
  8.80000000E+02  7.40000000E+01  0.00000000E+00
  8.80000000E+02  7.20000000E+01  0.00000000E+00
  8.80000000E+02  7.00000000E+01  0.00000000E+00
  8.80000000E+02  6.80000000E+01  0.00000000E+00
  8.80000000E+02  6.60000000E+01  0.00000000E+00
  8.80000000E+02  6.40000000E+01  0.00000000E+00
  8.80000000E+02  6.20000000E+01  0.00000000E+00
  8.80000000E+02  6.00000000E+01  0.00000000E+00
  8.80000000E+02  5.80000000E+01  0.00000000E+00
  8.80000000E+02  5.60000000E+01  0.00000000E+00
  8.80000000E+02  5.40000000E+01  0.00000000E+00
  8.80000000E+02  5.20000000E+01  0.00000000E+00
  8.80000000E+02  5.00000000E+01  0.00000000E+00
  8.80000000E+02  4.80000000E+01  0.00000000E+00
  8.80000000E+02  4.60000000E+01  0.00000000E+00
  8.80000000E+02  4.40000000E+01  0.00000000E+00
  8.80000000E+02  4.20000000E+01  0.00000000E+00
  8.80000000E+02  4.00000000E+01  0.00000000E+00
  8.80000000E+02  3.80000000E+01  0.00000000E+00
  8.80000000E+02  3.60000000E+01  0.00000000E+00
  8.80000000E+02  3.40000000E+01  0.00000000E+00
  8.80000000E+02  3.20000000E+01  0.00000000E+00
  8.80000000E+02  3.00000000E+01  0.00000000E+00
  8.80000000E+02  2.80000000E+01  0.00000000E+00
  8.80000000E+02  2.60000000E+01  0.00000000E+00
  8.80000000E+02  2.40000000E+01  0.00000000E+00
  8.80000000E+02  2.20000000E+01  0.00000000E+00
  8.80000000E+02  2.00000000E+01  0.00000000E+00
  8.80000000E+02  1.80000000E+01  0.00000000E+00
  8.80000000E+02  1.60000000E+01  0.00000000E+00
  8.80000000E+02  1.40000000E+01  0.00000000E+00
  8.80000000E+02  1.20000000E+01  0.00000000E+00
  8.80000000E+02  1.00000000E+01  0.00000000E+00
  8.80000000E+02  8.00000000E+00  0.00000000E+00
  8.80000000E+02  6.00000000E+00  0.00000000E+00
  8.80000000E+02  4.00000000E+00  0.00000000E+00
  8.80000000E+02  2.00000000E+00  0.00000000E+00
  8.80000000E+02 -3.33066907E-14  0.00000000E+00
  8.90000000E+02  1.00000000E+02  0.00000000E+00
  8.90000000E+02  9.80000000E+01  0.00000000E+00
  8.90000000E+02  9.60000000E+01  0.00000000E+00
  8.90000000E+02  9.40000000E+01  0.00000000E+00
  8.90000000E+02  9.20000000E+01  0.00000000E+00
  8.90000000E+02  9.00000000E+01  0.00000000E+00
  8.90000000E+02  8.80000000E+01  0.00000000E+00
  8.90000000E+02  8.60000000E+01  0.00000000E+00
  8.90000000E+02  8.40000000E+01  0.00000000E+00
  8.90000000E+02  8.20000000E+01  0.00000000E+00
  8.90000000E+02  8.00000000E+01  0.00000000E+00
  8.90000000E+02  7.80000000E+01  0.00000000E+00
  8.90000000E+02  7.60000000E+01  0.00000000E+00
  8.90000000E+02  7.40000000E+01  0.00000000E+00
  8.90000000E+02  7.20000000E+01  0.00000000E+00
  8.90000000E+02  7.00000000E+01  0.00000000E+00
  8.90000000E+02  6.80000000E+01  0.00000000E+00
  8.90000000E+02  6.60000000E+01  0.00000000E+00
  8.90000000E+02  6.40000000E+01  0.00000000E+00
  8.90000000E+02  6.20000000E+01  0.00000000E+00
  8.90000000E+02  6.00000000E+01  0.00000000E+00
  8.90000000E+02  5.80000000E+01  0.00000000E+00
  8.90000000E+02  5.60000000E+01  0.00000000E+00
  8.90000000E+02  5.40000000E+01  0.00000000E+00
  8.90000000E+02  5.20000000E+01  0.00000000E+00
  8.90000000E+02  5.00000000E+01  0.00000000E+00
  8.90000000E+02  4.80000000E+01  0.00000000E+00
  8.90000000E+02  4.60000000E+01  0.00000000E+00
  8.90000000E+02  4.40000000E+01  0.00000000E+00
  8.90000000E+02  4.20000000E+01  0.00000000E+00
  8.90000000E+02  4.00000000E+01  0.00000000E+00
  8.90000000E+02  3.80000000E+01  0.00000000E+00
  8.90000000E+02  3.60000000E+01  0.00000000E+00
  8.90000000E+02  3.40000000E+01  0.00000000E+00
  8.90000000E+02  3.20000000E+01  0.00000000E+00
  8.90000000E+02  3.00000000E+01  0.00000000E+00
  8.90000000E+02  2.80000000E+01  0.00000000E+00
  8.90000000E+02  2.60000000E+01  0.00000000E+00
  8.90000000E+02  2.40000000E+01  0.00000000E+00
  8.90000000E+02  2.20000000E+01  0.00000000E+00
  8.90000000E+02  2.00000000E+01  0.00000000E+00
  8.90000000E+02  1.80000000E+01  0.00000000E+00
  8.90000000E+02  1.60000000E+01  0.00000000E+00
  8.90000000E+02  1.40000000E+01  0.00000000E+00
  8.90000000E+02  1.20000000E+01  0.00000000E+00
  8.90000000E+02  1.00000000E+01  0.00000000E+00
  8.90000000E+02  8.00000000E+00  0.00000000E+00
  8.90000000E+02  6.00000000E+00  0.00000000E+00
  8.90000000E+02  4.00000000E+00  0.00000000E+00
  8.90000000E+02  2.00000000E+00  0.00000000E+00
  8.90000000E+02 -3.33066907E-14  0.00000000E+00
  9.00000000E+02  1.00000000E+02  0.00000000E+00
  9.00000000E+02  9.80000000E+01  0.00000000E+00
  9.00000000E+02  9.60000000E+01  0.00000000E+00
  9.00000000E+02  9.40000000E+01  0.00000000E+00
  9.00000000E+02  9.20000000E+01  0.00000000E+00
  9.00000000E+02  9.00000000E+01  0.00000000E+00
  9.00000000E+02  8.80000000E+01  0.00000000E+00
  9.00000000E+02  8.60000000E+01  0.00000000E+00
  9.00000000E+02  8.40000000E+01  0.00000000E+00
  9.00000000E+02  8.20000000E+01  0.00000000E+00
  9.00000000E+02  8.00000000E+01  0.00000000E+00
  9.00000000E+02  7.80000000E+01  0.00000000E+00
  9.00000000E+02  7.60000000E+01  0.00000000E+00
  9.00000000E+02  7.40000000E+01  0.00000000E+00
  9.00000000E+02  7.20000000E+01  0.00000000E+00
  9.00000000E+02  7.00000000E+01  0.00000000E+00
  9.00000000E+02  6.80000000E+01  0.00000000E+00
  9.00000000E+02  6.60000000E+01  0.00000000E+00
  9.00000000E+02  6.40000000E+01  0.00000000E+00
  9.00000000E+02  6.20000000E+01  0.00000000E+00
  9.00000000E+02  6.00000000E+01  0.00000000E+00
  9.00000000E+02  5.80000000E+01  0.00000000E+00
  9.00000000E+02  5.60000000E+01  0.00000000E+00
  9.00000000E+02  5.40000000E+01  0.00000000E+00
  9.00000000E+02  5.20000000E+01  0.00000000E+00
  9.00000000E+02  5.00000000E+01  0.00000000E+00
  9.00000000E+02  4.80000000E+01  0.00000000E+00
  9.00000000E+02  4.60000000E+01  0.00000000E+00
  9.00000000E+02  4.40000000E+01  0.00000000E+00
  9.00000000E+02  4.20000000E+01  0.00000000E+00
  9.00000000E+02  4.00000000E+01  0.00000000E+00
  9.00000000E+02  3.80000000E+01  0.00000000E+00
  9.00000000E+02  3.60000000E+01  0.00000000E+00
  9.00000000E+02  3.40000000E+01  0.00000000E+00
  9.00000000E+02  3.20000000E+01  0.00000000E+00
  9.00000000E+02  3.00000000E+01  0.00000000E+00
  9.00000000E+02  2.80000000E+01  0.00000000E+00
  9.00000000E+02  2.60000000E+01  0.00000000E+00
  9.00000000E+02  2.40000000E+01  0.00000000E+00
  9.00000000E+02  2.20000000E+01  0.00000000E+00
  9.00000000E+02  2.00000000E+01  0.00000000E+00
  9.00000000E+02  1.80000000E+01  0.00000000E+00
  9.00000000E+02  1.60000000E+01  0.00000000E+00
  9.00000000E+02  1.40000000E+01  0.00000000E+00
  9.00000000E+02  1.20000000E+01  0.00000000E+00
  9.00000000E+02  1.00000000E+01  0.00000000E+00
  9.00000000E+02  8.00000000E+00  0.00000000E+00
  9.00000000E+02  6.00000000E+00  0.00000000E+00
  9.00000000E+02  4.00000000E+00  0.00000000E+00
  9.00000000E+02  2.00000000E+00  0.00000000E+00
  9.00000000E+02 -3.33066907E-14  0.00000000E+00
  9.10000000E+02  1.00000000E+02  0.00000000E+00
  9.10000000E+02  9.80000000E+01  0.00000000E+00
  9.10000000E+02  9.60000000E+01  0.00000000E+00
  9.10000000E+02  9.40000000E+01  0.00000000E+00
  9.10000000E+02  9.20000000E+01  0.00000000E+00
  9.10000000E+02  9.00000000E+01  0.00000000E+00
  9.10000000E+02  8.80000000E+01  0.00000000E+00
  9.10000000E+02  8.60000000E+01  0.00000000E+00
  9.10000000E+02  8.40000000E+01  0.00000000E+00
  9.10000000E+02  8.20000000E+01  0.00000000E+00
  9.10000000E+02  8.00000000E+01  0.00000000E+00
  9.10000000E+02  7.80000000E+01  0.00000000E+00
  9.10000000E+02  7.60000000E+01  0.00000000E+00
  9.10000000E+02  7.40000000E+01  0.00000000E+00
  9.10000000E+02  7.20000000E+01  0.00000000E+00
  9.10000000E+02  7.00000000E+01  0.00000000E+00
  9.10000000E+02  6.80000000E+01  0.00000000E+00
  9.10000000E+02  6.60000000E+01  0.00000000E+00
  9.10000000E+02  6.40000000E+01  0.00000000E+00
  9.10000000E+02  6.20000000E+01  0.00000000E+00
  9.10000000E+02  6.00000000E+01  0.00000000E+00
  9.10000000E+02  5.80000000E+01  0.00000000E+00
  9.10000000E+02  5.60000000E+01  0.00000000E+00
  9.10000000E+02  5.40000000E+01  0.00000000E+00
  9.10000000E+02  5.20000000E+01  0.00000000E+00
  9.10000000E+02  5.00000000E+01  0.00000000E+00
  9.10000000E+02  4.80000000E+01  0.00000000E+00
  9.10000000E+02  4.60000000E+01  0.00000000E+00
  9.10000000E+02  4.40000000E+01  0.00000000E+00
  9.10000000E+02  4.20000000E+01  0.00000000E+00
  9.10000000E+02  4.00000000E+01  0.00000000E+00
  9.10000000E+02  3.80000000E+01  0.00000000E+00
  9.10000000E+02  3.60000000E+01  0.00000000E+00
  9.10000000E+02  3.40000000E+01  0.00000000E+00
  9.10000000E+02  3.20000000E+01  0.00000000E+00
  9.10000000E+02  3.00000000E+01  0.00000000E+00
  9.10000000E+02  2.80000000E+01  0.00000000E+00
  9.10000000E+02  2.60000000E+01  0.00000000E+00
  9.10000000E+02  2.40000000E+01  0.00000000E+00
  9.10000000E+02  2.20000000E+01  0.00000000E+00
  9.10000000E+02  2.00000000E+01  0.00000000E+00
  9.10000000E+02  1.80000000E+01  0.00000000E+00
  9.10000000E+02  1.60000000E+01  0.00000000E+00
  9.10000000E+02  1.40000000E+01  0.00000000E+00
  9.10000000E+02  1.20000000E+01  0.00000000E+00
  9.10000000E+02  1.00000000E+01  0.00000000E+00
  9.10000000E+02  8.00000000E+00  0.00000000E+00
  9.10000000E+02  6.00000000E+00  0.00000000E+00
  9.10000000E+02  4.00000000E+00  0.00000000E+00
  9.10000000E+02  2.00000000E+00  0.00000000E+00
  9.10000000E+02 -3.33066907E-14  0.00000000E+00
  9.20000000E+02  1.00000000E+02  0.00000000E+00
  9.20000000E+02  9.80000000E+01  0.00000000E+00
  9.20000000E+02  9.60000000E+01  0.00000000E+00
  9.20000000E+02  9.40000000E+01  0.00000000E+00
  9.20000000E+02  9.20000000E+01  0.00000000E+00
  9.20000000E+02  9.00000000E+01  0.00000000E+00
  9.20000000E+02  8.80000000E+01  0.00000000E+00
  9.20000000E+02  8.60000000E+01  0.00000000E+00
  9.20000000E+02  8.40000000E+01  0.00000000E+00
  9.20000000E+02  8.20000000E+01  0.00000000E+00
  9.20000000E+02  8.00000000E+01  0.00000000E+00
  9.20000000E+02  7.80000000E+01  0.00000000E+00
  9.20000000E+02  7.60000000E+01  0.00000000E+00
  9.20000000E+02  7.40000000E+01  0.00000000E+00
  9.20000000E+02  7.20000000E+01  0.00000000E+00
  9.20000000E+02  7.00000000E+01  0.00000000E+00
  9.20000000E+02  6.80000000E+01  0.00000000E+00
  9.20000000E+02  6.60000000E+01  0.00000000E+00
  9.20000000E+02  6.40000000E+01  0.00000000E+00
  9.20000000E+02  6.20000000E+01  0.00000000E+00
  9.20000000E+02  6.00000000E+01  0.00000000E+00
  9.20000000E+02  5.80000000E+01  0.00000000E+00
  9.20000000E+02  5.60000000E+01  0.00000000E+00
  9.20000000E+02  5.40000000E+01  0.00000000E+00
  9.20000000E+02  5.20000000E+01  0.00000000E+00
  9.20000000E+02  5.00000000E+01  0.00000000E+00
  9.20000000E+02  4.80000000E+01  0.00000000E+00
  9.20000000E+02  4.60000000E+01  0.00000000E+00
  9.20000000E+02  4.40000000E+01  0.00000000E+00
  9.20000000E+02  4.20000000E+01  0.00000000E+00
  9.20000000E+02  4.00000000E+01  0.00000000E+00
  9.20000000E+02  3.80000000E+01  0.00000000E+00
  9.20000000E+02  3.60000000E+01  0.00000000E+00
  9.20000000E+02  3.40000000E+01  0.00000000E+00
  9.20000000E+02  3.20000000E+01  0.00000000E+00
  9.20000000E+02  3.00000000E+01  0.00000000E+00
  9.20000000E+02  2.80000000E+01  0.00000000E+00
  9.20000000E+02  2.60000000E+01  0.00000000E+00
  9.20000000E+02  2.40000000E+01  0.00000000E+00
  9.20000000E+02  2.20000000E+01  0.00000000E+00
  9.20000000E+02  2.00000000E+01  0.00000000E+00
  9.20000000E+02  1.80000000E+01  0.00000000E+00
  9.20000000E+02  1.60000000E+01  0.00000000E+00
  9.20000000E+02  1.40000000E+01  0.00000000E+00
  9.20000000E+02  1.20000000E+01  0.00000000E+00
  9.20000000E+02  1.00000000E+01  0.00000000E+00
  9.20000000E+02  8.00000000E+00  0.00000000E+00
  9.20000000E+02  6.00000000E+00  0.00000000E+00
  9.20000000E+02  4.00000000E+00  0.00000000E+00
  9.20000000E+02  2.00000000E+00  0.00000000E+00
  9.20000000E+02 -3.33066907E-14  0.00000000E+00
  9.30000000E+02  1.00000000E+02  0.00000000E+00
  9.30000000E+02  9.80000000E+01  0.00000000E+00
  9.30000000E+02  9.60000000E+01  0.00000000E+00
  9.30000000E+02  9.40000000E+01  0.00000000E+00
  9.30000000E+02  9.20000000E+01  0.00000000E+00
  9.30000000E+02  9.00000000E+01  0.00000000E+00
  9.30000000E+02  8.80000000E+01  0.00000000E+00
  9.30000000E+02  8.60000000E+01  0.00000000E+00
  9.30000000E+02  8.40000000E+01  0.00000000E+00
  9.30000000E+02  8.20000000E+01  0.00000000E+00
  9.30000000E+02  8.00000000E+01  0.00000000E+00
  9.30000000E+02  7.80000000E+01  0.00000000E+00
  9.30000000E+02  7.60000000E+01  0.00000000E+00
  9.30000000E+02  7.40000000E+01  0.00000000E+00
  9.30000000E+02  7.20000000E+01  0.00000000E+00
  9.30000000E+02  7.00000000E+01  0.00000000E+00
  9.30000000E+02  6.80000000E+01  0.00000000E+00
  9.30000000E+02  6.60000000E+01  0.00000000E+00
  9.30000000E+02  6.40000000E+01  0.00000000E+00
  9.30000000E+02  6.20000000E+01  0.00000000E+00
  9.30000000E+02  6.00000000E+01  0.00000000E+00
  9.30000000E+02  5.80000000E+01  0.00000000E+00
  9.30000000E+02  5.60000000E+01  0.00000000E+00
  9.30000000E+02  5.40000000E+01  0.00000000E+00
  9.30000000E+02  5.20000000E+01  0.00000000E+00
  9.30000000E+02  5.00000000E+01  0.00000000E+00
  9.30000000E+02  4.80000000E+01  0.00000000E+00
  9.30000000E+02  4.60000000E+01  0.00000000E+00
  9.30000000E+02  4.40000000E+01  0.00000000E+00
  9.30000000E+02  4.20000000E+01  0.00000000E+00
  9.30000000E+02  4.00000000E+01  0.00000000E+00
  9.30000000E+02  3.80000000E+01  0.00000000E+00
  9.30000000E+02  3.60000000E+01  0.00000000E+00
  9.30000000E+02  3.40000000E+01  0.00000000E+00
  9.30000000E+02  3.20000000E+01  0.00000000E+00
  9.30000000E+02  3.00000000E+01  0.00000000E+00
  9.30000000E+02  2.80000000E+01  0.00000000E+00
  9.30000000E+02  2.60000000E+01  0.00000000E+00
  9.30000000E+02  2.40000000E+01  0.00000000E+00
  9.30000000E+02  2.20000000E+01  0.00000000E+00
  9.30000000E+02  2.00000000E+01  0.00000000E+00
  9.30000000E+02  1.80000000E+01  0.00000000E+00
  9.30000000E+02  1.60000000E+01  0.00000000E+00
  9.30000000E+02  1.40000000E+01  0.00000000E+00
  9.30000000E+02  1.20000000E+01  0.00000000E+00
  9.30000000E+02  1.00000000E+01  0.00000000E+00
  9.30000000E+02  8.00000000E+00  0.00000000E+00
  9.30000000E+02  6.00000000E+00  0.00000000E+00
  9.30000000E+02  4.00000000E+00  0.00000000E+00
  9.30000000E+02  2.00000000E+00  0.00000000E+00
  9.30000000E+02 -3.33066907E-14  0.00000000E+00
  9.40000000E+02  1.00000000E+02  0.00000000E+00
  9.40000000E+02  9.80000000E+01  0.00000000E+00
  9.40000000E+02  9.60000000E+01  0.00000000E+00
  9.40000000E+02  9.40000000E+01  0.00000000E+00
  9.40000000E+02  9.20000000E+01  0.00000000E+00
  9.40000000E+02  9.00000000E+01  0.00000000E+00
  9.40000000E+02  8.80000000E+01  0.00000000E+00
  9.40000000E+02  8.60000000E+01  0.00000000E+00
  9.40000000E+02  8.40000000E+01  0.00000000E+00
  9.40000000E+02  8.20000000E+01  0.00000000E+00
  9.40000000E+02  8.00000000E+01  0.00000000E+00
  9.40000000E+02  7.80000000E+01  0.00000000E+00
  9.40000000E+02  7.60000000E+01  0.00000000E+00
  9.40000000E+02  7.40000000E+01  0.00000000E+00
  9.40000000E+02  7.20000000E+01  0.00000000E+00
  9.40000000E+02  7.00000000E+01  0.00000000E+00
  9.40000000E+02  6.80000000E+01  0.00000000E+00
  9.40000000E+02  6.60000000E+01  0.00000000E+00
  9.40000000E+02  6.40000000E+01  0.00000000E+00
  9.40000000E+02  6.20000000E+01  0.00000000E+00
  9.40000000E+02  6.00000000E+01  0.00000000E+00
  9.40000000E+02  5.80000000E+01  0.00000000E+00
  9.40000000E+02  5.60000000E+01  0.00000000E+00
  9.40000000E+02  5.40000000E+01  0.00000000E+00
  9.40000000E+02  5.20000000E+01  0.00000000E+00
  9.40000000E+02  5.00000000E+01  0.00000000E+00
  9.40000000E+02  4.80000000E+01  0.00000000E+00
  9.40000000E+02  4.60000000E+01  0.00000000E+00
  9.40000000E+02  4.40000000E+01  0.00000000E+00
  9.40000000E+02  4.20000000E+01  0.00000000E+00
  9.40000000E+02  4.00000000E+01  0.00000000E+00
  9.40000000E+02  3.80000000E+01  0.00000000E+00
  9.40000000E+02  3.60000000E+01  0.00000000E+00
  9.40000000E+02  3.40000000E+01  0.00000000E+00
  9.40000000E+02  3.20000000E+01  0.00000000E+00
  9.40000000E+02  3.00000000E+01  0.00000000E+00
  9.40000000E+02  2.80000000E+01  0.00000000E+00
  9.40000000E+02  2.60000000E+01  0.00000000E+00
  9.40000000E+02  2.40000000E+01  0.00000000E+00
  9.40000000E+02  2.20000000E+01  0.00000000E+00
  9.40000000E+02  2.00000000E+01  0.00000000E+00
  9.40000000E+02  1.80000000E+01  0.00000000E+00
  9.40000000E+02  1.60000000E+01  0.00000000E+00
  9.40000000E+02  1.40000000E+01  0.00000000E+00
  9.40000000E+02  1.20000000E+01  0.00000000E+00
  9.40000000E+02  1.00000000E+01  0.00000000E+00
  9.40000000E+02  8.00000000E+00  0.00000000E+00
  9.40000000E+02  6.00000000E+00  0.00000000E+00
  9.40000000E+02  4.00000000E+00  0.00000000E+00
  9.40000000E+02  2.00000000E+00  0.00000000E+00
  9.40000000E+02 -3.33066907E-14  0.00000000E+00
  9.50000000E+02  1.00000000E+02  0.00000000E+00
  9.50000000E+02  9.80000000E+01  0.00000000E+00
  9.50000000E+02  9.60000000E+01  0.00000000E+00
  9.50000000E+02  9.40000000E+01  0.00000000E+00
  9.50000000E+02  9.20000000E+01  0.00000000E+00
  9.50000000E+02  9.00000000E+01  0.00000000E+00
  9.50000000E+02  8.80000000E+01  0.00000000E+00
  9.50000000E+02  8.60000000E+01  0.00000000E+00
  9.50000000E+02  8.40000000E+01  0.00000000E+00
  9.50000000E+02  8.20000000E+01  0.00000000E+00
  9.50000000E+02  8.00000000E+01  0.00000000E+00
  9.50000000E+02  7.80000000E+01  0.00000000E+00
  9.50000000E+02  7.60000000E+01  0.00000000E+00
  9.50000000E+02  7.40000000E+01  0.00000000E+00
  9.50000000E+02  7.20000000E+01  0.00000000E+00
  9.50000000E+02  7.00000000E+01  0.00000000E+00
  9.50000000E+02  6.80000000E+01  0.00000000E+00
  9.50000000E+02  6.60000000E+01  0.00000000E+00
  9.50000000E+02  6.40000000E+01  0.00000000E+00
  9.50000000E+02  6.20000000E+01  0.00000000E+00
  9.50000000E+02  6.00000000E+01  0.00000000E+00
  9.50000000E+02  5.80000000E+01  0.00000000E+00
  9.50000000E+02  5.60000000E+01  0.00000000E+00
  9.50000000E+02  5.40000000E+01  0.00000000E+00
  9.50000000E+02  5.20000000E+01  0.00000000E+00
  9.50000000E+02  5.00000000E+01  0.00000000E+00
  9.50000000E+02  4.80000000E+01  0.00000000E+00
  9.50000000E+02  4.60000000E+01  0.00000000E+00
  9.50000000E+02  4.40000000E+01  0.00000000E+00
  9.50000000E+02  4.20000000E+01  0.00000000E+00
  9.50000000E+02  4.00000000E+01  0.00000000E+00
  9.50000000E+02  3.80000000E+01  0.00000000E+00
  9.50000000E+02  3.60000000E+01  0.00000000E+00
  9.50000000E+02  3.40000000E+01  0.00000000E+00
  9.50000000E+02  3.20000000E+01  0.00000000E+00
  9.50000000E+02  3.00000000E+01  0.00000000E+00
  9.50000000E+02  2.80000000E+01  0.00000000E+00
  9.50000000E+02  2.60000000E+01  0.00000000E+00
  9.50000000E+02  2.40000000E+01  0.00000000E+00
  9.50000000E+02  2.20000000E+01  0.00000000E+00
  9.50000000E+02  2.00000000E+01  0.00000000E+00
  9.50000000E+02  1.80000000E+01  0.00000000E+00
  9.50000000E+02  1.60000000E+01  0.00000000E+00
  9.50000000E+02  1.40000000E+01  0.00000000E+00
  9.50000000E+02  1.20000000E+01  0.00000000E+00
  9.50000000E+02  1.00000000E+01  0.00000000E+00
  9.50000000E+02  8.00000000E+00  0.00000000E+00
  9.50000000E+02  6.00000000E+00  0.00000000E+00
  9.50000000E+02  4.00000000E+00  0.00000000E+00
  9.50000000E+02  2.00000000E+00  0.00000000E+00
  9.50000000E+02 -3.33066907E-14  0.00000000E+00
  9.60000000E+02  1.00000000E+02  0.00000000E+00
  9.60000000E+02  9.80000000E+01  0.00000000E+00
  9.60000000E+02  9.60000000E+01  0.00000000E+00
  9.60000000E+02  9.40000000E+01  0.00000000E+00
  9.60000000E+02  9.20000000E+01  0.00000000E+00
  9.60000000E+02  9.00000000E+01  0.00000000E+00
  9.60000000E+02  8.80000000E+01  0.00000000E+00
  9.60000000E+02  8.60000000E+01  0.00000000E+00
  9.60000000E+02  8.40000000E+01  0.00000000E+00
  9.60000000E+02  8.20000000E+01  0.00000000E+00
  9.60000000E+02  8.00000000E+01  0.00000000E+00
  9.60000000E+02  7.80000000E+01  0.00000000E+00
  9.60000000E+02  7.60000000E+01  0.00000000E+00
  9.60000000E+02  7.40000000E+01  0.00000000E+00
  9.60000000E+02  7.20000000E+01  0.00000000E+00
  9.60000000E+02  7.00000000E+01  0.00000000E+00
  9.60000000E+02  6.80000000E+01  0.00000000E+00
  9.60000000E+02  6.60000000E+01  0.00000000E+00
  9.60000000E+02  6.40000000E+01  0.00000000E+00
  9.60000000E+02  6.20000000E+01  0.00000000E+00
  9.60000000E+02  6.00000000E+01  0.00000000E+00
  9.60000000E+02  5.80000000E+01  0.00000000E+00
  9.60000000E+02  5.60000000E+01  0.00000000E+00
  9.60000000E+02  5.40000000E+01  0.00000000E+00
  9.60000000E+02  5.20000000E+01  0.00000000E+00
  9.60000000E+02  5.00000000E+01  0.00000000E+00
  9.60000000E+02  4.80000000E+01  0.00000000E+00
  9.60000000E+02  4.60000000E+01  0.00000000E+00
  9.60000000E+02  4.40000000E+01  0.00000000E+00
  9.60000000E+02  4.20000000E+01  0.00000000E+00
  9.60000000E+02  4.00000000E+01  0.00000000E+00
  9.60000000E+02  3.80000000E+01  0.00000000E+00
  9.60000000E+02  3.60000000E+01  0.00000000E+00
  9.60000000E+02  3.40000000E+01  0.00000000E+00
  9.60000000E+02  3.20000000E+01  0.00000000E+00
  9.60000000E+02  3.00000000E+01  0.00000000E+00
  9.60000000E+02  2.80000000E+01  0.00000000E+00
  9.60000000E+02  2.60000000E+01  0.00000000E+00
  9.60000000E+02  2.40000000E+01  0.00000000E+00
  9.60000000E+02  2.20000000E+01  0.00000000E+00
  9.60000000E+02  2.00000000E+01  0.00000000E+00
  9.60000000E+02  1.80000000E+01  0.00000000E+00
  9.60000000E+02  1.60000000E+01  0.00000000E+00
  9.60000000E+02  1.40000000E+01  0.00000000E+00
  9.60000000E+02  1.20000000E+01  0.00000000E+00
  9.60000000E+02  1.00000000E+01  0.00000000E+00
  9.60000000E+02  8.00000000E+00  0.00000000E+00
  9.60000000E+02  6.00000000E+00  0.00000000E+00
  9.60000000E+02  4.00000000E+00  0.00000000E+00
  9.60000000E+02  2.00000000E+00  0.00000000E+00
  9.60000000E+02 -3.33066907E-14  0.00000000E+00
  9.70000000E+02  1.00000000E+02  0.00000000E+00
  9.70000000E+02  9.80000000E+01  0.00000000E+00
  9.70000000E+02  9.60000000E+01  0.00000000E+00
  9.70000000E+02  9.40000000E+01  0.00000000E+00
  9.70000000E+02  9.20000000E+01  0.00000000E+00
  9.70000000E+02  9.00000000E+01  0.00000000E+00
  9.70000000E+02  8.80000000E+01  0.00000000E+00
  9.70000000E+02  8.60000000E+01  0.00000000E+00
  9.70000000E+02  8.40000000E+01  0.00000000E+00
  9.70000000E+02  8.20000000E+01  0.00000000E+00
  9.70000000E+02  8.00000000E+01  0.00000000E+00
  9.70000000E+02  7.80000000E+01  0.00000000E+00
  9.70000000E+02  7.60000000E+01  0.00000000E+00
  9.70000000E+02  7.40000000E+01  0.00000000E+00
  9.70000000E+02  7.20000000E+01  0.00000000E+00
  9.70000000E+02  7.00000000E+01  0.00000000E+00
  9.70000000E+02  6.80000000E+01  0.00000000E+00
  9.70000000E+02  6.60000000E+01  0.00000000E+00
  9.70000000E+02  6.40000000E+01  0.00000000E+00
  9.70000000E+02  6.20000000E+01  0.00000000E+00
  9.70000000E+02  6.00000000E+01  0.00000000E+00
  9.70000000E+02  5.80000000E+01  0.00000000E+00
  9.70000000E+02  5.60000000E+01  0.00000000E+00
  9.70000000E+02  5.40000000E+01  0.00000000E+00
  9.70000000E+02  5.20000000E+01  0.00000000E+00
  9.70000000E+02  5.00000000E+01  0.00000000E+00
  9.70000000E+02  4.80000000E+01  0.00000000E+00
  9.70000000E+02  4.60000000E+01  0.00000000E+00
  9.70000000E+02  4.40000000E+01  0.00000000E+00
  9.70000000E+02  4.20000000E+01  0.00000000E+00
  9.70000000E+02  4.00000000E+01  0.00000000E+00
  9.70000000E+02  3.80000000E+01  0.00000000E+00
  9.70000000E+02  3.60000000E+01  0.00000000E+00
  9.70000000E+02  3.40000000E+01  0.00000000E+00
  9.70000000E+02  3.20000000E+01  0.00000000E+00
  9.70000000E+02  3.00000000E+01  0.00000000E+00
  9.70000000E+02  2.80000000E+01  0.00000000E+00
  9.70000000E+02  2.60000000E+01  0.00000000E+00
  9.70000000E+02  2.40000000E+01  0.00000000E+00
  9.70000000E+02  2.20000000E+01  0.00000000E+00
  9.70000000E+02  2.00000000E+01  0.00000000E+00
  9.70000000E+02  1.80000000E+01  0.00000000E+00
  9.70000000E+02  1.60000000E+01  0.00000000E+00
  9.70000000E+02  1.40000000E+01  0.00000000E+00
  9.70000000E+02  1.20000000E+01  0.00000000E+00
  9.70000000E+02  1.00000000E+01  0.00000000E+00
  9.70000000E+02  8.00000000E+00  0.00000000E+00
  9.70000000E+02  6.00000000E+00  0.00000000E+00
  9.70000000E+02  4.00000000E+00  0.00000000E+00
  9.70000000E+02  2.00000000E+00  0.00000000E+00
  9.70000000E+02 -3.33066907E-14  0.00000000E+00
  9.80000000E+02  1.00000000E+02  0.00000000E+00
  9.80000000E+02  9.80000000E+01  0.00000000E+00
  9.80000000E+02  9.60000000E+01  0.00000000E+00
  9.80000000E+02  9.40000000E+01  0.00000000E+00
  9.80000000E+02  9.20000000E+01  0.00000000E+00
  9.80000000E+02  9.00000000E+01  0.00000000E+00
  9.80000000E+02  8.80000000E+01  0.00000000E+00
  9.80000000E+02  8.60000000E+01  0.00000000E+00
  9.80000000E+02  8.40000000E+01  0.00000000E+00
  9.80000000E+02  8.20000000E+01  0.00000000E+00
  9.80000000E+02  8.00000000E+01  0.00000000E+00
  9.80000000E+02  7.80000000E+01  0.00000000E+00
  9.80000000E+02  7.60000000E+01  0.00000000E+00
  9.80000000E+02  7.40000000E+01  0.00000000E+00
  9.80000000E+02  7.20000000E+01  0.00000000E+00
  9.80000000E+02  7.00000000E+01  0.00000000E+00
  9.80000000E+02  6.80000000E+01  0.00000000E+00
  9.80000000E+02  6.60000000E+01  0.00000000E+00
  9.80000000E+02  6.40000000E+01  0.00000000E+00
  9.80000000E+02  6.20000000E+01  0.00000000E+00
  9.80000000E+02  6.00000000E+01  0.00000000E+00
  9.80000000E+02  5.80000000E+01  0.00000000E+00
  9.80000000E+02  5.60000000E+01  0.00000000E+00
  9.80000000E+02  5.40000000E+01  0.00000000E+00
  9.80000000E+02  5.20000000E+01  0.00000000E+00
  9.80000000E+02  5.00000000E+01  0.00000000E+00
  9.80000000E+02  4.80000000E+01  0.00000000E+00
  9.80000000E+02  4.60000000E+01  0.00000000E+00
  9.80000000E+02  4.40000000E+01  0.00000000E+00
  9.80000000E+02  4.20000000E+01  0.00000000E+00
  9.80000000E+02  4.00000000E+01  0.00000000E+00
  9.80000000E+02  3.80000000E+01  0.00000000E+00
  9.80000000E+02  3.60000000E+01  0.00000000E+00
  9.80000000E+02  3.40000000E+01  0.00000000E+00
  9.80000000E+02  3.20000000E+01  0.00000000E+00
  9.80000000E+02  3.00000000E+01  0.00000000E+00
  9.80000000E+02  2.80000000E+01  0.00000000E+00
  9.80000000E+02  2.60000000E+01  0.00000000E+00
  9.80000000E+02  2.40000000E+01  0.00000000E+00
  9.80000000E+02  2.20000000E+01  0.00000000E+00
  9.80000000E+02  2.00000000E+01  0.00000000E+00
  9.80000000E+02  1.80000000E+01  0.00000000E+00
  9.80000000E+02  1.60000000E+01  0.00000000E+00
  9.80000000E+02  1.40000000E+01  0.00000000E+00
  9.80000000E+02  1.20000000E+01  0.00000000E+00
  9.80000000E+02  1.00000000E+01  0.00000000E+00
  9.80000000E+02  8.00000000E+00  0.00000000E+00
  9.80000000E+02  6.00000000E+00  0.00000000E+00
  9.80000000E+02  4.00000000E+00  0.00000000E+00
  9.80000000E+02  2.00000000E+00  0.00000000E+00
  9.80000000E+02 -3.33066907E-14  0.00000000E+00
  9.90000000E+02  1.00000000E+02  0.00000000E+00
  9.90000000E+02  9.80000000E+01  0.00000000E+00
  9.90000000E+02  9.60000000E+01  0.00000000E+00
  9.90000000E+02  9.40000000E+01  0.00000000E+00
  9.90000000E+02  9.20000000E+01  0.00000000E+00
  9.90000000E+02  9.00000000E+01  0.00000000E+00
  9.90000000E+02  8.80000000E+01  0.00000000E+00
  9.90000000E+02  8.60000000E+01  0.00000000E+00
  9.90000000E+02  8.40000000E+01  0.00000000E+00
  9.90000000E+02  8.20000000E+01  0.00000000E+00
  9.90000000E+02  8.00000000E+01  0.00000000E+00
  9.90000000E+02  7.80000000E+01  0.00000000E+00
  9.90000000E+02  7.60000000E+01  0.00000000E+00
  9.90000000E+02  7.40000000E+01  0.00000000E+00
  9.90000000E+02  7.20000000E+01  0.00000000E+00
  9.90000000E+02  7.00000000E+01  0.00000000E+00
  9.90000000E+02  6.80000000E+01  0.00000000E+00
  9.90000000E+02  6.60000000E+01  0.00000000E+00
  9.90000000E+02  6.40000000E+01  0.00000000E+00
  9.90000000E+02  6.20000000E+01  0.00000000E+00
  9.90000000E+02  6.00000000E+01  0.00000000E+00
  9.90000000E+02  5.80000000E+01  0.00000000E+00
  9.90000000E+02  5.60000000E+01  0.00000000E+00
  9.90000000E+02  5.40000000E+01  0.00000000E+00
  9.90000000E+02  5.20000000E+01  0.00000000E+00
  9.90000000E+02  5.00000000E+01  0.00000000E+00
  9.90000000E+02  4.80000000E+01  0.00000000E+00
  9.90000000E+02  4.60000000E+01  0.00000000E+00
  9.90000000E+02  4.40000000E+01  0.00000000E+00
  9.90000000E+02  4.20000000E+01  0.00000000E+00
  9.90000000E+02  4.00000000E+01  0.00000000E+00
  9.90000000E+02  3.80000000E+01  0.00000000E+00
  9.90000000E+02  3.60000000E+01  0.00000000E+00
  9.90000000E+02  3.40000000E+01  0.00000000E+00
  9.90000000E+02  3.20000000E+01  0.00000000E+00
  9.90000000E+02  3.00000000E+01  0.00000000E+00
  9.90000000E+02  2.80000000E+01  0.00000000E+00
  9.90000000E+02  2.60000000E+01  0.00000000E+00
  9.90000000E+02  2.40000000E+01  0.00000000E+00
  9.90000000E+02  2.20000000E+01  0.00000000E+00
  9.90000000E+02  2.00000000E+01  0.00000000E+00
  9.90000000E+02  1.80000000E+01  0.00000000E+00
  9.90000000E+02  1.60000000E+01  0.00000000E+00
  9.90000000E+02  1.40000000E+01  0.00000000E+00
  9.90000000E+02  1.20000000E+01  0.00000000E+00
  9.90000000E+02  1.00000000E+01  0.00000000E+00
  9.90000000E+02  8.00000000E+00  0.00000000E+00
  9.90000000E+02  6.00000000E+00  0.00000000E+00
  9.90000000E+02  4.00000000E+00  0.00000000E+00
  9.90000000E+02  2.00000000E+00  0.00000000E+00
  9.90000000E+02 -3.33066907E-14  0.00000000E+00
  1.00000000E+03  1.00000000E+02  0.00000000E+00
  1.00000000E+03  9.80000000E+01  0.00000000E+00
  1.00000000E+03  9.60000000E+01  0.00000000E+00
  1.00000000E+03  9.40000000E+01  0.00000000E+00
  1.00000000E+03  9.20000000E+01  0.00000000E+00
  1.00000000E+03  9.00000000E+01  0.00000000E+00
  1.00000000E+03  8.80000000E+01  0.00000000E+00
  1.00000000E+03  8.60000000E+01  0.00000000E+00
  1.00000000E+03  8.40000000E+01  0.00000000E+00
  1.00000000E+03  8.20000000E+01  0.00000000E+00
  1.00000000E+03  8.00000000E+01  0.00000000E+00
  1.00000000E+03  7.80000000E+01  0.00000000E+00
  1.00000000E+03  7.60000000E+01  0.00000000E+00
  1.00000000E+03  7.40000000E+01  0.00000000E+00
  1.00000000E+03  7.20000000E+01  0.00000000E+00
  1.00000000E+03  7.00000000E+01  0.00000000E+00
  1.00000000E+03  6.80000000E+01  0.00000000E+00
  1.00000000E+03  6.60000000E+01  0.00000000E+00
  1.00000000E+03  6.40000000E+01  0.00000000E+00
  1.00000000E+03  6.20000000E+01  0.00000000E+00
  1.00000000E+03  6.00000000E+01  0.00000000E+00
  1.00000000E+03  5.80000000E+01  0.00000000E+00
  1.00000000E+03  5.60000000E+01  0.00000000E+00
  1.00000000E+03  5.40000000E+01  0.00000000E+00
  1.00000000E+03  5.20000000E+01  0.00000000E+00
  1.00000000E+03  5.00000000E+01  0.00000000E+00
  1.00000000E+03  4.80000000E+01  0.00000000E+00
  1.00000000E+03  4.60000000E+01  0.00000000E+00
  1.00000000E+03  4.40000000E+01  0.00000000E+00
  1.00000000E+03  4.20000000E+01  0.00000000E+00
  1.00000000E+03  4.00000000E+01  0.00000000E+00
  1.00000000E+03  3.80000000E+01  0.00000000E+00
  1.00000000E+03  3.60000000E+01  0.00000000E+00
  1.00000000E+03  3.40000000E+01  0.00000000E+00
  1.00000000E+03  3.20000000E+01  0.00000000E+00
  1.00000000E+03  3.00000000E+01  0.00000000E+00
  1.00000000E+03  2.80000000E+01  0.00000000E+00
  1.00000000E+03  2.60000000E+01  0.00000000E+00
  1.00000000E+03  2.40000000E+01  0.00000000E+00
  1.00000000E+03  2.20000000E+01  0.00000000E+00
  1.00000000E+03  2.00000000E+01  0.00000000E+00
  1.00000000E+03  1.80000000E+01  0.00000000E+00
  1.00000000E+03  1.60000000E+01  0.00000000E+00
  1.00000000E+03  1.40000000E+01  0.00000000E+00
  1.00000000E+03  1.20000000E+01  0.00000000E+00
  1.00000000E+03  1.00000000E+01  0.00000000E+00
  1.00000000E+03  8.00000000E+00  0.00000000E+00
  1.00000000E+03  6.00000000E+00  0.00000000E+00
  1.00000000E+03  4.00000000E+00  0.00000000E+00
  1.00000000E+03  2.00000000E+00  0.00000000E+00
  1.00000000E+03 -3.33066907E-14  0.00000000E+00
CELLS      5000     25000
         4           0           1          52          51
         4           1           2          53          52
         4           2           3          54          53
         4           3           4          55          54
         4           4           5          56          55
         4           5           6          57          56
         4           6           7          58          57
         4           7           8          59          58
         4           8           9          60          59
         4           9          10          61          60
         4          10          11          62          61
         4          11          12          63          62
         4          12          13          64          63
         4          13          14          65          64
         4          14          15          66          65
         4          15          16          67          66
         4          16          17          68          67
         4          17          18          69          68
         4          18          19          70          69
         4          19          20          71          70
         4          20          21          72          71
         4          21          22          73          72
         4          22          23          74          73
         4          23          24          75          74
         4          24          25          76          75
         4          25          26          77          76
         4          26          27          78          77
         4          27          28          79          78
         4          28          29          80          79
         4          29          30          81          80
         4          30          31          82          81
         4          31          32          83          82
         4          32          33          84          83
         4          33          34          85          84
         4          34          35          86          85
         4          35          36          87          86
         4          36          37          88          87
         4          37          38          89          88
         4          38          39          90          89
         4          39          40          91          90
         4          40          41          92          91
         4          41          42          93          92
         4          42          43          94          93
         4          43          44          95          94
         4          44          45          96          95
         4          45          46          97          96
         4          46          47          98          97
         4          47          48          99          98
         4          48          49         100          99
         4          49          50         101         100
         4          51          52         103         102
         4          52          53         104         103
         4          53          54         105         104
         4          54          55         106         105
         4          55          56         107         106
         4          56          57         108         107
         4          57          58         109         108
         4          58          59         110         109
         4          59          60         111         110
         4          60          61         112         111
         4          61          62         113         112
         4          62          63         114         113
         4          63          64         115         114
         4          64          65         116         115
         4          65          66         117         116
         4          66          67         118         117
         4          67          68         119         118
         4          68          69         120         119
         4          69          70         121         120
         4          70          71         122         121
         4          71          72         123         122
         4          72          73         124         123
         4          73          74         125         124
         4          74          75         126         125
         4          75          76         127         126
         4          76          77         128         127
         4          77          78         129         128
         4          78          79         130         129
         4          79          80         131         130
         4          80          81         132         131
         4          81          82         133         132
         4          82          83         134         133
         4          83          84         135         134
         4          84          85         136         135
         4          85          86         137         136
         4          86          87         138         137
         4          87          88         139         138
         4          88          89         140         139
         4          89          90         141         140
         4          90          91         142         141
         4          91          92         143         142
         4          92          93         144         143
         4          93          94         145         144
         4          94          95         146         145
         4          95          96         147         146
         4          96          97         148         147
         4          97          98         149         148
         4          98          99         150         149
         4          99         100         151         150
         4         100         101         152         151
         4         102         103         154         153
         4         103         104         155         154
         4         104         105         156         155
         4         105         106         157         156
         4         106         107         158         157
         4         107         108         159         158
         4         108         109         160         159
         4         109         110         161         160
         4         110         111         162         161
         4         111         112         163         162
         4         112         113         164         163
         4         113         114         165         164
         4         114         115         166         165
         4         115         116         167         166
         4         116         117         168         167
         4         117         118         169         168
         4         118         119         170         169
         4         119         120         171         170
         4         120         121         172         171
         4         121         122         173         172
         4         122         123         174         173
         4         123         124         175         174
         4         124         125         176         175
         4         125         126         177         176
         4         126         127         178         177
         4         127         128         179         178
         4         128         129         180         179
         4         129         130         181         180
         4         130         131         182         181
         4         131         132         183         182
         4         132         133         184         183
         4         133         134         185         184
         4         134         135         186         185
         4         135         136         187         186
         4         136         137         188         187
         4         137         138         189         188
         4         138         139         190         189
         4         139         140         191         190
         4         140         141         192         191
         4         141         142         193         192
         4         142         143         194         193
         4         143         144         195         194
         4         144         145         196         195
         4         145         146         197         196
         4         146         147         198         197
         4         147         148         199         198
         4         148         149         200         199
         4         149         150         201         200
         4         150         151         202         201
         4         151         152         203         202
         4         153         154         205         204
         4         154         155         206         205
         4         155         156         207         206
         4         156         157         208         207
         4         157         158         209         208
         4         158         159         210         209
         4         159         160         211         210
         4         160         161         212         211
         4         161         162         213         212
         4         162         163         214         213
         4         163         164         215         214
         4         164         165         216         215
         4         165         166         217         216
         4         166         167         218         217
         4         167         168         219         218
         4         168         169         220         219
         4         169         170         221         220
         4         170         171         222         221
         4         171         172         223         222
         4         172         173         224         223
         4         173         174         225         224
         4         174         175         226         225
         4         175         176         227         226
         4         176         177         228         227
         4         177         178         229         228
         4         178         179         230         229
         4         179         180         231         230
         4         180         181         232         231
         4         181         182         233         232
         4         182         183         234         233
         4         183         184         235         234
         4         184         185         236         235
         4         185         186         237         236
         4         186         187         238         237
         4         187         188         239         238
         4         188         189         240         239
         4         189         190         241         240
         4         190         191         242         241
         4         191         192         243         242
         4         192         193         244         243
         4         193         194         245         244
         4         194         195         246         245
         4         195         196         247         246
         4         196         197         248         247
         4         197         198         249         248
         4         198         199         250         249
         4         199         200         251         250
         4         200         201         252         251
         4         201         202         253         252
         4         202         203         254         253
         4         204         205         256         255
         4         205         206         257         256
         4         206         207         258         257
         4         207         208         259         258
         4         208         209         260         259
         4         209         210         261         260
         4         210         211         262         261
         4         211         212         263         262
         4         212         213         264         263
         4         213         214         265         264
         4         214         215         266         265
         4         215         216         267         266
         4         216         217         268         267
         4         217         218         269         268
         4         218         219         270         269
         4         219         220         271         270
         4         220         221         272         271
         4         221         222         273         272
         4         222         223         274         273
         4         223         224         275         274
         4         224         225         276         275
         4         225         226         277         276
         4         226         227         278         277
         4         227         228         279         278
         4         228         229         280         279
         4         229         230         281         280
         4         230         231         282         281
         4         231         232         283         282
         4         232         233         284         283
         4         233         234         285         284
         4         234         235         286         285
         4         235         236         287         286
         4         236         237         288         287
         4         237         238         289         288
         4         238         239         290         289
         4         239         240         291         290
         4         240         241         292         291
         4         241         242         293         292
         4         242         243         294         293
         4         243         244         295         294
         4         244         245         296         295
         4         245         246         297         296
         4         246         247         298         297
         4         247         248         299         298
         4         248         249         300         299
         4         249         250         301         300
         4         250         251         302         301
         4         251         252         303         302
         4         252         253         304         303
         4         253         254         305         304
         4         255         256         307         306
         4         256         257         308         307
         4         257         258         309         308
         4         258         259         310         309
         4         259         260         311         310
         4         260         261         312         311
         4         261         262         313         312
         4         262         263         314         313
         4         263         264         315         314
         4         264         265         316         315
         4         265         266         317         316
         4         266         267         318         317
         4         267         268         319         318
         4         268         269         320         319
         4         269         270         321         320
         4         270         271         322         321
         4         271         272         323         322
         4         272         273         324         323
         4         273         274         325         324
         4         274         275         326         325
         4         275         276         327         326
         4         276         277         328         327
         4         277         278         329         328
         4         278         279         330         329
         4         279         280         331         330
         4         280         281         332         331
         4         281         282         333         332
         4         282         283         334         333
         4         283         284         335         334
         4         284         285         336         335
         4         285         286         337         336
         4         286         287         338         337
         4         287         288         339         338
         4         288         289         340         339
         4         289         290         341         340
         4         290         291         342         341
         4         291         292         343         342
         4         292         293         344         343
         4         293         294         345         344
         4         294         295         346         345
         4         295         296         347         346
         4         296         297         348         347
         4         297         298         349         348
         4         298         299         350         349
         4         299         300         351         350
         4         300         301         352         351
         4         301         302         353         352
         4         302         303         354         353
         4         303         304         355         354
         4         304         305         356         355
         4         306         307         358         357
         4         307         308         359         358
         4         308         309         360         359
         4         309         310         361         360
         4         310         311         362         361
         4         311         312         363         362
         4         312         313         364         363
         4         313         314         365         364
         4         314         315         366         365
         4         315         316         367         366
         4         316         317         368         367
         4         317         318         369         368
         4         318         319         370         369
         4         319         320         371         370
         4         320         321         372         371
         4         321         322         373         372
         4         322         323         374         373
         4         323         324         375         374
         4         324         325         376         375
         4         325         326         377         376
         4         326         327         378         377
         4         327         328         379         378
         4         328         329         380         379
         4         329         330         381         380
         4         330         331         382         381
         4         331         332         383         382
         4         332         333         384         383
         4         333         334         385         384
         4         334         335         386         385
         4         335         336         387         386
         4         336         337         388         387
         4         337         338         389         388
         4         338         339         390         389
         4         339         340         391         390
         4         340         341         392         391
         4         341         342         393         392
         4         342         343         394         393
         4         343         344         395         394
         4         344         345         396         395
         4         345         346         397         396
         4         346         347         398         397
         4         347         348         399         398
         4         348         349         400         399
         4         349         350         401         400
         4         350         351         402         401
         4         351         352         403         402
         4         352         353         404         403
         4         353         354         405         404
         4         354         355         406         405
         4         355         356         407         406
         4         357         358         409         408
         4         358         359         410         409
         4         359         360         411         410
         4         360         361         412         411
         4         361         362         413         412
         4         362         363         414         413
         4         363         364         415         414
         4         364         365         416         415
         4         365         366         417         416
         4         366         367         418         417
         4         367         368         419         418
         4         368         369         420         419
         4         369         370         421         420
         4         370         371         422         421
         4         371         372         423         422
         4         372         373         424         423
         4         373         374         425         424
         4         374         375         426         425
         4         375         376         427         426
         4         376         377         428         427
         4         377         378         429         428
         4         378         379         430         429
         4         379         380         431         430
         4         380         381         432         431
         4         381         382         433         432
         4         382         383         434         433
         4         383         384         435         434
         4         384         385         436         435
         4         385         386         437         436
         4         386         387         438         437
         4         387         388         439         438
         4         388         389         440         439
         4         389         390         441         440
         4         390         391         442         441
         4         391         392         443         442
         4         392         393         444         443
         4         393         394         445         444
         4         394         395         446         445
         4         395         396         447         446
         4         396         397         448         447
         4         397         398         449         448
         4         398         399         450         449
         4         399         400         451         450
         4         400         401         452         451
         4         401         402         453         452
         4         402         403         454         453
         4         403         404         455         454
         4         404         405         456         455
         4         405         406         457         456
         4         406         407         458         457
         4         408         409         460         459
         4         409         410         461         460
         4         410         411         462         461
         4         411         412         463         462
         4         412         413         464         463
         4         413         414         465         464
         4         414         415         466         465
         4         415         416         467         466
         4         416         417         468         467
         4         417         418         469         468
         4         418         419         470         469
         4         419         420         471         470
         4         420         421         472         471
         4         421         422         473         472
         4         422         423         474         473
         4         423         424         475         474
         4         424         425         476         475
         4         425         426         477         476
         4         426         427         478         477
         4         427         428         479         478
         4         428         429         480         479
         4         429         430         481         480
         4         430         431         482         481
         4         431         432         483         482
         4         432         433         484         483
         4         433         434         485         484
         4         434         435         486         485
         4         435         436         487         486
         4         436         437         488         487
         4         437         438         489         488
         4         438         439         490         489
         4         439         440         491         490
         4         440         441         492         491
         4         441         442         493         492
         4         442         443         494         493
         4         443         444         495         494
         4         444         445         496         495
         4         445         446         497         496
         4         446         447         498         497
         4         447         448         499         498
         4         448         449         500         499
         4         449         450         501         500
         4         450         451         502         501
         4         451         452         503         502
         4         452         453         504         503
         4         453         454         505         504
         4         454         455         506         505
         4         455         456         507         506
         4         456         457         508         507
         4         457         458         509         508
         4         459         460         511         510
         4         460         461         512         511
         4         461         462         513         512
         4         462         463         514         513
         4         463         464         515         514
         4         464         465         516         515
         4         465         466         517         516
         4         466         467         518         517
         4         467         468         519         518
         4         468         469         520         519
         4         469         470         521         520
         4         470         471         522         521
         4         471         472         523         522
         4         472         473         524         523
         4         473         474         525         524
         4         474         475         526         525
         4         475         476         527         526
         4         476         477         528         527
         4         477         478         529         528
         4         478         479         530         529
         4         479         480         531         530
         4         480         481         532         531
         4         481         482         533         532
         4         482         483         534         533
         4         483         484         535         534
         4         484         485         536         535
         4         485         486         537         536
         4         486         487         538         537
         4         487         488         539         538
         4         488         489         540         539
         4         489         490         541         540
         4         490         491         542         541
         4         491         492         543         542
         4         492         493         544         543
         4         493         494         545         544
         4         494         495         546         545
         4         495         496         547         546
         4         496         497         548         547
         4         497         498         549         548
         4         498         499         550         549
         4         499         500         551         550
         4         500         501         552         551
         4         501         502         553         552
         4         502         503         554         553
         4         503         504         555         554
         4         504         505         556         555
         4         505         506         557         556
         4         506         507         558         557
         4         507         508         559         558
         4         508         509         560         559
         4         510         511         562         561
         4         511         512         563         562
         4         512         513         564         563
         4         513         514         565         564
         4         514         515         566         565
         4         515         516         567         566
         4         516         517         568         567
         4         517         518         569         568
         4         518         519         570         569
         4         519         520         571         570
         4         520         521         572         571
         4         521         522         573         572
         4         522         523         574         573
         4         523         524         575         574
         4         524         525         576         575
         4         525         526         577         576
         4         526         527         578         577
         4         527         528         579         578
         4         528         529         580         579
         4         529         530         581         580
         4         530         531         582         581
         4         531         532         583         582
         4         532         533         584         583
         4         533         534         585         584
         4         534         535         586         585
         4         535         536         587         586
         4         536         537         588         587
         4         537         538         589         588
         4         538         539         590         589
         4         539         540         591         590
         4         540         541         592         591
         4         541         542         593         592
         4         542         543         594         593
         4         543         544         595         594
         4         544         545         596         595
         4         545         546         597         596
         4         546         547         598         597
         4         547         548         599         598
         4         548         549         600         599
         4         549         550         601         600
         4         550         551         602         601
         4         551         552         603         602
         4         552         553         604         603
         4         553         554         605         604
         4         554         555         606         605
         4         555         556         607         606
         4         556         557         608         607
         4         557         558         609         608
         4         558         559         610         609
         4         559         560         611         610
         4         561         562         613         612
         4         562         563         614         613
         4         563         564         615         614
         4         564         565         616         615
         4         565         566         617         616
         4         566         567         618         617
         4         567         568         619         618
         4         568         569         620         619
         4         569         570         621         620
         4         570         571         622         621
         4         571         572         623         622
         4         572         573         624         623
         4         573         574         625         624
         4         574         575         626         625
         4         575         576         627         626
         4         576         577         628         627
         4         577         578         629         628
         4         578         579         630         629
         4         579         580         631         630
         4         580         581         632         631
         4         581         582         633         632
         4         582         583         634         633
         4         583         584         635         634
         4         584         585         636         635
         4         585         586         637         636
         4         586         587         638         637
         4         587         588         639         638
         4         588         589         640         639
         4         589         590         641         640
         4         590         591         642         641
         4         591         592         643         642
         4         592         593         644         643
         4         593         594         645         644
         4         594         595         646         645
         4         595         596         647         646
         4         596         597         648         647
         4         597         598         649         648
         4         598         599         650         649
         4         599         600         651         650
         4         600         601         652         651
         4         601         602         653         652
         4         602         603         654         653
         4         603         604         655         654
         4         604         605         656         655
         4         605         606         657         656
         4         606         607         658         657
         4         607         608         659         658
         4         608         609         660         659
         4         609         610         661         660
         4         610         611         662         661
         4         612         613         664         663
         4         613         614         665         664
         4         614         615         666         665
         4         615         616         667         666
         4         616         617         668         667
         4         617         618         669         668
         4         618         619         670         669
         4         619         620         671         670
         4         620         621         672         671
         4         621         622         673         672
         4         622         623         674         673
         4         623         624         675         674
         4         624         625         676         675
         4         625         626         677         676
         4         626         627         678         677
         4         627         628         679         678
         4         628         629         680         679
         4         629         630         681         680
         4         630         631         682         681
         4         631         632         683         682
         4         632         633         684         683
         4         633         634         685         684
         4         634         635         686         685
         4         635         636         687         686
         4         636         637         688         687
         4         637         638         689         688
         4         638         639         690         689
         4         639         640         691         690
         4         640         641         692         691
         4         641         642         693         692
         4         642         643         694         693
         4         643         644         695         694
         4         644         645         696         695
         4         645         646         697         696
         4         646         647         698         697
         4         647         648         699         698
         4         648         649         700         699
         4         649         650         701         700
         4         650         651         702         701
         4         651         652         703         702
         4         652         653         704         703
         4         653         654         705         704
         4         654         655         706         705
         4         655         656         707         706
         4         656         657         708         707
         4         657         658         709         708
         4         658         659         710         709
         4         659         660         711         710
         4         660         661         712         711
         4         661         662         713         712
         4         663         664         715         714
         4         664         665         716         715
         4         665         666         717         716
         4         666         667         718         717
         4         667         668         719         718
         4         668         669         720         719
         4         669         670         721         720
         4         670         671         722         721
         4         671         672         723         722
         4         672         673         724         723
         4         673         674         725         724
         4         674         675         726         725
         4         675         676         727         726
         4         676         677         728         727
         4         677         678         729         728
         4         678         679         730         729
         4         679         680         731         730
         4         680         681         732         731
         4         681         682         733         732
         4         682         683         734         733
         4         683         684         735         734
         4         684         685         736         735
         4         685         686         737         736
         4         686         687         738         737
         4         687         688         739         738
         4         688         689         740         739
         4         689         690         741         740
         4         690         691         742         741
         4         691         692         743         742
         4         692         693         744         743
         4         693         694         745         744
         4         694         695         746         745
         4         695         696         747         746
         4         696         697         748         747
         4         697         698         749         748
         4         698         699         750         749
         4         699         700         751         750
         4         700         701         752         751
         4         701         702         753         752
         4         702         703         754         753
         4         703         704         755         754
         4         704         705         756         755
         4         705         706         757         756
         4         706         707         758         757
         4         707         708         759         758
         4         708         709         760         759
         4         709         710         761         760
         4         710         711         762         761
         4         711         712         763         762
         4         712         713         764         763
         4         714         715         766         765
         4         715         716         767         766
         4         716         717         768         767
         4         717         718         769         768
         4         718         719         770         769
         4         719         720         771         770
         4         720         721         772         771
         4         721         722         773         772
         4         722         723         774         773
         4         723         724         775         774
         4         724         725         776         775
         4         725         726         777         776
         4         726         727         778         777
         4         727         728         779         778
         4         728         729         780         779
         4         729         730         781         780
         4         730         731         782         781
         4         731         732         783         782
         4         732         733         784         783
         4         733         734         785         784
         4         734         735         786         785
         4         735         736         787         786
         4         736         737         788         787
         4         737         738         789         788
         4         738         739         790         789
         4         739         740         791         790
         4         740         741         792         791
         4         741         742         793         792
         4         742         743         794         793
         4         743         744         795         794
         4         744         745         796         795
         4         745         746         797         796
         4         746         747         798         797
         4         747         748         799         798
         4         748         749         800         799
         4         749         750         801         800
         4         750         751         802         801
         4         751         752         803         802
         4         752         753         804         803
         4         753         754         805         804
         4         754         755         806         805
         4         755         756         807         806
         4         756         757         808         807
         4         757         758         809         808
         4         758         759         810         809
         4         759         760         811         810
         4         760         761         812         811
         4         761         762         813         812
         4         762         763         814         813
         4         763         764         815         814
         4         765         766         817         816
         4         766         767         818         817
         4         767         768         819         818
         4         768         769         820         819
         4         769         770         821         820
         4         770         771         822         821
         4         771         772         823         822
         4         772         773         824         823
         4         773         774         825         824
         4         774         775         826         825
         4         775         776         827         826
         4         776         777         828         827
         4         777         778         829         828
         4         778         779         830         829
         4         779         780         831         830
         4         780         781         832         831
         4         781         782         833         832
         4         782         783         834         833
         4         783         784         835         834
         4         784         785         836         835
         4         785         786         837         836
         4         786         787         838         837
         4         787         788         839         838
         4         788         789         840         839
         4         789         790         841         840
         4         790         791         842         841
         4         791         792         843         842
         4         792         793         844         843
         4         793         794         845         844
         4         794         795         846         845
         4         795         796         847         846
         4         796         797         848         847
         4         797         798         849         848
         4         798         799         850         849
         4         799         800         851         850
         4         800         801         852         851
         4         801         802         853         852
         4         802         803         854         853
         4         803         804         855         854
         4         804         805         856         855
         4         805         806         857         856
         4         806         807         858         857
         4         807         808         859         858
         4         808         809         860         859
         4         809         810         861         860
         4         810         811         862         861
         4         811         812         863         862
         4         812         813         864         863
         4         813         814         865         864
         4         814         815         866         865
         4         816         817         868         867
         4         817         818         869         868
         4         818         819         870         869
         4         819         820         871         870
         4         820         821         872         871
         4         821         822         873         872
         4         822         823         874         873
         4         823         824         875         874
         4         824         825         876         875
         4         825         826         877         876
         4         826         827         878         877
         4         827         828         879         878
         4         828         829         880         879
         4         829         830         881         880
         4         830         831         882         881
         4         831         832         883         882
         4         832         833         884         883
         4         833         834         885         884
         4         834         835         886         885
         4         835         836         887         886
         4         836         837         888         887
         4         837         838         889         888
         4         838         839         890         889
         4         839         840         891         890
         4         840         841         892         891
         4         841         842         893         892
         4         842         843         894         893
         4         843         844         895         894
         4         844         845         896         895
         4         845         846         897         896
         4         846         847         898         897
         4         847         848         899         898
         4         848         849         900         899
         4         849         850         901         900
         4         850         851         902         901
         4         851         852         903         902
         4         852         853         904         903
         4         853         854         905         904
         4         854         855         906         905
         4         855         856         907         906
         4         856         857         908         907
         4         857         858         909         908
         4         858         859         910         909
         4         859         860         911         910
         4         860         861         912         911
         4         861         862         913         912
         4         862         863         914         913
         4         863         864         915         914
         4         864         865         916         915
         4         865         866         917         916
         4         867         868         919         918
         4         868         869         920         919
         4         869         870         921         920
         4         870         871         922         921
         4         871         872         923         922
         4         872         873         924         923
         4         873         874         925         924
         4         874         875         926         925
         4         875         876         927         926
         4         876         877         928         927
         4         877         878         929         928
         4         878         879         930         929
         4         879         880         931         930
         4         880         881         932         931
         4         881         882         933         932
         4         882         883         934         933
         4         883         884         935         934
         4         884         885         936         935
         4         885         886         937         936
         4         886         887         938         937
         4         887         888         939         938
         4         888         889         940         939
         4         889         890         941         940
         4         890         891         942         941
         4         891         892         943         942
         4         892         893         944         943
         4         893         894         945         944
         4         894         895         946         945
         4         895         896         947         946
         4         896         897         948         947
         4         897         898         949         948
         4         898         899         950         949
         4         899         900         951         950
         4         900         901         952         951
         4         901         902         953         952
         4         902         903         954         953
         4         903         904         955         954
         4         904         905         956         955
         4         905         906         957         956
         4         906         907         958         957
         4         907         908         959         958
         4         908         909         960         959
         4         909         910         961         960
         4         910         911         962         961
         4         911         912         963         962
         4         912         913         964         963
         4         913         914         965         964
         4         914         915         966         965
         4         915         916         967         966
         4         916         917         968         967
         4         918         919         970         969
         4         919         920         971         970
         4         920         921         972         971
         4         921         922         973         972
         4         922         923         974         973
         4         923         924         975         974
         4         924         925         976         975
         4         925         926         977         976
         4         926         927         978         977
         4         927         928         979         978
         4         928         929         980         979
         4         929         930         981         980
         4         930         931         982         981
         4         931         932         983         982
         4         932         933         984         983
         4         933         934         985         984
         4         934         935         986         985
         4         935         936         987         986
         4         936         937         988         987
         4         937         938         989         988
         4         938         939         990         989
         4         939         940         991         990
         4         940         941         992         991
         4         941         942         993         992
         4         942         943         994         993
         4         943         944         995         994
         4         944         945         996         995
         4         945         946         997         996
         4         946         947         998         997
         4         947         948         999         998
         4         948         949        1000         999
         4         949         950        1001        1000
         4         950         951        1002        1001
         4         951         952        1003        1002
         4         952         953        1004        1003
         4         953         954        1005        1004
         4         954         955        1006        1005
         4         955         956        1007        1006
         4         956         957        1008        1007
         4         957         958        1009        1008
         4         958         959        1010        1009
         4         959         960        1011        1010
         4         960         961        1012        1011
         4         961         962        1013        1012
         4         962         963        1014        1013
         4         963         964        1015        1014
         4         964         965        1016        1015
         4         965         966        1017        1016
         4         966         967        1018        1017
         4         967         968        1019        1018
         4         969         970        1021        1020
         4         970         971        1022        1021
         4         971         972        1023        1022
         4         972         973        1024        1023
         4         973         974        1025        1024
         4         974         975        1026        1025
         4         975         976        1027        1026
         4         976         977        1028        1027
         4         977         978        1029        1028
         4         978         979        1030        1029
         4         979         980        1031        1030
         4         980         981        1032        1031
         4         981         982        1033        1032
         4         982         983        1034        1033
         4         983         984        1035        1034
         4         984         985        1036        1035
         4         985         986        1037        1036
         4         986         987        1038        1037
         4         987         988        1039        1038
         4         988         989        1040        1039
         4         989         990        1041        1040
         4         990         991        1042        1041
         4         991         992        1043        1042
         4         992         993        1044        1043
         4         993         994        1045        1044
         4         994         995        1046        1045
         4         995         996        1047        1046
         4         996         997        1048        1047
         4         997         998        1049        1048
         4         998         999        1050        1049
         4         999        1000        1051        1050
         4        1000        1001        1052        1051
         4        1001        1002        1053        1052
         4        1002        1003        1054        1053
         4        1003        1004        1055        1054
         4        1004        1005        1056        1055
         4        1005        1006        1057        1056
         4        1006        1007        1058        1057
         4        1007        1008        1059        1058
         4        1008        1009        1060        1059
         4        1009        1010        1061        1060
         4        1010        1011        1062        1061
         4        1011        1012        1063        1062
         4        1012        1013        1064        1063
         4        1013        1014        1065        1064
         4        1014        1015        1066        1065
         4        1015        1016        1067        1066
         4        1016        1017        1068        1067
         4        1017        1018        1069        1068
         4        1018        1019        1070        1069
         4        1020        1021        1072        1071
         4        1021        1022        1073        1072
         4        1022        1023        1074        1073
         4        1023        1024        1075        1074
         4        1024        1025        1076        1075
         4        1025        1026        1077        1076
         4        1026        1027        1078        1077
         4        1027        1028        1079        1078
         4        1028        1029        1080        1079
         4        1029        1030        1081        1080
         4        1030        1031        1082        1081
         4        1031        1032        1083        1082
         4        1032        1033        1084        1083
         4        1033        1034        1085        1084
         4        1034        1035        1086        1085
         4        1035        1036        1087        1086
         4        1036        1037        1088        1087
         4        1037        1038        1089        1088
         4        1038        1039        1090        1089
         4        1039        1040        1091        1090
         4        1040        1041        1092        1091
         4        1041        1042        1093        1092
         4        1042        1043        1094        1093
         4        1043        1044        1095        1094
         4        1044        1045        1096        1095
         4        1045        1046        1097        1096
         4        1046        1047        1098        1097
         4        1047        1048        1099        1098
         4        1048        1049        1100        1099
         4        1049        1050        1101        1100
         4        1050        1051        1102        1101
         4        1051        1052        1103        1102
         4        1052        1053        1104        1103
         4        1053        1054        1105        1104
         4        1054        1055        1106        1105
         4        1055        1056        1107        1106
         4        1056        1057        1108        1107
         4        1057        1058        1109        1108
         4        1058        1059        1110        1109
         4        1059        1060        1111        1110
         4        1060        1061        1112        1111
         4        1061        1062        1113        1112
         4        1062        1063        1114        1113
         4        1063        1064        1115        1114
         4        1064        1065        1116        1115
         4        1065        1066        1117        1116
         4        1066        1067        1118        1117
         4        1067        1068        1119        1118
         4        1068        1069        1120        1119
         4        1069        1070        1121        1120
         4        1071        1072        1123        1122
         4        1072        1073        1124        1123
         4        1073        1074        1125        1124
         4        1074        1075        1126        1125
         4        1075        1076        1127        1126
         4        1076        1077        1128        1127
         4        1077        1078        1129        1128
         4        1078        1079        1130        1129
         4        1079        1080        1131        1130
         4        1080        1081        1132        1131
         4        1081        1082        1133        1132
         4        1082        1083        1134        1133
         4        1083        1084        1135        1134
         4        1084        1085        1136        1135
         4        1085        1086        1137        1136
         4        1086        1087        1138        1137
         4        1087        1088        1139        1138
         4        1088        1089        1140        1139
         4        1089        1090        1141        1140
         4        1090        1091        1142        1141
         4        1091        1092        1143        1142
         4        1092        1093        1144        1143
         4        1093        1094        1145        1144
         4        1094        1095        1146        1145
         4        1095        1096        1147        1146
         4        1096        1097        1148        1147
         4        1097        1098        1149        1148
         4        1098        1099        1150        1149
         4        1099        1100        1151        1150
         4        1100        1101        1152        1151
         4        1101        1102        1153        1152
         4        1102        1103        1154        1153
         4        1103        1104        1155        1154
         4        1104        1105        1156        1155
         4        1105        1106        1157        1156
         4        1106        1107        1158        1157
         4        1107        1108        1159        1158
         4        1108        1109        1160        1159
         4        1109        1110        1161        1160
         4        1110        1111        1162        1161
         4        1111        1112        1163        1162
         4        1112        1113        1164        1163
         4        1113        1114        1165        1164
         4        1114        1115        1166        1165
         4        1115        1116        1167        1166
         4        1116        1117        1168        1167
         4        1117        1118        1169        1168
         4        1118        1119        1170        1169
         4        1119        1120        1171        1170
         4        1120        1121        1172        1171
         4        1122        1123        1174        1173
         4        1123        1124        1175        1174
         4        1124        1125        1176        1175
         4        1125        1126        1177        1176
         4        1126        1127        1178        1177
         4        1127        1128        1179        1178
         4        1128        1129        1180        1179
         4        1129        1130        1181        1180
         4        1130        1131        1182        1181
         4        1131        1132        1183        1182
         4        1132        1133        1184        1183
         4        1133        1134        1185        1184
         4        1134        1135        1186        1185
         4        1135        1136        1187        1186
         4        1136        1137        1188        1187
         4        1137        1138        1189        1188
         4        1138        1139        1190        1189
         4        1139        1140        1191        1190
         4        1140        1141        1192        1191
         4        1141        1142        1193        1192
         4        1142        1143        1194        1193
         4        1143        1144        1195        1194
         4        1144        1145        1196        1195
         4        1145        1146        1197        1196
         4        1146        1147        1198        1197
         4        1147        1148        1199        1198
         4        1148        1149        1200        1199
         4        1149        1150        1201        1200
         4        1150        1151        1202        1201
         4        1151        1152        1203        1202
         4        1152        1153        1204        1203
         4        1153        1154        1205        1204
         4        1154        1155        1206        1205
         4        1155        1156        1207        1206
         4        1156        1157        1208        1207
         4        1157        1158        1209        1208
         4        1158        1159        1210        1209
         4        1159        1160        1211        1210
         4        1160        1161        1212        1211
         4        1161        1162        1213        1212
         4        1162        1163        1214        1213
         4        1163        1164        1215        1214
         4        1164        1165        1216        1215
         4        1165        1166        1217        1216
         4        1166        1167        1218        1217
         4        1167        1168        1219        1218
         4        1168        1169        1220        1219
         4        1169        1170        1221        1220
         4        1170        1171        1222        1221
         4        1171        1172        1223        1222
         4        1173        1174        1225        1224
         4        1174        1175        1226        1225
         4        1175        1176        1227        1226
         4        1176        1177        1228        1227
         4        1177        1178        1229        1228
         4        1178        1179        1230        1229
         4        1179        1180        1231        1230
         4        1180        1181        1232        1231
         4        1181        1182        1233        1232
         4        1182        1183        1234        1233
         4        1183        1184        1235        1234
         4        1184        1185        1236        1235
         4        1185        1186        1237        1236
         4        1186        1187        1238        1237
         4        1187        1188        1239        1238
         4        1188        1189        1240        1239
         4        1189        1190        1241        1240
         4        1190        1191        1242        1241
         4        1191        1192        1243        1242
         4        1192        1193        1244        1243
         4        1193        1194        1245        1244
         4        1194        1195        1246        1245
         4        1195        1196        1247        1246
         4        1196        1197        1248        1247
         4        1197        1198        1249        1248
         4        1198        1199        1250        1249
         4        1199        1200        1251        1250
         4        1200        1201        1252        1251
         4        1201        1202        1253        1252
         4        1202        1203        1254        1253
         4        1203        1204        1255        1254
         4        1204        1205        1256        1255
         4        1205        1206        1257        1256
         4        1206        1207        1258        1257
         4        1207        1208        1259        1258
         4        1208        1209        1260        1259
         4        1209        1210        1261        1260
         4        1210        1211        1262        1261
         4        1211        1212        1263        1262
         4        1212        1213        1264        1263
         4        1213        1214        1265        1264
         4        1214        1215        1266        1265
         4        1215        1216        1267        1266
         4        1216        1217        1268        1267
         4        1217        1218        1269        1268
         4        1218        1219        1270        1269
         4        1219        1220        1271        1270
         4        1220        1221        1272        1271
         4        1221        1222        1273        1272
         4        1222        1223        1274        1273
         4        1224        1225        1276        1275
         4        1225        1226        1277        1276
         4        1226        1227        1278        1277
         4        1227        1228        1279        1278
         4        1228        1229        1280        1279
         4        1229        1230        1281        1280
         4        1230        1231        1282        1281
         4        1231        1232        1283        1282
         4        1232        1233        1284        1283
         4        1233        1234        1285        1284
         4        1234        1235        1286        1285
         4        1235        1236        1287        1286
         4        1236        1237        1288        1287
         4        1237        1238        1289        1288
         4        1238        1239        1290        1289
         4        1239        1240        1291        1290
         4        1240        1241        1292        1291
         4        1241        1242        1293        1292
         4        1242        1243        1294        1293
         4        1243        1244        1295        1294
         4        1244        1245        1296        1295
         4        1245        1246        1297        1296
         4        1246        1247        1298        1297
         4        1247        1248        1299        1298
         4        1248        1249        1300        1299
         4        1249        1250        1301        1300
         4        1250        1251        1302        1301
         4        1251        1252        1303        1302
         4        1252        1253        1304        1303
         4        1253        1254        1305        1304
         4        1254        1255        1306        1305
         4        1255        1256        1307        1306
         4        1256        1257        1308        1307
         4        1257        1258        1309        1308
         4        1258        1259        1310        1309
         4        1259        1260        1311        1310
         4        1260        1261        1312        1311
         4        1261        1262        1313        1312
         4        1262        1263        1314        1313
         4        1263        1264        1315        1314
         4        1264        1265        1316        1315
         4        1265        1266        1317        1316
         4        1266        1267        1318        1317
         4        1267        1268        1319        1318
         4        1268        1269        1320        1319
         4        1269        1270        1321        1320
         4        1270        1271        1322        1321
         4        1271        1272        1323        1322
         4        1272        1273        1324        1323
         4        1273        1274        1325        1324
         4        1275        1276        1327        1326
         4        1276        1277        1328        1327
         4        1277        1278        1329        1328
         4        1278        1279        1330        1329
         4        1279        1280        1331        1330
         4        1280        1281        1332        1331
         4        1281        1282        1333        1332
         4        1282        1283        1334        1333
         4        1283        1284        1335        1334
         4        1284        1285        1336        1335
         4        1285        1286        1337        1336
         4        1286        1287        1338        1337
         4        1287        1288        1339        1338
         4        1288        1289        1340        1339
         4        1289        1290        1341        1340
         4        1290        1291        1342        1341
         4        1291        1292        1343        1342
         4        1292        1293        1344        1343
         4        1293        1294        1345        1344
         4        1294        1295        1346        1345
         4        1295        1296        1347        1346
         4        1296        1297        1348        1347
         4        1297        1298        1349        1348
         4        1298        1299        1350        1349
         4        1299        1300        1351        1350
         4        1300        1301        1352        1351
         4        1301        1302        1353        1352
         4        1302        1303        1354        1353
         4        1303        1304        1355        1354
         4        1304        1305        1356        1355
         4        1305        1306        1357        1356
         4        1306        1307        1358        1357
         4        1307        1308        1359        1358
         4        1308        1309        1360        1359
         4        1309        1310        1361        1360
         4        1310        1311        1362        1361
         4        1311        1312        1363        1362
         4        1312        1313        1364        1363
         4        1313        1314        1365        1364
         4        1314        1315        1366        1365
         4        1315        1316        1367        1366
         4        1316        1317        1368        1367
         4        1317        1318        1369        1368
         4        1318        1319        1370        1369
         4        1319        1320        1371        1370
         4        1320        1321        1372        1371
         4        1321        1322        1373        1372
         4        1322        1323        1374        1373
         4        1323        1324        1375        1374
         4        1324        1325        1376        1375
         4        1326        1327        1378        1377
         4        1327        1328        1379        1378
         4        1328        1329        1380        1379
         4        1329        1330        1381        1380
         4        1330        1331        1382        1381
         4        1331        1332        1383        1382
         4        1332        1333        1384        1383
         4        1333        1334        1385        1384
         4        1334        1335        1386        1385
         4        1335        1336        1387        1386
         4        1336        1337        1388        1387
         4        1337        1338        1389        1388
         4        1338        1339        1390        1389
         4        1339        1340        1391        1390
         4        1340        1341        1392        1391
         4        1341        1342        1393        1392
         4        1342        1343        1394        1393
         4        1343        1344        1395        1394
         4        1344        1345        1396        1395
         4        1345        1346        1397        1396
         4        1346        1347        1398        1397
         4        1347        1348        1399        1398
         4        1348        1349        1400        1399
         4        1349        1350        1401        1400
         4        1350        1351        1402        1401
         4        1351        1352        1403        1402
         4        1352        1353        1404        1403
         4        1353        1354        1405        1404
         4        1354        1355        1406        1405
         4        1355        1356        1407        1406
         4        1356        1357        1408        1407
         4        1357        1358        1409        1408
         4        1358        1359        1410        1409
         4        1359        1360        1411        1410
         4        1360        1361        1412        1411
         4        1361        1362        1413        1412
         4        1362        1363        1414        1413
         4        1363        1364        1415        1414
         4        1364        1365        1416        1415
         4        1365        1366        1417        1416
         4        1366        1367        1418        1417
         4        1367        1368        1419        1418
         4        1368        1369        1420        1419
         4        1369        1370        1421        1420
         4        1370        1371        1422        1421
         4        1371        1372        1423        1422
         4        1372        1373        1424        1423
         4        1373        1374        1425        1424
         4        1374        1375        1426        1425
         4        1375        1376        1427        1426
         4        1377        1378        1429        1428
         4        1378        1379        1430        1429
         4        1379        1380        1431        1430
         4        1380        1381        1432        1431
         4        1381        1382        1433        1432
         4        1382        1383        1434        1433
         4        1383        1384        1435        1434
         4        1384        1385        1436        1435
         4        1385        1386        1437        1436
         4        1386        1387        1438        1437
         4        1387        1388        1439        1438
         4        1388        1389        1440        1439
         4        1389        1390        1441        1440
         4        1390        1391        1442        1441
         4        1391        1392        1443        1442
         4        1392        1393        1444        1443
         4        1393        1394        1445        1444
         4        1394        1395        1446        1445
         4        1395        1396        1447        1446
         4        1396        1397        1448        1447
         4        1397        1398        1449        1448
         4        1398        1399        1450        1449
         4        1399        1400        1451        1450
         4        1400        1401        1452        1451
         4        1401        1402        1453        1452
         4        1402        1403        1454        1453
         4        1403        1404        1455        1454
         4        1404        1405        1456        1455
         4        1405        1406        1457        1456
         4        1406        1407        1458        1457
         4        1407        1408        1459        1458
         4        1408        1409        1460        1459
         4        1409        1410        1461        1460
         4        1410        1411        1462        1461
         4        1411        1412        1463        1462
         4        1412        1413        1464        1463
         4        1413        1414        1465        1464
         4        1414        1415        1466        1465
         4        1415        1416        1467        1466
         4        1416        1417        1468        1467
         4        1417        1418        1469        1468
         4        1418        1419        1470        1469
         4        1419        1420        1471        1470
         4        1420        1421        1472        1471
         4        1421        1422        1473        1472
         4        1422        1423        1474        1473
         4        1423        1424        1475        1474
         4        1424        1425        1476        1475
         4        1425        1426        1477        1476
         4        1426        1427        1478        1477
         4        1428        1429        1480        1479
         4        1429        1430        1481        1480
         4        1430        1431        1482        1481
         4        1431        1432        1483        1482
         4        1432        1433        1484        1483
         4        1433        1434        1485        1484
         4        1434        1435        1486        1485
         4        1435        1436        1487        1486
         4        1436        1437        1488        1487
         4        1437        1438        1489        1488
         4        1438        1439        1490        1489
         4        1439        1440        1491        1490
         4        1440        1441        1492        1491
         4        1441        1442        1493        1492
         4        1442        1443        1494        1493
         4        1443        1444        1495        1494
         4        1444        1445        1496        1495
         4        1445        1446        1497        1496
         4        1446        1447        1498        1497
         4        1447        1448        1499        1498
         4        1448        1449        1500        1499
         4        1449        1450        1501        1500
         4        1450        1451        1502        1501
         4        1451        1452        1503        1502
         4        1452        1453        1504        1503
         4        1453        1454        1505        1504
         4        1454        1455        1506        1505
         4        1455        1456        1507        1506
         4        1456        1457        1508        1507
         4        1457        1458        1509        1508
         4        1458        1459        1510        1509
         4        1459        1460        1511        1510
         4        1460        1461        1512        1511
         4        1461        1462        1513        1512
         4        1462        1463        1514        1513
         4        1463        1464        1515        1514
         4        1464        1465        1516        1515
         4        1465        1466        1517        1516
         4        1466        1467        1518        1517
         4        1467        1468        1519        1518
         4        1468        1469        1520        1519
         4        1469        1470        1521        1520
         4        1470        1471        1522        1521
         4        1471        1472        1523        1522
         4        1472        1473        1524        1523
         4        1473        1474        1525        1524
         4        1474        1475        1526        1525
         4        1475        1476        1527        1526
         4        1476        1477        1528        1527
         4        1477        1478        1529        1528
         4        1479        1480        1531        1530
         4        1480        1481        1532        1531
         4        1481        1482        1533        1532
         4        1482        1483        1534        1533
         4        1483        1484        1535        1534
         4        1484        1485        1536        1535
         4        1485        1486        1537        1536
         4        1486        1487        1538        1537
         4        1487        1488        1539        1538
         4        1488        1489        1540        1539
         4        1489        1490        1541        1540
         4        1490        1491        1542        1541
         4        1491        1492        1543        1542
         4        1492        1493        1544        1543
         4        1493        1494        1545        1544
         4        1494        1495        1546        1545
         4        1495        1496        1547        1546
         4        1496        1497        1548        1547
         4        1497        1498        1549        1548
         4        1498        1499        1550        1549
         4        1499        1500        1551        1550
         4        1500        1501        1552        1551
         4        1501        1502        1553        1552
         4        1502        1503        1554        1553
         4        1503        1504        1555        1554
         4        1504        1505        1556        1555
         4        1505        1506        1557        1556
         4        1506        1507        1558        1557
         4        1507        1508        1559        1558
         4        1508        1509        1560        1559
         4        1509        1510        1561        1560
         4        1510        1511        1562        1561
         4        1511        1512        1563        1562
         4        1512        1513        1564        1563
         4        1513        1514        1565        1564
         4        1514        1515        1566        1565
         4        1515        1516        1567        1566
         4        1516        1517        1568        1567
         4        1517        1518        1569        1568
         4        1518        1519        1570        1569
         4        1519        1520        1571        1570
         4        1520        1521        1572        1571
         4        1521        1522        1573        1572
         4        1522        1523        1574        1573
         4        1523        1524        1575        1574
         4        1524        1525        1576        1575
         4        1525        1526        1577        1576
         4        1526        1527        1578        1577
         4        1527        1528        1579        1578
         4        1528        1529        1580        1579
         4        1530        1531        1582        1581
         4        1531        1532        1583        1582
         4        1532        1533        1584        1583
         4        1533        1534        1585        1584
         4        1534        1535        1586        1585
         4        1535        1536        1587        1586
         4        1536        1537        1588        1587
         4        1537        1538        1589        1588
         4        1538        1539        1590        1589
         4        1539        1540        1591        1590
         4        1540        1541        1592        1591
         4        1541        1542        1593        1592
         4        1542        1543        1594        1593
         4        1543        1544        1595        1594
         4        1544        1545        1596        1595
         4        1545        1546        1597        1596
         4        1546        1547        1598        1597
         4        1547        1548        1599        1598
         4        1548        1549        1600        1599
         4        1549        1550        1601        1600
         4        1550        1551        1602        1601
         4        1551        1552        1603        1602
         4        1552        1553        1604        1603
         4        1553        1554        1605        1604
         4        1554        1555        1606        1605
         4        1555        1556        1607        1606
         4        1556        1557        1608        1607
         4        1557        1558        1609        1608
         4        1558        1559        1610        1609
         4        1559        1560        1611        1610
         4        1560        1561        1612        1611
         4        1561        1562        1613        1612
         4        1562        1563        1614        1613
         4        1563        1564        1615        1614
         4        1564        1565        1616        1615
         4        1565        1566        1617        1616
         4        1566        1567        1618        1617
         4        1567        1568        1619        1618
         4        1568        1569        1620        1619
         4        1569        1570        1621        1620
         4        1570        1571        1622        1621
         4        1571        1572        1623        1622
         4        1572        1573        1624        1623
         4        1573        1574        1625        1624
         4        1574        1575        1626        1625
         4        1575        1576        1627        1626
         4        1576        1577        1628        1627
         4        1577        1578        1629        1628
         4        1578        1579        1630        1629
         4        1579        1580        1631        1630
         4        1581        1582        1633        1632
         4        1582        1583        1634        1633
         4        1583        1584        1635        1634
         4        1584        1585        1636        1635
         4        1585        1586        1637        1636
         4        1586        1587        1638        1637
         4        1587        1588        1639        1638
         4        1588        1589        1640        1639
         4        1589        1590        1641        1640
         4        1590        1591        1642        1641
         4        1591        1592        1643        1642
         4        1592        1593        1644        1643
         4        1593        1594        1645        1644
         4        1594        1595        1646        1645
         4        1595        1596        1647        1646
         4        1596        1597        1648        1647
         4        1597        1598        1649        1648
         4        1598        1599        1650        1649
         4        1599        1600        1651        1650
         4        1600        1601        1652        1651
         4        1601        1602        1653        1652
         4        1602        1603        1654        1653
         4        1603        1604        1655        1654
         4        1604        1605        1656        1655
         4        1605        1606        1657        1656
         4        1606        1607        1658        1657
         4        1607        1608        1659        1658
         4        1608        1609        1660        1659
         4        1609        1610        1661        1660
         4        1610        1611        1662        1661
         4        1611        1612        1663        1662
         4        1612        1613        1664        1663
         4        1613        1614        1665        1664
         4        1614        1615        1666        1665
         4        1615        1616        1667        1666
         4        1616        1617        1668        1667
         4        1617        1618        1669        1668
         4        1618        1619        1670        1669
         4        1619        1620        1671        1670
         4        1620        1621        1672        1671
         4        1621        1622        1673        1672
         4        1622        1623        1674        1673
         4        1623        1624        1675        1674
         4        1624        1625        1676        1675
         4        1625        1626        1677        1676
         4        1626        1627        1678        1677
         4        1627        1628        1679        1678
         4        1628        1629        1680        1679
         4        1629        1630        1681        1680
         4        1630        1631        1682        1681
         4        1632        1633        1684        1683
         4        1633        1634        1685        1684
         4        1634        1635        1686        1685
         4        1635        1636        1687        1686
         4        1636        1637        1688        1687
         4        1637        1638        1689        1688
         4        1638        1639        1690        1689
         4        1639        1640        1691        1690
         4        1640        1641        1692        1691
         4        1641        1642        1693        1692
         4        1642        1643        1694        1693
         4        1643        1644        1695        1694
         4        1644        1645        1696        1695
         4        1645        1646        1697        1696
         4        1646        1647        1698        1697
         4        1647        1648        1699        1698
         4        1648        1649        1700        1699
         4        1649        1650        1701        1700
         4        1650        1651        1702        1701
         4        1651        1652        1703        1702
         4        1652        1653        1704        1703
         4        1653        1654        1705        1704
         4        1654        1655        1706        1705
         4        1655        1656        1707        1706
         4        1656        1657        1708        1707
         4        1657        1658        1709        1708
         4        1658        1659        1710        1709
         4        1659        1660        1711        1710
         4        1660        1661        1712        1711
         4        1661        1662        1713        1712
         4        1662        1663        1714        1713
         4        1663        1664        1715        1714
         4        1664        1665        1716        1715
         4        1665        1666        1717        1716
         4        1666        1667        1718        1717
         4        1667        1668        1719        1718
         4        1668        1669        1720        1719
         4        1669        1670        1721        1720
         4        1670        1671        1722        1721
         4        1671        1672        1723        1722
         4        1672        1673        1724        1723
         4        1673        1674        1725        1724
         4        1674        1675        1726        1725
         4        1675        1676        1727        1726
         4        1676        1677        1728        1727
         4        1677        1678        1729        1728
         4        1678        1679        1730        1729
         4        1679        1680        1731        1730
         4        1680        1681        1732        1731
         4        1681        1682        1733        1732
         4        1683        1684        1735        1734
         4        1684        1685        1736        1735
         4        1685        1686        1737        1736
         4        1686        1687        1738        1737
         4        1687        1688        1739        1738
         4        1688        1689        1740        1739
         4        1689        1690        1741        1740
         4        1690        1691        1742        1741
         4        1691        1692        1743        1742
         4        1692        1693        1744        1743
         4        1693        1694        1745        1744
         4        1694        1695        1746        1745
         4        1695        1696        1747        1746
         4        1696        1697        1748        1747
         4        1697        1698        1749        1748
         4        1698        1699        1750        1749
         4        1699        1700        1751        1750
         4        1700        1701        1752        1751
         4        1701        1702        1753        1752
         4        1702        1703        1754        1753
         4        1703        1704        1755        1754
         4        1704        1705        1756        1755
         4        1705        1706        1757        1756
         4        1706        1707        1758        1757
         4        1707        1708        1759        1758
         4        1708        1709        1760        1759
         4        1709        1710        1761        1760
         4        1710        1711        1762        1761
         4        1711        1712        1763        1762
         4        1712        1713        1764        1763
         4        1713        1714        1765        1764
         4        1714        1715        1766        1765
         4        1715        1716        1767        1766
         4        1716        1717        1768        1767
         4        1717        1718        1769        1768
         4        1718        1719        1770        1769
         4        1719        1720        1771        1770
         4        1720        1721        1772        1771
         4        1721        1722        1773        1772
         4        1722        1723        1774        1773
         4        1723        1724        1775        1774
         4        1724        1725        1776        1775
         4        1725        1726        1777        1776
         4        1726        1727        1778        1777
         4        1727        1728        1779        1778
         4        1728        1729        1780        1779
         4        1729        1730        1781        1780
         4        1730        1731        1782        1781
         4        1731        1732        1783        1782
         4        1732        1733        1784        1783
         4        1734        1735        1786        1785
         4        1735        1736        1787        1786
         4        1736        1737        1788        1787
         4        1737        1738        1789        1788
         4        1738        1739        1790        1789
         4        1739        1740        1791        1790
         4        1740        1741        1792        1791
         4        1741        1742        1793        1792
         4        1742        1743        1794        1793
         4        1743        1744        1795        1794
         4        1744        1745        1796        1795
         4        1745        1746        1797        1796
         4        1746        1747        1798        1797
         4        1747        1748        1799        1798
         4        1748        1749        1800        1799
         4        1749        1750        1801        1800
         4        1750        1751        1802        1801
         4        1751        1752        1803        1802
         4        1752        1753        1804        1803
         4        1753        1754        1805        1804
         4        1754        1755        1806        1805
         4        1755        1756        1807        1806
         4        1756        1757        1808        1807
         4        1757        1758        1809        1808
         4        1758        1759        1810        1809
         4        1759        1760        1811        1810
         4        1760        1761        1812        1811
         4        1761        1762        1813        1812
         4        1762        1763        1814        1813
         4        1763        1764        1815        1814
         4        1764        1765        1816        1815
         4        1765        1766        1817        1816
         4        1766        1767        1818        1817
         4        1767        1768        1819        1818
         4        1768        1769        1820        1819
         4        1769        1770        1821        1820
         4        1770        1771        1822        1821
         4        1771        1772        1823        1822
         4        1772        1773        1824        1823
         4        1773        1774        1825        1824
         4        1774        1775        1826        1825
         4        1775        1776        1827        1826
         4        1776        1777        1828        1827
         4        1777        1778        1829        1828
         4        1778        1779        1830        1829
         4        1779        1780        1831        1830
         4        1780        1781        1832        1831
         4        1781        1782        1833        1832
         4        1782        1783        1834        1833
         4        1783        1784        1835        1834
         4        1785        1786        1837        1836
         4        1786        1787        1838        1837
         4        1787        1788        1839        1838
         4        1788        1789        1840        1839
         4        1789        1790        1841        1840
         4        1790        1791        1842        1841
         4        1791        1792        1843        1842
         4        1792        1793        1844        1843
         4        1793        1794        1845        1844
         4        1794        1795        1846        1845
         4        1795        1796        1847        1846
         4        1796        1797        1848        1847
         4        1797        1798        1849        1848
         4        1798        1799        1850        1849
         4        1799        1800        1851        1850
         4        1800        1801        1852        1851
         4        1801        1802        1853        1852
         4        1802        1803        1854        1853
         4        1803        1804        1855        1854
         4        1804        1805        1856        1855
         4        1805        1806        1857        1856
         4        1806        1807        1858        1857
         4        1807        1808        1859        1858
         4        1808        1809        1860        1859
         4        1809        1810        1861        1860
         4        1810        1811        1862        1861
         4        1811        1812        1863        1862
         4        1812        1813        1864        1863
         4        1813        1814        1865        1864
         4        1814        1815        1866        1865
         4        1815        1816        1867        1866
         4        1816        1817        1868        1867
         4        1817        1818        1869        1868
         4        1818        1819        1870        1869
         4        1819        1820        1871        1870
         4        1820        1821        1872        1871
         4        1821        1822        1873        1872
         4        1822        1823        1874        1873
         4        1823        1824        1875        1874
         4        1824        1825        1876        1875
         4        1825        1826        1877        1876
         4        1826        1827        1878        1877
         4        1827        1828        1879        1878
         4        1828        1829        1880        1879
         4        1829        1830        1881        1880
         4        1830        1831        1882        1881
         4        1831        1832        1883        1882
         4        1832        1833        1884        1883
         4        1833        1834        1885        1884
         4        1834        1835        1886        1885
         4        1836        1837        1888        1887
         4        1837        1838        1889        1888
         4        1838        1839        1890        1889
         4        1839        1840        1891        1890
         4        1840        1841        1892        1891
         4        1841        1842        1893        1892
         4        1842        1843        1894        1893
         4        1843        1844        1895        1894
         4        1844        1845        1896        1895
         4        1845        1846        1897        1896
         4        1846        1847        1898        1897
         4        1847        1848        1899        1898
         4        1848        1849        1900        1899
         4        1849        1850        1901        1900
         4        1850        1851        1902        1901
         4        1851        1852        1903        1902
         4        1852        1853        1904        1903
         4        1853        1854        1905        1904
         4        1854        1855        1906        1905
         4        1855        1856        1907        1906
         4        1856        1857        1908        1907
         4        1857        1858        1909        1908
         4        1858        1859        1910        1909
         4        1859        1860        1911        1910
         4        1860        1861        1912        1911
         4        1861        1862        1913        1912
         4        1862        1863        1914        1913
         4        1863        1864        1915        1914
         4        1864        1865        1916        1915
         4        1865        1866        1917        1916
         4        1866        1867        1918        1917
         4        1867        1868        1919        1918
         4        1868        1869        1920        1919
         4        1869        1870        1921        1920
         4        1870        1871        1922        1921
         4        1871        1872        1923        1922
         4        1872        1873        1924        1923
         4        1873        1874        1925        1924
         4        1874        1875        1926        1925
         4        1875        1876        1927        1926
         4        1876        1877        1928        1927
         4        1877        1878        1929        1928
         4        1878        1879        1930        1929
         4        1879        1880        1931        1930
         4        1880        1881        1932        1931
         4        1881        1882        1933        1932
         4        1882        1883        1934        1933
         4        1883        1884        1935        1934
         4        1884        1885        1936        1935
         4        1885        1886        1937        1936
         4        1887        1888        1939        1938
         4        1888        1889        1940        1939
         4        1889        1890        1941        1940
         4        1890        1891        1942        1941
         4        1891        1892        1943        1942
         4        1892        1893        1944        1943
         4        1893        1894        1945        1944
         4        1894        1895        1946        1945
         4        1895        1896        1947        1946
         4        1896        1897        1948        1947
         4        1897        1898        1949        1948
         4        1898        1899        1950        1949
         4        1899        1900        1951        1950
         4        1900        1901        1952        1951
         4        1901        1902        1953        1952
         4        1902        1903        1954        1953
         4        1903        1904        1955        1954
         4        1904        1905        1956        1955
         4        1905        1906        1957        1956
         4        1906        1907        1958        1957
         4        1907        1908        1959        1958
         4        1908        1909        1960        1959
         4        1909        1910        1961        1960
         4        1910        1911        1962        1961
         4        1911        1912        1963        1962
         4        1912        1913        1964        1963
         4        1913        1914        1965        1964
         4        1914        1915        1966        1965
         4        1915        1916        1967        1966
         4        1916        1917        1968        1967
         4        1917        1918        1969        1968
         4        1918        1919        1970        1969
         4        1919        1920        1971        1970
         4        1920        1921        1972        1971
         4        1921        1922        1973        1972
         4        1922        1923        1974        1973
         4        1923        1924        1975        1974
         4        1924        1925        1976        1975
         4        1925        1926        1977        1976
         4        1926        1927        1978        1977
         4        1927        1928        1979        1978
         4        1928        1929        1980        1979
         4        1929        1930        1981        1980
         4        1930        1931        1982        1981
         4        1931        1932        1983        1982
         4        1932        1933        1984        1983
         4        1933        1934        1985        1984
         4        1934        1935        1986        1985
         4        1935        1936        1987        1986
         4        1936        1937        1988        1987
         4        1938        1939        1990        1989
         4        1939        1940        1991        1990
         4        1940        1941        1992        1991
         4        1941        1942        1993        1992
         4        1942        1943        1994        1993
         4        1943        1944        1995        1994
         4        1944        1945        1996        1995
         4        1945        1946        1997        1996
         4        1946        1947        1998        1997
         4        1947        1948        1999        1998
         4        1948        1949        2000        1999
         4        1949        1950        2001        2000
         4        1950        1951        2002        2001
         4        1951        1952        2003        2002
         4        1952        1953        2004        2003
         4        1953        1954        2005        2004
         4        1954        1955        2006        2005
         4        1955        1956        2007        2006
         4        1956        1957        2008        2007
         4        1957        1958        2009        2008
         4        1958        1959        2010        2009
         4        1959        1960        2011        2010
         4        1960        1961        2012        2011
         4        1961        1962        2013        2012
         4        1962        1963        2014        2013
         4        1963        1964        2015        2014
         4        1964        1965        2016        2015
         4        1965        1966        2017        2016
         4        1966        1967        2018        2017
         4        1967        1968        2019        2018
         4        1968        1969        2020        2019
         4        1969        1970        2021        2020
         4        1970        1971        2022        2021
         4        1971        1972        2023        2022
         4        1972        1973        2024        2023
         4        1973        1974        2025        2024
         4        1974        1975        2026        2025
         4        1975        1976        2027        2026
         4        1976        1977        2028        2027
         4        1977        1978        2029        2028
         4        1978        1979        2030        2029
         4        1979        1980        2031        2030
         4        1980        1981        2032        2031
         4        1981        1982        2033        2032
         4        1982        1983        2034        2033
         4        1983        1984        2035        2034
         4        1984        1985        2036        2035
         4        1985        1986        2037        2036
         4        1986        1987        2038        2037
         4        1987        1988        2039        2038
         4        1989        1990        2041        2040
         4        1990        1991        2042        2041
         4        1991        1992        2043        2042
         4        1992        1993        2044        2043
         4        1993        1994        2045        2044
         4        1994        1995        2046        2045
         4        1995        1996        2047        2046
         4        1996        1997        2048        2047
         4        1997        1998        2049        2048
         4        1998        1999        2050        2049
         4        1999        2000        2051        2050
         4        2000        2001        2052        2051
         4        2001        2002        2053        2052
         4        2002        2003        2054        2053
         4        2003        2004        2055        2054
         4        2004        2005        2056        2055
         4        2005        2006        2057        2056
         4        2006        2007        2058        2057
         4        2007        2008        2059        2058
         4        2008        2009        2060        2059
         4        2009        2010        2061        2060
         4        2010        2011        2062        2061
         4        2011        2012        2063        2062
         4        2012        2013        2064        2063
         4        2013        2014        2065        2064
         4        2014        2015        2066        2065
         4        2015        2016        2067        2066
         4        2016        2017        2068        2067
         4        2017        2018        2069        2068
         4        2018        2019        2070        2069
         4        2019        2020        2071        2070
         4        2020        2021        2072        2071
         4        2021        2022        2073        2072
         4        2022        2023        2074        2073
         4        2023        2024        2075        2074
         4        2024        2025        2076        2075
         4        2025        2026        2077        2076
         4        2026        2027        2078        2077
         4        2027        2028        2079        2078
         4        2028        2029        2080        2079
         4        2029        2030        2081        2080
         4        2030        2031        2082        2081
         4        2031        2032        2083        2082
         4        2032        2033        2084        2083
         4        2033        2034        2085        2084
         4        2034        2035        2086        2085
         4        2035        2036        2087        2086
         4        2036        2037        2088        2087
         4        2037        2038        2089        2088
         4        2038        2039        2090        2089
         4        2040        2041        2092        2091
         4        2041        2042        2093        2092
         4        2042        2043        2094        2093
         4        2043        2044        2095        2094
         4        2044        2045        2096        2095
         4        2045        2046        2097        2096
         4        2046        2047        2098        2097
         4        2047        2048        2099        2098
         4        2048        2049        2100        2099
         4        2049        2050        2101        2100
         4        2050        2051        2102        2101
         4        2051        2052        2103        2102
         4        2052        2053        2104        2103
         4        2053        2054        2105        2104
         4        2054        2055        2106        2105
         4        2055        2056        2107        2106
         4        2056        2057        2108        2107
         4        2057        2058        2109        2108
         4        2058        2059        2110        2109
         4        2059        2060        2111        2110
         4        2060        2061        2112        2111
         4        2061        2062        2113        2112
         4        2062        2063        2114        2113
         4        2063        2064        2115        2114
         4        2064        2065        2116        2115
         4        2065        2066        2117        2116
         4        2066        2067        2118        2117
         4        2067        2068        2119        2118
         4        2068        2069        2120        2119
         4        2069        2070        2121        2120
         4        2070        2071        2122        2121
         4        2071        2072        2123        2122
         4        2072        2073        2124        2123
         4        2073        2074        2125        2124
         4        2074        2075        2126        2125
         4        2075        2076        2127        2126
         4        2076        2077        2128        2127
         4        2077        2078        2129        2128
         4        2078        2079        2130        2129
         4        2079        2080        2131        2130
         4        2080        2081        2132        2131
         4        2081        2082        2133        2132
         4        2082        2083        2134        2133
         4        2083        2084        2135        2134
         4        2084        2085        2136        2135
         4        2085        2086        2137        2136
         4        2086        2087        2138        2137
         4        2087        2088        2139        2138
         4        2088        2089        2140        2139
         4        2089        2090        2141        2140
         4        2091        2092        2143        2142
         4        2092        2093        2144        2143
         4        2093        2094        2145        2144
         4        2094        2095        2146        2145
         4        2095        2096        2147        2146
         4        2096        2097        2148        2147
         4        2097        2098        2149        2148
         4        2098        2099        2150        2149
         4        2099        2100        2151        2150
         4        2100        2101        2152        2151
         4        2101        2102        2153        2152
         4        2102        2103        2154        2153
         4        2103        2104        2155        2154
         4        2104        2105        2156        2155
         4        2105        2106        2157        2156
         4        2106        2107        2158        2157
         4        2107        2108        2159        2158
         4        2108        2109        2160        2159
         4        2109        2110        2161        2160
         4        2110        2111        2162        2161
         4        2111        2112        2163        2162
         4        2112        2113        2164        2163
         4        2113        2114        2165        2164
         4        2114        2115        2166        2165
         4        2115        2116        2167        2166
         4        2116        2117        2168        2167
         4        2117        2118        2169        2168
         4        2118        2119        2170        2169
         4        2119        2120        2171        2170
         4        2120        2121        2172        2171
         4        2121        2122        2173        2172
         4        2122        2123        2174        2173
         4        2123        2124        2175        2174
         4        2124        2125        2176        2175
         4        2125        2126        2177        2176
         4        2126        2127        2178        2177
         4        2127        2128        2179        2178
         4        2128        2129        2180        2179
         4        2129        2130        2181        2180
         4        2130        2131        2182        2181
         4        2131        2132        2183        2182
         4        2132        2133        2184        2183
         4        2133        2134        2185        2184
         4        2134        2135        2186        2185
         4        2135        2136        2187        2186
         4        2136        2137        2188        2187
         4        2137        2138        2189        2188
         4        2138        2139        2190        2189
         4        2139        2140        2191        2190
         4        2140        2141        2192        2191
         4        2142        2143        2194        2193
         4        2143        2144        2195        2194
         4        2144        2145        2196        2195
         4        2145        2146        2197        2196
         4        2146        2147        2198        2197
         4        2147        2148        2199        2198
         4        2148        2149        2200        2199
         4        2149        2150        2201        2200
         4        2150        2151        2202        2201
         4        2151        2152        2203        2202
         4        2152        2153        2204        2203
         4        2153        2154        2205        2204
         4        2154        2155        2206        2205
         4        2155        2156        2207        2206
         4        2156        2157        2208        2207
         4        2157        2158        2209        2208
         4        2158        2159        2210        2209
         4        2159        2160        2211        2210
         4        2160        2161        2212        2211
         4        2161        2162        2213        2212
         4        2162        2163        2214        2213
         4        2163        2164        2215        2214
         4        2164        2165        2216        2215
         4        2165        2166        2217        2216
         4        2166        2167        2218        2217
         4        2167        2168        2219        2218
         4        2168        2169        2220        2219
         4        2169        2170        2221        2220
         4        2170        2171        2222        2221
         4        2171        2172        2223        2222
         4        2172        2173        2224        2223
         4        2173        2174        2225        2224
         4        2174        2175        2226        2225
         4        2175        2176        2227        2226
         4        2176        2177        2228        2227
         4        2177        2178        2229        2228
         4        2178        2179        2230        2229
         4        2179        2180        2231        2230
         4        2180        2181        2232        2231
         4        2181        2182        2233        2232
         4        2182        2183        2234        2233
         4        2183        2184        2235        2234
         4        2184        2185        2236        2235
         4        2185        2186        2237        2236
         4        2186        2187        2238        2237
         4        2187        2188        2239        2238
         4        2188        2189        2240        2239
         4        2189        2190        2241        2240
         4        2190        2191        2242        2241
         4        2191        2192        2243        2242
         4        2193        2194        2245        2244
         4        2194        2195        2246        2245
         4        2195        2196        2247        2246
         4        2196        2197        2248        2247
         4        2197        2198        2249        2248
         4        2198        2199        2250        2249
         4        2199        2200        2251        2250
         4        2200        2201        2252        2251
         4        2201        2202        2253        2252
         4        2202        2203        2254        2253
         4        2203        2204        2255        2254
         4        2204        2205        2256        2255
         4        2205        2206        2257        2256
         4        2206        2207        2258        2257
         4        2207        2208        2259        2258
         4        2208        2209        2260        2259
         4        2209        2210        2261        2260
         4        2210        2211        2262        2261
         4        2211        2212        2263        2262
         4        2212        2213        2264        2263
         4        2213        2214        2265        2264
         4        2214        2215        2266        2265
         4        2215        2216        2267        2266
         4        2216        2217        2268        2267
         4        2217        2218        2269        2268
         4        2218        2219        2270        2269
         4        2219        2220        2271        2270
         4        2220        2221        2272        2271
         4        2221        2222        2273        2272
         4        2222        2223        2274        2273
         4        2223        2224        2275        2274
         4        2224        2225        2276        2275
         4        2225        2226        2277        2276
         4        2226        2227        2278        2277
         4        2227        2228        2279        2278
         4        2228        2229        2280        2279
         4        2229        2230        2281        2280
         4        2230        2231        2282        2281
         4        2231        2232        2283        2282
         4        2232        2233        2284        2283
         4        2233        2234        2285        2284
         4        2234        2235        2286        2285
         4        2235        2236        2287        2286
         4        2236        2237        2288        2287
         4        2237        2238        2289        2288
         4        2238        2239        2290        2289
         4        2239        2240        2291        2290
         4        2240        2241        2292        2291
         4        2241        2242        2293        2292
         4        2242        2243        2294        2293
         4        2244        2245        2296        2295
         4        2245        2246        2297        2296
         4        2246        2247        2298        2297
         4        2247        2248        2299        2298
         4        2248        2249        2300        2299
         4        2249        2250        2301        2300
         4        2250        2251        2302        2301
         4        2251        2252        2303        2302
         4        2252        2253        2304        2303
         4        2253        2254        2305        2304
         4        2254        2255        2306        2305
         4        2255        2256        2307        2306
         4        2256        2257        2308        2307
         4        2257        2258        2309        2308
         4        2258        2259        2310        2309
         4        2259        2260        2311        2310
         4        2260        2261        2312        2311
         4        2261        2262        2313        2312
         4        2262        2263        2314        2313
         4        2263        2264        2315        2314
         4        2264        2265        2316        2315
         4        2265        2266        2317        2316
         4        2266        2267        2318        2317
         4        2267        2268        2319        2318
         4        2268        2269        2320        2319
         4        2269        2270        2321        2320
         4        2270        2271        2322        2321
         4        2271        2272        2323        2322
         4        2272        2273        2324        2323
         4        2273        2274        2325        2324
         4        2274        2275        2326        2325
         4        2275        2276        2327        2326
         4        2276        2277        2328        2327
         4        2277        2278        2329        2328
         4        2278        2279        2330        2329
         4        2279        2280        2331        2330
         4        2280        2281        2332        2331
         4        2281        2282        2333        2332
         4        2282        2283        2334        2333
         4        2283        2284        2335        2334
         4        2284        2285        2336        2335
         4        2285        2286        2337        2336
         4        2286        2287        2338        2337
         4        2287        2288        2339        2338
         4        2288        2289        2340        2339
         4        2289        2290        2341        2340
         4        2290        2291        2342        2341
         4        2291        2292        2343        2342
         4        2292        2293        2344        2343
         4        2293        2294        2345        2344
         4        2295        2296        2347        2346
         4        2296        2297        2348        2347
         4        2297        2298        2349        2348
         4        2298        2299        2350        2349
         4        2299        2300        2351        2350
         4        2300        2301        2352        2351
         4        2301        2302        2353        2352
         4        2302        2303        2354        2353
         4        2303        2304        2355        2354
         4        2304        2305        2356        2355
         4        2305        2306        2357        2356
         4        2306        2307        2358        2357
         4        2307        2308        2359        2358
         4        2308        2309        2360        2359
         4        2309        2310        2361        2360
         4        2310        2311        2362        2361
         4        2311        2312        2363        2362
         4        2312        2313        2364        2363
         4        2313        2314        2365        2364
         4        2314        2315        2366        2365
         4        2315        2316        2367        2366
         4        2316        2317        2368        2367
         4        2317        2318        2369        2368
         4        2318        2319        2370        2369
         4        2319        2320        2371        2370
         4        2320        2321        2372        2371
         4        2321        2322        2373        2372
         4        2322        2323        2374        2373
         4        2323        2324        2375        2374
         4        2324        2325        2376        2375
         4        2325        2326        2377        2376
         4        2326        2327        2378        2377
         4        2327        2328        2379        2378
         4        2328        2329        2380        2379
         4        2329        2330        2381        2380
         4        2330        2331        2382        2381
         4        2331        2332        2383        2382
         4        2332        2333        2384        2383
         4        2333        2334        2385        2384
         4        2334        2335        2386        2385
         4        2335        2336        2387        2386
         4        2336        2337        2388        2387
         4        2337        2338        2389        2388
         4        2338        2339        2390        2389
         4        2339        2340        2391        2390
         4        2340        2341        2392        2391
         4        2341        2342        2393        2392
         4        2342        2343        2394        2393
         4        2343        2344        2395        2394
         4        2344        2345        2396        2395
         4        2346        2347        2398        2397
         4        2347        2348        2399        2398
         4        2348        2349        2400        2399
         4        2349        2350        2401        2400
         4        2350        2351        2402        2401
         4        2351        2352        2403        2402
         4        2352        2353        2404        2403
         4        2353        2354        2405        2404
         4        2354        2355        2406        2405
         4        2355        2356        2407        2406
         4        2356        2357        2408        2407
         4        2357        2358        2409        2408
         4        2358        2359        2410        2409
         4        2359        2360        2411        2410
         4        2360        2361        2412        2411
         4        2361        2362        2413        2412
         4        2362        2363        2414        2413
         4        2363        2364        2415        2414
         4        2364        2365        2416        2415
         4        2365        2366        2417        2416
         4        2366        2367        2418        2417
         4        2367        2368        2419        2418
         4        2368        2369        2420        2419
         4        2369        2370        2421        2420
         4        2370        2371        2422        2421
         4        2371        2372        2423        2422
         4        2372        2373        2424        2423
         4        2373        2374        2425        2424
         4        2374        2375        2426        2425
         4        2375        2376        2427        2426
         4        2376        2377        2428        2427
         4        2377        2378        2429        2428
         4        2378        2379        2430        2429
         4        2379        2380        2431        2430
         4        2380        2381        2432        2431
         4        2381        2382        2433        2432
         4        2382        2383        2434        2433
         4        2383        2384        2435        2434
         4        2384        2385        2436        2435
         4        2385        2386        2437        2436
         4        2386        2387        2438        2437
         4        2387        2388        2439        2438
         4        2388        2389        2440        2439
         4        2389        2390        2441        2440
         4        2390        2391        2442        2441
         4        2391        2392        2443        2442
         4        2392        2393        2444        2443
         4        2393        2394        2445        2444
         4        2394        2395        2446        2445
         4        2395        2396        2447        2446
         4        2397        2398        2449        2448
         4        2398        2399        2450        2449
         4        2399        2400        2451        2450
         4        2400        2401        2452        2451
         4        2401        2402        2453        2452
         4        2402        2403        2454        2453
         4        2403        2404        2455        2454
         4        2404        2405        2456        2455
         4        2405        2406        2457        2456
         4        2406        2407        2458        2457
         4        2407        2408        2459        2458
         4        2408        2409        2460        2459
         4        2409        2410        2461        2460
         4        2410        2411        2462        2461
         4        2411        2412        2463        2462
         4        2412        2413        2464        2463
         4        2413        2414        2465        2464
         4        2414        2415        2466        2465
         4        2415        2416        2467        2466
         4        2416        2417        2468        2467
         4        2417        2418        2469        2468
         4        2418        2419        2470        2469
         4        2419        2420        2471        2470
         4        2420        2421        2472        2471
         4        2421        2422        2473        2472
         4        2422        2423        2474        2473
         4        2423        2424        2475        2474
         4        2424        2425        2476        2475
         4        2425        2426        2477        2476
         4        2426        2427        2478        2477
         4        2427        2428        2479        2478
         4        2428        2429        2480        2479
         4        2429        2430        2481        2480
         4        2430        2431        2482        2481
         4        2431        2432        2483        2482
         4        2432        2433        2484        2483
         4        2433        2434        2485        2484
         4        2434        2435        2486        2485
         4        2435        2436        2487        2486
         4        2436        2437        2488        2487
         4        2437        2438        2489        2488
         4        2438        2439        2490        2489
         4        2439        2440        2491        2490
         4        2440        2441        2492        2491
         4        2441        2442        2493        2492
         4        2442        2443        2494        2493
         4        2443        2444        2495        2494
         4        2444        2445        2496        2495
         4        2445        2446        2497        2496
         4        2446        2447        2498        2497
         4        2448        2449        2500        2499
         4        2449        2450        2501        2500
         4        2450        2451        2502        2501
         4        2451        2452        2503        2502
         4        2452        2453        2504        2503
         4        2453        2454        2505        2504
         4        2454        2455        2506        2505
         4        2455        2456        2507        2506
         4        2456        2457        2508        2507
         4        2457        2458        2509        2508
         4        2458        2459        2510        2509
         4        2459        2460        2511        2510
         4        2460        2461        2512        2511
         4        2461        2462        2513        2512
         4        2462        2463        2514        2513
         4        2463        2464        2515        2514
         4        2464        2465        2516        2515
         4        2465        2466        2517        2516
         4        2466        2467        2518        2517
         4        2467        2468        2519        2518
         4        2468        2469        2520        2519
         4        2469        2470        2521        2520
         4        2470        2471        2522        2521
         4        2471        2472        2523        2522
         4        2472        2473        2524        2523
         4        2473        2474        2525        2524
         4        2474        2475        2526        2525
         4        2475        2476        2527        2526
         4        2476        2477        2528        2527
         4        2477        2478        2529        2528
         4        2478        2479        2530        2529
         4        2479        2480        2531        2530
         4        2480        2481        2532        2531
         4        2481        2482        2533        2532
         4        2482        2483        2534        2533
         4        2483        2484        2535        2534
         4        2484        2485        2536        2535
         4        2485        2486        2537        2536
         4        2486        2487        2538        2537
         4        2487        2488        2539        2538
         4        2488        2489        2540        2539
         4        2489        2490        2541        2540
         4        2490        2491        2542        2541
         4        2491        2492        2543        2542
         4        2492        2493        2544        2543
         4        2493        2494        2545        2544
         4        2494        2495        2546        2545
         4        2495        2496        2547        2546
         4        2496        2497        2548        2547
         4        2497        2498        2549        2548
         4        2499        2500        2551        2550
         4        2500        2501        2552        2551
         4        2501        2502        2553        2552
         4        2502        2503        2554        2553
         4        2503        2504        2555        2554
         4        2504        2505        2556        2555
         4        2505        2506        2557        2556
         4        2506        2507        2558        2557
         4        2507        2508        2559        2558
         4        2508        2509        2560        2559
         4        2509        2510        2561        2560
         4        2510        2511        2562        2561
         4        2511        2512        2563        2562
         4        2512        2513        2564        2563
         4        2513        2514        2565        2564
         4        2514        2515        2566        2565
         4        2515        2516        2567        2566
         4        2516        2517        2568        2567
         4        2517        2518        2569        2568
         4        2518        2519        2570        2569
         4        2519        2520        2571        2570
         4        2520        2521        2572        2571
         4        2521        2522        2573        2572
         4        2522        2523        2574        2573
         4        2523        2524        2575        2574
         4        2524        2525        2576        2575
         4        2525        2526        2577        2576
         4        2526        2527        2578        2577
         4        2527        2528        2579        2578
         4        2528        2529        2580        2579
         4        2529        2530        2581        2580
         4        2530        2531        2582        2581
         4        2531        2532        2583        2582
         4        2532        2533        2584        2583
         4        2533        2534        2585        2584
         4        2534        2535        2586        2585
         4        2535        2536        2587        2586
         4        2536        2537        2588        2587
         4        2537        2538        2589        2588
         4        2538        2539        2590        2589
         4        2539        2540        2591        2590
         4        2540        2541        2592        2591
         4        2541        2542        2593        2592
         4        2542        2543        2594        2593
         4        2543        2544        2595        2594
         4        2544        2545        2596        2595
         4        2545        2546        2597        2596
         4        2546        2547        2598        2597
         4        2547        2548        2599        2598
         4        2548        2549        2600        2599
         4        2550        2551        2602        2601
         4        2551        2552        2603        2602
         4        2552        2553        2604        2603
         4        2553        2554        2605        2604
         4        2554        2555        2606        2605
         4        2555        2556        2607        2606
         4        2556        2557        2608        2607
         4        2557        2558        2609        2608
         4        2558        2559        2610        2609
         4        2559        2560        2611        2610
         4        2560        2561        2612        2611
         4        2561        2562        2613        2612
         4        2562        2563        2614        2613
         4        2563        2564        2615        2614
         4        2564        2565        2616        2615
         4        2565        2566        2617        2616
         4        2566        2567        2618        2617
         4        2567        2568        2619        2618
         4        2568        2569        2620        2619
         4        2569        2570        2621        2620
         4        2570        2571        2622        2621
         4        2571        2572        2623        2622
         4        2572        2573        2624        2623
         4        2573        2574        2625        2624
         4        2574        2575        2626        2625
         4        2575        2576        2627        2626
         4        2576        2577        2628        2627
         4        2577        2578        2629        2628
         4        2578        2579        2630        2629
         4        2579        2580        2631        2630
         4        2580        2581        2632        2631
         4        2581        2582        2633        2632
         4        2582        2583        2634        2633
         4        2583        2584        2635        2634
         4        2584        2585        2636        2635
         4        2585        2586        2637        2636
         4        2586        2587        2638        2637
         4        2587        2588        2639        2638
         4        2588        2589        2640        2639
         4        2589        2590        2641        2640
         4        2590        2591        2642        2641
         4        2591        2592        2643        2642
         4        2592        2593        2644        2643
         4        2593        2594        2645        2644
         4        2594        2595        2646        2645
         4        2595        2596        2647        2646
         4        2596        2597        2648        2647
         4        2597        2598        2649        2648
         4        2598        2599        2650        2649
         4        2599        2600        2651        2650
         4        2601        2602        2653        2652
         4        2602        2603        2654        2653
         4        2603        2604        2655        2654
         4        2604        2605        2656        2655
         4        2605        2606        2657        2656
         4        2606        2607        2658        2657
         4        2607        2608        2659        2658
         4        2608        2609        2660        2659
         4        2609        2610        2661        2660
         4        2610        2611        2662        2661
         4        2611        2612        2663        2662
         4        2612        2613        2664        2663
         4        2613        2614        2665        2664
         4        2614        2615        2666        2665
         4        2615        2616        2667        2666
         4        2616        2617        2668        2667
         4        2617        2618        2669        2668
         4        2618        2619        2670        2669
         4        2619        2620        2671        2670
         4        2620        2621        2672        2671
         4        2621        2622        2673        2672
         4        2622        2623        2674        2673
         4        2623        2624        2675        2674
         4        2624        2625        2676        2675
         4        2625        2626        2677        2676
         4        2626        2627        2678        2677
         4        2627        2628        2679        2678
         4        2628        2629        2680        2679
         4        2629        2630        2681        2680
         4        2630        2631        2682        2681
         4        2631        2632        2683        2682
         4        2632        2633        2684        2683
         4        2633        2634        2685        2684
         4        2634        2635        2686        2685
         4        2635        2636        2687        2686
         4        2636        2637        2688        2687
         4        2637        2638        2689        2688
         4        2638        2639        2690        2689
         4        2639        2640        2691        2690
         4        2640        2641        2692        2691
         4        2641        2642        2693        2692
         4        2642        2643        2694        2693
         4        2643        2644        2695        2694
         4        2644        2645        2696        2695
         4        2645        2646        2697        2696
         4        2646        2647        2698        2697
         4        2647        2648        2699        2698
         4        2648        2649        2700        2699
         4        2649        2650        2701        2700
         4        2650        2651        2702        2701
         4        2652        2653        2704        2703
         4        2653        2654        2705        2704
         4        2654        2655        2706        2705
         4        2655        2656        2707        2706
         4        2656        2657        2708        2707
         4        2657        2658        2709        2708
         4        2658        2659        2710        2709
         4        2659        2660        2711        2710
         4        2660        2661        2712        2711
         4        2661        2662        2713        2712
         4        2662        2663        2714        2713
         4        2663        2664        2715        2714
         4        2664        2665        2716        2715
         4        2665        2666        2717        2716
         4        2666        2667        2718        2717
         4        2667        2668        2719        2718
         4        2668        2669        2720        2719
         4        2669        2670        2721        2720
         4        2670        2671        2722        2721
         4        2671        2672        2723        2722
         4        2672        2673        2724        2723
         4        2673        2674        2725        2724
         4        2674        2675        2726        2725
         4        2675        2676        2727        2726
         4        2676        2677        2728        2727
         4        2677        2678        2729        2728
         4        2678        2679        2730        2729
         4        2679        2680        2731        2730
         4        2680        2681        2732        2731
         4        2681        2682        2733        2732
         4        2682        2683        2734        2733
         4        2683        2684        2735        2734
         4        2684        2685        2736        2735
         4        2685        2686        2737        2736
         4        2686        2687        2738        2737
         4        2687        2688        2739        2738
         4        2688        2689        2740        2739
         4        2689        2690        2741        2740
         4        2690        2691        2742        2741
         4        2691        2692        2743        2742
         4        2692        2693        2744        2743
         4        2693        2694        2745        2744
         4        2694        2695        2746        2745
         4        2695        2696        2747        2746
         4        2696        2697        2748        2747
         4        2697        2698        2749        2748
         4        2698        2699        2750        2749
         4        2699        2700        2751        2750
         4        2700        2701        2752        2751
         4        2701        2702        2753        2752
         4        2703        2704        2755        2754
         4        2704        2705        2756        2755
         4        2705        2706        2757        2756
         4        2706        2707        2758        2757
         4        2707        2708        2759        2758
         4        2708        2709        2760        2759
         4        2709        2710        2761        2760
         4        2710        2711        2762        2761
         4        2711        2712        2763        2762
         4        2712        2713        2764        2763
         4        2713        2714        2765        2764
         4        2714        2715        2766        2765
         4        2715        2716        2767        2766
         4        2716        2717        2768        2767
         4        2717        2718        2769        2768
         4        2718        2719        2770        2769
         4        2719        2720        2771        2770
         4        2720        2721        2772        2771
         4        2721        2722        2773        2772
         4        2722        2723        2774        2773
         4        2723        2724        2775        2774
         4        2724        2725        2776        2775
         4        2725        2726        2777        2776
         4        2726        2727        2778        2777
         4        2727        2728        2779        2778
         4        2728        2729        2780        2779
         4        2729        2730        2781        2780
         4        2730        2731        2782        2781
         4        2731        2732        2783        2782
         4        2732        2733        2784        2783
         4        2733        2734        2785        2784
         4        2734        2735        2786        2785
         4        2735        2736        2787        2786
         4        2736        2737        2788        2787
         4        2737        2738        2789        2788
         4        2738        2739        2790        2789
         4        2739        2740        2791        2790
         4        2740        2741        2792        2791
         4        2741        2742        2793        2792
         4        2742        2743        2794        2793
         4        2743        2744        2795        2794
         4        2744        2745        2796        2795
         4        2745        2746        2797        2796
         4        2746        2747        2798        2797
         4        2747        2748        2799        2798
         4        2748        2749        2800        2799
         4        2749        2750        2801        2800
         4        2750        2751        2802        2801
         4        2751        2752        2803        2802
         4        2752        2753        2804        2803
         4        2754        2755        2806        2805
         4        2755        2756        2807        2806
         4        2756        2757        2808        2807
         4        2757        2758        2809        2808
         4        2758        2759        2810        2809
         4        2759        2760        2811        2810
         4        2760        2761        2812        2811
         4        2761        2762        2813        2812
         4        2762        2763        2814        2813
         4        2763        2764        2815        2814
         4        2764        2765        2816        2815
         4        2765        2766        2817        2816
         4        2766        2767        2818        2817
         4        2767        2768        2819        2818
         4        2768        2769        2820        2819
         4        2769        2770        2821        2820
         4        2770        2771        2822        2821
         4        2771        2772        2823        2822
         4        2772        2773        2824        2823
         4        2773        2774        2825        2824
         4        2774        2775        2826        2825
         4        2775        2776        2827        2826
         4        2776        2777        2828        2827
         4        2777        2778        2829        2828
         4        2778        2779        2830        2829
         4        2779        2780        2831        2830
         4        2780        2781        2832        2831
         4        2781        2782        2833        2832
         4        2782        2783        2834        2833
         4        2783        2784        2835        2834
         4        2784        2785        2836        2835
         4        2785        2786        2837        2836
         4        2786        2787        2838        2837
         4        2787        2788        2839        2838
         4        2788        2789        2840        2839
         4        2789        2790        2841        2840
         4        2790        2791        2842        2841
         4        2791        2792        2843        2842
         4        2792        2793        2844        2843
         4        2793        2794        2845        2844
         4        2794        2795        2846        2845
         4        2795        2796        2847        2846
         4        2796        2797        2848        2847
         4        2797        2798        2849        2848
         4        2798        2799        2850        2849
         4        2799        2800        2851        2850
         4        2800        2801        2852        2851
         4        2801        2802        2853        2852
         4        2802        2803        2854        2853
         4        2803        2804        2855        2854
         4        2805        2806        2857        2856
         4        2806        2807        2858        2857
         4        2807        2808        2859        2858
         4        2808        2809        2860        2859
         4        2809        2810        2861        2860
         4        2810        2811        2862        2861
         4        2811        2812        2863        2862
         4        2812        2813        2864        2863
         4        2813        2814        2865        2864
         4        2814        2815        2866        2865
         4        2815        2816        2867        2866
         4        2816        2817        2868        2867
         4        2817        2818        2869        2868
         4        2818        2819        2870        2869
         4        2819        2820        2871        2870
         4        2820        2821        2872        2871
         4        2821        2822        2873        2872
         4        2822        2823        2874        2873
         4        2823        2824        2875        2874
         4        2824        2825        2876        2875
         4        2825        2826        2877        2876
         4        2826        2827        2878        2877
         4        2827        2828        2879        2878
         4        2828        2829        2880        2879
         4        2829        2830        2881        2880
         4        2830        2831        2882        2881
         4        2831        2832        2883        2882
         4        2832        2833        2884        2883
         4        2833        2834        2885        2884
         4        2834        2835        2886        2885
         4        2835        2836        2887        2886
         4        2836        2837        2888        2887
         4        2837        2838        2889        2888
         4        2838        2839        2890        2889
         4        2839        2840        2891        2890
         4        2840        2841        2892        2891
         4        2841        2842        2893        2892
         4        2842        2843        2894        2893
         4        2843        2844        2895        2894
         4        2844        2845        2896        2895
         4        2845        2846        2897        2896
         4        2846        2847        2898        2897
         4        2847        2848        2899        2898
         4        2848        2849        2900        2899
         4        2849        2850        2901        2900
         4        2850        2851        2902        2901
         4        2851        2852        2903        2902
         4        2852        2853        2904        2903
         4        2853        2854        2905        2904
         4        2854        2855        2906        2905
         4        2856        2857        2908        2907
         4        2857        2858        2909        2908
         4        2858        2859        2910        2909
         4        2859        2860        2911        2910
         4        2860        2861        2912        2911
         4        2861        2862        2913        2912
         4        2862        2863        2914        2913
         4        2863        2864        2915        2914
         4        2864        2865        2916        2915
         4        2865        2866        2917        2916
         4        2866        2867        2918        2917
         4        2867        2868        2919        2918
         4        2868        2869        2920        2919
         4        2869        2870        2921        2920
         4        2870        2871        2922        2921
         4        2871        2872        2923        2922
         4        2872        2873        2924        2923
         4        2873        2874        2925        2924
         4        2874        2875        2926        2925
         4        2875        2876        2927        2926
         4        2876        2877        2928        2927
         4        2877        2878        2929        2928
         4        2878        2879        2930        2929
         4        2879        2880        2931        2930
         4        2880        2881        2932        2931
         4        2881        2882        2933        2932
         4        2882        2883        2934        2933
         4        2883        2884        2935        2934
         4        2884        2885        2936        2935
         4        2885        2886        2937        2936
         4        2886        2887        2938        2937
         4        2887        2888        2939        2938
         4        2888        2889        2940        2939
         4        2889        2890        2941        2940
         4        2890        2891        2942        2941
         4        2891        2892        2943        2942
         4        2892        2893        2944        2943
         4        2893        2894        2945        2944
         4        2894        2895        2946        2945
         4        2895        2896        2947        2946
         4        2896        2897        2948        2947
         4        2897        2898        2949        2948
         4        2898        2899        2950        2949
         4        2899        2900        2951        2950
         4        2900        2901        2952        2951
         4        2901        2902        2953        2952
         4        2902        2903        2954        2953
         4        2903        2904        2955        2954
         4        2904        2905        2956        2955
         4        2905        2906        2957        2956
         4        2907        2908        2959        2958
         4        2908        2909        2960        2959
         4        2909        2910        2961        2960
         4        2910        2911        2962        2961
         4        2911        2912        2963        2962
         4        2912        2913        2964        2963
         4        2913        2914        2965        2964
         4        2914        2915        2966        2965
         4        2915        2916        2967        2966
         4        2916        2917        2968        2967
         4        2917        2918        2969        2968
         4        2918        2919        2970        2969
         4        2919        2920        2971        2970
         4        2920        2921        2972        2971
         4        2921        2922        2973        2972
         4        2922        2923        2974        2973
         4        2923        2924        2975        2974
         4        2924        2925        2976        2975
         4        2925        2926        2977        2976
         4        2926        2927        2978        2977
         4        2927        2928        2979        2978
         4        2928        2929        2980        2979
         4        2929        2930        2981        2980
         4        2930        2931        2982        2981
         4        2931        2932        2983        2982
         4        2932        2933        2984        2983
         4        2933        2934        2985        2984
         4        2934        2935        2986        2985
         4        2935        2936        2987        2986
         4        2936        2937        2988        2987
         4        2937        2938        2989        2988
         4        2938        2939        2990        2989
         4        2939        2940        2991        2990
         4        2940        2941        2992        2991
         4        2941        2942        2993        2992
         4        2942        2943        2994        2993
         4        2943        2944        2995        2994
         4        2944        2945        2996        2995
         4        2945        2946        2997        2996
         4        2946        2947        2998        2997
         4        2947        2948        2999        2998
         4        2948        2949        3000        2999
         4        2949        2950        3001        3000
         4        2950        2951        3002        3001
         4        2951        2952        3003        3002
         4        2952        2953        3004        3003
         4        2953        2954        3005        3004
         4        2954        2955        3006        3005
         4        2955        2956        3007        3006
         4        2956        2957        3008        3007
         4        2958        2959        3010        3009
         4        2959        2960        3011        3010
         4        2960        2961        3012        3011
         4        2961        2962        3013        3012
         4        2962        2963        3014        3013
         4        2963        2964        3015        3014
         4        2964        2965        3016        3015
         4        2965        2966        3017        3016
         4        2966        2967        3018        3017
         4        2967        2968        3019        3018
         4        2968        2969        3020        3019
         4        2969        2970        3021        3020
         4        2970        2971        3022        3021
         4        2971        2972        3023        3022
         4        2972        2973        3024        3023
         4        2973        2974        3025        3024
         4        2974        2975        3026        3025
         4        2975        2976        3027        3026
         4        2976        2977        3028        3027
         4        2977        2978        3029        3028
         4        2978        2979        3030        3029
         4        2979        2980        3031        3030
         4        2980        2981        3032        3031
         4        2981        2982        3033        3032
         4        2982        2983        3034        3033
         4        2983        2984        3035        3034
         4        2984        2985        3036        3035
         4        2985        2986        3037        3036
         4        2986        2987        3038        3037
         4        2987        2988        3039        3038
         4        2988        2989        3040        3039
         4        2989        2990        3041        3040
         4        2990        2991        3042        3041
         4        2991        2992        3043        3042
         4        2992        2993        3044        3043
         4        2993        2994        3045        3044
         4        2994        2995        3046        3045
         4        2995        2996        3047        3046
         4        2996        2997        3048        3047
         4        2997        2998        3049        3048
         4        2998        2999        3050        3049
         4        2999        3000        3051        3050
         4        3000        3001        3052        3051
         4        3001        3002        3053        3052
         4        3002        3003        3054        3053
         4        3003        3004        3055        3054
         4        3004        3005        3056        3055
         4        3005        3006        3057        3056
         4        3006        3007        3058        3057
         4        3007        3008        3059        3058
         4        3009        3010        3061        3060
         4        3010        3011        3062        3061
         4        3011        3012        3063        3062
         4        3012        3013        3064        3063
         4        3013        3014        3065        3064
         4        3014        3015        3066        3065
         4        3015        3016        3067        3066
         4        3016        3017        3068        3067
         4        3017        3018        3069        3068
         4        3018        3019        3070        3069
         4        3019        3020        3071        3070
         4        3020        3021        3072        3071
         4        3021        3022        3073        3072
         4        3022        3023        3074        3073
         4        3023        3024        3075        3074
         4        3024        3025        3076        3075
         4        3025        3026        3077        3076
         4        3026        3027        3078        3077
         4        3027        3028        3079        3078
         4        3028        3029        3080        3079
         4        3029        3030        3081        3080
         4        3030        3031        3082        3081
         4        3031        3032        3083        3082
         4        3032        3033        3084        3083
         4        3033        3034        3085        3084
         4        3034        3035        3086        3085
         4        3035        3036        3087        3086
         4        3036        3037        3088        3087
         4        3037        3038        3089        3088
         4        3038        3039        3090        3089
         4        3039        3040        3091        3090
         4        3040        3041        3092        3091
         4        3041        3042        3093        3092
         4        3042        3043        3094        3093
         4        3043        3044        3095        3094
         4        3044        3045        3096        3095
         4        3045        3046        3097        3096
         4        3046        3047        3098        3097
         4        3047        3048        3099        3098
         4        3048        3049        3100        3099
         4        3049        3050        3101        3100
         4        3050        3051        3102        3101
         4        3051        3052        3103        3102
         4        3052        3053        3104        3103
         4        3053        3054        3105        3104
         4        3054        3055        3106        3105
         4        3055        3056        3107        3106
         4        3056        3057        3108        3107
         4        3057        3058        3109        3108
         4        3058        3059        3110        3109
         4        3060        3061        3112        3111
         4        3061        3062        3113        3112
         4        3062        3063        3114        3113
         4        3063        3064        3115        3114
         4        3064        3065        3116        3115
         4        3065        3066        3117        3116
         4        3066        3067        3118        3117
         4        3067        3068        3119        3118
         4        3068        3069        3120        3119
         4        3069        3070        3121        3120
         4        3070        3071        3122        3121
         4        3071        3072        3123        3122
         4        3072        3073        3124        3123
         4        3073        3074        3125        3124
         4        3074        3075        3126        3125
         4        3075        3076        3127        3126
         4        3076        3077        3128        3127
         4        3077        3078        3129        3128
         4        3078        3079        3130        3129
         4        3079        3080        3131        3130
         4        3080        3081        3132        3131
         4        3081        3082        3133        3132
         4        3082        3083        3134        3133
         4        3083        3084        3135        3134
         4        3084        3085        3136        3135
         4        3085        3086        3137        3136
         4        3086        3087        3138        3137
         4        3087        3088        3139        3138
         4        3088        3089        3140        3139
         4        3089        3090        3141        3140
         4        3090        3091        3142        3141
         4        3091        3092        3143        3142
         4        3092        3093        3144        3143
         4        3093        3094        3145        3144
         4        3094        3095        3146        3145
         4        3095        3096        3147        3146
         4        3096        3097        3148        3147
         4        3097        3098        3149        3148
         4        3098        3099        3150        3149
         4        3099        3100        3151        3150
         4        3100        3101        3152        3151
         4        3101        3102        3153        3152
         4        3102        3103        3154        3153
         4        3103        3104        3155        3154
         4        3104        3105        3156        3155
         4        3105        3106        3157        3156
         4        3106        3107        3158        3157
         4        3107        3108        3159        3158
         4        3108        3109        3160        3159
         4        3109        3110        3161        3160
         4        3111        3112        3163        3162
         4        3112        3113        3164        3163
         4        3113        3114        3165        3164
         4        3114        3115        3166        3165
         4        3115        3116        3167        3166
         4        3116        3117        3168        3167
         4        3117        3118        3169        3168
         4        3118        3119        3170        3169
         4        3119        3120        3171        3170
         4        3120        3121        3172        3171
         4        3121        3122        3173        3172
         4        3122        3123        3174        3173
         4        3123        3124        3175        3174
         4        3124        3125        3176        3175
         4        3125        3126        3177        3176
         4        3126        3127        3178        3177
         4        3127        3128        3179        3178
         4        3128        3129        3180        3179
         4        3129        3130        3181        3180
         4        3130        3131        3182        3181
         4        3131        3132        3183        3182
         4        3132        3133        3184        3183
         4        3133        3134        3185        3184
         4        3134        3135        3186        3185
         4        3135        3136        3187        3186
         4        3136        3137        3188        3187
         4        3137        3138        3189        3188
         4        3138        3139        3190        3189
         4        3139        3140        3191        3190
         4        3140        3141        3192        3191
         4        3141        3142        3193        3192
         4        3142        3143        3194        3193
         4        3143        3144        3195        3194
         4        3144        3145        3196        3195
         4        3145        3146        3197        3196
         4        3146        3147        3198        3197
         4        3147        3148        3199        3198
         4        3148        3149        3200        3199
         4        3149        3150        3201        3200
         4        3150        3151        3202        3201
         4        3151        3152        3203        3202
         4        3152        3153        3204        3203
         4        3153        3154        3205        3204
         4        3154        3155        3206        3205
         4        3155        3156        3207        3206
         4        3156        3157        3208        3207
         4        3157        3158        3209        3208
         4        3158        3159        3210        3209
         4        3159        3160        3211        3210
         4        3160        3161        3212        3211
         4        3162        3163        3214        3213
         4        3163        3164        3215        3214
         4        3164        3165        3216        3215
         4        3165        3166        3217        3216
         4        3166        3167        3218        3217
         4        3167        3168        3219        3218
         4        3168        3169        3220        3219
         4        3169        3170        3221        3220
         4        3170        3171        3222        3221
         4        3171        3172        3223        3222
         4        3172        3173        3224        3223
         4        3173        3174        3225        3224
         4        3174        3175        3226        3225
         4        3175        3176        3227        3226
         4        3176        3177        3228        3227
         4        3177        3178        3229        3228
         4        3178        3179        3230        3229
         4        3179        3180        3231        3230
         4        3180        3181        3232        3231
         4        3181        3182        3233        3232
         4        3182        3183        3234        3233
         4        3183        3184        3235        3234
         4        3184        3185        3236        3235
         4        3185        3186        3237        3236
         4        3186        3187        3238        3237
         4        3187        3188        3239        3238
         4        3188        3189        3240        3239
         4        3189        3190        3241        3240
         4        3190        3191        3242        3241
         4        3191        3192        3243        3242
         4        3192        3193        3244        3243
         4        3193        3194        3245        3244
         4        3194        3195        3246        3245
         4        3195        3196        3247        3246
         4        3196        3197        3248        3247
         4        3197        3198        3249        3248
         4        3198        3199        3250        3249
         4        3199        3200        3251        3250
         4        3200        3201        3252        3251
         4        3201        3202        3253        3252
         4        3202        3203        3254        3253
         4        3203        3204        3255        3254
         4        3204        3205        3256        3255
         4        3205        3206        3257        3256
         4        3206        3207        3258        3257
         4        3207        3208        3259        3258
         4        3208        3209        3260        3259
         4        3209        3210        3261        3260
         4        3210        3211        3262        3261
         4        3211        3212        3263        3262
         4        3213        3214        3265        3264
         4        3214        3215        3266        3265
         4        3215        3216        3267        3266
         4        3216        3217        3268        3267
         4        3217        3218        3269        3268
         4        3218        3219        3270        3269
         4        3219        3220        3271        3270
         4        3220        3221        3272        3271
         4        3221        3222        3273        3272
         4        3222        3223        3274        3273
         4        3223        3224        3275        3274
         4        3224        3225        3276        3275
         4        3225        3226        3277        3276
         4        3226        3227        3278        3277
         4        3227        3228        3279        3278
         4        3228        3229        3280        3279
         4        3229        3230        3281        3280
         4        3230        3231        3282        3281
         4        3231        3232        3283        3282
         4        3232        3233        3284        3283
         4        3233        3234        3285        3284
         4        3234        3235        3286        3285
         4        3235        3236        3287        3286
         4        3236        3237        3288        3287
         4        3237        3238        3289        3288
         4        3238        3239        3290        3289
         4        3239        3240        3291        3290
         4        3240        3241        3292        3291
         4        3241        3242        3293        3292
         4        3242        3243        3294        3293
         4        3243        3244        3295        3294
         4        3244        3245        3296        3295
         4        3245        3246        3297        3296
         4        3246        3247        3298        3297
         4        3247        3248        3299        3298
         4        3248        3249        3300        3299
         4        3249        3250        3301        3300
         4        3250        3251        3302        3301
         4        3251        3252        3303        3302
         4        3252        3253        3304        3303
         4        3253        3254        3305        3304
         4        3254        3255        3306        3305
         4        3255        3256        3307        3306
         4        3256        3257        3308        3307
         4        3257        3258        3309        3308
         4        3258        3259        3310        3309
         4        3259        3260        3311        3310
         4        3260        3261        3312        3311
         4        3261        3262        3313        3312
         4        3262        3263        3314        3313
         4        3264        3265        3316        3315
         4        3265        3266        3317        3316
         4        3266        3267        3318        3317
         4        3267        3268        3319        3318
         4        3268        3269        3320        3319
         4        3269        3270        3321        3320
         4        3270        3271        3322        3321
         4        3271        3272        3323        3322
         4        3272        3273        3324        3323
         4        3273        3274        3325        3324
         4        3274        3275        3326        3325
         4        3275        3276        3327        3326
         4        3276        3277        3328        3327
         4        3277        3278        3329        3328
         4        3278        3279        3330        3329
         4        3279        3280        3331        3330
         4        3280        3281        3332        3331
         4        3281        3282        3333        3332
         4        3282        3283        3334        3333
         4        3283        3284        3335        3334
         4        3284        3285        3336        3335
         4        3285        3286        3337        3336
         4        3286        3287        3338        3337
         4        3287        3288        3339        3338
         4        3288        3289        3340        3339
         4        3289        3290        3341        3340
         4        3290        3291        3342        3341
         4        3291        3292        3343        3342
         4        3292        3293        3344        3343
         4        3293        3294        3345        3344
         4        3294        3295        3346        3345
         4        3295        3296        3347        3346
         4        3296        3297        3348        3347
         4        3297        3298        3349        3348
         4        3298        3299        3350        3349
         4        3299        3300        3351        3350
         4        3300        3301        3352        3351
         4        3301        3302        3353        3352
         4        3302        3303        3354        3353
         4        3303        3304        3355        3354
         4        3304        3305        3356        3355
         4        3305        3306        3357        3356
         4        3306        3307        3358        3357
         4        3307        3308        3359        3358
         4        3308        3309        3360        3359
         4        3309        3310        3361        3360
         4        3310        3311        3362        3361
         4        3311        3312        3363        3362
         4        3312        3313        3364        3363
         4        3313        3314        3365        3364
         4        3315        3316        3367        3366
         4        3316        3317        3368        3367
         4        3317        3318        3369        3368
         4        3318        3319        3370        3369
         4        3319        3320        3371        3370
         4        3320        3321        3372        3371
         4        3321        3322        3373        3372
         4        3322        3323        3374        3373
         4        3323        3324        3375        3374
         4        3324        3325        3376        3375
         4        3325        3326        3377        3376
         4        3326        3327        3378        3377
         4        3327        3328        3379        3378
         4        3328        3329        3380        3379
         4        3329        3330        3381        3380
         4        3330        3331        3382        3381
         4        3331        3332        3383        3382
         4        3332        3333        3384        3383
         4        3333        3334        3385        3384
         4        3334        3335        3386        3385
         4        3335        3336        3387        3386
         4        3336        3337        3388        3387
         4        3337        3338        3389        3388
         4        3338        3339        3390        3389
         4        3339        3340        3391        3390
         4        3340        3341        3392        3391
         4        3341        3342        3393        3392
         4        3342        3343        3394        3393
         4        3343        3344        3395        3394
         4        3344        3345        3396        3395
         4        3345        3346        3397        3396
         4        3346        3347        3398        3397
         4        3347        3348        3399        3398
         4        3348        3349        3400        3399
         4        3349        3350        3401        3400
         4        3350        3351        3402        3401
         4        3351        3352        3403        3402
         4        3352        3353        3404        3403
         4        3353        3354        3405        3404
         4        3354        3355        3406        3405
         4        3355        3356        3407        3406
         4        3356        3357        3408        3407
         4        3357        3358        3409        3408
         4        3358        3359        3410        3409
         4        3359        3360        3411        3410
         4        3360        3361        3412        3411
         4        3361        3362        3413        3412
         4        3362        3363        3414        3413
         4        3363        3364        3415        3414
         4        3364        3365        3416        3415
         4        3366        3367        3418        3417
         4        3367        3368        3419        3418
         4        3368        3369        3420        3419
         4        3369        3370        3421        3420
         4        3370        3371        3422        3421
         4        3371        3372        3423        3422
         4        3372        3373        3424        3423
         4        3373        3374        3425        3424
         4        3374        3375        3426        3425
         4        3375        3376        3427        3426
         4        3376        3377        3428        3427
         4        3377        3378        3429        3428
         4        3378        3379        3430        3429
         4        3379        3380        3431        3430
         4        3380        3381        3432        3431
         4        3381        3382        3433        3432
         4        3382        3383        3434        3433
         4        3383        3384        3435        3434
         4        3384        3385        3436        3435
         4        3385        3386        3437        3436
         4        3386        3387        3438        3437
         4        3387        3388        3439        3438
         4        3388        3389        3440        3439
         4        3389        3390        3441        3440
         4        3390        3391        3442        3441
         4        3391        3392        3443        3442
         4        3392        3393        3444        3443
         4        3393        3394        3445        3444
         4        3394        3395        3446        3445
         4        3395        3396        3447        3446
         4        3396        3397        3448        3447
         4        3397        3398        3449        3448
         4        3398        3399        3450        3449
         4        3399        3400        3451        3450
         4        3400        3401        3452        3451
         4        3401        3402        3453        3452
         4        3402        3403        3454        3453
         4        3403        3404        3455        3454
         4        3404        3405        3456        3455
         4        3405        3406        3457        3456
         4        3406        3407        3458        3457
         4        3407        3408        3459        3458
         4        3408        3409        3460        3459
         4        3409        3410        3461        3460
         4        3410        3411        3462        3461
         4        3411        3412        3463        3462
         4        3412        3413        3464        3463
         4        3413        3414        3465        3464
         4        3414        3415        3466        3465
         4        3415        3416        3467        3466
         4        3417        3418        3469        3468
         4        3418        3419        3470        3469
         4        3419        3420        3471        3470
         4        3420        3421        3472        3471
         4        3421        3422        3473        3472
         4        3422        3423        3474        3473
         4        3423        3424        3475        3474
         4        3424        3425        3476        3475
         4        3425        3426        3477        3476
         4        3426        3427        3478        3477
         4        3427        3428        3479        3478
         4        3428        3429        3480        3479
         4        3429        3430        3481        3480
         4        3430        3431        3482        3481
         4        3431        3432        3483        3482
         4        3432        3433        3484        3483
         4        3433        3434        3485        3484
         4        3434        3435        3486        3485
         4        3435        3436        3487        3486
         4        3436        3437        3488        3487
         4        3437        3438        3489        3488
         4        3438        3439        3490        3489
         4        3439        3440        3491        3490
         4        3440        3441        3492        3491
         4        3441        3442        3493        3492
         4        3442        3443        3494        3493
         4        3443        3444        3495        3494
         4        3444        3445        3496        3495
         4        3445        3446        3497        3496
         4        3446        3447        3498        3497
         4        3447        3448        3499        3498
         4        3448        3449        3500        3499
         4        3449        3450        3501        3500
         4        3450        3451        3502        3501
         4        3451        3452        3503        3502
         4        3452        3453        3504        3503
         4        3453        3454        3505        3504
         4        3454        3455        3506        3505
         4        3455        3456        3507        3506
         4        3456        3457        3508        3507
         4        3457        3458        3509        3508
         4        3458        3459        3510        3509
         4        3459        3460        3511        3510
         4        3460        3461        3512        3511
         4        3461        3462        3513        3512
         4        3462        3463        3514        3513
         4        3463        3464        3515        3514
         4        3464        3465        3516        3515
         4        3465        3466        3517        3516
         4        3466        3467        3518        3517
         4        3468        3469        3520        3519
         4        3469        3470        3521        3520
         4        3470        3471        3522        3521
         4        3471        3472        3523        3522
         4        3472        3473        3524        3523
         4        3473        3474        3525        3524
         4        3474        3475        3526        3525
         4        3475        3476        3527        3526
         4        3476        3477        3528        3527
         4        3477        3478        3529        3528
         4        3478        3479        3530        3529
         4        3479        3480        3531        3530
         4        3480        3481        3532        3531
         4        3481        3482        3533        3532
         4        3482        3483        3534        3533
         4        3483        3484        3535        3534
         4        3484        3485        3536        3535
         4        3485        3486        3537        3536
         4        3486        3487        3538        3537
         4        3487        3488        3539        3538
         4        3488        3489        3540        3539
         4        3489        3490        3541        3540
         4        3490        3491        3542        3541
         4        3491        3492        3543        3542
         4        3492        3493        3544        3543
         4        3493        3494        3545        3544
         4        3494        3495        3546        3545
         4        3495        3496        3547        3546
         4        3496        3497        3548        3547
         4        3497        3498        3549        3548
         4        3498        3499        3550        3549
         4        3499        3500        3551        3550
         4        3500        3501        3552        3551
         4        3501        3502        3553        3552
         4        3502        3503        3554        3553
         4        3503        3504        3555        3554
         4        3504        3505        3556        3555
         4        3505        3506        3557        3556
         4        3506        3507        3558        3557
         4        3507        3508        3559        3558
         4        3508        3509        3560        3559
         4        3509        3510        3561        3560
         4        3510        3511        3562        3561
         4        3511        3512        3563        3562
         4        3512        3513        3564        3563
         4        3513        3514        3565        3564
         4        3514        3515        3566        3565
         4        3515        3516        3567        3566
         4        3516        3517        3568        3567
         4        3517        3518        3569        3568
         4        3519        3520        3571        3570
         4        3520        3521        3572        3571
         4        3521        3522        3573        3572
         4        3522        3523        3574        3573
         4        3523        3524        3575        3574
         4        3524        3525        3576        3575
         4        3525        3526        3577        3576
         4        3526        3527        3578        3577
         4        3527        3528        3579        3578
         4        3528        3529        3580        3579
         4        3529        3530        3581        3580
         4        3530        3531        3582        3581
         4        3531        3532        3583        3582
         4        3532        3533        3584        3583
         4        3533        3534        3585        3584
         4        3534        3535        3586        3585
         4        3535        3536        3587        3586
         4        3536        3537        3588        3587
         4        3537        3538        3589        3588
         4        3538        3539        3590        3589
         4        3539        3540        3591        3590
         4        3540        3541        3592        3591
         4        3541        3542        3593        3592
         4        3542        3543        3594        3593
         4        3543        3544        3595        3594
         4        3544        3545        3596        3595
         4        3545        3546        3597        3596
         4        3546        3547        3598        3597
         4        3547        3548        3599        3598
         4        3548        3549        3600        3599
         4        3549        3550        3601        3600
         4        3550        3551        3602        3601
         4        3551        3552        3603        3602
         4        3552        3553        3604        3603
         4        3553        3554        3605        3604
         4        3554        3555        3606        3605
         4        3555        3556        3607        3606
         4        3556        3557        3608        3607
         4        3557        3558        3609        3608
         4        3558        3559        3610        3609
         4        3559        3560        3611        3610
         4        3560        3561        3612        3611
         4        3561        3562        3613        3612
         4        3562        3563        3614        3613
         4        3563        3564        3615        3614
         4        3564        3565        3616        3615
         4        3565        3566        3617        3616
         4        3566        3567        3618        3617
         4        3567        3568        3619        3618
         4        3568        3569        3620        3619
         4        3570        3571        3622        3621
         4        3571        3572        3623        3622
         4        3572        3573        3624        3623
         4        3573        3574        3625        3624
         4        3574        3575        3626        3625
         4        3575        3576        3627        3626
         4        3576        3577        3628        3627
         4        3577        3578        3629        3628
         4        3578        3579        3630        3629
         4        3579        3580        3631        3630
         4        3580        3581        3632        3631
         4        3581        3582        3633        3632
         4        3582        3583        3634        3633
         4        3583        3584        3635        3634
         4        3584        3585        3636        3635
         4        3585        3586        3637        3636
         4        3586        3587        3638        3637
         4        3587        3588        3639        3638
         4        3588        3589        3640        3639
         4        3589        3590        3641        3640
         4        3590        3591        3642        3641
         4        3591        3592        3643        3642
         4        3592        3593        3644        3643
         4        3593        3594        3645        3644
         4        3594        3595        3646        3645
         4        3595        3596        3647        3646
         4        3596        3597        3648        3647
         4        3597        3598        3649        3648
         4        3598        3599        3650        3649
         4        3599        3600        3651        3650
         4        3600        3601        3652        3651
         4        3601        3602        3653        3652
         4        3602        3603        3654        3653
         4        3603        3604        3655        3654
         4        3604        3605        3656        3655
         4        3605        3606        3657        3656
         4        3606        3607        3658        3657
         4        3607        3608        3659        3658
         4        3608        3609        3660        3659
         4        3609        3610        3661        3660
         4        3610        3611        3662        3661
         4        3611        3612        3663        3662
         4        3612        3613        3664        3663
         4        3613        3614        3665        3664
         4        3614        3615        3666        3665
         4        3615        3616        3667        3666
         4        3616        3617        3668        3667
         4        3617        3618        3669        3668
         4        3618        3619        3670        3669
         4        3619        3620        3671        3670
         4        3621        3622        3673        3672
         4        3622        3623        3674        3673
         4        3623        3624        3675        3674
         4        3624        3625        3676        3675
         4        3625        3626        3677        3676
         4        3626        3627        3678        3677
         4        3627        3628        3679        3678
         4        3628        3629        3680        3679
         4        3629        3630        3681        3680
         4        3630        3631        3682        3681
         4        3631        3632        3683        3682
         4        3632        3633        3684        3683
         4        3633        3634        3685        3684
         4        3634        3635        3686        3685
         4        3635        3636        3687        3686
         4        3636        3637        3688        3687
         4        3637        3638        3689        3688
         4        3638        3639        3690        3689
         4        3639        3640        3691        3690
         4        3640        3641        3692        3691
         4        3641        3642        3693        3692
         4        3642        3643        3694        3693
         4        3643        3644        3695        3694
         4        3644        3645        3696        3695
         4        3645        3646        3697        3696
         4        3646        3647        3698        3697
         4        3647        3648        3699        3698
         4        3648        3649        3700        3699
         4        3649        3650        3701        3700
         4        3650        3651        3702        3701
         4        3651        3652        3703        3702
         4        3652        3653        3704        3703
         4        3653        3654        3705        3704
         4        3654        3655        3706        3705
         4        3655        3656        3707        3706
         4        3656        3657        3708        3707
         4        3657        3658        3709        3708
         4        3658        3659        3710        3709
         4        3659        3660        3711        3710
         4        3660        3661        3712        3711
         4        3661        3662        3713        3712
         4        3662        3663        3714        3713
         4        3663        3664        3715        3714
         4        3664        3665        3716        3715
         4        3665        3666        3717        3716
         4        3666        3667        3718        3717
         4        3667        3668        3719        3718
         4        3668        3669        3720        3719
         4        3669        3670        3721        3720
         4        3670        3671        3722        3721
         4        3672        3673        3724        3723
         4        3673        3674        3725        3724
         4        3674        3675        3726        3725
         4        3675        3676        3727        3726
         4        3676        3677        3728        3727
         4        3677        3678        3729        3728
         4        3678        3679        3730        3729
         4        3679        3680        3731        3730
         4        3680        3681        3732        3731
         4        3681        3682        3733        3732
         4        3682        3683        3734        3733
         4        3683        3684        3735        3734
         4        3684        3685        3736        3735
         4        3685        3686        3737        3736
         4        3686        3687        3738        3737
         4        3687        3688        3739        3738
         4        3688        3689        3740        3739
         4        3689        3690        3741        3740
         4        3690        3691        3742        3741
         4        3691        3692        3743        3742
         4        3692        3693        3744        3743
         4        3693        3694        3745        3744
         4        3694        3695        3746        3745
         4        3695        3696        3747        3746
         4        3696        3697        3748        3747
         4        3697        3698        3749        3748
         4        3698        3699        3750        3749
         4        3699        3700        3751        3750
         4        3700        3701        3752        3751
         4        3701        3702        3753        3752
         4        3702        3703        3754        3753
         4        3703        3704        3755        3754
         4        3704        3705        3756        3755
         4        3705        3706        3757        3756
         4        3706        3707        3758        3757
         4        3707        3708        3759        3758
         4        3708        3709        3760        3759
         4        3709        3710        3761        3760
         4        3710        3711        3762        3761
         4        3711        3712        3763        3762
         4        3712        3713        3764        3763
         4        3713        3714        3765        3764
         4        3714        3715        3766        3765
         4        3715        3716        3767        3766
         4        3716        3717        3768        3767
         4        3717        3718        3769        3768
         4        3718        3719        3770        3769
         4        3719        3720        3771        3770
         4        3720        3721        3772        3771
         4        3721        3722        3773        3772
         4        3723        3724        3775        3774
         4        3724        3725        3776        3775
         4        3725        3726        3777        3776
         4        3726        3727        3778        3777
         4        3727        3728        3779        3778
         4        3728        3729        3780        3779
         4        3729        3730        3781        3780
         4        3730        3731        3782        3781
         4        3731        3732        3783        3782
         4        3732        3733        3784        3783
         4        3733        3734        3785        3784
         4        3734        3735        3786        3785
         4        3735        3736        3787        3786
         4        3736        3737        3788        3787
         4        3737        3738        3789        3788
         4        3738        3739        3790        3789
         4        3739        3740        3791        3790
         4        3740        3741        3792        3791
         4        3741        3742        3793        3792
         4        3742        3743        3794        3793
         4        3743        3744        3795        3794
         4        3744        3745        3796        3795
         4        3745        3746        3797        3796
         4        3746        3747        3798        3797
         4        3747        3748        3799        3798
         4        3748        3749        3800        3799
         4        3749        3750        3801        3800
         4        3750        3751        3802        3801
         4        3751        3752        3803        3802
         4        3752        3753        3804        3803
         4        3753        3754        3805        3804
         4        3754        3755        3806        3805
         4        3755        3756        3807        3806
         4        3756        3757        3808        3807
         4        3757        3758        3809        3808
         4        3758        3759        3810        3809
         4        3759        3760        3811        3810
         4        3760        3761        3812        3811
         4        3761        3762        3813        3812
         4        3762        3763        3814        3813
         4        3763        3764        3815        3814
         4        3764        3765        3816        3815
         4        3765        3766        3817        3816
         4        3766        3767        3818        3817
         4        3767        3768        3819        3818
         4        3768        3769        3820        3819
         4        3769        3770        3821        3820
         4        3770        3771        3822        3821
         4        3771        3772        3823        3822
         4        3772        3773        3824        3823
         4        3774        3775        3826        3825
         4        3775        3776        3827        3826
         4        3776        3777        3828        3827
         4        3777        3778        3829        3828
         4        3778        3779        3830        3829
         4        3779        3780        3831        3830
         4        3780        3781        3832        3831
         4        3781        3782        3833        3832
         4        3782        3783        3834        3833
         4        3783        3784        3835        3834
         4        3784        3785        3836        3835
         4        3785        3786        3837        3836
         4        3786        3787        3838        3837
         4        3787        3788        3839        3838
         4        3788        3789        3840        3839
         4        3789        3790        3841        3840
         4        3790        3791        3842        3841
         4        3791        3792        3843        3842
         4        3792        3793        3844        3843
         4        3793        3794        3845        3844
         4        3794        3795        3846        3845
         4        3795        3796        3847        3846
         4        3796        3797        3848        3847
         4        3797        3798        3849        3848
         4        3798        3799        3850        3849
         4        3799        3800        3851        3850
         4        3800        3801        3852        3851
         4        3801        3802        3853        3852
         4        3802        3803        3854        3853
         4        3803        3804        3855        3854
         4        3804        3805        3856        3855
         4        3805        3806        3857        3856
         4        3806        3807        3858        3857
         4        3807        3808        3859        3858
         4        3808        3809        3860        3859
         4        3809        3810        3861        3860
         4        3810        3811        3862        3861
         4        3811        3812        3863        3862
         4        3812        3813        3864        3863
         4        3813        3814        3865        3864
         4        3814        3815        3866        3865
         4        3815        3816        3867        3866
         4        3816        3817        3868        3867
         4        3817        3818        3869        3868
         4        3818        3819        3870        3869
         4        3819        3820        3871        3870
         4        3820        3821        3872        3871
         4        3821        3822        3873        3872
         4        3822        3823        3874        3873
         4        3823        3824        3875        3874
         4        3825        3826        3877        3876
         4        3826        3827        3878        3877
         4        3827        3828        3879        3878
         4        3828        3829        3880        3879
         4        3829        3830        3881        3880
         4        3830        3831        3882        3881
         4        3831        3832        3883        3882
         4        3832        3833        3884        3883
         4        3833        3834        3885        3884
         4        3834        3835        3886        3885
         4        3835        3836        3887        3886
         4        3836        3837        3888        3887
         4        3837        3838        3889        3888
         4        3838        3839        3890        3889
         4        3839        3840        3891        3890
         4        3840        3841        3892        3891
         4        3841        3842        3893        3892
         4        3842        3843        3894        3893
         4        3843        3844        3895        3894
         4        3844        3845        3896        3895
         4        3845        3846        3897        3896
         4        3846        3847        3898        3897
         4        3847        3848        3899        3898
         4        3848        3849        3900        3899
         4        3849        3850        3901        3900
         4        3850        3851        3902        3901
         4        3851        3852        3903        3902
         4        3852        3853        3904        3903
         4        3853        3854        3905        3904
         4        3854        3855        3906        3905
         4        3855        3856        3907        3906
         4        3856        3857        3908        3907
         4        3857        3858        3909        3908
         4        3858        3859        3910        3909
         4        3859        3860        3911        3910
         4        3860        3861        3912        3911
         4        3861        3862        3913        3912
         4        3862        3863        3914        3913
         4        3863        3864        3915        3914
         4        3864        3865        3916        3915
         4        3865        3866        3917        3916
         4        3866        3867        3918        3917
         4        3867        3868        3919        3918
         4        3868        3869        3920        3919
         4        3869        3870        3921        3920
         4        3870        3871        3922        3921
         4        3871        3872        3923        3922
         4        3872        3873        3924        3923
         4        3873        3874        3925        3924
         4        3874        3875        3926        3925
         4        3876        3877        3928        3927
         4        3877        3878        3929        3928
         4        3878        3879        3930        3929
         4        3879        3880        3931        3930
         4        3880        3881        3932        3931
         4        3881        3882        3933        3932
         4        3882        3883        3934        3933
         4        3883        3884        3935        3934
         4        3884        3885        3936        3935
         4        3885        3886        3937        3936
         4        3886        3887        3938        3937
         4        3887        3888        3939        3938
         4        3888        3889        3940        3939
         4        3889        3890        3941        3940
         4        3890        3891        3942        3941
         4        3891        3892        3943        3942
         4        3892        3893        3944        3943
         4        3893        3894        3945        3944
         4        3894        3895        3946        3945
         4        3895        3896        3947        3946
         4        3896        3897        3948        3947
         4        3897        3898        3949        3948
         4        3898        3899        3950        3949
         4        3899        3900        3951        3950
         4        3900        3901        3952        3951
         4        3901        3902        3953        3952
         4        3902        3903        3954        3953
         4        3903        3904        3955        3954
         4        3904        3905        3956        3955
         4        3905        3906        3957        3956
         4        3906        3907        3958        3957
         4        3907        3908        3959        3958
         4        3908        3909        3960        3959
         4        3909        3910        3961        3960
         4        3910        3911        3962        3961
         4        3911        3912        3963        3962
         4        3912        3913        3964        3963
         4        3913        3914        3965        3964
         4        3914        3915        3966        3965
         4        3915        3916        3967        3966
         4        3916        3917        3968        3967
         4        3917        3918        3969        3968
         4        3918        3919        3970        3969
         4        3919        3920        3971        3970
         4        3920        3921        3972        3971
         4        3921        3922        3973        3972
         4        3922        3923        3974        3973
         4        3923        3924        3975        3974
         4        3924        3925        3976        3975
         4        3925        3926        3977        3976
         4        3927        3928        3979        3978
         4        3928        3929        3980        3979
         4        3929        3930        3981        3980
         4        3930        3931        3982        3981
         4        3931        3932        3983        3982
         4        3932        3933        3984        3983
         4        3933        3934        3985        3984
         4        3934        3935        3986        3985
         4        3935        3936        3987        3986
         4        3936        3937        3988        3987
         4        3937        3938        3989        3988
         4        3938        3939        3990        3989
         4        3939        3940        3991        3990
         4        3940        3941        3992        3991
         4        3941        3942        3993        3992
         4        3942        3943        3994        3993
         4        3943        3944        3995        3994
         4        3944        3945        3996        3995
         4        3945        3946        3997        3996
         4        3946        3947        3998        3997
         4        3947        3948        3999        3998
         4        3948        3949        4000        3999
         4        3949        3950        4001        4000
         4        3950        3951        4002        4001
         4        3951        3952        4003        4002
         4        3952        3953        4004        4003
         4        3953        3954        4005        4004
         4        3954        3955        4006        4005
         4        3955        3956        4007        4006
         4        3956        3957        4008        4007
         4        3957        3958        4009        4008
         4        3958        3959        4010        4009
         4        3959        3960        4011        4010
         4        3960        3961        4012        4011
         4        3961        3962        4013        4012
         4        3962        3963        4014        4013
         4        3963        3964        4015        4014
         4        3964        3965        4016        4015
         4        3965        3966        4017        4016
         4        3966        3967        4018        4017
         4        3967        3968        4019        4018
         4        3968        3969        4020        4019
         4        3969        3970        4021        4020
         4        3970        3971        4022        4021
         4        3971        3972        4023        4022
         4        3972        3973        4024        4023
         4        3973        3974        4025        4024
         4        3974        3975        4026        4025
         4        3975        3976        4027        4026
         4        3976        3977        4028        4027
         4        3978        3979        4030        4029
         4        3979        3980        4031        4030
         4        3980        3981        4032        4031
         4        3981        3982        4033        4032
         4        3982        3983        4034        4033
         4        3983        3984        4035        4034
         4        3984        3985        4036        4035
         4        3985        3986        4037        4036
         4        3986        3987        4038        4037
         4        3987        3988        4039        4038
         4        3988        3989        4040        4039
         4        3989        3990        4041        4040
         4        3990        3991        4042        4041
         4        3991        3992        4043        4042
         4        3992        3993        4044        4043
         4        3993        3994        4045        4044
         4        3994        3995        4046        4045
         4        3995        3996        4047        4046
         4        3996        3997        4048        4047
         4        3997        3998        4049        4048
         4        3998        3999        4050        4049
         4        3999        4000        4051        4050
         4        4000        4001        4052        4051
         4        4001        4002        4053        4052
         4        4002        4003        4054        4053
         4        4003        4004        4055        4054
         4        4004        4005        4056        4055
         4        4005        4006        4057        4056
         4        4006        4007        4058        4057
         4        4007        4008        4059        4058
         4        4008        4009        4060        4059
         4        4009        4010        4061        4060
         4        4010        4011        4062        4061
         4        4011        4012        4063        4062
         4        4012        4013        4064        4063
         4        4013        4014        4065        4064
         4        4014        4015        4066        4065
         4        4015        4016        4067        4066
         4        4016        4017        4068        4067
         4        4017        4018        4069        4068
         4        4018        4019        4070        4069
         4        4019        4020        4071        4070
         4        4020        4021        4072        4071
         4        4021        4022        4073        4072
         4        4022        4023        4074        4073
         4        4023        4024        4075        4074
         4        4024        4025        4076        4075
         4        4025        4026        4077        4076
         4        4026        4027        4078        4077
         4        4027        4028        4079        4078
         4        4029        4030        4081        4080
         4        4030        4031        4082        4081
         4        4031        4032        4083        4082
         4        4032        4033        4084        4083
         4        4033        4034        4085        4084
         4        4034        4035        4086        4085
         4        4035        4036        4087        4086
         4        4036        4037        4088        4087
         4        4037        4038        4089        4088
         4        4038        4039        4090        4089
         4        4039        4040        4091        4090
         4        4040        4041        4092        4091
         4        4041        4042        4093        4092
         4        4042        4043        4094        4093
         4        4043        4044        4095        4094
         4        4044        4045        4096        4095
         4        4045        4046        4097        4096
         4        4046        4047        4098        4097
         4        4047        4048        4099        4098
         4        4048        4049        4100        4099
         4        4049        4050        4101        4100
         4        4050        4051        4102        4101
         4        4051        4052        4103        4102
         4        4052        4053        4104        4103
         4        4053        4054        4105        4104
         4        4054        4055        4106        4105
         4        4055        4056        4107        4106
         4        4056        4057        4108        4107
         4        4057        4058        4109        4108
         4        4058        4059        4110        4109
         4        4059        4060        4111        4110
         4        4060        4061        4112        4111
         4        4061        4062        4113        4112
         4        4062        4063        4114        4113
         4        4063        4064        4115        4114
         4        4064        4065        4116        4115
         4        4065        4066        4117        4116
         4        4066        4067        4118        4117
         4        4067        4068        4119        4118
         4        4068        4069        4120        4119
         4        4069        4070        4121        4120
         4        4070        4071        4122        4121
         4        4071        4072        4123        4122
         4        4072        4073        4124        4123
         4        4073        4074        4125        4124
         4        4074        4075        4126        4125
         4        4075        4076        4127        4126
         4        4076        4077        4128        4127
         4        4077        4078        4129        4128
         4        4078        4079        4130        4129
         4        4080        4081        4132        4131
         4        4081        4082        4133        4132
         4        4082        4083        4134        4133
         4        4083        4084        4135        4134
         4        4084        4085        4136        4135
         4        4085        4086        4137        4136
         4        4086        4087        4138        4137
         4        4087        4088        4139        4138
         4        4088        4089        4140        4139
         4        4089        4090        4141        4140
         4        4090        4091        4142        4141
         4        4091        4092        4143        4142
         4        4092        4093        4144        4143
         4        4093        4094        4145        4144
         4        4094        4095        4146        4145
         4        4095        4096        4147        4146
         4        4096        4097        4148        4147
         4        4097        4098        4149        4148
         4        4098        4099        4150        4149
         4        4099        4100        4151        4150
         4        4100        4101        4152        4151
         4        4101        4102        4153        4152
         4        4102        4103        4154        4153
         4        4103        4104        4155        4154
         4        4104        4105        4156        4155
         4        4105        4106        4157        4156
         4        4106        4107        4158        4157
         4        4107        4108        4159        4158
         4        4108        4109        4160        4159
         4        4109        4110        4161        4160
         4        4110        4111        4162        4161
         4        4111        4112        4163        4162
         4        4112        4113        4164        4163
         4        4113        4114        4165        4164
         4        4114        4115        4166        4165
         4        4115        4116        4167        4166
         4        4116        4117        4168        4167
         4        4117        4118        4169        4168
         4        4118        4119        4170        4169
         4        4119        4120        4171        4170
         4        4120        4121        4172        4171
         4        4121        4122        4173        4172
         4        4122        4123        4174        4173
         4        4123        4124        4175        4174
         4        4124        4125        4176        4175
         4        4125        4126        4177        4176
         4        4126        4127        4178        4177
         4        4127        4128        4179        4178
         4        4128        4129        4180        4179
         4        4129        4130        4181        4180
         4        4131        4132        4183        4182
         4        4132        4133        4184        4183
         4        4133        4134        4185        4184
         4        4134        4135        4186        4185
         4        4135        4136        4187        4186
         4        4136        4137        4188        4187
         4        4137        4138        4189        4188
         4        4138        4139        4190        4189
         4        4139        4140        4191        4190
         4        4140        4141        4192        4191
         4        4141        4142        4193        4192
         4        4142        4143        4194        4193
         4        4143        4144        4195        4194
         4        4144        4145        4196        4195
         4        4145        4146        4197        4196
         4        4146        4147        4198        4197
         4        4147        4148        4199        4198
         4        4148        4149        4200        4199
         4        4149        4150        4201        4200
         4        4150        4151        4202        4201
         4        4151        4152        4203        4202
         4        4152        4153        4204        4203
         4        4153        4154        4205        4204
         4        4154        4155        4206        4205
         4        4155        4156        4207        4206
         4        4156        4157        4208        4207
         4        4157        4158        4209        4208
         4        4158        4159        4210        4209
         4        4159        4160        4211        4210
         4        4160        4161        4212        4211
         4        4161        4162        4213        4212
         4        4162        4163        4214        4213
         4        4163        4164        4215        4214
         4        4164        4165        4216        4215
         4        4165        4166        4217        4216
         4        4166        4167        4218        4217
         4        4167        4168        4219        4218
         4        4168        4169        4220        4219
         4        4169        4170        4221        4220
         4        4170        4171        4222        4221
         4        4171        4172        4223        4222
         4        4172        4173        4224        4223
         4        4173        4174        4225        4224
         4        4174        4175        4226        4225
         4        4175        4176        4227        4226
         4        4176        4177        4228        4227
         4        4177        4178        4229        4228
         4        4178        4179        4230        4229
         4        4179        4180        4231        4230
         4        4180        4181        4232        4231
         4        4182        4183        4234        4233
         4        4183        4184        4235        4234
         4        4184        4185        4236        4235
         4        4185        4186        4237        4236
         4        4186        4187        4238        4237
         4        4187        4188        4239        4238
         4        4188        4189        4240        4239
         4        4189        4190        4241        4240
         4        4190        4191        4242        4241
         4        4191        4192        4243        4242
         4        4192        4193        4244        4243
         4        4193        4194        4245        4244
         4        4194        4195        4246        4245
         4        4195        4196        4247        4246
         4        4196        4197        4248        4247
         4        4197        4198        4249        4248
         4        4198        4199        4250        4249
         4        4199        4200        4251        4250
         4        4200        4201        4252        4251
         4        4201        4202        4253        4252
         4        4202        4203        4254        4253
         4        4203        4204        4255        4254
         4        4204        4205        4256        4255
         4        4205        4206        4257        4256
         4        4206        4207        4258        4257
         4        4207        4208        4259        4258
         4        4208        4209        4260        4259
         4        4209        4210        4261        4260
         4        4210        4211        4262        4261
         4        4211        4212        4263        4262
         4        4212        4213        4264        4263
         4        4213        4214        4265        4264
         4        4214        4215        4266        4265
         4        4215        4216        4267        4266
         4        4216        4217        4268        4267
         4        4217        4218        4269        4268
         4        4218        4219        4270        4269
         4        4219        4220        4271        4270
         4        4220        4221        4272        4271
         4        4221        4222        4273        4272
         4        4222        4223        4274        4273
         4        4223        4224        4275        4274
         4        4224        4225        4276        4275
         4        4225        4226        4277        4276
         4        4226        4227        4278        4277
         4        4227        4228        4279        4278
         4        4228        4229        4280        4279
         4        4229        4230        4281        4280
         4        4230        4231        4282        4281
         4        4231        4232        4283        4282
         4        4233        4234        4285        4284
         4        4234        4235        4286        4285
         4        4235        4236        4287        4286
         4        4236        4237        4288        4287
         4        4237        4238        4289        4288
         4        4238        4239        4290        4289
         4        4239        4240        4291        4290
         4        4240        4241        4292        4291
         4        4241        4242        4293        4292
         4        4242        4243        4294        4293
         4        4243        4244        4295        4294
         4        4244        4245        4296        4295
         4        4245        4246        4297        4296
         4        4246        4247        4298        4297
         4        4247        4248        4299        4298
         4        4248        4249        4300        4299
         4        4249        4250        4301        4300
         4        4250        4251        4302        4301
         4        4251        4252        4303        4302
         4        4252        4253        4304        4303
         4        4253        4254        4305        4304
         4        4254        4255        4306        4305
         4        4255        4256        4307        4306
         4        4256        4257        4308        4307
         4        4257        4258        4309        4308
         4        4258        4259        4310        4309
         4        4259        4260        4311        4310
         4        4260        4261        4312        4311
         4        4261        4262        4313        4312
         4        4262        4263        4314        4313
         4        4263        4264        4315        4314
         4        4264        4265        4316        4315
         4        4265        4266        4317        4316
         4        4266        4267        4318        4317
         4        4267        4268        4319        4318
         4        4268        4269        4320        4319
         4        4269        4270        4321        4320
         4        4270        4271        4322        4321
         4        4271        4272        4323        4322
         4        4272        4273        4324        4323
         4        4273        4274        4325        4324
         4        4274        4275        4326        4325
         4        4275        4276        4327        4326
         4        4276        4277        4328        4327
         4        4277        4278        4329        4328
         4        4278        4279        4330        4329
         4        4279        4280        4331        4330
         4        4280        4281        4332        4331
         4        4281        4282        4333        4332
         4        4282        4283        4334        4333
         4        4284        4285        4336        4335
         4        4285        4286        4337        4336
         4        4286        4287        4338        4337
         4        4287        4288        4339        4338
         4        4288        4289        4340        4339
         4        4289        4290        4341        4340
         4        4290        4291        4342        4341
         4        4291        4292        4343        4342
         4        4292        4293        4344        4343
         4        4293        4294        4345        4344
         4        4294        4295        4346        4345
         4        4295        4296        4347        4346
         4        4296        4297        4348        4347
         4        4297        4298        4349        4348
         4        4298        4299        4350        4349
         4        4299        4300        4351        4350
         4        4300        4301        4352        4351
         4        4301        4302        4353        4352
         4        4302        4303        4354        4353
         4        4303        4304        4355        4354
         4        4304        4305        4356        4355
         4        4305        4306        4357        4356
         4        4306        4307        4358        4357
         4        4307        4308        4359        4358
         4        4308        4309        4360        4359
         4        4309        4310        4361        4360
         4        4310        4311        4362        4361
         4        4311        4312        4363        4362
         4        4312        4313        4364        4363
         4        4313        4314        4365        4364
         4        4314        4315        4366        4365
         4        4315        4316        4367        4366
         4        4316        4317        4368        4367
         4        4317        4318        4369        4368
         4        4318        4319        4370        4369
         4        4319        4320        4371        4370
         4        4320        4321        4372        4371
         4        4321        4322        4373        4372
         4        4322        4323        4374        4373
         4        4323        4324        4375        4374
         4        4324        4325        4376        4375
         4        4325        4326        4377        4376
         4        4326        4327        4378        4377
         4        4327        4328        4379        4378
         4        4328        4329        4380        4379
         4        4329        4330        4381        4380
         4        4330        4331        4382        4381
         4        4331        4332        4383        4382
         4        4332        4333        4384        4383
         4        4333        4334        4385        4384
         4        4335        4336        4387        4386
         4        4336        4337        4388        4387
         4        4337        4338        4389        4388
         4        4338        4339        4390        4389
         4        4339        4340        4391        4390
         4        4340        4341        4392        4391
         4        4341        4342        4393        4392
         4        4342        4343        4394        4393
         4        4343        4344        4395        4394
         4        4344        4345        4396        4395
         4        4345        4346        4397        4396
         4        4346        4347        4398        4397
         4        4347        4348        4399        4398
         4        4348        4349        4400        4399
         4        4349        4350        4401        4400
         4        4350        4351        4402        4401
         4        4351        4352        4403        4402
         4        4352        4353        4404        4403
         4        4353        4354        4405        4404
         4        4354        4355        4406        4405
         4        4355        4356        4407        4406
         4        4356        4357        4408        4407
         4        4357        4358        4409        4408
         4        4358        4359        4410        4409
         4        4359        4360        4411        4410
         4        4360        4361        4412        4411
         4        4361        4362        4413        4412
         4        4362        4363        4414        4413
         4        4363        4364        4415        4414
         4        4364        4365        4416        4415
         4        4365        4366        4417        4416
         4        4366        4367        4418        4417
         4        4367        4368        4419        4418
         4        4368        4369        4420        4419
         4        4369        4370        4421        4420
         4        4370        4371        4422        4421
         4        4371        4372        4423        4422
         4        4372        4373        4424        4423
         4        4373        4374        4425        4424
         4        4374        4375        4426        4425
         4        4375        4376        4427        4426
         4        4376        4377        4428        4427
         4        4377        4378        4429        4428
         4        4378        4379        4430        4429
         4        4379        4380        4431        4430
         4        4380        4381        4432        4431
         4        4381        4382        4433        4432
         4        4382        4383        4434        4433
         4        4383        4384        4435        4434
         4        4384        4385        4436        4435
         4        4386        4387        4438        4437
         4        4387        4388        4439        4438
         4        4388        4389        4440        4439
         4        4389        4390        4441        4440
         4        4390        4391        4442        4441
         4        4391        4392        4443        4442
         4        4392        4393        4444        4443
         4        4393        4394        4445        4444
         4        4394        4395        4446        4445
         4        4395        4396        4447        4446
         4        4396        4397        4448        4447
         4        4397        4398        4449        4448
         4        4398        4399        4450        4449
         4        4399        4400        4451        4450
         4        4400        4401        4452        4451
         4        4401        4402        4453        4452
         4        4402        4403        4454        4453
         4        4403        4404        4455        4454
         4        4404        4405        4456        4455
         4        4405        4406        4457        4456
         4        4406        4407        4458        4457
         4        4407        4408        4459        4458
         4        4408        4409        4460        4459
         4        4409        4410        4461        4460
         4        4410        4411        4462        4461
         4        4411        4412        4463        4462
         4        4412        4413        4464        4463
         4        4413        4414        4465        4464
         4        4414        4415        4466        4465
         4        4415        4416        4467        4466
         4        4416        4417        4468        4467
         4        4417        4418        4469        4468
         4        4418        4419        4470        4469
         4        4419        4420        4471        4470
         4        4420        4421        4472        4471
         4        4421        4422        4473        4472
         4        4422        4423        4474        4473
         4        4423        4424        4475        4474
         4        4424        4425        4476        4475
         4        4425        4426        4477        4476
         4        4426        4427        4478        4477
         4        4427        4428        4479        4478
         4        4428        4429        4480        4479
         4        4429        4430        4481        4480
         4        4430        4431        4482        4481
         4        4431        4432        4483        4482
         4        4432        4433        4484        4483
         4        4433        4434        4485        4484
         4        4434        4435        4486        4485
         4        4435        4436        4487        4486
         4        4437        4438        4489        4488
         4        4438        4439        4490        4489
         4        4439        4440        4491        4490
         4        4440        4441        4492        4491
         4        4441        4442        4493        4492
         4        4442        4443        4494        4493
         4        4443        4444        4495        4494
         4        4444        4445        4496        4495
         4        4445        4446        4497        4496
         4        4446        4447        4498        4497
         4        4447        4448        4499        4498
         4        4448        4449        4500        4499
         4        4449        4450        4501        4500
         4        4450        4451        4502        4501
         4        4451        4452        4503        4502
         4        4452        4453        4504        4503
         4        4453        4454        4505        4504
         4        4454        4455        4506        4505
         4        4455        4456        4507        4506
         4        4456        4457        4508        4507
         4        4457        4458        4509        4508
         4        4458        4459        4510        4509
         4        4459        4460        4511        4510
         4        4460        4461        4512        4511
         4        4461        4462        4513        4512
         4        4462        4463        4514        4513
         4        4463        4464        4515        4514
         4        4464        4465        4516        4515
         4        4465        4466        4517        4516
         4        4466        4467        4518        4517
         4        4467        4468        4519        4518
         4        4468        4469        4520        4519
         4        4469        4470        4521        4520
         4        4470        4471        4522        4521
         4        4471        4472        4523        4522
         4        4472        4473        4524        4523
         4        4473        4474        4525        4524
         4        4474        4475        4526        4525
         4        4475        4476        4527        4526
         4        4476        4477        4528        4527
         4        4477        4478        4529        4528
         4        4478        4479        4530        4529
         4        4479        4480        4531        4530
         4        4480        4481        4532        4531
         4        4481        4482        4533        4532
         4        4482        4483        4534        4533
         4        4483        4484        4535        4534
         4        4484        4485        4536        4535
         4        4485        4486        4537        4536
         4        4486        4487        4538        4537
         4        4488        4489        4540        4539
         4        4489        4490        4541        4540
         4        4490        4491        4542        4541
         4        4491        4492        4543        4542
         4        4492        4493        4544        4543
         4        4493        4494        4545        4544
         4        4494        4495        4546        4545
         4        4495        4496        4547        4546
         4        4496        4497        4548        4547
         4        4497        4498        4549        4548
         4        4498        4499        4550        4549
         4        4499        4500        4551        4550
         4        4500        4501        4552        4551
         4        4501        4502        4553        4552
         4        4502        4503        4554        4553
         4        4503        4504        4555        4554
         4        4504        4505        4556        4555
         4        4505        4506        4557        4556
         4        4506        4507        4558        4557
         4        4507        4508        4559        4558
         4        4508        4509        4560        4559
         4        4509        4510        4561        4560
         4        4510        4511        4562        4561
         4        4511        4512        4563        4562
         4        4512        4513        4564        4563
         4        4513        4514        4565        4564
         4        4514        4515        4566        4565
         4        4515        4516        4567        4566
         4        4516        4517        4568        4567
         4        4517        4518        4569        4568
         4        4518        4519        4570        4569
         4        4519        4520        4571        4570
         4        4520        4521        4572        4571
         4        4521        4522        4573        4572
         4        4522        4523        4574        4573
         4        4523        4524        4575        4574
         4        4524        4525        4576        4575
         4        4525        4526        4577        4576
         4        4526        4527        4578        4577
         4        4527        4528        4579        4578
         4        4528        4529        4580        4579
         4        4529        4530        4581        4580
         4        4530        4531        4582        4581
         4        4531        4532        4583        4582
         4        4532        4533        4584        4583
         4        4533        4534        4585        4584
         4        4534        4535        4586        4585
         4        4535        4536        4587        4586
         4        4536        4537        4588        4587
         4        4537        4538        4589        4588
         4        4539        4540        4591        4590
         4        4540        4541        4592        4591
         4        4541        4542        4593        4592
         4        4542        4543        4594        4593
         4        4543        4544        4595        4594
         4        4544        4545        4596        4595
         4        4545        4546        4597        4596
         4        4546        4547        4598        4597
         4        4547        4548        4599        4598
         4        4548        4549        4600        4599
         4        4549        4550        4601        4600
         4        4550        4551        4602        4601
         4        4551        4552        4603        4602
         4        4552        4553        4604        4603
         4        4553        4554        4605        4604
         4        4554        4555        4606        4605
         4        4555        4556        4607        4606
         4        4556        4557        4608        4607
         4        4557        4558        4609        4608
         4        4558        4559        4610        4609
         4        4559        4560        4611        4610
         4        4560        4561        4612        4611
         4        4561        4562        4613        4612
         4        4562        4563        4614        4613
         4        4563        4564        4615        4614
         4        4564        4565        4616        4615
         4        4565        4566        4617        4616
         4        4566        4567        4618        4617
         4        4567        4568        4619        4618
         4        4568        4569        4620        4619
         4        4569        4570        4621        4620
         4        4570        4571        4622        4621
         4        4571        4572        4623        4622
         4        4572        4573        4624        4623
         4        4573        4574        4625        4624
         4        4574        4575        4626        4625
         4        4575        4576        4627        4626
         4        4576        4577        4628        4627
         4        4577        4578        4629        4628
         4        4578        4579        4630        4629
         4        4579        4580        4631        4630
         4        4580        4581        4632        4631
         4        4581        4582        4633        4632
         4        4582        4583        4634        4633
         4        4583        4584        4635        4634
         4        4584        4585        4636        4635
         4        4585        4586        4637        4636
         4        4586        4587        4638        4637
         4        4587        4588        4639        4638
         4        4588        4589        4640        4639
         4        4590        4591        4642        4641
         4        4591        4592        4643        4642
         4        4592        4593        4644        4643
         4        4593        4594        4645        4644
         4        4594        4595        4646        4645
         4        4595        4596        4647        4646
         4        4596        4597        4648        4647
         4        4597        4598        4649        4648
         4        4598        4599        4650        4649
         4        4599        4600        4651        4650
         4        4600        4601        4652        4651
         4        4601        4602        4653        4652
         4        4602        4603        4654        4653
         4        4603        4604        4655        4654
         4        4604        4605        4656        4655
         4        4605        4606        4657        4656
         4        4606        4607        4658        4657
         4        4607        4608        4659        4658
         4        4608        4609        4660        4659
         4        4609        4610        4661        4660
         4        4610        4611        4662        4661
         4        4611        4612        4663        4662
         4        4612        4613        4664        4663
         4        4613        4614        4665        4664
         4        4614        4615        4666        4665
         4        4615        4616        4667        4666
         4        4616        4617        4668        4667
         4        4617        4618        4669        4668
         4        4618        4619        4670        4669
         4        4619        4620        4671        4670
         4        4620        4621        4672        4671
         4        4621        4622        4673        4672
         4        4622        4623        4674        4673
         4        4623        4624        4675        4674
         4        4624        4625        4676        4675
         4        4625        4626        4677        4676
         4        4626        4627        4678        4677
         4        4627        4628        4679        4678
         4        4628        4629        4680        4679
         4        4629        4630        4681        4680
         4        4630        4631        4682        4681
         4        4631        4632        4683        4682
         4        4632        4633        4684        4683
         4        4633        4634        4685        4684
         4        4634        4635        4686        4685
         4        4635        4636        4687        4686
         4        4636        4637        4688        4687
         4        4637        4638        4689        4688
         4        4638        4639        4690        4689
         4        4639        4640        4691        4690
         4        4641        4642        4693        4692
         4        4642        4643        4694        4693
         4        4643        4644        4695        4694
         4        4644        4645        4696        4695
         4        4645        4646        4697        4696
         4        4646        4647        4698        4697
         4        4647        4648        4699        4698
         4        4648        4649        4700        4699
         4        4649        4650        4701        4700
         4        4650        4651        4702        4701
         4        4651        4652        4703        4702
         4        4652        4653        4704        4703
         4        4653        4654        4705        4704
         4        4654        4655        4706        4705
         4        4655        4656        4707        4706
         4        4656        4657        4708        4707
         4        4657        4658        4709        4708
         4        4658        4659        4710        4709
         4        4659        4660        4711        4710
         4        4660        4661        4712        4711
         4        4661        4662        4713        4712
         4        4662        4663        4714        4713
         4        4663        4664        4715        4714
         4        4664        4665        4716        4715
         4        4665        4666        4717        4716
         4        4666        4667        4718        4717
         4        4667        4668        4719        4718
         4        4668        4669        4720        4719
         4        4669        4670        4721        4720
         4        4670        4671        4722        4721
         4        4671        4672        4723        4722
         4        4672        4673        4724        4723
         4        4673        4674        4725        4724
         4        4674        4675        4726        4725
         4        4675        4676        4727        4726
         4        4676        4677        4728        4727
         4        4677        4678        4729        4728
         4        4678        4679        4730        4729
         4        4679        4680        4731        4730
         4        4680        4681        4732        4731
         4        4681        4682        4733        4732
         4        4682        4683        4734        4733
         4        4683        4684        4735        4734
         4        4684        4685        4736        4735
         4        4685        4686        4737        4736
         4        4686        4687        4738        4737
         4        4687        4688        4739        4738
         4        4688        4689        4740        4739
         4        4689        4690        4741        4740
         4        4690        4691        4742        4741
         4        4692        4693        4744        4743
         4        4693        4694        4745        4744
         4        4694        4695        4746        4745
         4        4695        4696        4747        4746
         4        4696        4697        4748        4747
         4        4697        4698        4749        4748
         4        4698        4699        4750        4749
         4        4699        4700        4751        4750
         4        4700        4701        4752        4751
         4        4701        4702        4753        4752
         4        4702        4703        4754        4753
         4        4703        4704        4755        4754
         4        4704        4705        4756        4755
         4        4705        4706        4757        4756
         4        4706        4707        4758        4757
         4        4707        4708        4759        4758
         4        4708        4709        4760        4759
         4        4709        4710        4761        4760
         4        4710        4711        4762        4761
         4        4711        4712        4763        4762
         4        4712        4713        4764        4763
         4        4713        4714        4765        4764
         4        4714        4715        4766        4765
         4        4715        4716        4767        4766
         4        4716        4717        4768        4767
         4        4717        4718        4769        4768
         4        4718        4719        4770        4769
         4        4719        4720        4771        4770
         4        4720        4721        4772        4771
         4        4721        4722        4773        4772
         4        4722        4723        4774        4773
         4        4723        4724        4775        4774
         4        4724        4725        4776        4775
         4        4725        4726        4777        4776
         4        4726        4727        4778        4777
         4        4727        4728        4779        4778
         4        4728        4729        4780        4779
         4        4729        4730        4781        4780
         4        4730        4731        4782        4781
         4        4731        4732        4783        4782
         4        4732        4733        4784        4783
         4        4733        4734        4785        4784
         4        4734        4735        4786        4785
         4        4735        4736        4787        4786
         4        4736        4737        4788        4787
         4        4737        4738        4789        4788
         4        4738        4739        4790        4789
         4        4739        4740        4791        4790
         4        4740        4741        4792        4791
         4        4741        4742        4793        4792
         4        4743        4744        4795        4794
         4        4744        4745        4796        4795
         4        4745        4746        4797        4796
         4        4746        4747        4798        4797
         4        4747        4748        4799        4798
         4        4748        4749        4800        4799
         4        4749        4750        4801        4800
         4        4750        4751        4802        4801
         4        4751        4752        4803        4802
         4        4752        4753        4804        4803
         4        4753        4754        4805        4804
         4        4754        4755        4806        4805
         4        4755        4756        4807        4806
         4        4756        4757        4808        4807
         4        4757        4758        4809        4808
         4        4758        4759        4810        4809
         4        4759        4760        4811        4810
         4        4760        4761        4812        4811
         4        4761        4762        4813        4812
         4        4762        4763        4814        4813
         4        4763        4764        4815        4814
         4        4764        4765        4816        4815
         4        4765        4766        4817        4816
         4        4766        4767        4818        4817
         4        4767        4768        4819        4818
         4        4768        4769        4820        4819
         4        4769        4770        4821        4820
         4        4770        4771        4822        4821
         4        4771        4772        4823        4822
         4        4772        4773        4824        4823
         4        4773        4774        4825        4824
         4        4774        4775        4826        4825
         4        4775        4776        4827        4826
         4        4776        4777        4828        4827
         4        4777        4778        4829        4828
         4        4778        4779        4830        4829
         4        4779        4780        4831        4830
         4        4780        4781        4832        4831
         4        4781        4782        4833        4832
         4        4782        4783        4834        4833
         4        4783        4784        4835        4834
         4        4784        4785        4836        4835
         4        4785        4786        4837        4836
         4        4786        4787        4838        4837
         4        4787        4788        4839        4838
         4        4788        4789        4840        4839
         4        4789        4790        4841        4840
         4        4790        4791        4842        4841
         4        4791        4792        4843        4842
         4        4792        4793        4844        4843
         4        4794        4795        4846        4845
         4        4795        4796        4847        4846
         4        4796        4797        4848        4847
         4        4797        4798        4849        4848
         4        4798        4799        4850        4849
         4        4799        4800        4851        4850
         4        4800        4801        4852        4851
         4        4801        4802        4853        4852
         4        4802        4803        4854        4853
         4        4803        4804        4855        4854
         4        4804        4805        4856        4855
         4        4805        4806        4857        4856
         4        4806        4807        4858        4857
         4        4807        4808        4859        4858
         4        4808        4809        4860        4859
         4        4809        4810        4861        4860
         4        4810        4811        4862        4861
         4        4811        4812        4863        4862
         4        4812        4813        4864        4863
         4        4813        4814        4865        4864
         4        4814        4815        4866        4865
         4        4815        4816        4867        4866
         4        4816        4817        4868        4867
         4        4817        4818        4869        4868
         4        4818        4819        4870        4869
         4        4819        4820        4871        4870
         4        4820        4821        4872        4871
         4        4821        4822        4873        4872
         4        4822        4823        4874        4873
         4        4823        4824        4875        4874
         4        4824        4825        4876        4875
         4        4825        4826        4877        4876
         4        4826        4827        4878        4877
         4        4827        4828        4879        4878
         4        4828        4829        4880        4879
         4        4829        4830        4881        4880
         4        4830        4831        4882        4881
         4        4831        4832        4883        4882
         4        4832        4833        4884        4883
         4        4833        4834        4885        4884
         4        4834        4835        4886        4885
         4        4835        4836        4887        4886
         4        4836        4837        4888        4887
         4        4837        4838        4889        4888
         4        4838        4839        4890        4889
         4        4839        4840        4891        4890
         4        4840        4841        4892        4891
         4        4841        4842        4893        4892
         4        4842        4843        4894        4893
         4        4843        4844        4895        4894
         4        4845        4846        4897        4896
         4        4846        4847        4898        4897
         4        4847        4848        4899        4898
         4        4848        4849        4900        4899
         4        4849        4850        4901        4900
         4        4850        4851        4902        4901
         4        4851        4852        4903        4902
         4        4852        4853        4904        4903
         4        4853        4854        4905        4904
         4        4854        4855        4906        4905
         4        4855        4856        4907        4906
         4        4856        4857        4908        4907
         4        4857        4858        4909        4908
         4        4858        4859        4910        4909
         4        4859        4860        4911        4910
         4        4860        4861        4912        4911
         4        4861        4862        4913        4912
         4        4862        4863        4914        4913
         4        4863        4864        4915        4914
         4        4864        4865        4916        4915
         4        4865        4866        4917        4916
         4        4866        4867        4918        4917
         4        4867        4868        4919        4918
         4        4868        4869        4920        4919
         4        4869        4870        4921        4920
         4        4870        4871        4922        4921
         4        4871        4872        4923        4922
         4        4872        4873        4924        4923
         4        4873        4874        4925        4924
         4        4874        4875        4926        4925
         4        4875        4876        4927        4926
         4        4876        4877        4928        4927
         4        4877        4878        4929        4928
         4        4878        4879        4930        4929
         4        4879        4880        4931        4930
         4        4880        4881        4932        4931
         4        4881        4882        4933        4932
         4        4882        4883        4934        4933
         4        4883        4884        4935        4934
         4        4884        4885        4936        4935
         4        4885        4886        4937        4936
         4        4886        4887        4938        4937
         4        4887        4888        4939        4938
         4        4888        4889        4940        4939
         4        4889        4890        4941        4940
         4        4890        4891        4942        4941
         4        4891        4892        4943        4942
         4        4892        4893        4944        4943
         4        4893        4894        4945        4944
         4        4894        4895        4946        4945
         4        4896        4897        4948        4947
         4        4897        4898        4949        4948
         4        4898        4899        4950        4949
         4        4899        4900        4951        4950
         4        4900        4901        4952        4951
         4        4901        4902        4953        4952
         4        4902        4903        4954        4953
         4        4903        4904        4955        4954
         4        4904        4905        4956        4955
         4        4905        4906        4957        4956
         4        4906        4907        4958        4957
         4        4907        4908        4959        4958
         4        4908        4909        4960        4959
         4        4909        4910        4961        4960
         4        4910        4911        4962        4961
         4        4911        4912        4963        4962
         4        4912        4913        4964        4963
         4        4913        4914        4965        4964
         4        4914        4915        4966        4965
         4        4915        4916        4967        4966
         4        4916        4917        4968        4967
         4        4917        4918        4969        4968
         4        4918        4919        4970        4969
         4        4919        4920        4971        4970
         4        4920        4921        4972        4971
         4        4921        4922        4973        4972
         4        4922        4923        4974        4973
         4        4923        4924        4975        4974
         4        4924        4925        4976        4975
         4        4925        4926        4977        4976
         4        4926        4927        4978        4977
         4        4927        4928        4979        4978
         4        4928        4929        4980        4979
         4        4929        4930        4981        4980
         4        4930        4931        4982        4981
         4        4931        4932        4983        4982
         4        4932        4933        4984        4983
         4        4933        4934        4985        4984
         4        4934        4935        4986        4985
         4        4935        4936        4987        4986
         4        4936        4937        4988        4987
         4        4937        4938        4989        4988
         4        4938        4939        4990        4989
         4        4939        4940        4991        4990
         4        4940        4941        4992        4991
         4        4941        4942        4993        4992
         4        4942        4943        4994        4993
         4        4943        4944        4995        4994
         4        4944        4945        4996        4995
         4        4945        4946        4997        4996
         4        4947        4948        4999        4998
         4        4948        4949        5000        4999
         4        4949        4950        5001        5000
         4        4950        4951        5002        5001
         4        4951        4952        5003        5002
         4        4952        4953        5004        5003
         4        4953        4954        5005        5004
         4        4954        4955        5006        5005
         4        4955        4956        5007        5006
         4        4956        4957        5008        5007
         4        4957        4958        5009        5008
         4        4958        4959        5010        5009
         4        4959        4960        5011        5010
         4        4960        4961        5012        5011
         4        4961        4962        5013        5012
         4        4962        4963        5014        5013
         4        4963        4964        5015        5014
         4        4964        4965        5016        5015
         4        4965        4966        5017        5016
         4        4966        4967        5018        5017
         4        4967        4968        5019        5018
         4        4968        4969        5020        5019
         4        4969        4970        5021        5020
         4        4970        4971        5022        5021
         4        4971        4972        5023        5022
         4        4972        4973        5024        5023
         4        4973        4974        5025        5024
         4        4974        4975        5026        5025
         4        4975        4976        5027        5026
         4        4976        4977        5028        5027
         4        4977        4978        5029        5028
         4        4978        4979        5030        5029
         4        4979        4980        5031        5030
         4        4980        4981        5032        5031
         4        4981        4982        5033        5032
         4        4982        4983        5034        5033
         4        4983        4984        5035        5034
         4        4984        4985        5036        5035
         4        4985        4986        5037        5036
         4        4986        4987        5038        5037
         4        4987        4988        5039        5038
         4        4988        4989        5040        5039
         4        4989        4990        5041        5040
         4        4990        4991        5042        5041
         4        4991        4992        5043        5042
         4        4992        4993        5044        5043
         4        4993        4994        5045        5044
         4        4994        4995        5046        5045
         4        4995        4996        5047        5046
         4        4996        4997        5048        5047
         4        4998        4999        5050        5049
         4        4999        5000        5051        5050
         4        5000        5001        5052        5051
         4        5001        5002        5053        5052
         4        5002        5003        5054        5053
         4        5003        5004        5055        5054
         4        5004        5005        5056        5055
         4        5005        5006        5057        5056
         4        5006        5007        5058        5057
         4        5007        5008        5059        5058
         4        5008        5009        5060        5059
         4        5009        5010        5061        5060
         4        5010        5011        5062        5061
         4        5011        5012        5063        5062
         4        5012        5013        5064        5063
         4        5013        5014        5065        5064
         4        5014        5015        5066        5065
         4        5015        5016        5067        5066
         4        5016        5017        5068        5067
         4        5017        5018        5069        5068
         4        5018        5019        5070        5069
         4        5019        5020        5071        5070
         4        5020        5021        5072        5071
         4        5021        5022        5073        5072
         4        5022        5023        5074        5073
         4        5023        5024        5075        5074
         4        5024        5025        5076        5075
         4        5025        5026        5077        5076
         4        5026        5027        5078        5077
         4        5027        5028        5079        5078
         4        5028        5029        5080        5079
         4        5029        5030        5081        5080
         4        5030        5031        5082        5081
         4        5031        5032        5083        5082
         4        5032        5033        5084        5083
         4        5033        5034        5085        5084
         4        5034        5035        5086        5085
         4        5035        5036        5087        5086
         4        5036        5037        5088        5087
         4        5037        5038        5089        5088
         4        5038        5039        5090        5089
         4        5039        5040        5091        5090
         4        5040        5041        5092        5091
         4        5041        5042        5093        5092
         4        5042        5043        5094        5093
         4        5043        5044        5095        5094
         4        5044        5045        5096        5095
         4        5045        5046        5097        5096
         4        5046        5047        5098        5097
         4        5047        5048        5099        5098
         4        5049        5050        5101        5100
         4        5050        5051        5102        5101
         4        5051        5052        5103        5102
         4        5052        5053        5104        5103
         4        5053        5054        5105        5104
         4        5054        5055        5106        5105
         4        5055        5056        5107        5106
         4        5056        5057        5108        5107
         4        5057        5058        5109        5108
         4        5058        5059        5110        5109
         4        5059        5060        5111        5110
         4        5060        5061        5112        5111
         4        5061        5062        5113        5112
         4        5062        5063        5114        5113
         4        5063        5064        5115        5114
         4        5064        5065        5116        5115
         4        5065        5066        5117        5116
         4        5066        5067        5118        5117
         4        5067        5068        5119        5118
         4        5068        5069        5120        5119
         4        5069        5070        5121        5120
         4        5070        5071        5122        5121
         4        5071        5072        5123        5122
         4        5072        5073        5124        5123
         4        5073        5074        5125        5124
         4        5074        5075        5126        5125
         4        5075        5076        5127        5126
         4        5076        5077        5128        5127
         4        5077        5078        5129        5128
         4        5078        5079        5130        5129
         4        5079        5080        5131        5130
         4        5080        5081        5132        5131
         4        5081        5082        5133        5132
         4        5082        5083        5134        5133
         4        5083        5084        5135        5134
         4        5084        5085        5136        5135
         4        5085        5086        5137        5136
         4        5086        5087        5138        5137
         4        5087        5088        5139        5138
         4        5088        5089        5140        5139
         4        5089        5090        5141        5140
         4        5090        5091        5142        5141
         4        5091        5092        5143        5142
         4        5092        5093        5144        5143
         4        5093        5094        5145        5144
         4        5094        5095        5146        5145
         4        5095        5096        5147        5146
         4        5096        5097        5148        5147
         4        5097        5098        5149        5148
         4        5098        5099        5150        5149
CELL_TYPES       5000
9
9
9
9
9
9
9
9
9
9
9
9
9
9
9
9
9
9
9
9
9
9
9
9
9
9
9
9
9
9
9
9
9
9
9
9
9
9
9
9
9
9
9
9
9
9
9
9
9
9
9
9
9
9
9
9
9
9
9
9
9
9
9
9
9
9
9
9
9
9
9
9
9
9
9
9
9
9
9
9
9
9
9
9
9
9
9
9
9
9
9
9
9
9
9
9
9
9
9
9
9
9
9
9
9
9
9
9
9
9
9
9
9
9
9
9
9
9
9
9
9
9
9
9
9
9
9
9
9
9
9
9
9
9
9
9
9
9
9
9
9
9
9
9
9
9
9
9
9
9
9
9
9
9
9
9
9
9
9
9
9
9
9
9
9
9
9
9
9
9
9
9
9
9
9
9
9
9
9
9
9
9
9
9
9
9
9
9
9
9
9
9
9
9
9
9
9
9
9
9
9
9
9
9
9
9
9
9
9
9
9
9
9
9
9
9
9
9
9
9
9
9
9
9
9
9
9
9
9
9
9
9
9
9
9
9
9
9
9
9
9
9
9
9
9
9
9
9
9
9
9
9
9
9
9
9
9
9
9
9
9
9
9
9
9
9
9
9
9
9
9
9
9
9
9
9
9
9
9
9
9
9
9
9
9
9
9
9
9
9
9
9
9
9
9
9
9
9
9
9
9
9
9
9
9
9
9
9
9
9
9
9
9
9
9
9
9
9
9
9
9
9
9
9
9
9
9
9
9
9
9
9
9
9
9
9
9
9
9
9
9
9
9
9
9
9
9
9
9
9
9
9
9
9
9
9
9
9
9
9
9
9
9
9
9
9
9
9
9
9
9
9
9
9
9
9
9
9
9
9
9
9
9
9
9
9
9
9
9
9
9
9
9
9
9
9
9
9
9
9
9
9
9
9
9
9
9
9
9
9
9
9
9
9
9
9
9
9
9
9
9
9
9
9
9
9
9
9
9
9
9
9
9
9
9
9
9
9
9
9
9
9
9
9
9
9
9
9
9
9
9
9
9
9
9
9
9
9
9
9
9
9
9
9
9
9
9
9
9
9
9
9
9
9
9
9
9
9
9
9
9
9
9
9
9
9
9
9
9
9
9
9
9
9
9
9
9
9
9
9
9
9
9
9
9
9
9
9
9
9
9
9
9
9
9
9
9
9
9
9
9
9
9
9
9
9
9
9
9
9
9
9
9
9
9
9
9
9
9
9
9
9
9
9
9
9
9
9
9
9
9
9
9
9
9
9
9
9
9
9
9
9
9
9
9
9
9
9
9
9
9
9
9
9
9
9
9
9
9
9
9
9
9
9
9
9
9
9
9
9
9
9
9
9
9
9
9
9
9
9
9
9
9
9
9
9
9
9
9
9
9
9
9
9
9
9
9
9
9
9
9
9
9
9
9
9
9
9
9
9
9
9
9
9
9
9
9
9
9
9
9
9
9
9
9
9
9
9
9
9
9
9
9
9
9
9
9
9
9
9
9
9
9
9
9
9
9
9
9
9
9
9
9
9
9
9
9
9
9
9
9
9
9
9
9
9
9
9
9
9
9
9
9
9
9
9
9
9
9
9
9
9
9
9
9
9
9
9
9
9
9
9
9
9
9
9
9
9
9
9
9
9
9
9
9
9
9
9
9
9
9
9
9
9
9
9
9
9
9
9
9
9
9
9
9
9
9
9
9
9
9
9
9
9
9
9
9
9
9
9
9
9
9
9
9
9
9
9
9
9
9
9
9
9
9
9
9
9
9
9
9
9
9
9
9
9
9
9
9
9
9
9
9
9
9
9
9
9
9
9
9
9
9
9
9
9
9
9
9
9
9
9
9
9
9
9
9
9
9
9
9
9
9
9
9
9
9
9
9
9
9
9
9
9
9
9
9
9
9
9
9
9
9
9
9
9
9
9
9
9
9
9
9
9
9
9
9
9
9
9
9
9
9
9
9
9
9
9
9
9
9
9
9
9
9
9
9
9
9
9
9
9
9
9
9
9
9
9
9
9
9
9
9
9
9
9
9
9
9
9
9
9
9
9
9
9
9
9
9
9
9
9
9
9
9
9
9
9
9
9
9
9
9
9
9
9
9
9
9
9
9
9
9
9
9
9
9
9
9
9
9
9
9
9
9
9
9
9
9
9
9
9
9
9
9
9
9
9
9
9
9
9
9
9
9
9
9
9
9
9
9
9
9
9
9
9
9
9
9
9
9
9
9
9
9
9
9
9
9
9
9
9
9
9
9
9
9
9
9
9
9
9
9
9
9
9
9
9
9
9
9
9
9
9
9
9
9
9
9
9
9
9
9
9
9
9
9
9
9
9
9
9
9
9
9
9
9
9
9
9
9
9
9
9
9
9
9
9
9
9
9
9
9
9
9
9
9
9
9
9
9
9
9
9
9
9
9
9
9
9
9
9
9
9
9
9
9
9
9
9
9
9
9
9
9
9
9
9
9
9
9
9
9
9
9
9
9
9
9
9
9
9
9
9
9
9
9
9
9
9
9
9
9
9
9
9
9
9
9
9
9
9
9
9
9
9
9
9
9
9
9
9
9
9
9
9
9
9
9
9
9
9
9
9
9
9
9
9
9
9
9
9
9
9
9
9
9
9
9
9
9
9
9
9
9
9
9
9
9
9
9
9
9
9
9
9
9
9
9
9
9
9
9
9
9
9
9
9
9
9
9
9
9
9
9
9
9
9
9
9
9
9
9
9
9
9
9
9
9
9
9
9
9
9
9
9
9
9
9
9
9
9
9
9
9
9
9
9
9
9
9
9
9
9
9
9
9
9
9
9
9
9
9
9
9
9
9
9
9
9
9
9
9
9
9
9
9
9
9
9
9
9
9
9
9
9
9
9
9
9
9
9
9
9
9
9
9
9
9
9
9
9
9
9
9
9
9
9
9
9
9
9
9
9
9
9
9
9
9
9
9
9
9
9
9
9
9
9
9
9
9
9
9
9
9
9
9
9
9
9
9
9
9
9
9
9
9
9
9
9
9
9
9
9
9
9
9
9
9
9
9
9
9
9
9
9
9
9
9
9
9
9
9
9
9
9
9
9
9
9
9
9
9
9
9
9
9
9
9
9
9
9
9
9
9
9
9
9
9
9
9
9
9
9
9
9
9
9
9
9
9
9
9
9
9
9
9
9
9
9
9
9
9
9
9
9
9
9
9
9
9
9
9
9
9
9
9
9
9
9
9
9
9
9
9
9
9
9
9
9
9
9
9
9
9
9
9
9
9
9
9
9
9
9
9
9
9
9
9
9
9
9
9
9
9
9
9
9
9
9
9
9
9
9
9
9
9
9
9
9
9
9
9
9
9
9
9
9
9
9
9
9
9
9
9
9
9
9
9
9
9
9
9
9
9
9
9
9
9
9
9
9
9
9
9
9
9
9
9
9
9
9
9
9
9
9
9
9
9
9
9
9
9
9
9
9
9
9
9
9
9
9
9
9
9
9
9
9
9
9
9
9
9
9
9
9
9
9
9
9
9
9
9
9
9
9
9
9
9
9
9
9
9
9
9
9
9
9
9
9
9
9
9
9
9
9
9
9
9
9
9
9
9
9
9
9
9
9
9
9
9
9
9
9
9
9
9
9
9
9
9
9
9
9
9
9
9
9
9
9
9
9
9
9
9
9
9
9
9
9
9
9
9
9
9
9
9
9
9
9
9
9
9
9
9
9
9
9
9
9
9
9
9
9
9
9
9
9
9
9
9
9
9
9
9
9
9
9
9
9
9
9
9
9
9
9
9
9
9
9
9
9
9
9
9
9
9
9
9
9
9
9
9
9
9
9
9
9
9
9
9
9
9
9
9
9
9
9
9
9
9
9
9
9
9
9
9
9
9
9
9
9
9
9
9
9
9
9
9
9
9
9
9
9
9
9
9
9
9
9
9
9
9
9
9
9
9
9
9
9
9
9
9
9
9
9
9
9
9
9
9
9
9
9
9
9
9
9
9
9
9
9
9
9
9
9
9
9
9
9
9
9
9
9
9
9
9
9
9
9
9
9
9
9
9
9
9
9
9
9
9
9
9
9
9
9
9
9
9
9
9
9
9
9
9
9
9
9
9
9
9
9
9
9
9
9
9
9
9
9
9
9
9
9
9
9
9
9
9
9
9
9
9
9
9
9
9
9
9
9
9
9
9
9
9
9
9
9
9
9
9
9
9
9
9
9
9
9
9
9
9
9
9
9
9
9
9
9
9
9
9
9
9
9
9
9
9
9
9
9
9
9
9
9
9
9
9
9
9
9
9
9
9
9
9
9
9
9
9
9
9
9
9
9
9
9
9
9
9
9
9
9
9
9
9
9
9
9
9
9
9
9
9
9
9
9
9
9
9
9
9
9
9
9
9
9
9
9
9
9
9
9
9
9
9
9
9
9
9
9
9
9
9
9
9
9
9
9
9
9
9
9
9
9
9
9
9
9
9
9
9
9
9
9
9
9
9
9
9
9
9
9
9
9
9
9
9
9
9
9
9
9
9
9
9
9
9
9
9
9
9
9
9
9
9
9
9
9
9
9
9
9
9
9
9
9
9
9
9
9
9
9
9
9
9
9
9
9
9
9
9
9
9
9
9
9
9
9
9
9
9
9
9
9
9
9
9
9
9
9
9
9
9
9
9
9
9
9
9
9
9
9
9
9
9
9
9
9
9
9
9
9
9
9
9
9
9
9
9
9
9
9
9
9
9
9
9
9
9
9
9
9
9
9
9
9
9
9
9
9
9
9
9
9
9
9
9
9
9
9
9
9
9
9
9
9
9
9
9
9
9
9
9
9
9
9
9
9
9
9
9
9
9
9
9
9
9
9
9
9
9
9
9
9
9
9
9
9
9
9
9
9
9
9
9
9
9
9
9
9
9
9
9
9
9
9
9
9
9
9
9
9
9
9
9
9
9
9
9
9
9
9
9
9
9
9
9
9
9
9
9
9
9
9
9
9
9
9
9
9
9
9
9
9
9
9
9
9
9
9
9
9
9
9
9
9
9
9
9
9
9
9
9
9
9
9
9
9
9
9
9
9
9
9
9
9
9
9
9
9
9
9
9
9
9
9
9
9
9
9
9
9
9
9
9
9
9
9
9
9
9
9
9
9
9
9
9
9
9
9
9
9
9
9
9
9
9
9
9
9
9
9
9
9
9
9
9
9
9
9
9
9
9
9
9
9
9
9
9
9
9
9
9
9
9
9
9
9
9
9
9
9
9
9
9
9
9
9
9
9
9
9
9
9
9
9
9
9
9
9
9
9
9
9
9
9
9
9
9
9
9
9
9
9
9
9
9
9
9
9
9
9
9
9
9
9
9
9
9
9
9
9
9
9
9
9
9
9
9
9
9
9
9
9
9
9
9
9
9
9
9
9
9
9
9
9
9
9
9
9
9
9
9
9
9
9
9
9
9
9
9
9
9
9
9
9
9
9
9
9
9
9
9
9
9
9
9
9
9
9
9
9
9
9
9
9
9
9
9
9
9
9
9
9
9
9
9
9
9
9
9
9
9
9
9
9
9
9
9
9
9
9
9
9
9
9
9
9
9
9
9
9
9
9
9
9
9
9
9
9
9
9
9
9
9
9
9
9
9
9
9
9
9
9
9
9
9
9
9
9
9
9
9
9
9
9
9
9
9
9
9
9
9
9
9
9
9
9
9
9
9
9
9
9
9
9
9
9
9
9
9
9
9
9
9
9
9
9
9
9
9
9
9
9
9
9
9
9
9
9
9
9
9
9
9
9
9
9
9
9
9
9
9
9
9
9
9
9
9
9
9
9
9
9
9
9
9
9
9
9
9
9
9
9
9
9
9
9
9
9
9
9
9
9
9
9
9
9
9
9
9
9
9
9
9
9
9
9
9
9
9
9
9
9
9
9
9
9
9
9
9
9
9
9
9
9
9
9
9
9
9
9
9
9
9
9
9
9
9
9
9
9
9
9
9
9
9
9
9
9
9
9
9
9
9
9
9
9
9
9
9
9
9
9
9
9
9
9
9
9
9
9
9
9
9
9
9
9
9
9
9
9
9
9
9
9
9
9
9
9
9
9
9
9
9
9
9
9
9
9
9
9
9
9
9
9
9
9
9
9
9
9
9
9
9
9
9
9
9
9
9
9
9
9
9
9
9
9
9
9
9
9
9
9
9
9
9
9
9
9
9
9
9
9
9
9
9
9
9
9
9
9
9
9
9
9
9
9
9
9
9
9
9
9
9
9
9
9
9
9
9
9
9
9
9
9
9
9
9
9
9
9
9
9
9
9
9
9
9
9
9
9
9
9
9
9
9
9
9
9
9
9
9
9
9
9
9
9
9
9
9
9
9
9
9
9
9
9
9
9
9
9
9
9
9
9
9
9
9
9
9
9
9
9
9
9
9
9
9
9
9
9
9
9
9
9
9
9
9
9
9
9
9
9
9
9
9
9
9
9
9
9
9
9
9
9
9
9
9
9
9
9
9
9
9
9
9
9
9
9
9
9
9
9
9
9
9
9
9
9
9
9
9
9
9
9
9
9
9
9
9
9
9
9
9
9
9
9
9
9
9
9
9
9
9
9
9
9
9
9
9
9
9
9
9
9
9
9
9
9
9
9
9
9
9
9
9
9
9
9
9
9
9
9
9
9
9
9
9
9
9
9
9
9
9
9
9
9
9
9
9
9
9
9
9
9
9
9
9
9
9
9
9
9
9
9
9
9
9
9
9
9
9
9
9
9
9
9
9
9
9
9
9
9
9
9
9
9
9
9
9
9
9
9
9
9
9
9
9
9
9
9
9
9
9
9
9
9
9
9
9
9
9
9
9
9
9
9
9
9
9
9
9
9
9
9
9
9
9
9
9
9
9
9
9
9
9
9
9
9
9
9
9
9
9
9
9
9
9
9
9
9
9
9
9
9
9
9
9
9
9
9
9
9
9
9
9
9
9
9
9
9
9
9
9
9
9
9
9
9
9
9
9
9
9
9
9
9
9
9
9
9
9
9
9
9
9
9
9
9
9
9
9
9
9
9
9
9
9
9
9
9
9
9
9
9
9
9
9
9
9
9
9
9
9
9
9
9
9
9
9
9
9
9
9
9
9
9
9
9
9
9
9
9
9
9
9
9
9
9
9
9
9
9
9
9
9
9
9
9
9
9
9
9
9
9
9
9
9
9
9
9
9
9
9
9
9
9
9
9
9
9
9
9
9
9
9
9
9
9
9
9
9
9
9
9
9
9
9
9
9
9
9
9
9
9
9
9
9
9
9
9
9
9
9
9
9
9
9
9
9
9
9
9
9
9
9
9
9
9
9
9
9
9
9
9
9
9
9
9
9
9
9
9
9
9
9
9
9
9
9
9
9
9
9
9
9
9
9
9
9
9
9
9
9
9
9
9
9
9
9
9
9
9
9
9
9
9
9
9
9
9
9
9
9
9
9
9
9
9
9
9
9
9
9
9
9
9
9
9
9
9
9
9
9
9
9
9
9
9
9
9
9
9
9
9
9
9
9
9
9
9
9
9
9
9
9
9
9
9
9
9
9
9
9
9
9
9
9
9
9
9
9
9
9
9
9
9
9
9
9
9
9
9
9
9
9
9
9
9
9
9
9
9
9
9
9
9
9
9
9
9
9
9
9
9
9
9
9
9
9
9
9
9
9
9
9
9
9
9
9
9
9
9
9
9
9
9
9
9
9
9
9
9
9
9
9
9
9
9
9
9
9
9
9
9
9
9
9
9
9
9
9
9
9
9
9
9
9
9
9
9
9
9
9
9
9
9
9
9
9
9
9
9
9
9
9
9
9
9
9
9
9
9
9
9
9
9
9
9
9
9
9
9
9
9
9
9
9
9
9
9
9
9
9
9
9
9
9
9
9
9
9
9
9
9
9
9
9
9
9
9
9
9
9
9
9
9
9
9
9
9
9
9
9
9
9
9
9
9
9
9
9
9
9
9
9
9
9
9
9
9
9
9
9
9
9
9
9
9
9
9
9
9
9
9
9
9
9
9
9
9
9
9
9
9
9
9
9
9
9
9
9
9
9
9
9
9
9
9
9
9
9
9
9
9
9
9
9
9
9
9
9
9
9
9
9
9
9
9
9
9
9
9
9
9
9
9
9
9
9
9
9
9
9
9
9
9
9
9
9
9
9
9
9
9
9
9
9
9
9
9
9
9
9
9
9
9
9
9
9
9
9
9
9
9
9
9
9
9
9
9
9
9
9
9
9
9
9
9
9
9
9
9
9
9
9
9
9
9
9
9
9
9
9
9
9
9
9
9
9
9
9
9
9
9
9
9
9
9
9
9
9
9
9
9
9
9
9
9
9
9
9
9
9
9
9
9
9
9
9
9
9
9
9
9
9
9
9
9
9
9
9
9
9
9
9
9
9
9
9
9
9
9
9
9
9
9
9
9
9
9
9
9
9
9
9
9
9
9
9
9
9
9
9
9
9
9
9
9
9
9
9
9
9
9
9
9
9
9
9
9
9
9
9
9
9
9
9
9
9
9
9
9
9
9
9
9
9
9
9
9
9
9
9
9
9
9
9
9
9
9
9
9
9
9
9
9
9
9
9
9
9
9
9
9
9
9
9
9
9
9
9
9
9
9
9
9
9
9
9
9
9
9
9
9
9
9
9
9
9
9
9
9
9
9
9
9
9
9
9
9
9
9
9
9
9
9
9
9
9
9
9
9
9
9
9
9
9
9
9
9
9
9
9
9
9
9
9
9
9
9
9
9
9
9
9
9
9
9
9
9
9
9
9
9
9
9
9
9
9
9
9
9
9
9
9
9
9
9
9
9
9
9
9
9
9
9
9
9
9
9
9
9
9
9
9
9
9
9
9
9
9
9
9
9
9
9
9
9
9
9
9
9
9
9
9
9
9
9
9
9
9
9
9
9
9
9
9
9
9
9
9
9
9
9
9
9
9
9
9
9
9
9
9
9
9
9
9
9
9
9
9
9
9
9
9
9
9
9
9
9
9
9
9
9
9
9
9
9
9
9
9
9
9
9
9
9
9
9
9
9
9
9
9
9
9
9
9
9
9
9
9
9
9
9
9
9
9
9
9
9
9
9
9
9
9
9
9
9
9
9
9
9
9
9
9
9
9
9
9
9
9
9
9
9
9
9
9
9
9
9
9
9
9
9
9
9
9
9
9
9
9
9
9
9
9
9
9
9
9
9
9
9
9
9
9
9
9
9
9
9
9
9
9
9
9
9
9
9
9
9
9
9
9
9
9
9
9
9
9
9
9
9
9
9
9
9
9
9
9
9
9
9
9
9
9
9
9
9
9
9
9
9
9
9
9
9
9
9
9
9
9
9
9
9
9
9
9
9
9
9
9
9
9
9
9
9
9
9
9
9
9
9
9
9
9
9
9
9
9
9
9
9
9
9
9
9
9
9
9
9
9
9
9
9
9
9
9
9
9
9
9
9
9
9
9
9
9
9
9
9
9
9
9
9
9
9
9
9
9
9
9
9
9
9
9
9
9
9
9
9
9
9
9
9
9
9
9
9
9
9
9
9
9
9
9
9
9
9
9
9
9
9
9
9
9
9
9
9
9
9
9
9
9
9
9
9
9
9
9
9
9
9
9
9
9
9
9
9
9
9
9
9
9
9
9
9
9
9
9
9
9
9
9
9
9
9
9
9
9
9
9
9
9
9
9
9
9
9
9
9
9
9
9
9
9
9
9
9
9
9
9
9
9
9
9
9
9
9
9
9
9
9
9
9
9
9
9
9
9
9
9
9
9
9
9
9
9
9
9
9
9
9
9
9
9
9
9
9
9
9
9
9
9
9
9
9
9
9
9
9
9
9
9
9
9
9
9
9
9
9
9
9
9
9
9
9
9
9
9
9
9
9
9
9
9
9
9
9
9
9
9
9
9
9
9
9
9
9
9
9
9
9
9
9
9
9
9
9
9
9
9
9
9
9
9
9
9
9
9
9
9
9
9
9
9
9
9
9
9
9
9
9
9
9
9
9
9
9
9
9
9
9
9
9
9
9
9
9
9
9
9
9
9
9
9
9
9
9
9
9
9
9
9
9
9
9
9
9
9
9
9
9
9
9
9
9
9
9
9
9
9
9
9
9
9
9
9
9
9
9
9
9
9
9
9
9
9
9
9
9
9
9
9
9
9
9
9
9
9
9
9
9
9
9
9
9
9
9
9
9
9
9
9
9
9
9
9
9
9
9
9
9
9
9
9
9
9
9
9
9
9
9
9
9
9
9
9
9
9
9
9
9
9
9
9
9
9
9
9
9
9
9
9
9
9
9
9
9
9
9
9
9
9
9
9
9
9
9
9
9
9
9
9
9
9
9
9
9
9
9
9
9
9
9
9
9
9
9
9
9
9
9
9
9
9
9
9
9
9
9
9
9
9
9
9
9
9
9
9
9
9
9
9
9
9
9
9
9
9
9
9
9
9
9
9
9
9
9
9
9
9
9
9
9
9
9
9
9
9
9
9
9
9
9
9
9
9
9
9
9
9
9
9
9
9
9
9
9
9
9
9
9
9
9
9
9
9
9
9
9
9
9
9
9
9
9
9
9
9
9
9
9
9
9
9
9
9
9
9
9
9
9
9
9
9
9
9
9
9
9
9
9
9
9
9
9
9
9
9
9
9
9
9
9
9
9
9
9
9
9
9
9
9
9
9
9
9
9
9
9
9
9
9
9
9
9
9
9
9
9
9
9
9
9
9
9
9
9
9
9
9
9
9
9
9
9
9
9
9
9
9
9
9
9
9
9
9
9
9
9
9
9
9
9
9
9
9
9
9
9
9
9
9
9
9
9
9
9
9
9
9
9
9
9
9
9
9
9
9
9
9
9
9
9
9
9
9
9
9
9
9
9
9
9
9
9
9
9
9
9
9
9
9
9
9
9
9
9
9
9
9
9
9
9
9
9
9
9
9
9
9
9
9
9
9
9
9
9
9
9
9
9
9
9
9
9
9
9
9
9
9
9
9
9
9
9
9
9
9
9
9
9
9
9
9
9
9
9
9
9
9
9
9
9
9
9
9
9
9
9
9
9
9
9
9
9
9
9
9
9
9
9
9
9
9
9
9
9
9
9
9
9
9
9
9
9
9
9
9
9
9
9
9
9
9
9
9
9
9
9
9
9
9
9
9
9
9
9
9
9
9
9
9
9
9
9
9
9
9
9
9
9
9
9
9
9
9
9
9
9
9
9
9
9
9
9
9
9
9
9
9
9
9
9
9
9
9
9
9
9
9
9
9
9
9
9
9
9
9
9
9
9
9
9
9
9
9
9
9
9
9
9
9
9
9
9
9
9
POINT_DATA      5151
SCALARS p double 
LOOKUP_TABLE default
   50000000.0000000     
   50000000.0000000     
   50000000.0000000     
   50000000.0000000     
   50000000.0000000     
   50000000.0000000     
   50000000.0000000     
   50000000.0000000     
   50000000.0000000     
   50000000.0000000     
   50000000.0000000     
   50000000.0000000     
   50000000.0000000     
   50000000.0000000     
   50000000.0000000     
   50000000.0000000     
   50000000.0000000     
   50000000.0000000     
   50000000.0000000     
   50000000.0000000     
   50000000.0000000     
   50000000.0000000     
   50000000.0000000     
   50000000.0000000     
   50000000.0000000     
   50000000.0000000     
   50000000.0000000     
   50000000.0000000     
   50000000.0000000     
   50000000.0000000     
   50000000.0000000     
   50000000.0000000     
   50000000.0000000     
   50000000.0000000     
   50000000.0000000     
   50000000.0000000     
   50000000.0000000     
   50000000.0000000     
   50000000.0000000     
   50000000.0000000     
   50000000.0000000     
   50000000.0000000     
   50000000.0000000     
   50000000.0000000     
   50000000.0000000     
   50000000.0000000     
   50000000.0000000     
   50000000.0000000     
   50000000.0000000     
   50000000.0000000     
   50000000.0000000     
   49999999.7988156     
   49999999.7988156     
   49999999.7988156     
   49999999.7988156     
   49999999.7988156     
   49999999.7988156     
   49999999.7988157     
   49999999.7988157     
   49999999.7988157     
   49999999.7988157     
   49999999.7988157     
   49999999.7988157     
   49999999.7988157     
   49999999.7988157     
   49999999.7988157     
   49999999.7988157     
   49999999.7988157     
   49999999.7988157     
   49999999.7988157     
   49999999.7988157     
   49999999.7988157     
   49999999.7988157     
   49999999.7988157     
   49999999.7988157     
   49999999.7988157     
   49999999.7988157     
   49999999.7988157     
   49999999.7988157     
   49999999.7988157     
   49999999.7988157     
   49999999.7988157     
   49999999.7988157     
   49999999.7988158     
   49999999.7988158     
   49999999.7988157     
   49999999.7988158     
   49999999.7988158     
   49999999.7988157     
   49999999.7988158     
   49999999.7988158     
   49999999.7988158     
   49999999.7988158     
   49999999.7988158     
   49999999.7988158     
   49999999.7988158     
   49999999.7988158     
   49999999.7988158     
   49999999.7988158     
   49999999.7988159     
   49999999.7988159     
   49999999.7988159     
   49999999.5892555     
   49999999.5892555     
   49999999.5892555     
   49999999.5892556     
   49999999.5892556     
   49999999.5892557     
   49999999.5892557     
   49999999.5892557     
   49999999.5892557     
   49999999.5892557     
   49999999.5892557     
   49999999.5892557     
   49999999.5892557     
   49999999.5892557     
   49999999.5892557     
   49999999.5892557     
   49999999.5892558     
   49999999.5892558     
   49999999.5892557     
   49999999.5892558     
   49999999.5892558     
   49999999.5892558     
   49999999.5892559     
   49999999.5892559     
   49999999.5892559     
   49999999.5892559     
   49999999.5892559     
   49999999.5892559     
   49999999.5892559     
   49999999.5892559     
   49999999.5892558     
   49999999.5892558     
   49999999.5892558     
   49999999.5892559     
   49999999.5892559     
   49999999.5892559     
   49999999.5892559     
   49999999.5892559     
   49999999.5892559     
   49999999.5892559     
   49999999.5892559     
   49999999.5892559     
   49999999.5892559     
   49999999.5892558     
   49999999.5892558     
   49999999.5892558     
   49999999.5892558     
   49999999.5892559     
   49999999.5892559     
   49999999.5892559     
   49999999.5892559     
   49999999.3626021     
   49999999.3626021     
   49999999.3626021     
   49999999.3626022     
   49999999.3626022     
   49999999.3626023     
   49999999.3626023     
   49999999.3626023     
   49999999.3626023     
   49999999.3626023     
   49999999.3626023     
   49999999.3626024     
   49999999.3626023     
   49999999.3626023     
   49999999.3626023     
   49999999.3626023     
   49999999.3626022     
   49999999.3626023     
   49999999.3626023     
   49999999.3626024     
   49999999.3626024     
   49999999.3626024     
   49999999.3626023     
   49999999.3626023     
   49999999.3626023     
   49999999.3626023     
   49999999.3626023     
   49999999.3626023     
   49999999.3626023     
   49999999.3626024     
   49999999.3626024     
   49999999.3626023     
   49999999.3626024     
   49999999.3626024     
   49999999.3626024     
   49999999.3626024     
   49999999.3626024     
   49999999.3626024     
   49999999.3626024     
   49999999.3626024     
   49999999.3626024     
   49999999.3626024     
   49999999.3626024     
   49999999.3626024     
   49999999.3626024     
   49999999.3626024     
   49999999.3626024     
   49999999.3626023     
   49999999.3626023     
   49999999.3626023     
   49999999.3626023     
   49999999.1094396     
   49999999.1094396     
   49999999.1094396     
   49999999.1094396     
   49999999.1094396     
   49999999.1094396     
   49999999.1094396     
   49999999.1094396     
   49999999.1094396     
   49999999.1094396     
   49999999.1094396     
   49999999.1094395     
   49999999.1094395     
   49999999.1094396     
   49999999.1094396     
   49999999.1094396     
   49999999.1094396     
   49999999.1094396     
   49999999.1094396     
   49999999.1094396     
   49999999.1094397     
   49999999.1094397     
   49999999.1094397     
   49999999.1094397     
   49999999.1094397     
   49999999.1094397     
   49999999.1094397     
   49999999.1094397     
   49999999.1094397     
   49999999.1094397     
   49999999.1094397     
   49999999.1094398     
   49999999.1094398     
   49999999.1094398     
   49999999.1094398     
   49999999.1094397     
   49999999.1094397     
   49999999.1094397     
   49999999.1094397     
   49999999.1094398     
   49999999.1094398     
   49999999.1094398     
   49999999.1094398     
   49999999.1094398     
   49999999.1094398     
   49999999.1094399     
   49999999.1094399     
   49999999.1094399     
   49999999.1094399     
   49999999.1094399     
   49999999.1094399     
   49999998.8192704     
   49999998.8192704     
   49999998.8192704     
   49999998.8192703     
   49999998.8192703     
   49999998.8192703     
   49999998.8192703     
   49999998.8192703     
   49999998.8192703     
   49999998.8192703     
   49999998.8192703     
   49999998.8192703     
   49999998.8192702     
   49999998.8192702     
   49999998.8192702     
   49999998.8192702     
   49999998.8192702     
   49999998.8192702     
   49999998.8192703     
   49999998.8192703     
   49999998.8192703     
   49999998.8192703     
   49999998.8192703     
   49999998.8192703     
   49999998.8192704     
   49999998.8192704     
   49999998.8192704     
   49999998.8192705     
   49999998.8192704     
   49999998.8192704     
   49999998.8192704     
   49999998.8192704     
   49999998.8192704     
   49999998.8192704     
   49999998.8192704     
   49999998.8192704     
   49999998.8192704     
   49999998.8192704     
   49999998.8192704     
   49999998.8192704     
   49999998.8192705     
   49999998.8192705     
   49999998.8192706     
   49999998.8192706     
   49999998.8192707     
   49999998.8192706     
   49999998.8192707     
   49999998.8192707     
   49999998.8192707     
   49999998.8192707     
   49999998.8192707     
   49999998.4800888     
   49999998.4800888     
   49999998.4800888     
   49999998.4800889     
   49999998.4800889     
   49999998.4800889     
   49999998.4800889     
   49999998.4800889     
   49999998.4800889     
   49999998.4800888     
   49999998.4800887     
   49999998.4800887     
   49999998.4800887     
   49999998.4800887     
   49999998.4800887     
   49999998.4800886     
   49999998.4800886     
   49999998.4800885     
   49999998.4800885     
   49999998.4800885     
   49999998.4800885     
   49999998.4800885     
   49999998.4800885     
   49999998.4800885     
   49999998.4800885     
   49999998.4800884     
   49999998.4800885     
   49999998.4800885     
   49999998.4800885     
   49999998.4800885     
   49999998.4800886     
   49999998.4800886     
   49999998.4800886     
   49999998.4800886     
   49999998.4800886     
   49999998.4800886     
   49999998.4800886     
   49999998.4800887     
   49999998.4800887     
   49999998.4800886     
   49999998.4800887     
   49999998.4800887     
   49999998.4800887     
   49999998.4800887     
   49999998.4800888     
   49999998.4800888     
   49999998.4800889     
   49999998.4800888     
   49999998.4800889     
   49999998.4800888     
   49999998.4800888     
   49999998.0778939     
   49999998.0778939     
   49999998.0778939     
   49999998.0778939     
   49999998.0778939     
   49999998.0778938     
   49999998.0778938     
   49999998.0778938     
   49999998.0778937     
   49999998.0778936     
   49999998.0778936     
   49999998.0778935     
   49999998.0778935     
   49999998.0778935     
   49999998.0778935     
   49999998.0778934     
   49999998.0778934     
   49999998.0778934     
   49999998.0778933     
   49999998.0778933     
   49999998.0778932     
   49999998.0778932     
   49999998.0778932     
   49999998.0778932     
   49999998.0778932     
   49999998.0778932     
   49999998.0778932     
   49999998.0778932     
   49999998.0778932     
   49999998.0778932     
   49999998.0778932     
   49999998.0778932     
   49999998.0778932     
   49999998.0778932     
   49999998.0778932     
   49999998.0778932     
   49999998.0778932     
   49999998.0778932     
   49999998.0778933     
   49999998.0778933     
   49999998.0778934     
   49999998.0778934     
   49999998.0778934     
   49999998.0778935     
   49999998.0778935     
   49999998.0778935     
   49999998.0778935     
   49999998.0778935     
   49999998.0778935     
   49999998.0778935     
   49999998.0778934     
   49999997.5961229     
   49999997.5961229     
   49999997.5961228     
   49999997.5961228     
   49999997.5961227     
   49999997.5961227     
   49999997.5961227     
   49999997.5961227     
   49999997.5961226     
   49999997.5961226     
   49999997.5961226     
   49999997.5961225     
   49999997.5961225     
   49999997.5961225     
   49999997.5961225     
   49999997.5961225     
   49999997.5961225     
   49999997.5961224     
   49999997.5961224     
   49999997.5961224     
   49999997.5961224     
   49999997.5961224     
   49999997.5961224     
   49999997.5961223     
   49999997.5961223     
   49999997.5961224     
   49999997.5961224     
   49999997.5961224     
   49999997.5961224     
   49999997.5961223     
   49999997.5961223     
   49999997.5961223     
   49999997.5961224     
   49999997.5961224     
   49999997.5961224     
   49999997.5961224     
   49999997.5961225     
   49999997.5961225     
   49999997.5961225     
   49999997.5961225     
   49999997.5961225     
   49999997.5961225     
   49999997.5961225     
   49999997.5961224     
   49999997.5961224     
   49999997.5961224     
   49999997.5961224     
   49999997.5961224     
   49999997.5961224     
   49999997.5961224     
   49999997.5961224     
   49999997.0149849     
   49999997.0149849     
   49999997.0149849     
   49999997.0149849     
   49999997.0149849     
   49999997.0149849     
   49999997.0149849     
   49999997.0149848     
   49999997.0149848     
   49999997.0149847     
   49999997.0149848     
   49999997.0149847     
   49999997.0149848     
   49999997.0149847     
   49999997.0149847     
   49999997.0149847     
   49999997.0149847     
   49999997.0149847     
   49999997.0149847     
   49999997.0149847     
   49999997.0149847     
   49999997.0149847     
   49999997.0149847     
   49999997.0149847     
   49999997.0149847     
   49999997.0149848     
   49999997.0149848     
   49999997.0149848     
   49999997.0149848     
   49999997.0149848     
   49999997.0149848     
   49999997.0149848     
   49999997.0149848     
   49999997.0149848     
   49999997.0149848     
   49999997.0149848     
   49999997.0149848     
   49999997.0149848     
   49999997.0149849     
   49999997.0149849     
   49999997.0149848     
   49999997.0149848     
   49999997.0149848     
   49999997.0149848     
   49999997.0149848     
   49999997.0149848     
   49999997.0149848     
   49999997.0149848     
   49999997.0149848     
   49999997.0149848     
   49999997.0149848     
   49999996.3106652     
   49999996.3106652     
   49999996.3106652     
   49999996.3106652     
   49999996.3106652     
   49999996.3106653     
   49999996.3106652     
   49999996.3106652     
   49999996.3106652     
   49999996.3106652     
   49999996.3106652     
   49999996.3106652     
   49999996.3106652     
   49999996.3106652     
   49999996.3106652     
   49999996.3106652     
   49999996.3106652     
   49999996.3106652     
   49999996.3106652     
   49999996.3106652     
   49999996.3106652     
   49999996.3106653     
   49999996.3106653     
   49999996.3106653     
   49999996.3106653     
   49999996.3106653     
   49999996.3106654     
   49999996.3106654     
   49999996.3106654     
   49999996.3106653     
   49999996.3106653     
   49999996.3106653     
   49999996.3106653     
   49999996.3106653     
   49999996.3106653     
   49999996.3106653     
   49999996.3106654     
   49999996.3106654     
   49999996.3106654     
   49999996.3106654     
   49999996.3106654     
   49999996.3106654     
   49999996.3106654     
   49999996.3106654     
   49999996.3106654     
   49999996.3106654     
   49999996.3106654     
   49999996.3106655     
   49999996.3106655     
   49999996.3106655     
   49999996.3106655     
   49999995.4543705     
   49999995.4543705     
   49999995.4543705     
   49999995.4543706     
   49999995.4543706     
   49999995.4543706     
   49999995.4543706     
   49999995.4543706     
   49999995.4543706     
   49999995.4543706     
   49999995.4543706     
   49999995.4543705     
   49999995.4543705     
   49999995.4543705     
   49999995.4543705     
   49999995.4543705     
   49999995.4543705     
   49999995.4543705     
   49999995.4543705     
   49999995.4543705     
   49999995.4543705     
   49999995.4543705     
   49999995.4543705     
   49999995.4543705     
   49999995.4543706     
   49999995.4543706     
   49999995.4543706     
   49999995.4543706     
   49999995.4543706     
   49999995.4543706     
   49999995.4543706     
   49999995.4543706     
   49999995.4543706     
   49999995.4543707     
   49999995.4543707     
   49999995.4543707     
   49999995.4543707     
   49999995.4543707     
   49999995.4543708     
   49999995.4543708     
   49999995.4543708     
   49999995.4543708     
   49999995.4543708     
   49999995.4543708     
   49999995.4543708     
   49999995.4543708     
   49999995.4543708     
   49999995.4543707     
   49999995.4543707     
   49999995.4543707     
   49999995.4543707     
   49999994.4111790     
   49999994.4111790     
   49999994.4111790     
   49999994.4111790     
   49999994.4111790     
   49999994.4111790     
   49999994.4111790     
   49999994.4111790     
   49999994.4111790     
   49999994.4111789     
   49999994.4111789     
   49999994.4111789     
   49999994.4111790     
   49999994.4111790     
   49999994.4111790     
   49999994.4111790     
   49999994.4111789     
   49999994.4111789     
   49999994.4111790     
   49999994.4111790     
   49999994.4111790     
   49999994.4111790     
   49999994.4111790     
   49999994.4111790     
   49999994.4111790     
   49999994.4111790     
   49999994.4111790     
   49999994.4111790     
   49999994.4111790     
   49999994.4111791     
   49999994.4111791     
   49999994.4111791     
   49999994.4111791     
   49999994.4111791     
   49999994.4111792     
   49999994.4111792     
   49999994.4111792     
   49999994.4111792     
   49999994.4111793     
   49999994.4111793     
   49999994.4111793     
   49999994.4111793     
   49999994.4111793     
   49999994.4111794     
   49999994.4111794     
   49999994.4111794     
   49999994.4111793     
   49999994.4111793     
   49999994.4111793     
   49999994.4111793     
   49999994.4111792     
   49999993.1386503     
   49999993.1386504     
   49999993.1386504     
   49999993.1386504     
   49999993.1386504     
   49999993.1386503     
   49999993.1386503     
   49999993.1386503     
   49999993.1386503     
   49999993.1386503     
   49999993.1386503     
   49999993.1386503     
   49999993.1386503     
   49999993.1386503     
   49999993.1386503     
   49999993.1386503     
   49999993.1386503     
   49999993.1386503     
   49999993.1386503     
   49999993.1386503     
   49999993.1386504     
   49999993.1386503     
   49999993.1386503     
   49999993.1386503     
   49999993.1386503     
   49999993.1386504     
   49999993.1386504     
   49999993.1386504     
   49999993.1386504     
   49999993.1386505     
   49999993.1386505     
   49999993.1386505     
   49999993.1386505     
   49999993.1386505     
   49999993.1386505     
   49999993.1386505     
   49999993.1386505     
   49999993.1386505     
   49999993.1386506     
   49999993.1386506     
   49999993.1386507     
   49999993.1386507     
   49999993.1386506     
   49999993.1386506     
   49999993.1386507     
   49999993.1386507     
   49999993.1386507     
   49999993.1386507     
   49999993.1386507     
   49999993.1386507     
   49999993.1386507     
   49999991.5851405     
   49999991.5851405     
   49999991.5851405     
   49999991.5851405     
   49999991.5851405     
   49999991.5851404     
   49999991.5851405     
   49999991.5851404     
   49999991.5851404     
   49999991.5851404     
   49999991.5851404     
   49999991.5851404     
   49999991.5851404     
   49999991.5851404     
   49999991.5851405     
   49999991.5851404     
   49999991.5851405     
   49999991.5851405     
   49999991.5851405     
   49999991.5851405     
   49999991.5851404     
   49999991.5851404     
   49999991.5851404     
   49999991.5851404     
   49999991.5851404     
   49999991.5851404     
   49999991.5851404     
   49999991.5851405     
   49999991.5851405     
   49999991.5851405     
   49999991.5851406     
   49999991.5851406     
   49999991.5851406     
   49999991.5851406     
   49999991.5851406     
   49999991.5851406     
   49999991.5851406     
   49999991.5851406     
   49999991.5851406     
   49999991.5851406     
   49999991.5851406     
   49999991.5851407     
   49999991.5851407     
   49999991.5851407     
   49999991.5851407     
   49999991.5851407     
   49999991.5851407     
   49999991.5851407     
   49999991.5851407     
   49999991.5851407     
   49999991.5851407     
   49999989.6877574     
   49999989.6877574     
   49999989.6877574     
   49999989.6877574     
   49999989.6877574     
   49999989.6877574     
   49999989.6877573     
   49999989.6877573     
   49999989.6877573     
   49999989.6877573     
   49999989.6877573     
   49999989.6877573     
   49999989.6877573     
   49999989.6877573     
   49999989.6877573     
   49999989.6877573     
   49999989.6877573     
   49999989.6877573     
   49999989.6877573     
   49999989.6877573     
   49999989.6877573     
   49999989.6877574     
   49999989.6877574     
   49999989.6877574     
   49999989.6877574     
   49999989.6877573     
   49999989.6877574     
   49999989.6877574     
   49999989.6877574     
   49999989.6877574     
   49999989.6877574     
   49999989.6877574     
   49999989.6877574     
   49999989.6877574     
   49999989.6877574     
   49999989.6877574     
   49999989.6877574     
   49999989.6877574     
   49999989.6877574     
   49999989.6877574     
   49999989.6877574     
   49999989.6877574     
   49999989.6877574     
   49999989.6877575     
   49999989.6877575     
   49999989.6877576     
   49999989.6877576     
   49999989.6877577     
   49999989.6877577     
   49999989.6877576     
   49999989.6877576     
   49999987.3698801     
   49999987.3698801     
   49999987.3698801     
   49999987.3698801     
   49999987.3698801     
   49999987.3698801     
   49999987.3698800     
   49999987.3698800     
   49999987.3698800     
   49999987.3698800     
   49999987.3698800     
   49999987.3698800     
   49999987.3698800     
   49999987.3698800     
   49999987.3698800     
   49999987.3698800     
   49999987.3698800     
   49999987.3698800     
   49999987.3698800     
   49999987.3698801     
   49999987.3698801     
   49999987.3698801     
   49999987.3698800     
   49999987.3698800     
   49999987.3698801     
   49999987.3698801     
   49999987.3698801     
   49999987.3698801     
   49999987.3698801     
   49999987.3698801     
   49999987.3698801     
   49999987.3698801     
   49999987.3698801     
   49999987.3698801     
   49999987.3698801     
   49999987.3698801     
   49999987.3698801     
   49999987.3698801     
   49999987.3698801     
   49999987.3698801     
   49999987.3698801     
   49999987.3698801     
   49999987.3698801     
   49999987.3698801     
   49999987.3698801     
   49999987.3698801     
   49999987.3698801     
   49999987.3698801     
   49999987.3698801     
   49999987.3698802     
   49999987.3698802     
   49999984.5381457     
   49999984.5381457     
   49999984.5381457     
   49999984.5381457     
   49999984.5381457     
   49999984.5381456     
   49999984.5381456     
   49999984.5381455     
   49999984.5381455     
   49999984.5381455     
   49999984.5381455     
   49999984.5381455     
   49999984.5381456     
   49999984.5381456     
   49999984.5381456     
   49999984.5381456     
   49999984.5381456     
   49999984.5381456     
   49999984.5381456     
   49999984.5381455     
   49999984.5381455     
   49999984.5381455     
   49999984.5381455     
   49999984.5381455     
   49999984.5381455     
   49999984.5381455     
   49999984.5381455     
   49999984.5381455     
   49999984.5381455     
   49999984.5381455     
   49999984.5381456     
   49999984.5381456     
   49999984.5381455     
   49999984.5381455     
   49999984.5381456     
   49999984.5381455     
   49999984.5381455     
   49999984.5381455     
   49999984.5381455     
   49999984.5381455     
   49999984.5381454     
   49999984.5381454     
   49999984.5381453     
   49999984.5381453     
   49999984.5381453     
   49999984.5381454     
   49999984.5381454     
   49999984.5381455     
   49999984.5381456     
   49999984.5381455     
   49999984.5381455     
   49999981.0787891     
   49999981.0787891     
   49999981.0787891     
   49999981.0787891     
   49999981.0787891     
   49999981.0787891     
   49999981.0787891     
   49999981.0787891     
   49999981.0787891     
   49999981.0787891     
   49999981.0787891     
   49999981.0787890     
   49999981.0787890     
   49999981.0787890     
   49999981.0787890     
   49999981.0787890     
   49999981.0787890     
   49999981.0787890     
   49999981.0787891     
   49999981.0787891     
   49999981.0787890     
   49999981.0787890     
   49999981.0787890     
   49999981.0787890     
   49999981.0787890     
   49999981.0787890     
   49999981.0787890     
   49999981.0787890     
   49999981.0787890     
   49999981.0787890     
   49999981.0787890     
   49999981.0787890     
   49999981.0787890     
   49999981.0787891     
   49999981.0787891     
   49999981.0787891     
   49999981.0787890     
   49999981.0787890     
   49999981.0787890     
   49999981.0787889     
   49999981.0787889     
   49999981.0787888     
   49999981.0787888     
   49999981.0787888     
   49999981.0787888     
   49999981.0787888     
   49999981.0787888     
   49999981.0787888     
   49999981.0787888     
   49999981.0787888     
   49999981.0787888     
   49999976.8531992     
   49999976.8531992     
   49999976.8531992     
   49999976.8531992     
   49999976.8531992     
   49999976.8531992     
   49999976.8531992     
   49999976.8531992     
   49999976.8531992     
   49999976.8531992     
   49999976.8531992     
   49999976.8531991     
   49999976.8531991     
   49999976.8531991     
   49999976.8531991     
   49999976.8531991     
   49999976.8531991     
   49999976.8531991     
   49999976.8531991     
   49999976.8531991     
   49999976.8531992     
   49999976.8531992     
   49999976.8531992     
   49999976.8531992     
   49999976.8531992     
   49999976.8531991     
   49999976.8531991     
   49999976.8531991     
   49999976.8531991     
   49999976.8531991     
   49999976.8531991     
   49999976.8531991     
   49999976.8531991     
   49999976.8531991     
   49999976.8531991     
   49999976.8531990     
   49999976.8531990     
   49999976.8531990     
   49999976.8531989     
   49999976.8531989     
   49999976.8531989     
   49999976.8531989     
   49999976.8531988     
   49999976.8531989     
   49999976.8531989     
   49999976.8531989     
   49999976.8531989     
   49999976.8531989     
   49999976.8531989     
   49999976.8531989     
   49999976.8531989     
   49999971.6925211     
   49999971.6925211     
   49999971.6925212     
   49999971.6925212     
   49999971.6925212     
   49999971.6925212     
   49999971.6925213     
   49999971.6925213     
   49999971.6925213     
   49999971.6925212     
   49999971.6925212     
   49999971.6925212     
   49999971.6925212     
   49999971.6925213     
   49999971.6925213     
   49999971.6925213     
   49999971.6925212     
   49999971.6925212     
   49999971.6925212     
   49999971.6925212     
   49999971.6925212     
   49999971.6925212     
   49999971.6925212     
   49999971.6925212     
   49999971.6925212     
   49999971.6925212     
   49999971.6925212     
   49999971.6925212     
   49999971.6925211     
   49999971.6925211     
   49999971.6925212     
   49999971.6925212     
   49999971.6925212     
   49999971.6925212     
   49999971.6925211     
   49999971.6925211     
   49999971.6925211     
   49999971.6925211     
   49999971.6925210     
   49999971.6925210     
   49999971.6925210     
   49999971.6925210     
   49999971.6925211     
   49999971.6925210     
   49999971.6925210     
   49999971.6925210     
   49999971.6925210     
   49999971.6925210     
   49999971.6925210     
   49999971.6925210     
   49999971.6925210     
   49999965.3911058     
   49999965.3911058     
   49999965.3911058     
   49999965.3911058     
   49999965.3911058     
   49999965.3911058     
   49999965.3911059     
   49999965.3911059     
   49999965.3911059     
   49999965.3911059     
   49999965.3911060     
   49999965.3911060     
   49999965.3911060     
   49999965.3911060     
   49999965.3911059     
   49999965.3911059     
   49999965.3911060     
   49999965.3911060     
   49999965.3911060     
   49999965.3911060     
   49999965.3911060     
   49999965.3911060     
   49999965.3911060     
   49999965.3911060     
   49999965.3911060     
   49999965.3911059     
   49999965.3911059     
   49999965.3911059     
   49999965.3911059     
   49999965.3911059     
   49999965.3911058     
   49999965.3911058     
   49999965.3911058     
   49999965.3911058     
   49999965.3911058     
   49999965.3911058     
   49999965.3911058     
   49999965.3911058     
   49999965.3911058     
   49999965.3911058     
   49999965.3911058     
   49999965.3911057     
   49999965.3911057     
   49999965.3911057     
   49999965.3911057     
   49999965.3911056     
   49999965.3911056     
   49999965.3911056     
   49999965.3911056     
   49999965.3911056     
   49999965.3911056     
   49999957.6985583     
   49999957.6985583     
   49999957.6985583     
   49999957.6985583     
   49999957.6985583     
   49999957.6985583     
   49999957.6985584     
   49999957.6985584     
   49999957.6985585     
   49999957.6985585     
   49999957.6985585     
   49999957.6985585     
   49999957.6985585     
   49999957.6985585     
   49999957.6985585     
   49999957.6985585     
   49999957.6985585     
   49999957.6985585     
   49999957.6985586     
   49999957.6985586     
   49999957.6985586     
   49999957.6985586     
   49999957.6985586     
   49999957.6985586     
   49999957.6985586     
   49999957.6985586     
   49999957.6985586     
   49999957.6985585     
   49999957.6985585     
   49999957.6985584     
   49999957.6985584     
   49999957.6985584     
   49999957.6985583     
   49999957.6985583     
   49999957.6985583     
   49999957.6985582     
   49999957.6985582     
   49999957.6985582     
   49999957.6985582     
   49999957.6985582     
   49999957.6985581     
   49999957.6985581     
   49999957.6985582     
   49999957.6985582     
   49999957.6985582     
   49999957.6985581     
   49999957.6985581     
   49999957.6985581     
   49999957.6985582     
   49999957.6985582     
   49999957.6985582     
   49999948.3100943     
   49999948.3100942     
   49999948.3100942     
   49999948.3100943     
   49999948.3100943     
   49999948.3100943     
   49999948.3100944     
   49999948.3100944     
   49999948.3100944     
   49999948.3100943     
   49999948.3100943     
   49999948.3100944     
   49999948.3100944     
   49999948.3100944     
   49999948.3100944     
   49999948.3100944     
   49999948.3100944     
   49999948.3100944     
   49999948.3100944     
   49999948.3100943     
   49999948.3100944     
   49999948.3100944     
   49999948.3100943     
   49999948.3100943     
   49999948.3100943     
   49999948.3100943     
   49999948.3100943     
   49999948.3100942     
   49999948.3100941     
   49999948.3100941     
   49999948.3100941     
   49999948.3100940     
   49999948.3100940     
   49999948.3100940     
   49999948.3100940     
   49999948.3100940     
   49999948.3100940     
   49999948.3100940     
   49999948.3100940     
   49999948.3100940     
   49999948.3100940     
   49999948.3100940     
   49999948.3100940     
   49999948.3100940     
   49999948.3100940     
   49999948.3100940     
   49999948.3100941     
   49999948.3100940     
   49999948.3100940     
   49999948.3100940     
   49999948.3100940     
   49999936.8548442     
   49999936.8548442     
   49999936.8548442     
   49999936.8548442     
   49999936.8548442     
   49999936.8548442     
   49999936.8548442     
   49999936.8548442     
   49999936.8548443     
   49999936.8548443     
   49999936.8548443     
   49999936.8548443     
   49999936.8548443     
   49999936.8548443     
   49999936.8548442     
   49999936.8548442     
   49999936.8548442     
   49999936.8548442     
   49999936.8548442     
   49999936.8548442     
   49999936.8548442     
   49999936.8548442     
   49999936.8548441     
   49999936.8548441     
   49999936.8548440     
   49999936.8548440     
   49999936.8548439     
   49999936.8548439     
   49999936.8548439     
   49999936.8548439     
   49999936.8548439     
   49999936.8548439     
   49999936.8548438     
   49999936.8548438     
   49999936.8548438     
   49999936.8548438     
   49999936.8548438     
   49999936.8548438     
   49999936.8548438     
   49999936.8548438     
   49999936.8548439     
   49999936.8548438     
   49999936.8548438     
   49999936.8548438     
   49999936.8548438     
   49999936.8548438     
   49999936.8548438     
   49999936.8548438     
   49999936.8548438     
   49999936.8548438     
   49999936.8548438     
   49999922.8816789     
   49999922.8816789     
   49999922.8816789     
   49999922.8816789     
   49999922.8816789     
   49999922.8816789     
   49999922.8816790     
   49999922.8816790     
   49999922.8816789     
   49999922.8816789     
   49999922.8816789     
   49999922.8816789     
   49999922.8816789     
   49999922.8816789     
   49999922.8816789     
   49999922.8816788     
   49999922.8816788     
   49999922.8816787     
   49999922.8816786     
   49999922.8816786     
   49999922.8816786     
   49999922.8816785     
   49999922.8816785     
   49999922.8816784     
   49999922.8816784     
   49999922.8816783     
   49999922.8816783     
   49999922.8816783     
   49999922.8816783     
   49999922.8816783     
   49999922.8816783     
   49999922.8816783     
   49999922.8816782     
   49999922.8816782     
   49999922.8816781     
   49999922.8816781     
   49999922.8816781     
   49999922.8816782     
   49999922.8816782     
   49999922.8816782     
   49999922.8816782     
   49999922.8816781     
   49999922.8816781     
   49999922.8816781     
   49999922.8816781     
   49999922.8816780     
   49999922.8816781     
   49999922.8816781     
   49999922.8816781     
   49999922.8816781     
   49999922.8816781     
   49999905.8420355     
   49999905.8420355     
   49999905.8420355     
   49999905.8420355     
   49999905.8420355     
   49999905.8420355     
   49999905.8420355     
   49999905.8420354     
   49999905.8420354     
   49999905.8420354     
   49999905.8420354     
   49999905.8420354     
   49999905.8420353     
   49999905.8420353     
   49999905.8420353     
   49999905.8420352     
   49999905.8420351     
   49999905.8420351     
   49999905.8420351     
   49999905.8420350     
   49999905.8420350     
   49999905.8420350     
   49999905.8420349     
   49999905.8420349     
   49999905.8420349     
   49999905.8420349     
   49999905.8420348     
   49999905.8420348     
   49999905.8420347     
   49999905.8420346     
   49999905.8420346     
   49999905.8420346     
   49999905.8420346     
   49999905.8420345     
   49999905.8420345     
   49999905.8420344     
   49999905.8420344     
   49999905.8420344     
   49999905.8420344     
   49999905.8420344     
   49999905.8420344     
   49999905.8420344     
   49999905.8420345     
   49999905.8420345     
   49999905.8420344     
   49999905.8420343     
   49999905.8420343     
   49999905.8420343     
   49999905.8420342     
   49999905.8420342     
   49999905.8420342     
   49999885.0691217     
   49999885.0691218     
   49999885.0691218     
   49999885.0691217     
   49999885.0691217     
   49999885.0691217     
   49999885.0691216     
   49999885.0691216     
   49999885.0691216     
   49999885.0691216     
   49999885.0691215     
   49999885.0691215     
   49999885.0691214     
   49999885.0691215     
   49999885.0691214     
   49999885.0691214     
   49999885.0691213     
   49999885.0691213     
   49999885.0691212     
   49999885.0691212     
   49999885.0691212     
   49999885.0691212     
   49999885.0691211     
   49999885.0691210     
   49999885.0691210     
   49999885.0691209     
   49999885.0691209     
   49999885.0691208     
   49999885.0691208     
   49999885.0691207     
   49999885.0691207     
   49999885.0691207     
   49999885.0691207     
   49999885.0691206     
   49999885.0691206     
   49999885.0691205     
   49999885.0691205     
   49999885.0691205     
   49999885.0691205     
   49999885.0691204     
   49999885.0691204     
   49999885.0691204     
   49999885.0691204     
   49999885.0691204     
   49999885.0691203     
   49999885.0691203     
   49999885.0691203     
   49999885.0691203     
   49999885.0691204     
   49999885.0691204     
   49999885.0691204     
   49999859.7527461     
   49999859.7527461     
   49999859.7527461     
   49999859.7527461     
   49999859.7527461     
   49999859.7527460     
   49999859.7527460     
   49999859.7527459     
   49999859.7527459     
   49999859.7527458     
   49999859.7527458     
   49999859.7527458     
   49999859.7527457     
   49999859.7527457     
   49999859.7527457     
   49999859.7527456     
   49999859.7527456     
   49999859.7527456     
   49999859.7527456     
   49999859.7527456     
   49999859.7527456     
   49999859.7527455     
   49999859.7527454     
   49999859.7527453     
   49999859.7527453     
   49999859.7527453     
   49999859.7527452     
   49999859.7527452     
   49999859.7527451     
   49999859.7527451     
   49999859.7527450     
   49999859.7527450     
   49999859.7527450     
   49999859.7527450     
   49999859.7527449     
   49999859.7527449     
   49999859.7527449     
   49999859.7527448     
   49999859.7527447     
   49999859.7527447     
   49999859.7527447     
   49999859.7527446     
   49999859.7527446     
   49999859.7527445     
   49999859.7527445     
   49999859.7527444     
   49999859.7527444     
   49999859.7527444     
   49999859.7527444     
   49999859.7527444     
   49999859.7527444     
   49999828.9088693     
   49999828.9088693     
   49999828.9088693     
   49999828.9088693     
   49999828.9088693     
   49999828.9088692     
   49999828.9088692     
   49999828.9088692     
   49999828.9088692     
   49999828.9088691     
   49999828.9088691     
   49999828.9088691     
   49999828.9088691     
   49999828.9088691     
   49999828.9088691     
   49999828.9088691     
   49999828.9088690     
   49999828.9088690     
   49999828.9088690     
   49999828.9088689     
   49999828.9088688     
   49999828.9088688     
   49999828.9088688     
   49999828.9088688     
   49999828.9088687     
   49999828.9088687     
   49999828.9088686     
   49999828.9088686     
   49999828.9088686     
   49999828.9088686     
   49999828.9088686     
   49999828.9088685     
   49999828.9088685     
   49999828.9088684     
   49999828.9088683     
   49999828.9088683     
   49999828.9088682     
   49999828.9088682     
   49999828.9088682     
   49999828.9088682     
   49999828.9088681     
   49999828.9088681     
   49999828.9088680     
   49999828.9088680     
   49999828.9088679     
   49999828.9088679     
   49999828.9088678     
   49999828.9088678     
   49999828.9088678     
   49999828.9088678     
   49999828.9088678     
   49999791.3427920     
   49999791.3427920     
   49999791.3427920     
   49999791.3427920     
   49999791.3427920     
   49999791.3427920     
   49999791.3427920     
   49999791.3427920     
   49999791.3427921     
   49999791.3427920     
   49999791.3427920     
   49999791.3427920     
   49999791.3427920     
   49999791.3427919     
   49999791.3427919     
   49999791.3427919     
   49999791.3427918     
   49999791.3427918     
   49999791.3427917     
   49999791.3427917     
   49999791.3427917     
   49999791.3427917     
   49999791.3427916     
   49999791.3427916     
   49999791.3427915     
   49999791.3427915     
   49999791.3427915     
   49999791.3427915     
   49999791.3427915     
   49999791.3427914     
   49999791.3427914     
   49999791.3427913     
   49999791.3427914     
   49999791.3427913     
   49999791.3427912     
   49999791.3427912     
   49999791.3427912     
   49999791.3427912     
   49999791.3427912     
   49999791.3427912     
   49999791.3427912     
   49999791.3427912     
   49999791.3427912     
   49999791.3427911     
   49999791.3427911     
   49999791.3427910     
   49999791.3427910     
   49999791.3427910     
   49999791.3427910     
   49999791.3427910     
   49999791.3427910     
   49999745.6046706     
   49999745.6046706     
   49999745.6046706     
   49999745.6046706     
   49999745.6046706     
   49999745.6046706     
   49999745.6046706     
   49999745.6046706     
   49999745.6046706     
   49999745.6046705     
   49999745.6046706     
   49999745.6046706     
   49999745.6046706     
   49999745.6046705     
   49999745.6046705     
   49999745.6046705     
   49999745.6046705     
   49999745.6046705     
   49999745.6046704     
   49999745.6046704     
   49999745.6046703     
   49999745.6046703     
   49999745.6046703     
   49999745.6046702     
   49999745.6046702     
   49999745.6046701     
   49999745.6046701     
   49999745.6046701     
   49999745.6046701     
   49999745.6046701     
   49999745.6046702     
   49999745.6046702     
   49999745.6046701     
   49999745.6046701     
   49999745.6046702     
   49999745.6046701     
   49999745.6046701     
   49999745.6046701     
   49999745.6046701     
   49999745.6046701     
   49999745.6046701     
   49999745.6046701     
   49999745.6046700     
   49999745.6046700     
   49999745.6046700     
   49999745.6046700     
   49999745.6046700     
   49999745.6046700     
   49999745.6046699     
   49999745.6046699     
   49999745.6046698     
   49999689.9357963     
   49999689.9357962     
   49999689.9357962     
   49999689.9357962     
   49999689.9357963     
   49999689.9357963     
   49999689.9357964     
   49999689.9357963     
   49999689.9357964     
   49999689.9357963     
   49999689.9357963     
   49999689.9357962     
   49999689.9357962     
   49999689.9357962     
   49999689.9357962     
   49999689.9357962     
   49999689.9357962     
   49999689.9357961     
   49999689.9357961     
   49999689.9357961     
   49999689.9357961     
   49999689.9357960     
   49999689.9357960     
   49999689.9357959     
   49999689.9357959     
   49999689.9357959     
   49999689.9357959     
   49999689.9357959     
   49999689.9357959     
   49999689.9357958     
   49999689.9357958     
   49999689.9357958     
   49999689.9357958     
   49999689.9357958     
   49999689.9357957     
   49999689.9357957     
   49999689.9357958     
   49999689.9357958     
   49999689.9357959     
   49999689.9357959     
   49999689.9357959     
   49999689.9357959     
   49999689.9357959     
   49999689.9357959     
   49999689.9357959     
   49999689.9357959     
   49999689.9357959     
   49999689.9357958     
   49999689.9357958     
   49999689.9357958     
   49999689.9357959     
   49999622.2037573     
   49999622.2037573     
   49999622.2037573     
   49999622.2037573     
   49999622.2037573     
   49999622.2037572     
   49999622.2037572     
   49999622.2037573     
   49999622.2037573     
   49999622.2037572     
   49999622.2037572     
   49999622.2037572     
   49999622.2037572     
   49999622.2037572     
   49999622.2037572     
   49999622.2037572     
   49999622.2037571     
   49999622.2037571     
   49999622.2037571     
   49999622.2037570     
   49999622.2037570     
   49999622.2037570     
   49999622.2037569     
   49999622.2037569     
   49999622.2037568     
   49999622.2037568     
   49999622.2037568     
   49999622.2037568     
   49999622.2037569     
   49999622.2037569     
   49999622.2037569     
   49999622.2037569     
   49999622.2037569     
   49999622.2037570     
   49999622.2037570     
   49999622.2037570     
   49999622.2037570     
   49999622.2037570     
   49999622.2037570     
   49999622.2037569     
   49999622.2037569     
   49999622.2037570     
   49999622.2037569     
   49999622.2037569     
   49999622.2037569     
   49999622.2037569     
   49999622.2037569     
   49999622.2037569     
   49999622.2037569     
   49999622.2037569     
   49999622.2037568     
   49999539.8242329     
   49999539.8242329     
   49999539.8242328     
   49999539.8242329     
   49999539.8242329     
   49999539.8242329     
   49999539.8242329     
   49999539.8242329     
   49999539.8242329     
   49999539.8242329     
   49999539.8242329     
   49999539.8242329     
   49999539.8242328     
   49999539.8242328     
   49999539.8242327     
   49999539.8242327     
   49999539.8242327     
   49999539.8242327     
   49999539.8242327     
   49999539.8242327     
   49999539.8242326     
   49999539.8242326     
   49999539.8242325     
   49999539.8242325     
   49999539.8242325     
   49999539.8242325     
   49999539.8242325     
   49999539.8242326     
   49999539.8242326     
   49999539.8242326     
   49999539.8242326     
   49999539.8242326     
   49999539.8242326     
   49999539.8242326     
   49999539.8242326     
   49999539.8242327     
   49999539.8242327     
   49999539.8242327     
   49999539.8242326     
   49999539.8242326     
   49999539.8242326     
   49999539.8242326     
   49999539.8242326     
   49999539.8242326     
   49999539.8242326     
   49999539.8242325     
   49999539.8242325     
   49999539.8242325     
   49999539.8242325     
   49999539.8242324     
   49999539.8242324     
   49999439.6667254     
   49999439.6667254     
   49999439.6667255     
   49999439.6667255     
   49999439.6667254     
   49999439.6667255     
   49999439.6667256     
   49999439.6667255     
   49999439.6667255     
   49999439.6667254     
   49999439.6667254     
   49999439.6667254     
   49999439.6667254     
   49999439.6667254     
   49999439.6667254     
   49999439.6667254     
   49999439.6667253     
   49999439.6667253     
   49999439.6667253     
   49999439.6667253     
   49999439.6667252     
   49999439.6667252     
   49999439.6667251     
   49999439.6667251     
   49999439.6667251     
   49999439.6667251     
   49999439.6667252     
   49999439.6667252     
   49999439.6667252     
   49999439.6667252     
   49999439.6667252     
   49999439.6667253     
   49999439.6667253     
   49999439.6667253     
   49999439.6667252     
   49999439.6667252     
   49999439.6667252     
   49999439.6667252     
   49999439.6667252     
   49999439.6667252     
   49999439.6667252     
   49999439.6667251     
   49999439.6667251     
   49999439.6667250     
   49999439.6667250     
   49999439.6667250     
   49999439.6667249     
   49999439.6667249     
   49999439.6667249     
   49999439.6667249     
   49999439.6667249     
   49999317.9410059     
   49999317.9410059     
   49999317.9410059     
   49999317.9410060     
   49999317.9410060     
   49999317.9410060     
   49999317.9410060     
   49999317.9410060     
   49999317.9410060     
   49999317.9410060     
   49999317.9410059     
   49999317.9410059     
   49999317.9410059     
   49999317.9410059     
   49999317.9410059     
   49999317.9410058     
   49999317.9410058     
   49999317.9410057     
   49999317.9410057     
   49999317.9410057     
   49999317.9410057     
   49999317.9410057     
   49999317.9410057     
   49999317.9410057     
   49999317.9410057     
   49999317.9410057     
   49999317.9410057     
   49999317.9410057     
   49999317.9410057     
   49999317.9410057     
   49999317.9410057     
   49999317.9410057     
   49999317.9410057     
   49999317.9410058     
   49999317.9410058     
   49999317.9410058     
   49999317.9410058     
   49999317.9410057     
   49999317.9410057     
   49999317.9410056     
   49999317.9410056     
   49999317.9410056     
   49999317.9410056     
   49999317.9410055     
   49999317.9410055     
   49999317.9410054     
   49999317.9410054     
   49999317.9410053     
   49999317.9410053     
   49999317.9410053     
   49999317.9410053     
   49999170.0604253     
   49999170.0604253     
   49999170.0604253     
   49999170.0604253     
   49999170.0604253     
   49999170.0604253     
   49999170.0604253     
   49999170.0604253     
   49999170.0604252     
   49999170.0604252     
   49999170.0604252     
   49999170.0604252     
   49999170.0604252     
   49999170.0604252     
   49999170.0604253     
   49999170.0604252     
   49999170.0604253     
   49999170.0604253     
   49999170.0604252     
   49999170.0604251     
   49999170.0604251     
   49999170.0604251     
   49999170.0604251     
   49999170.0604251     
   49999170.0604251     
   49999170.0604251     
   49999170.0604251     
   49999170.0604251     
   49999170.0604252     
   49999170.0604252     
   49999170.0604252     
   49999170.0604252     
   49999170.0604251     
   49999170.0604251     
   49999170.0604252     
   49999170.0604252     
   49999170.0604251     
   49999170.0604251     
   49999170.0604251     
   49999170.0604251     
   49999170.0604251     
   49999170.0604251     
   49999170.0604251     
   49999170.0604251     
   49999170.0604251     
   49999170.0604251     
   49999170.0604250     
   49999170.0604250     
   49999170.0604249     
   49999170.0604249     
   49999170.0604249     
   49998990.4774981     
   49998990.4774981     
   49998990.4774982     
   49998990.4774982     
   49998990.4774982     
   49998990.4774981     
   49998990.4774981     
   49998990.4774982     
   49998990.4774982     
   49998990.4774982     
   49998990.4774982     
   49998990.4774983     
   49998990.4774982     
   49998990.4774982     
   49998990.4774982     
   49998990.4774982     
   49998990.4774981     
   49998990.4774981     
   49998990.4774981     
   49998990.4774981     
   49998990.4774981     
   49998990.4774980     
   49998990.4774980     
   49998990.4774980     
   49998990.4774980     
   49998990.4774980     
   49998990.4774980     
   49998990.4774980     
   49998990.4774980     
   49998990.4774980     
   49998990.4774981     
   49998990.4774981     
   49998990.4774981     
   49998990.4774981     
   49998990.4774981     
   49998990.4774981     
   49998990.4774981     
   49998990.4774981     
   49998990.4774981     
   49998990.4774981     
   49998990.4774981     
   49998990.4774981     
   49998990.4774981     
   49998990.4774981     
   49998990.4774981     
   49998990.4774980     
   49998990.4774980     
   49998990.4774980     
   49998990.4774980     
   49998990.4774980     
   49998990.4774980     
   49998772.4862833     
   49998772.4862833     
   49998772.4862833     
   49998772.4862833     
   49998772.4862833     
   49998772.4862833     
   49998772.4862834     
   49998772.4862834     
   49998772.4862834     
   49998772.4862835     
   49998772.4862834     
   49998772.4862835     
   49998772.4862835     
   49998772.4862834     
   49998772.4862834     
   49998772.4862834     
   49998772.4862834     
   49998772.4862834     
   49998772.4862833     
   49998772.4862833     
   49998772.4862833     
   49998772.4862833     
   49998772.4862832     
   49998772.4862832     
   49998772.4862832     
   49998772.4862831     
   49998772.4862831     
   49998772.4862831     
   49998772.4862831     
   49998772.4862831     
   49998772.4862831     
   49998772.4862831     
   49998772.4862831     
   49998772.4862832     
   49998772.4862832     
   49998772.4862833     
   49998772.4862833     
   49998772.4862833     
   49998772.4862833     
   49998772.4862833     
   49998772.4862833     
   49998772.4862833     
   49998772.4862833     
   49998772.4862833     
   49998772.4862833     
   49998772.4862834     
   49998772.4862834     
   49998772.4862834     
   49998772.4862834     
   49998772.4862834     
   49998772.4862834     
   49998507.9850455     
   49998507.9850455     
   49998507.9850455     
   49998507.9850455     
   49998507.9850455     
   49998507.9850455     
   49998507.9850456     
   49998507.9850456     
   49998507.9850457     
   49998507.9850457     
   49998507.9850457     
   49998507.9850457     
   49998507.9850457     
   49998507.9850458     
   49998507.9850458     
   49998507.9850457     
   49998507.9850457     
   49998507.9850457     
   49998507.9850457     
   49998507.9850457     
   49998507.9850456     
   49998507.9850456     
   49998507.9850455     
   49998507.9850455     
   49998507.9850454     
   49998507.9850454     
   49998507.9850454     
   49998507.9850453     
   49998507.9850453     
   49998507.9850453     
   49998507.9850454     
   49998507.9850454     
   49998507.9850455     
   49998507.9850455     
   49998507.9850456     
   49998507.9850455     
   49998507.9850455     
   49998507.9850455     
   49998507.9850455     
   49998507.9850455     
   49998507.9850455     
   49998507.9850455     
   49998507.9850455     
   49998507.9850455     
   49998507.9850455     
   49998507.9850456     
   49998507.9850456     
   49998507.9850456     
   49998507.9850456     
   49998507.9850456     
   49998507.9850456     
   49998187.1914483     
   49998187.1914483     
   49998187.1914483     
   49998187.1914483     
   49998187.1914483     
   49998187.1914484     
   49998187.1914483     
   49998187.1914484     
   49998187.1914484     
   49998187.1914484     
   49998187.1914485     
   49998187.1914485     
   49998187.1914485     
   49998187.1914485     
   49998187.1914485     
   49998187.1914485     
   49998187.1914485     
   49998187.1914484     
   49998187.1914484     
   49998187.1914484     
   49998187.1914484     
   49998187.1914484     
   49998187.1914484     
   49998187.1914484     
   49998187.1914483     
   49998187.1914483     
   49998187.1914483     
   49998187.1914483     
   49998187.1914483     
   49998187.1914483     
   49998187.1914482     
   49998187.1914482     
   49998187.1914482     
   49998187.1914482     
   49998187.1914482     
   49998187.1914483     
   49998187.1914483     
   49998187.1914483     
   49998187.1914483     
   49998187.1914484     
   49998187.1914484     
   49998187.1914484     
   49998187.1914484     
   49998187.1914484     
   49998187.1914485     
   49998187.1914484     
   49998187.1914484     
   49998187.1914485     
   49998187.1914485     
   49998187.1914485     
   49998187.1914485     
   49997798.3010803     
   49997798.3010803     
   49997798.3010803     
   49997798.3010803     
   49997798.3010802     
   49997798.3010803     
   49997798.3010803     
   49997798.3010802     
   49997798.3010802     
   49997798.3010803     
   49997798.3010803     
   49997798.3010803     
   49997798.3010803     
   49997798.3010803     
   49997798.3010803     
   49997798.3010803     
   49997798.3010803     
   49997798.3010803     
   49997798.3010804     
   49997798.3010804     
   49997798.3010805     
   49997798.3010805     
   49997798.3010804     
   49997798.3010804     
   49997798.3010804     
   49997798.3010804     
   49997798.3010804     
   49997798.3010804     
   49997798.3010804     
   49997798.3010804     
   49997798.3010804     
   49997798.3010803     
   49997798.3010803     
   49997798.3010803     
   49997798.3010804     
   49997798.3010804     
   49997798.3010804     
   49997798.3010805     
   49997798.3010805     
   49997798.3010805     
   49997798.3010805     
   49997798.3010805     
   49997798.3010805     
   49997798.3010805     
   49997798.3010805     
   49997798.3010805     
   49997798.3010805     
   49997798.3010805     
   49997798.3010805     
   49997798.3010805     
   49997798.3010806     
   49997327.0784066     
   49997327.0784066     
   49997327.0784066     
   49997327.0784065     
   49997327.0784065     
   49997327.0784064     
   49997327.0784064     
   49997327.0784064     
   49997327.0784064     
   49997327.0784064     
   49997327.0784064     
   49997327.0784064     
   49997327.0784064     
   49997327.0784064     
   49997327.0784064     
   49997327.0784064     
   49997327.0784064     
   49997327.0784065     
   49997327.0784065     
   49997327.0784066     
   49997327.0784066     
   49997327.0784065     
   49997327.0784065     
   49997327.0784065     
   49997327.0784065     
   49997327.0784065     
   49997327.0784065     
   49997327.0784065     
   49997327.0784065     
   49997327.0784065     
   49997327.0784065     
   49997327.0784065     
   49997327.0784065     
   49997327.0784066     
   49997327.0784066     
   49997327.0784066     
   49997327.0784067     
   49997327.0784067     
   49997327.0784067     
   49997327.0784068     
   49997327.0784068     
   49997327.0784069     
   49997327.0784069     
   49997327.0784069     
   49997327.0784069     
   49997327.0784068     
   49997327.0784068     
   49997327.0784068     
   49997327.0784068     
   49997327.0784068     
   49997327.0784068     
   49996756.3672334     
   49996756.3672334     
   49996756.3672334     
   49996756.3672334     
   49996756.3672334     
   49996756.3672334     
   49996756.3672333     
   49996756.3672333     
   49996756.3672332     
   49996756.3672332     
   49996756.3672332     
   49996756.3672332     
   49996756.3672332     
   49996756.3672332     
   49996756.3672332     
   49996756.3672333     
   49996756.3672333     
   49996756.3672333     
   49996756.3672333     
   49996756.3672334     
   49996756.3672334     
   49996756.3672334     
   49996756.3672333     
   49996756.3672334     
   49996756.3672334     
   49996756.3672334     
   49996756.3672334     
   49996756.3672334     
   49996756.3672335     
   49996756.3672335     
   49996756.3672335     
   49996756.3672335     
   49996756.3672335     
   49996756.3672336     
   49996756.3672336     
   49996756.3672337     
   49996756.3672337     
   49996756.3672337     
   49996756.3672338     
   49996756.3672338     
   49996756.3672338     
   49996756.3672338     
   49996756.3672338     
   49996756.3672337     
   49996756.3672337     
   49996756.3672337     
   49996756.3672337     
   49996756.3672337     
   49996756.3672337     
   49996756.3672337     
   49996756.3672337     
   49996065.5054267     
   49996065.5054267     
   49996065.5054267     
   49996065.5054267     
   49996065.5054267     
   49996065.5054267     
   49996065.5054267     
   49996065.5054267     
   49996065.5054267     
   49996065.5054267     
   49996065.5054266     
   49996065.5054267     
   49996065.5054266     
   49996065.5054266     
   49996065.5054266     
   49996065.5054266     
   49996065.5054266     
   49996065.5054266     
   49996065.5054266     
   49996065.5054266     
   49996065.5054266     
   49996065.5054267     
   49996065.5054267     
   49996065.5054267     
   49996065.5054266     
   49996065.5054266     
   49996065.5054266     
   49996065.5054266     
   49996065.5054266     
   49996065.5054267     
   49996065.5054267     
   49996065.5054268     
   49996065.5054269     
   49996065.5054269     
   49996065.5054270     
   49996065.5054270     
   49996065.5054270     
   49996065.5054271     
   49996065.5054271     
   49996065.5054272     
   49996065.5054272     
   49996065.5054272     
   49996065.5054272     
   49996065.5054273     
   49996065.5054273     
   49996065.5054273     
   49996065.5054272     
   49996065.5054272     
   49996065.5054272     
   49996065.5054272     
   49996065.5054272     
   49995229.6258764     
   49995229.6258764     
   49995229.6258764     
   49995229.6258764     
   49995229.6258765     
   49995229.6258765     
   49995229.6258764     
   49995229.6258765     
   49995229.6258765     
   49995229.6258765     
   49995229.6258766     
   49995229.6258765     
   49995229.6258765     
   49995229.6258765     
   49995229.6258765     
   49995229.6258765     
   49995229.6258764     
   49995229.6258764     
   49995229.6258764     
   49995229.6258765     
   49995229.6258765     
   49995229.6258764     
   49995229.6258764     
   49995229.6258764     
   49995229.6258764     
   49995229.6258764     
   49995229.6258764     
   49995229.6258764     
   49995229.6258765     
   49995229.6258765     
   49995229.6258766     
   49995229.6258766     
   49995229.6258767     
   49995229.6258767     
   49995229.6258768     
   49995229.6258768     
   49995229.6258768     
   49995229.6258769     
   49995229.6258770     
   49995229.6258770     
   49995229.6258770     
   49995229.6258770     
   49995229.6258770     
   49995229.6258770     
   49995229.6258770     
   49995229.6258771     
   49995229.6258771     
   49995229.6258771     
   49995229.6258771     
   49995229.6258771     
   49995229.6258770     
   49994218.8225026     
   49994218.8225026     
   49994218.8225026     
   49994218.8225026     
   49994218.8225026     
   49994218.8225027     
   49994218.8225027     
   49994218.8225027     
   49994218.8225027     
   49994218.8225027     
   49994218.8225028     
   49994218.8225027     
   49994218.8225027     
   49994218.8225027     
   49994218.8225026     
   49994218.8225027     
   49994218.8225027     
   49994218.8225026     
   49994218.8225026     
   49994218.8225026     
   49994218.8225026     
   49994218.8225026     
   49994218.8225026     
   49994218.8225025     
   49994218.8225025     
   49994218.8225025     
   49994218.8225025     
   49994218.8225025     
   49994218.8225025     
   49994218.8225026     
   49994218.8225026     
   49994218.8225027     
   49994218.8225028     
   49994218.8225029     
   49994218.8225029     
   49994218.8225030     
   49994218.8225030     
   49994218.8225030     
   49994218.8225029     
   49994218.8225030     
   49994218.8225030     
   49994218.8225030     
   49994218.8225030     
   49994218.8225030     
   49994218.8225030     
   49994218.8225030     
   49994218.8225030     
   49994218.8225031     
   49994218.8225031     
   49994218.8225032     
   49994218.8225032     
   49992997.1563772     
   49992997.1563772     
   49992997.1563773     
   49992997.1563773     
   49992997.1563773     
   49992997.1563773     
   49992997.1563773     
   49992997.1563773     
   49992997.1563773     
   49992997.1563773     
   49992997.1563772     
   49992997.1563773     
   49992997.1563773     
   49992997.1563772     
   49992997.1563772     
   49992997.1563772     
   49992997.1563772     
   49992997.1563772     
   49992997.1563771     
   49992997.1563771     
   49992997.1563770     
   49992997.1563770     
   49992997.1563770     
   49992997.1563770     
   49992997.1563769     
   49992997.1563769     
   49992997.1563769     
   49992997.1563770     
   49992997.1563770     
   49992997.1563770     
   49992997.1563771     
   49992997.1563771     
   49992997.1563772     
   49992997.1563772     
   49992997.1563772     
   49992997.1563772     
   49992997.1563772     
   49992997.1563772     
   49992997.1563773     
   49992997.1563773     
   49992997.1563774     
   49992997.1563774     
   49992997.1563774     
   49992997.1563775     
   49992997.1563775     
   49992997.1563775     
   49992997.1563774     
   49992997.1563774     
   49992997.1563774     
   49992997.1563774     
   49992997.1563774     
   49991521.4727250     
   49991521.4727250     
   49991521.4727249     
   49991521.4727250     
   49991521.4727249     
   49991521.4727249     
   49991521.4727249     
   49991521.4727249     
   49991521.4727249     
   49991521.4727249     
   49991521.4727248     
   49991521.4727248     
   49991521.4727248     
   49991521.4727247     
   49991521.4727248     
   49991521.4727248     
   49991521.4727249     
   49991521.4727249     
   49991521.4727249     
   49991521.4727249     
   49991521.4727248     
   49991521.4727248     
   49991521.4727248     
   49991521.4727247     
   49991521.4727247     
   49991521.4727247     
   49991521.4727246     
   49991521.4727246     
   49991521.4727247     
   49991521.4727247     
   49991521.4727247     
   49991521.4727247     
   49991521.4727247     
   49991521.4727247     
   49991521.4727248     
   49991521.4727248     
   49991521.4727248     
   49991521.4727248     
   49991521.4727248     
   49991521.4727248     
   49991521.4727249     
   49991521.4727249     
   49991521.4727249     
   49991521.4727250     
   49991521.4727250     
   49991521.4727249     
   49991521.4727249     
   49991521.4727250     
   49991521.4727250     
   49991521.4727251     
   49991521.4727251     
   49989739.9945889     
   49989739.9945889     
   49989739.9945889     
   49989739.9945889     
   49989739.9945889     
   49989739.9945889     
   49989739.9945889     
   49989739.9945889     
   49989739.9945889     
   49989739.9945889     
   49989739.9945888     
   49989739.9945888     
   49989739.9945889     
   49989739.9945889     
   49989739.9945889     
   49989739.9945889     
   49989739.9945889     
   49989739.9945888     
   49989739.9945888     
   49989739.9945888     
   49989739.9945888     
   49989739.9945888     
   49989739.9945889     
   49989739.9945888     
   49989739.9945888     
   49989739.9945888     
   49989739.9945889     
   49989739.9945888     
   49989739.9945888     
   49989739.9945888     
   49989739.9945888     
   49989739.9945889     
   49989739.9945889     
   49989739.9945890     
   49989739.9945890     
   49989739.9945890     
   49989739.9945890     
   49989739.9945890     
   49989739.9945889     
   49989739.9945889     
   49989739.9945889     
   49989739.9945889     
   49989739.9945889     
   49989739.9945889     
   49989739.9945889     
   49989739.9945889     
   49989739.9945889     
   49989739.9945889     
   49989739.9945890     
   49989739.9945890     
   49989739.9945890     
   49987590.6532172     
   49987590.6532172     
   49987590.6532172     
   49987590.6532173     
   49987590.6532173     
   49987590.6532173     
   49987590.6532173     
   49987590.6532174     
   49987590.6532174     
   49987590.6532174     
   49987590.6532174     
   49987590.6532175     
   49987590.6532175     
   49987590.6532175     
   49987590.6532175     
   49987590.6532175     
   49987590.6532175     
   49987590.6532176     
   49987590.6532176     
   49987590.6532176     
   49987590.6532176     
   49987590.6532176     
   49987590.6532176     
   49987590.6532176     
   49987590.6532176     
   49987590.6532176     
   49987590.6532176     
   49987590.6532176     
   49987590.6532176     
   49987590.6532176     
   49987590.6532176     
   49987590.6532176     
   49987590.6532176     
   49987590.6532176     
   49987590.6532176     
   49987590.6532177     
   49987590.6532177     
   49987590.6532177     
   49987590.6532177     
   49987590.6532177     
   49987590.6532177     
   49987590.6532177     
   49987590.6532177     
   49987590.6532176     
   49987590.6532176     
   49987590.6532176     
   49987590.6532176     
   49987590.6532176     
   49987590.6532176     
   49987590.6532176     
   49987590.6532176     
   49984999.1086649     
   49984999.1086649     
   49984999.1086649     
   49984999.1086649     
   49984999.1086649     
   49984999.1086649     
   49984999.1086649     
   49984999.1086649     
   49984999.1086650     
   49984999.1086650     
   49984999.1086651     
   49984999.1086651     
   49984999.1086651     
   49984999.1086651     
   49984999.1086652     
   49984999.1086652     
   49984999.1086652     
   49984999.1086652     
   49984999.1086652     
   49984999.1086651     
   49984999.1086651     
   49984999.1086651     
   49984999.1086651     
   49984999.1086651     
   49984999.1086650     
   49984999.1086650     
   49984999.1086650     
   49984999.1086650     
   49984999.1086651     
   49984999.1086651     
   49984999.1086651     
   49984999.1086651     
   49984999.1086652     
   49984999.1086652     
   49984999.1086652     
   49984999.1086651     
   49984999.1086651     
   49984999.1086652     
   49984999.1086652     
   49984999.1086652     
   49984999.1086652     
   49984999.1086652     
   49984999.1086652     
   49984999.1086651     
   49984999.1086651     
   49984999.1086651     
   49984999.1086651     
   49984999.1086651     
   49984999.1086651     
   49984999.1086651     
   49984999.1086650     
   49981876.4066127     
   49981876.4066127     
   49981876.4066127     
   49981876.4066127     
   49981876.4066127     
   49981876.4066127     
   49981876.4066127     
   49981876.4066128     
   49981876.4066128     
   49981876.4066128     
   49981876.4066127     
   49981876.4066127     
   49981876.4066127     
   49981876.4066127     
   49981876.4066126     
   49981876.4066126     
   49981876.4066126     
   49981876.4066127     
   49981876.4066127     
   49981876.4066127     
   49981876.4066127     
   49981876.4066127     
   49981876.4066127     
   49981876.4066127     
   49981876.4066127     
   49981876.4066127     
   49981876.4066127     
   49981876.4066127     
   49981876.4066127     
   49981876.4066127     
   49981876.4066128     
   49981876.4066127     
   49981876.4066127     
   49981876.4066127     
   49981876.4066127     
   49981876.4066128     
   49981876.4066128     
   49981876.4066127     
   49981876.4066128     
   49981876.4066128     
   49981876.4066128     
   49981876.4066128     
   49981876.4066128     
   49981876.4066128     
   49981876.4066128     
   49981876.4066128     
   49981876.4066128     
   49981876.4066128     
   49981876.4066128     
   49981876.4066128     
   49981876.4066128     
   49978116.2089202     
   49978116.2089202     
   49978116.2089201     
   49978116.2089202     
   49978116.2089202     
   49978116.2089203     
   49978116.2089203     
   49978116.2089203     
   49978116.2089203     
   49978116.2089203     
   49978116.2089203     
   49978116.2089203     
   49978116.2089203     
   49978116.2089203     
   49978116.2089203     
   49978116.2089202     
   49978116.2089202     
   49978116.2089202     
   49978116.2089202     
   49978116.2089202     
   49978116.2089203     
   49978116.2089203     
   49978116.2089203     
   49978116.2089203     
   49978116.2089203     
   49978116.2089203     
   49978116.2089202     
   49978116.2089202     
   49978116.2089202     
   49978116.2089202     
   49978116.2089202     
   49978116.2089202     
   49978116.2089202     
   49978116.2089203     
   49978116.2089202     
   49978116.2089202     
   49978116.2089202     
   49978116.2089202     
   49978116.2089202     
   49978116.2089202     
   49978116.2089202     
   49978116.2089202     
   49978116.2089202     
   49978116.2089203     
   49978116.2089203     
   49978116.2089203     
   49978116.2089203     
   49978116.2089203     
   49978116.2089203     
   49978116.2089202     
   49978116.2089202     
   49973591.5258385     
   49973591.5258385     
   49973591.5258385     
   49973591.5258385     
   49973591.5258385     
   49973591.5258385     
   49973591.5258385     
   49973591.5258385     
   49973591.5258386     
   49973591.5258386     
   49973591.5258386     
   49973591.5258385     
   49973591.5258385     
   49973591.5258384     
   49973591.5258384     
   49973591.5258384     
   49973591.5258384     
   49973591.5258384     
   49973591.5258384     
   49973591.5258385     
   49973591.5258385     
   49973591.5258385     
   49973591.5258385     
   49973591.5258385     
   49973591.5258385     
   49973591.5258385     
   49973591.5258385     
   49973591.5258385     
   49973591.5258385     
   49973591.5258385     
   49973591.5258385     
   49973591.5258385     
   49973591.5258385     
   49973591.5258385     
   49973591.5258385     
   49973591.5258384     
   49973591.5258384     
   49973591.5258384     
   49973591.5258384     
   49973591.5258384     
   49973591.5258383     
   49973591.5258383     
   49973591.5258383     
   49973591.5258383     
   49973591.5258384     
   49973591.5258384     
   49973591.5258384     
   49973591.5258384     
   49973591.5258384     
   49973591.5258384     
   49973591.5258384     
   49968150.8670781     
   49968150.8670781     
   49968150.8670781     
   49968150.8670780     
   49968150.8670780     
   49968150.8670781     
   49968150.8670780     
   49968150.8670780     
   49968150.8670780     
   49968150.8670780     
   49968150.8670780     
   49968150.8670780     
   49968150.8670780     
   49968150.8670780     
   49968150.8670779     
   49968150.8670779     
   49968150.8670779     
   49968150.8670779     
   49968150.8670778     
   49968150.8670778     
   49968150.8670778     
   49968150.8670778     
   49968150.8670778     
   49968150.8670778     
   49968150.8670778     
   49968150.8670779     
   49968150.8670779     
   49968150.8670779     
   49968150.8670779     
   49968150.8670778     
   49968150.8670779     
   49968150.8670779     
   49968150.8670779     
   49968150.8670779     
   49968150.8670779     
   49968150.8670780     
   49968150.8670780     
   49968150.8670780     
   49968150.8670780     
   49968150.8670779     
   49968150.8670779     
   49968150.8670779     
   49968150.8670779     
   49968150.8670779     
   49968150.8670779     
   49968150.8670779     
   49968150.8670779     
   49968150.8670779     
   49968150.8670780     
   49968150.8670780     
   49968150.8670780     
   49961613.7169994     
   49961613.7169994     
   49961613.7169994     
   49961613.7169994     
   49961613.7169994     
   49961613.7169994     
   49961613.7169994     
   49961613.7169994     
   49961613.7169995     
   49961613.7169995     
   49961613.7169995     
   49961613.7169995     
   49961613.7169995     
   49961613.7169995     
   49961613.7169995     
   49961613.7169995     
   49961613.7169995     
   49961613.7169994     
   49961613.7169994     
   49961613.7169994     
   49961613.7169993     
   49961613.7169993     
   49961613.7169993     
   49961613.7169993     
   49961613.7169993     
   49961613.7169993     
   49961613.7169992     
   49961613.7169992     
   49961613.7169993     
   49961613.7169993     
   49961613.7169993     
   49961613.7169993     
   49961613.7169993     
   49961613.7169993     
   49961613.7169993     
   49961613.7169994     
   49961613.7169994     
   49961613.7169994     
   49961613.7169994     
   49961613.7169994     
   49961613.7169994     
   49961613.7169993     
   49961613.7169993     
   49961613.7169993     
   49961613.7169994     
   49961613.7169994     
   49961613.7169994     
   49961613.7169994     
   49961613.7169995     
   49961613.7169995     
   49961613.7169995     
   49953765.2260548     
   49953765.2260548     
   49953765.2260548     
   49953765.2260548     
   49953765.2260548     
   49953765.2260548     
   49953765.2260548     
   49953765.2260548     
   49953765.2260549     
   49953765.2260549     
   49953765.2260549     
   49953765.2260549     
   49953765.2260549     
   49953765.2260549     
   49953765.2260548     
   49953765.2260549     
   49953765.2260548     
   49953765.2260548     
   49953765.2260548     
   49953765.2260548     
   49953765.2260548     
   49953765.2260548     
   49953765.2260549     
   49953765.2260548     
   49953765.2260548     
   49953765.2260548     
   49953765.2260548     
   49953765.2260548     
   49953765.2260548     
   49953765.2260548     
   49953765.2260548     
   49953765.2260548     
   49953765.2260548     
   49953765.2260548     
   49953765.2260548     
   49953765.2260548     
   49953765.2260549     
   49953765.2260549     
   49953765.2260549     
   49953765.2260549     
   49953765.2260549     
   49953765.2260549     
   49953765.2260549     
   49953765.2260548     
   49953765.2260548     
   49953765.2260548     
   49953765.2260549     
   49953765.2260549     
   49953765.2260549     
   49953765.2260550     
   49953765.2260550     
   49944349.9963022     
   49944349.9963022     
   49944349.9963022     
   49944349.9963023     
   49944349.9963023     
   49944349.9963023     
   49944349.9963024     
   49944349.9963024     
   49944349.9963025     
   49944349.9963026     
   49944349.9963026     
   49944349.9963026     
   49944349.9963026     
   49944349.9963026     
   49944349.9963026     
   49944349.9963026     
   49944349.9963026     
   49944349.9963025     
   49944349.9963025     
   49944349.9963025     
   49944349.9963025     
   49944349.9963025     
   49944349.9963025     
   49944349.9963025     
   49944349.9963025     
   49944349.9963025     
   49944349.9963025     
   49944349.9963025     
   49944349.9963025     
   49944349.9963026     
   49944349.9963026     
   49944349.9963026     
   49944349.9963026     
   49944349.9963026     
   49944349.9963026     
   49944349.9963026     
   49944349.9963026     
   49944349.9963026     
   49944349.9963026     
   49944349.9963026     
   49944349.9963026     
   49944349.9963026     
   49944349.9963026     
   49944349.9963026     
   49944349.9963027     
   49944349.9963027     
   49944349.9963027     
   49944349.9963027     
   49944349.9963028     
   49944349.9963028     
   49944349.9963028     
   49933064.8234550     
   49933064.8234550     
   49933064.8234550     
   49933064.8234550     
   49933064.8234550     
   49933064.8234550     
   49933064.8234551     
   49933064.8234551     
   49933064.8234552     
   49933064.8234552     
   49933064.8234552     
   49933064.8234552     
   49933064.8234553     
   49933064.8234553     
   49933064.8234553     
   49933064.8234552     
   49933064.8234552     
   49933064.8234551     
   49933064.8234551     
   49933064.8234551     
   49933064.8234551     
   49933064.8234551     
   49933064.8234552     
   49933064.8234552     
   49933064.8234552     
   49933064.8234552     
   49933064.8234552     
   49933064.8234552     
   49933064.8234552     
   49933064.8234552     
   49933064.8234552     
   49933064.8234553     
   49933064.8234553     
   49933064.8234552     
   49933064.8234552     
   49933064.8234552     
   49933064.8234552     
   49933064.8234552     
   49933064.8234552     
   49933064.8234552     
   49933064.8234552     
   49933064.8234552     
   49933064.8234552     
   49933064.8234553     
   49933064.8234554     
   49933064.8234554     
   49933064.8234554     
   49933064.8234555     
   49933064.8234555     
   49933064.8234555     
   49933064.8234555     
   49919550.2416947     
   49919550.2416947     
   49919550.2416948     
   49919550.2416948     
   49919550.2416948     
   49919550.2416948     
   49919550.2416949     
   49919550.2416949     
   49919550.2416949     
   49919550.2416949     
   49919550.2416949     
   49919550.2416949     
   49919550.2416949     
   49919550.2416948     
   49919550.2416948     
   49919550.2416948     
   49919550.2416947     
   49919550.2416947     
   49919550.2416946     
   49919550.2416947     
   49919550.2416947     
   49919550.2416947     
   49919550.2416947     
   49919550.2416948     
   49919550.2416948     
   49919550.2416948     
   49919550.2416948     
   49919550.2416948     
   49919550.2416948     
   49919550.2416948     
   49919550.2416948     
   49919550.2416948     
   49919550.2416948     
   49919550.2416947     
   49919550.2416947     
   49919550.2416947     
   49919550.2416947     
   49919550.2416948     
   49919550.2416948     
   49919550.2416948     
   49919550.2416949     
   49919550.2416949     
   49919550.2416949     
   49919550.2416949     
   49919550.2416950     
   49919550.2416950     
   49919550.2416951     
   49919550.2416951     
   49919550.2416951     
   49919550.2416951     
   49919550.2416951     
   49903380.7007339     
   49903380.7007339     
   49903380.7007339     
   49903380.7007339     
   49903380.7007340     
   49903380.7007340     
   49903380.7007341     
   49903380.7007341     
   49903380.7007341     
   49903380.7007342     
   49903380.7007342     
   49903380.7007341     
   49903380.7007341     
   49903380.7007341     
   49903380.7007341     
   49903380.7007340     
   49903380.7007340     
   49903380.7007339     
   49903380.7007339     
   49903380.7007339     
   49903380.7007339     
   49903380.7007339     
   49903380.7007340     
   49903380.7007340     
   49903380.7007341     
   49903380.7007341     
   49903380.7007342     
   49903380.7007342     
   49903380.7007341     
   49903380.7007341     
   49903380.7007341     
   49903380.7007341     
   49903380.7007341     
   49903380.7007341     
   49903380.7007340     
   49903380.7007340     
   49903380.7007340     
   49903380.7007340     
   49903380.7007340     
   49903380.7007340     
   49903380.7007340     
   49903380.7007340     
   49903380.7007340     
   49903380.7007341     
   49903380.7007341     
   49903380.7007342     
   49903380.7007342     
   49903380.7007342     
   49903380.7007342     
   49903380.7007343     
   49903380.7007343     
   49884053.1878168     
   49884053.1878168     
   49884053.1878168     
   49884053.1878168     
   49884053.1878168     
   49884053.1878169     
   49884053.1878169     
   49884053.1878170     
   49884053.1878170     
   49884053.1878171     
   49884053.1878171     
   49884053.1878171     
   49884053.1878171     
   49884053.1878171     
   49884053.1878171     
   49884053.1878171     
   49884053.1878170     
   49884053.1878170     
   49884053.1878169     
   49884053.1878170     
   49884053.1878170     
   49884053.1878170     
   49884053.1878170     
   49884053.1878171     
   49884053.1878171     
   49884053.1878171     
   49884053.1878171     
   49884053.1878171     
   49884053.1878171     
   49884053.1878171     
   49884053.1878171     
   49884053.1878171     
   49884053.1878171     
   49884053.1878170     
   49884053.1878170     
   49884053.1878169     
   49884053.1878168     
   49884053.1878168     
   49884053.1878168     
   49884053.1878168     
   49884053.1878168     
   49884053.1878168     
   49884053.1878169     
   49884053.1878169     
   49884053.1878169     
   49884053.1878169     
   49884053.1878169     
   49884053.1878170     
   49884053.1878170     
   49884053.1878170     
   49884053.1878170     
   49860974.0912458     
   49860974.0912459     
   49860974.0912459     
   49860974.0912459     
   49860974.0912459     
   49860974.0912459     
   49860974.0912460     
   49860974.0912460     
   49860974.0912461     
   49860974.0912461     
   49860974.0912461     
   49860974.0912462     
   49860974.0912462     
   49860974.0912462     
   49860974.0912462     
   49860974.0912462     
   49860974.0912462     
   49860974.0912462     
   49860974.0912462     
   49860974.0912462     
   49860974.0912462     
   49860974.0912462     
   49860974.0912462     
   49860974.0912462     
   49860974.0912463     
   49860974.0912463     
   49860974.0912463     
   49860974.0912463     
   49860974.0912463     
   49860974.0912462     
   49860974.0912462     
   49860974.0912462     
   49860974.0912462     
   49860974.0912462     
   49860974.0912461     
   49860974.0912461     
   49860974.0912460     
   49860974.0912460     
   49860974.0912459     
   49860974.0912459     
   49860974.0912458     
   49860974.0912458     
   49860974.0912458     
   49860974.0912459     
   49860974.0912459     
   49860974.0912459     
   49860974.0912459     
   49860974.0912459     
   49860974.0912459     
   49860974.0912459     
   49860974.0912459     
   49833444.0875937     
   49833444.0875937     
   49833444.0875937     
   49833444.0875937     
   49833444.0875937     
   49833444.0875938     
   49833444.0875939     
   49833444.0875939     
   49833444.0875940     
   49833444.0875940     
   49833444.0875940     
   49833444.0875941     
   49833444.0875941     
   49833444.0875942     
   49833444.0875942     
   49833444.0875942     
   49833444.0875942     
   49833444.0875942     
   49833444.0875942     
   49833444.0875942     
   49833444.0875942     
   49833444.0875941     
   49833444.0875941     
   49833444.0875942     
   49833444.0875942     
   49833444.0875942     
   49833444.0875942     
   49833444.0875942     
   49833444.0875942     
   49833444.0875942     
   49833444.0875942     
   49833444.0875942     
   49833444.0875942     
   49833444.0875941     
   49833444.0875940     
   49833444.0875939     
   49833444.0875939     
   49833444.0875938     
   49833444.0875938     
   49833444.0875937     
   49833444.0875937     
   49833444.0875937     
   49833444.0875937     
   49833444.0875937     
   49833444.0875938     
   49833444.0875938     
   49833444.0875938     
   49833444.0875938     
   49833444.0875938     
   49833444.0875938     
   49833444.0875938     
   49800640.8233632     
   49800640.8233632     
   49800640.8233633     
   49800640.8233633     
   49800640.8233633     
   49800640.8233633     
   49800640.8233634     
   49800640.8233635     
   49800640.8233636     
   49800640.8233637     
   49800640.8233637     
   49800640.8233638     
   49800640.8233638     
   49800640.8233638     
   49800640.8233638     
   49800640.8233638     
   49800640.8233638     
   49800640.8233638     
   49800640.8233638     
   49800640.8233638     
   49800640.8233637     
   49800640.8233638     
   49800640.8233638     
   49800640.8233638     
   49800640.8233638     
   49800640.8233638     
   49800640.8233638     
   49800640.8233638     
   49800640.8233638     
   49800640.8233638     
   49800640.8233638     
   49800640.8233638     
   49800640.8233637     
   49800640.8233637     
   49800640.8233636     
   49800640.8233635     
   49800640.8233635     
   49800640.8233635     
   49800640.8233634     
   49800640.8233634     
   49800640.8233633     
   49800640.8233633     
   49800640.8233633     
   49800640.8233634     
   49800640.8233634     
   49800640.8233634     
   49800640.8233634     
   49800640.8233634     
   49800640.8233634     
   49800640.8233634     
   49800640.8233634     
   49761599.1552993     
   49761599.1552993     
   49761599.1552993     
   49761599.1552993     
   49761599.1552993     
   49761599.1552994     
   49761599.1552995     
   49761599.1552996     
   49761599.1552996     
   49761599.1552997     
   49761599.1552997     
   49761599.1552997     
   49761599.1552998     
   49761599.1552998     
   49761599.1552998     
   49761599.1552998     
   49761599.1552998     
   49761599.1552998     
   49761599.1552998     
   49761599.1552998     
   49761599.1552998     
   49761599.1552997     
   49761599.1552998     
   49761599.1552998     
   49761599.1552998     
   49761599.1552998     
   49761599.1552998     
   49761599.1552998     
   49761599.1552998     
   49761599.1552998     
   49761599.1552998     
   49761599.1552998     
   49761599.1552997     
   49761599.1552997     
   49761599.1552996     
   49761599.1552995     
   49761599.1552995     
   49761599.1552995     
   49761599.1552994     
   49761599.1552994     
   49761599.1552994     
   49761599.1552994     
   49761599.1552994     
   49761599.1552994     
   49761599.1552995     
   49761599.1552994     
   49761599.1552994     
   49761599.1552994     
   49761599.1552994     
   49761599.1552994     
   49761599.1552994     
   49715188.7141906     
   49715188.7141906     
   49715188.7141907     
   49715188.7141907     
   49715188.7141907     
   49715188.7141908     
   49715188.7141908     
   49715188.7141909     
   49715188.7141910     
   49715188.7141911     
   49715188.7141911     
   49715188.7141911     
   49715188.7141912     
   49715188.7141912     
   49715188.7141912     
   49715188.7141912     
   49715188.7141913     
   49715188.7141913     
   49715188.7141913     
   49715188.7141913     
   49715188.7141913     
   49715188.7141913     
   49715188.7141913     
   49715188.7141913     
   49715188.7141913     
   49715188.7141913     
   49715188.7141913     
   49715188.7141913     
   49715188.7141913     
   49715188.7141912     
   49715188.7141912     
   49715188.7141912     
   49715188.7141911     
   49715188.7141911     
   49715188.7141911     
   49715188.7141910     
   49715188.7141909     
   49715188.7141909     
   49715188.7141909     
   49715188.7141909     
   49715188.7141908     
   49715188.7141908     
   49715188.7141909     
   49715188.7141909     
   49715188.7141909     
   49715188.7141909     
   49715188.7141909     
   49715188.7141909     
   49715188.7141909     
   49715188.7141909     
   49715188.7141909     
   49660088.5678903     
   49660088.5678903     
   49660088.5678903     
   49660088.5678903     
   49660088.5678904     
   49660088.5678904     
   49660088.5678905     
   49660088.5678905     
   49660088.5678906     
   49660088.5678906     
   49660088.5678906     
   49660088.5678907     
   49660088.5678907     
   49660088.5678908     
   49660088.5678908     
   49660088.5678909     
   49660088.5678909     
   49660088.5678909     
   49660088.5678909     
   49660088.5678909     
   49660088.5678909     
   49660088.5678909     
   49660088.5678910     
   49660088.5678910     
   49660088.5678910     
   49660088.5678910     
   49660088.5678910     
   49660088.5678910     
   49660088.5678909     
   49660088.5678909     
   49660088.5678908     
   49660088.5678908     
   49660088.5678907     
   49660088.5678907     
   49660088.5678906     
   49660088.5678906     
   49660088.5678905     
   49660088.5678905     
   49660088.5678905     
   49660088.5678905     
   49660088.5678904     
   49660088.5678905     
   49660088.5678905     
   49660088.5678905     
   49660088.5678906     
   49660088.5678906     
   49660088.5678906     
   49660088.5678906     
   49660088.5678906     
   49660088.5678906     
   49660088.5678906     
   49594758.7842989     
   49594758.7842989     
   49594758.7842989     
   49594758.7842990     
   49594758.7842990     
   49594758.7842991     
   49594758.7842992     
   49594758.7842992     
   49594758.7842993     
   49594758.7842994     
   49594758.7842994     
   49594758.7842994     
   49594758.7842995     
   49594758.7842995     
   49594758.7842996     
   49594758.7842996     
   49594758.7842996     
   49594758.7842996     
   49594758.7842997     
   49594758.7842997     
   49594758.7842997     
   49594758.7842997     
   49594758.7842997     
   49594758.7842997     
   49594758.7842998     
   49594758.7842998     
   49594758.7842998     
   49594758.7842998     
   49594758.7842998     
   49594758.7842998     
   49594758.7842997     
   49594758.7842997     
   49594758.7842997     
   49594758.7842996     
   49594758.7842996     
   49594758.7842995     
   49594758.7842994     
   49594758.7842994     
   49594758.7842993     
   49594758.7842993     
   49594758.7842993     
   49594758.7842993     
   49594758.7842993     
   49594758.7842994     
   49594758.7842994     
   49594758.7842994     
   49594758.7842994     
   49594758.7842994     
   49594758.7842994     
   49594758.7842994     
   49594758.7842994     
   49517408.7391128     
   49517408.7391128     
   49517408.7391129     
   49517408.7391129     
   49517408.7391129     
   49517408.7391129     
   49517408.7391130     
   49517408.7391131     
   49517408.7391131     
   49517408.7391132     
   49517408.7391132     
   49517408.7391133     
   49517408.7391134     
   49517408.7391134     
   49517408.7391135     
   49517408.7391135     
   49517408.7391134     
   49517408.7391134     
   49517408.7391135     
   49517408.7391135     
   49517408.7391135     
   49517408.7391135     
   49517408.7391135     
   49517408.7391136     
   49517408.7391136     
   49517408.7391136     
   49517408.7391136     
   49517408.7391136     
   49517408.7391136     
   49517408.7391135     
   49517408.7391135     
   49517408.7391135     
   49517408.7391134     
   49517408.7391134     
   49517408.7391133     
   49517408.7391132     
   49517408.7391132     
   49517408.7391132     
   49517408.7391132     
   49517408.7391132     
   49517408.7391132     
   49517408.7391132     
   49517408.7391132     
   49517408.7391132     
   49517408.7391132     
   49517408.7391133     
   49517408.7391133     
   49517408.7391132     
   49517408.7391133     
   49517408.7391133     
   49517408.7391133     
   49425962.0822961     
   49425962.0822961     
   49425962.0822961     
   49425962.0822962     
   49425962.0822962     
   49425962.0822962     
   49425962.0822963     
   49425962.0822964     
   49425962.0822965     
   49425962.0822965     
   49425962.0822965     
   49425962.0822965     
   49425962.0822966     
   49425962.0822966     
   49425962.0822967     
   49425962.0822967     
   49425962.0822967     
   49425962.0822967     
   49425962.0822967     
   49425962.0822967     
   49425962.0822967     
   49425962.0822967     
   49425962.0822967     
   49425962.0822967     
   49425962.0822968     
   49425962.0822968     
   49425962.0822968     
   49425962.0822968     
   49425962.0822968     
   49425962.0822968     
   49425962.0822967     
   49425962.0822967     
   49425962.0822966     
   49425962.0822966     
   49425962.0822965     
   49425962.0822965     
   49425962.0822964     
   49425962.0822964     
   49425962.0822964     
   49425962.0822964     
   49425962.0822963     
   49425962.0822963     
   49425962.0822964     
   49425962.0822964     
   49425962.0822964     
   49425962.0822964     
   49425962.0822964     
   49425962.0822964     
   49425962.0822964     
   49425962.0822964     
   49425962.0822964     
   49318018.3789910     
   49318018.3789910     
   49318018.3789910     
   49318018.3789911     
   49318018.3789911     
   49318018.3789911     
   49318018.3789912     
   49318018.3789912     
   49318018.3789913     
   49318018.3789913     
   49318018.3789914     
   49318018.3789914     
   49318018.3789915     
   49318018.3789915     
   49318018.3789915     
   49318018.3789916     
   49318018.3789915     
   49318018.3789915     
   49318018.3789915     
   49318018.3789915     
   49318018.3789915     
   49318018.3789916     
   49318018.3789916     
   49318018.3789916     
   49318018.3789916     
   49318018.3789916     
   49318018.3789916     
   49318018.3789916     
   49318018.3789917     
   49318018.3789916     
   49318018.3789916     
   49318018.3789916     
   49318018.3789916     
   49318018.3789915     
   49318018.3789914     
   49318018.3789914     
   49318018.3789913     
   49318018.3789913     
   49318018.3789913     
   49318018.3789912     
   49318018.3789912     
   49318018.3789912     
   49318018.3789912     
   49318018.3789912     
   49318018.3789912     
   49318018.3789912     
   49318018.3789912     
   49318018.3789912     
   49318018.3789912     
   49318018.3789912     
   49318018.3789913     
   49190811.5839664     
   49190811.5839664     
   49190811.5839664     
   49190811.5839664     
   49190811.5839665     
   49190811.5839665     
   49190811.5839666     
   49190811.5839666     
   49190811.5839667     
   49190811.5839667     
   49190811.5839668     
   49190811.5839668     
   49190811.5839669     
   49190811.5839670     
   49190811.5839670     
   49190811.5839670     
   49190811.5839670     
   49190811.5839670     
   49190811.5839670     
   49190811.5839670     
   49190811.5839670     
   49190811.5839670     
   49190811.5839670     
   49190811.5839670     
   49190811.5839670     
   49190811.5839671     
   49190811.5839671     
   49190811.5839671     
   49190811.5839671     
   49190811.5839670     
   49190811.5839670     
   49190811.5839670     
   49190811.5839670     
   49190811.5839669     
   49190811.5839668     
   49190811.5839668     
   49190811.5839667     
   49190811.5839667     
   49190811.5839667     
   49190811.5839667     
   49190811.5839666     
   49190811.5839666     
   49190811.5839667     
   49190811.5839667     
   49190811.5839667     
   49190811.5839667     
   49190811.5839666     
   49190811.5839666     
   49190811.5839666     
   49190811.5839666     
   49190811.5839666     
   49041165.7045658     
   49041165.7045658     
   49041165.7045659     
   49041165.7045659     
   49041165.7045659     
   49041165.7045660     
   49041165.7045661     
   49041165.7045662     
   49041165.7045662     
   49041165.7045663     
   49041165.7045664     
   49041165.7045664     
   49041165.7045665     
   49041165.7045666     
   49041165.7045666     
   49041165.7045666     
   49041165.7045666     
   49041165.7045667     
   49041165.7045666     
   49041165.7045667     
   49041165.7045667     
   49041165.7045667     
   49041165.7045667     
   49041165.7045667     
   49041165.7045667     
   49041165.7045668     
   49041165.7045668     
   49041165.7045668     
   49041165.7045667     
   49041165.7045667     
   49041165.7045666     
   49041165.7045666     
   49041165.7045666     
   49041165.7045665     
   49041165.7045665     
   49041165.7045664     
   49041165.7045664     
   49041165.7045664     
   49041165.7045664     
   49041165.7045663     
   49041165.7045663     
   49041165.7045662     
   49041165.7045663     
   49041165.7045663     
   49041165.7045663     
   49041165.7045663     
   49041165.7045663     
   49041165.7045662     
   49041165.7045663     
   49041165.7045663     
   49041165.7045663     
   48865448.2681702     
   48865448.2681702     
   48865448.2681702     
   48865448.2681702     
   48865448.2681702     
   48865448.2681703     
   48865448.2681704     
   48865448.2681704     
   48865448.2681705     
   48865448.2681706     
   48865448.2681706     
   48865448.2681707     
   48865448.2681708     
   48865448.2681708     
   48865448.2681709     
   48865448.2681709     
   48865448.2681709     
   48865448.2681709     
   48865448.2681709     
   48865448.2681710     
   48865448.2681710     
   48865448.2681710     
   48865448.2681710     
   48865448.2681710     
   48865448.2681711     
   48865448.2681711     
   48865448.2681711     
   48865448.2681711     
   48865448.2681711     
   48865448.2681710     
   48865448.2681710     
   48865448.2681710     
   48865448.2681709     
   48865448.2681709     
   48865448.2681708     
   48865448.2681708     
   48865448.2681707     
   48865448.2681707     
   48865448.2681706     
   48865448.2681706     
   48865448.2681706     
   48865448.2681706     
   48865448.2681706     
   48865448.2681706     
   48865448.2681706     
   48865448.2681707     
   48865448.2681707     
   48865448.2681706     
   48865448.2681706     
   48865448.2681706     
   48865448.2681706     
   48659522.5511229     
   48659522.5511229     
   48659522.5511229     
   48659522.5511229     
   48659522.5511229     
   48659522.5511230     
   48659522.5511231     
   48659522.5511232     
   48659522.5511233     
   48659522.5511234     
   48659522.5511234     
   48659522.5511235     
   48659522.5511235     
   48659522.5511236     
   48659522.5511236     
   48659522.5511236     
   48659522.5511237     
   48659522.5511237     
   48659522.5511237     
   48659522.5511237     
   48659522.5511237     
   48659522.5511238     
   48659522.5511238     
   48659522.5511238     
   48659522.5511238     
   48659522.5511238     
   48659522.5511238     
   48659522.5511238     
   48659522.5511238     
   48659522.5511238     
   48659522.5511237     
   48659522.5511237     
   48659522.5511236     
   48659522.5511236     
   48659522.5511235     
   48659522.5511234     
   48659522.5511234     
   48659522.5511233     
   48659522.5511233     
   48659522.5511233     
   48659522.5511233     
   48659522.5511232     
   48659522.5511233     
   48659522.5511233     
   48659522.5511233     
   48659522.5511234     
   48659522.5511234     
   48659522.5511234     
   48659522.5511234     
   48659522.5511234     
   48659522.5511234     
   48418699.9634283     
   48418699.9634284     
   48418699.9634284     
   48418699.9634284     
   48418699.9634285     
   48418699.9634285     
   48418699.9634286     
   48418699.9634287     
   48418699.9634288     
   48418699.9634289     
   48418699.9634289     
   48418699.9634289     
   48418699.9634290     
   48418699.9634291     
   48418699.9634291     
   48418699.9634291     
   48418699.9634292     
   48418699.9634292     
   48418699.9634292     
   48418699.9634292     
   48418699.9634292     
   48418699.9634293     
   48418699.9634293     
   48418699.9634293     
   48418699.9634293     
   48418699.9634293     
   48418699.9634293     
   48418699.9634293     
   48418699.9634293     
   48418699.9634292     
   48418699.9634292     
   48418699.9634291     
   48418699.9634291     
   48418699.9634290     
   48418699.9634290     
   48418699.9634289     
   48418699.9634289     
   48418699.9634289     
   48418699.9634289     
   48418699.9634289     
   48418699.9634288     
   48418699.9634288     
   48418699.9634288     
   48418699.9634288     
   48418699.9634289     
   48418699.9634289     
   48418699.9634289     
   48418699.9634289     
   48418699.9634289     
   48418699.9634289     
   48418699.9634289     
   48137694.5353517     
   48137694.5353517     
   48137694.5353517     
   48137694.5353517     
   48137694.5353518     
   48137694.5353518     
   48137694.5353519     
   48137694.5353520     
   48137694.5353521     
   48137694.5353522     
   48137694.5353522     
   48137694.5353523     
   48137694.5353523     
   48137694.5353524     
   48137694.5353525     
   48137694.5353525     
   48137694.5353525     
   48137694.5353525     
   48137694.5353525     
   48137694.5353525     
   48137694.5353526     
   48137694.5353526     
   48137694.5353526     
   48137694.5353526     
   48137694.5353526     
   48137694.5353526     
   48137694.5353526     
   48137694.5353526     
   48137694.5353526     
   48137694.5353525     
   48137694.5353525     
   48137694.5353524     
   48137694.5353524     
   48137694.5353524     
   48137694.5353523     
   48137694.5353522     
   48137694.5353522     
   48137694.5353522     
   48137694.5353521     
   48137694.5353521     
   48137694.5353521     
   48137694.5353521     
   48137694.5353521     
   48137694.5353521     
   48137694.5353521     
   48137694.5353521     
   48137694.5353521     
   48137694.5353521     
   48137694.5353521     
   48137694.5353521     
   48137694.5353520     
   47810582.1372042     
   47810582.1372042     
   47810582.1372042     
   47810582.1372043     
   47810582.1372043     
   47810582.1372044     
   47810582.1372044     
   47810582.1372045     
   47810582.1372046     
   47810582.1372047     
   47810582.1372048     
   47810582.1372048     
   47810582.1372049     
   47810582.1372050     
   47810582.1372050     
   47810582.1372051     
   47810582.1372050     
   47810582.1372051     
   47810582.1372051     
   47810582.1372051     
   47810582.1372050     
   47810582.1372050     
   47810582.1372050     
   47810582.1372050     
   47810582.1372051     
   47810582.1372051     
   47810582.1372051     
   47810582.1372051     
   47810582.1372051     
   47810582.1372050     
   47810582.1372050     
   47810582.1372049     
   47810582.1372049     
   47810582.1372048     
   47810582.1372048     
   47810582.1372047     
   47810582.1372047     
   47810582.1372046     
   47810582.1372046     
   47810582.1372045     
   47810582.1372045     
   47810582.1372045     
   47810582.1372045     
   47810582.1372045     
   47810582.1372045     
   47810582.1372045     
   47810582.1372045     
   47810582.1372045     
   47810582.1372044     
   47810582.1372044     
   47810582.1372044     
   47430767.9004342     
   47430767.9004342     
   47430767.9004342     
   47430767.9004342     
   47430767.9004342     
   47430767.9004343     
   47430767.9004344     
   47430767.9004345     
   47430767.9004345     
   47430767.9004346     
   47430767.9004346     
   47430767.9004347     
   47430767.9004347     
   47430767.9004348     
   47430767.9004348     
   47430767.9004348     
   47430767.9004348     
   47430767.9004348     
   47430767.9004348     
   47430767.9004349     
   47430767.9004349     
   47430767.9004349     
   47430767.9004349     
   47430767.9004349     
   47430767.9004349     
   47430767.9004349     
   47430767.9004350     
   47430767.9004350     
   47430767.9004349     
   47430767.9004349     
   47430767.9004349     
   47430767.9004348     
   47430767.9004348     
   47430767.9004347     
   47430767.9004346     
   47430767.9004346     
   47430767.9004345     
   47430767.9004344     
   47430767.9004344     
   47430767.9004343     
   47430767.9004343     
   47430767.9004343     
   47430767.9004343     
   47430767.9004343     
   47430767.9004343     
   47430767.9004343     
   47430767.9004343     
   47430767.9004343     
   47430767.9004343     
   47430767.9004343     
   47430767.9004343     
   46990966.3124516     
   46990966.3124516     
   46990966.3124517     
   46990966.3124517     
   46990966.3124517     
   46990966.3124517     
   46990966.3124518     
   46990966.3124518     
   46990966.3124519     
   46990966.3124519     
   46990966.3124519     
   46990966.3124520     
   46990966.3124520     
   46990966.3124521     
   46990966.3124521     
   46990966.3124522     
   46990966.3124522     
   46990966.3124522     
   46990966.3124522     
   46990966.3124522     
   46990966.3124522     
   46990966.3124522     
   46990966.3124522     
   46990966.3124523     
   46990966.3124523     
   46990966.3124523     
   46990966.3124523     
   46990966.3124523     
   46990966.3124522     
   46990966.3124522     
   46990966.3124521     
   46990966.3124521     
   46990966.3124520     
   46990966.3124520     
   46990966.3124519     
   46990966.3124518     
   46990966.3124518     
   46990966.3124517     
   46990966.3124517     
   46990966.3124517     
   46990966.3124516     
   46990966.3124516     
   46990966.3124517     
   46990966.3124517     
   46990966.3124518     
   46990966.3124518     
   46990966.3124518     
   46990966.3124518     
   46990966.3124518     
   46990966.3124518     
   46990966.3124518     
   46483199.6393046     
   46483199.6393046     
   46483199.6393046     
   46483199.6393046     
   46483199.6393047     
   46483199.6393047     
   46483199.6393048     
   46483199.6393048     
   46483199.6393049     
   46483199.6393049     
   46483199.6393050     
   46483199.6393050     
   46483199.6393050     
   46483199.6393050     
   46483199.6393051     
   46483199.6393051     
   46483199.6393051     
   46483199.6393051     
   46483199.6393051     
   46483199.6393052     
   46483199.6393052     
   46483199.6393052     
   46483199.6393052     
   46483199.6393052     
   46483199.6393051     
   46483199.6393051     
   46483199.6393051     
   46483199.6393051     
   46483199.6393050     
   46483199.6393050     
   46483199.6393049     
   46483199.6393049     
   46483199.6393049     
   46483199.6393048     
   46483199.6393047     
   46483199.6393047     
   46483199.6393046     
   46483199.6393046     
   46483199.6393045     
   46483199.6393045     
   46483199.6393045     
   46483199.6393045     
   46483199.6393045     
   46483199.6393046     
   46483199.6393046     
   46483199.6393047     
   46483199.6393047     
   46483199.6393047     
   46483199.6393047     
   46483199.6393047     
   46483199.6393047     
   45898821.6884088     
   45898821.6884089     
   45898821.6884089     
   45898821.6884089     
   45898821.6884089     
   45898821.6884089     
   45898821.6884090     
   45898821.6884091     
   45898821.6884091     
   45898821.6884091     
   45898821.6884092     
   45898821.6884092     
   45898821.6884092     
   45898821.6884093     
   45898821.6884093     
   45898821.6884093     
   45898821.6884093     
   45898821.6884093     
   45898821.6884093     
   45898821.6884093     
   45898821.6884093     
   45898821.6884092     
   45898821.6884092     
   45898821.6884092     
   45898821.6884092     
   45898821.6884092     
   45898821.6884092     
   45898821.6884092     
   45898821.6884091     
   45898821.6884091     
   45898821.6884090     
   45898821.6884090     
   45898821.6884089     
   45898821.6884089     
   45898821.6884088     
   45898821.6884087     
   45898821.6884087     
   45898821.6884087     
   45898821.6884087     
   45898821.6884086     
   45898821.6884086     
   45898821.6884087     
   45898821.6884087     
   45898821.6884087     
   45898821.6884088     
   45898821.6884088     
   45898821.6884088     
   45898821.6884088     
   45898821.6884088     
   45898821.6884088     
   45898821.6884088     
   45228575.4387831     
   45228575.4387832     
   45228575.4387832     
   45228575.4387832     
   45228575.4387832     
   45228575.4387833     
   45228575.4387834     
   45228575.4387834     
   45228575.4387835     
   45228575.4387835     
   45228575.4387835     
   45228575.4387835     
   45228575.4387835     
   45228575.4387836     
   45228575.4387836     
   45228575.4387836     
   45228575.4387836     
   45228575.4387836     
   45228575.4387835     
   45228575.4387835     
   45228575.4387835     
   45228575.4387835     
   45228575.4387835     
   45228575.4387835     
   45228575.4387835     
   45228575.4387835     
   45228575.4387835     
   45228575.4387835     
   45228575.4387835     
   45228575.4387834     
   45228575.4387834     
   45228575.4387834     
   45228575.4387833     
   45228575.4387833     
   45228575.4387832     
   45228575.4387832     
   45228575.4387831     
   45228575.4387831     
   45228575.4387831     
   45228575.4387831     
   45228575.4387830     
   45228575.4387830     
   45228575.4387830     
   45228575.4387830     
   45228575.4387830     
   45228575.4387830     
   45228575.4387831     
   45228575.4387831     
   45228575.4387832     
   45228575.4387831     
   45228575.4387831     
   44462694.6904092     
   44462694.6904092     
   44462694.6904092     
   44462694.6904093     
   44462694.6904093     
   44462694.6904094     
   44462694.6904095     
   44462694.6904095     
   44462694.6904096     
   44462694.6904097     
   44462694.6904097     
   44462694.6904097     
   44462694.6904097     
   44462694.6904097     
   44462694.6904097     
   44462694.6904097     
   44462694.6904097     
   44462694.6904097     
   44462694.6904097     
   44462694.6904096     
   44462694.6904097     
   44462694.6904097     
   44462694.6904097     
   44462694.6904096     
   44462694.6904096     
   44462694.6904096     
   44462694.6904096     
   44462694.6904096     
   44462694.6904096     
   44462694.6904096     
   44462694.6904096     
   44462694.6904096     
   44462694.6904096     
   44462694.6904095     
   44462694.6904095     
   44462694.6904094     
   44462694.6904094     
   44462694.6904094     
   44462694.6904094     
   44462694.6904093     
   44462694.6904093     
   44462694.6904093     
   44462694.6904093     
   44462694.6904093     
   44462694.6904093     
   44462694.6904093     
   44462694.6904093     
   44462694.6904093     
   44462694.6904093     
   44462694.6904093     
   44462694.6904093     
   43591061.5247789     
   43591061.5247790     
   43591061.5247790     
   43591061.5247790     
   43591061.5247790     
   43591061.5247791     
   43591061.5247792     
   43591061.5247793     
   43591061.5247793     
   43591061.5247794     
   43591061.5247794     
   43591061.5247794     
   43591061.5247794     
   43591061.5247794     
   43591061.5247795     
   43591061.5247795     
   43591061.5247795     
   43591061.5247795     
   43591061.5247794     
   43591061.5247794     
   43591061.5247794     
   43591061.5247794     
   43591061.5247793     
   43591061.5247793     
   43591061.5247793     
   43591061.5247793     
   43591061.5247793     
   43591061.5247793     
   43591061.5247793     
   43591061.5247793     
   43591061.5247793     
   43591061.5247792     
   43591061.5247793     
   43591061.5247792     
   43591061.5247792     
   43591061.5247791     
   43591061.5247790     
   43591061.5247790     
   43591061.5247790     
   43591061.5247790     
   43591061.5247789     
   43591061.5247790     
   43591061.5247790     
   43591061.5247790     
   43591061.5247790     
   43591061.5247790     
   43591061.5247790     
   43591061.5247791     
   43591061.5247791     
   43591061.5247791     
   43591061.5247791     
   42603432.8666234     
   42603432.8666234     
   42603432.8666234     
   42603432.8666234     
   42603432.8666235     
   42603432.8666235     
   42603432.8666236     
   42603432.8666237     
   42603432.8666237     
   42603432.8666237     
   42603432.8666237     
   42603432.8666238     
   42603432.8666237     
   42603432.8666238     
   42603432.8666238     
   42603432.8666238     
   42603432.8666238     
   42603432.8666238     
   42603432.8666237     
   42603432.8666237     
   42603432.8666237     
   42603432.8666237     
   42603432.8666236     
   42603432.8666236     
   42603432.8666237     
   42603432.8666237     
   42603432.8666237     
   42603432.8666236     
   42603432.8666236     
   42603432.8666236     
   42603432.8666236     
   42603432.8666235     
   42603432.8666235     
   42603432.8666235     
   42603432.8666235     
   42603432.8666234     
   42603432.8666234     
   42603432.8666234     
   42603432.8666233     
   42603432.8666233     
   42603432.8666233     
   42603432.8666234     
   42603432.8666234     
   42603432.8666234     
   42603432.8666234     
   42603432.8666234     
   42603432.8666234     
   42603432.8666234     
   42603432.8666235     
   42603432.8666234     
   42603432.8666234     
   41489750.5367261     
   41489750.5367261     
   41489750.5367262     
   41489750.5367262     
   41489750.5367262     
   41489750.5367263     
   41489750.5367263     
   41489750.5367263     
   41489750.5367264     
   41489750.5367264     
   41489750.5367264     
   41489750.5367264     
   41489750.5367265     
   41489750.5367265     
   41489750.5367265     
   41489750.5367264     
   41489750.5367264     
   41489750.5367264     
   41489750.5367264     
   41489750.5367263     
   41489750.5367263     
   41489750.5367263     
   41489750.5367263     
   41489750.5367263     
   41489750.5367263     
   41489750.5367263     
   41489750.5367264     
   41489750.5367264     
   41489750.5367263     
   41489750.5367263     
   41489750.5367263     
   41489750.5367263     
   41489750.5367262     
   41489750.5367262     
   41489750.5367261     
   41489750.5367261     
   41489750.5367260     
   41489750.5367260     
   41489750.5367260     
   41489750.5367259     
   41489750.5367259     
   41489750.5367259     
   41489750.5367260     
   41489750.5367260     
   41489750.5367260     
   41489750.5367261     
   41489750.5367261     
   41489750.5367261     
   41489750.5367261     
   41489750.5367261     
   41489750.5367261     
   40240549.4929135     
   40240549.4929135     
   40240549.4929135     
   40240549.4929136     
   40240549.4929136     
   40240549.4929136     
   40240549.4929137     
   40240549.4929137     
   40240549.4929137     
   40240549.4929137     
   40240549.4929137     
   40240549.4929137     
   40240549.4929137     
   40240549.4929138     
   40240549.4929138     
   40240549.4929138     
   40240549.4929138     
   40240549.4929138     
   40240549.4929138     
   40240549.4929138     
   40240549.4929138     
   40240549.4929138     
   40240549.4929138     
   40240549.4929138     
   40240549.4929138     
   40240549.4929138     
   40240549.4929138     
   40240549.4929137     
   40240549.4929137     
   40240549.4929137     
   40240549.4929137     
   40240549.4929136     
   40240549.4929136     
   40240549.4929136     
   40240549.4929135     
   40240549.4929134     
   40240549.4929134     
   40240549.4929134     
   40240549.4929134     
   40240549.4929134     
   40240549.4929133     
   40240549.4929133     
   40240549.4929133     
   40240549.4929134     
   40240549.4929134     
   40240549.4929134     
   40240549.4929134     
   40240549.4929134     
   40240549.4929134     
   40240549.4929134     
   40240549.4929135     
   38847477.8782225     
   38847477.8782225     
   38847477.8782225     
   38847477.8782225     
   38847477.8782225     
   38847477.8782226     
   38847477.8782226     
   38847477.8782226     
   38847477.8782227     
   38847477.8782227     
   38847477.8782227     
   38847477.8782228     
   38847477.8782228     
   38847477.8782228     
   38847477.8782229     
   38847477.8782229     
   38847477.8782229     
   38847477.8782228     
   38847477.8782228     
   38847477.8782228     
   38847477.8782228     
   38847477.8782227     
   38847477.8782227     
   38847477.8782227     
   38847477.8782228     
   38847477.8782227     
   38847477.8782227     
   38847477.8782227     
   38847477.8782227     
   38847477.8782226     
   38847477.8782226     
   38847477.8782226     
   38847477.8782226     
   38847477.8782225     
   38847477.8782225     
   38847477.8782224     
   38847477.8782224     
   38847477.8782223     
   38847477.8782223     
   38847477.8782223     
   38847477.8782223     
   38847477.8782223     
   38847477.8782223     
   38847477.8782224     
   38847477.8782224     
   38847477.8782224     
   38847477.8782224     
   38847477.8782224     
   38847477.8782224     
   38847477.8782224     
   38847477.8782224     
   37303939.1608265     
   37303939.1608265     
   37303939.1608265     
   37303939.1608265     
   37303939.1608265     
   37303939.1608266     
   37303939.1608266     
   37303939.1608266     
   37303939.1608267     
   37303939.1608267     
   37303939.1608267     
   37303939.1608268     
   37303939.1608268     
   37303939.1608268     
   37303939.1608268     
   37303939.1608269     
   37303939.1608269     
   37303939.1608269     
   37303939.1608268     
   37303939.1608268     
   37303939.1608268     
   37303939.1608268     
   37303939.1608268     
   37303939.1608267     
   37303939.1608267     
   37303939.1608266     
   37303939.1608266     
   37303939.1608266     
   37303939.1608266     
   37303939.1608266     
   37303939.1608266     
   37303939.1608265     
   37303939.1608265     
   37303939.1608265     
   37303939.1608264     
   37303939.1608264     
   37303939.1608263     
   37303939.1608263     
   37303939.1608262     
   37303939.1608262     
   37303939.1608262     
   37303939.1608262     
   37303939.1608262     
   37303939.1608262     
   37303939.1608263     
   37303939.1608263     
   37303939.1608263     
   37303939.1608263     
   37303939.1608263     
   37303939.1608263     
   37303939.1608263     
   35605859.7999413     
   35605859.7999413     
   35605859.7999413     
   35605859.7999413     
   35605859.7999413     
   35605859.7999413     
   35605859.7999414     
   35605859.7999414     
   35605859.7999414     
   35605859.7999415     
   35605859.7999415     
   35605859.7999415     
   35605859.7999416     
   35605859.7999416     
   35605859.7999416     
   35605859.7999416     
   35605859.7999416     
   35605859.7999416     
   35605859.7999416     
   35605859.7999416     
   35605859.7999415     
   35605859.7999415     
   35605859.7999415     
   35605859.7999415     
   35605859.7999415     
   35605859.7999415     
   35605859.7999415     
   35605859.7999414     
   35605859.7999414     
   35605859.7999413     
   35605859.7999413     
   35605859.7999412     
   35605859.7999412     
   35605859.7999412     
   35605859.7999412     
   35605859.7999411     
   35605859.7999411     
   35605859.7999410     
   35605859.7999410     
   35605859.7999410     
   35605859.7999410     
   35605859.7999410     
   35605859.7999410     
   35605859.7999410     
   35605859.7999410     
   35605859.7999410     
   35605859.7999410     
   35605859.7999410     
   35605859.7999410     
   35605859.7999410     
   35605859.7999410     
   33752573.7077378     
   33752573.7077378     
   33752573.7077378     
   33752573.7077378     
   33752573.7077378     
   33752573.7077378     
   33752573.7077378     
   33752573.7077379     
   33752573.7077380     
   33752573.7077379     
   33752573.7077380     
   33752573.7077380     
   33752573.7077380     
   33752573.7077380     
   33752573.7077380     
   33752573.7077380     
   33752573.7077380     
   33752573.7077380     
   33752573.7077379     
   33752573.7077379     
   33752573.7077379     
   33752573.7077379     
   33752573.7077379     
   33752573.7077379     
   33752573.7077379     
   33752573.7077378     
   33752573.7077378     
   33752573.7077378     
   33752573.7077378     
   33752573.7077377     
   33752573.7077378     
   33752573.7077377     
   33752573.7077377     
   33752573.7077376     
   33752573.7077376     
   33752573.7077375     
   33752573.7077375     
   33752573.7077374     
   33752573.7077374     
   33752573.7077374     
   33752573.7077374     
   33752573.7077373     
   33752573.7077373     
   33752573.7077374     
   33752573.7077374     
   33752573.7077374     
   33752573.7077374     
   33752573.7077374     
   33752573.7077374     
   33752573.7077374     
   33752573.7077374     
   31747794.7603447     
   31747794.7603447     
   31747794.7603447     
   31747794.7603447     
   31747794.7603447     
   31747794.7603447     
   31747794.7603447     
   31747794.7603448     
   31747794.7603448     
   31747794.7603448     
   31747794.7603448     
   31747794.7603448     
   31747794.7603448     
   31747794.7603448     
   31747794.7603449     
   31747794.7603449     
   31747794.7603448     
   31747794.7603448     
   31747794.7603447     
   31747794.7603447     
   31747794.7603447     
   31747794.7603447     
   31747794.7603447     
   31747794.7603447     
   31747794.7603447     
   31747794.7603447     
   31747794.7603447     
   31747794.7603447     
   31747794.7603447     
   31747794.7603447     
   31747794.7603446     
   31747794.7603446     
   31747794.7603446     
   31747794.7603445     
   31747794.7603444     
   31747794.7603443     
   31747794.7603443     
   31747794.7603442     
   31747794.7603442     
   31747794.7603442     
   31747794.7603442     
   31747794.7603442     
   31747794.7603442     
   31747794.7603442     
   31747794.7603442     
   31747794.7603442     
   31747794.7603442     
   31747794.7603442     
   31747794.7603442     
   31747794.7603442     
   31747794.7603442     
   29600617.1878682     
   29600617.1878682     
   29600617.1878683     
   29600617.1878682     
   29600617.1878683     
   29600617.1878683     
   29600617.1878684     
   29600617.1878684     
   29600617.1878684     
   29600617.1878684     
   29600617.1878684     
   29600617.1878684     
   29600617.1878685     
   29600617.1878685     
   29600617.1878685     
   29600617.1878685     
   29600617.1878684     
   29600617.1878684     
   29600617.1878684     
   29600617.1878684     
   29600617.1878683     
   29600617.1878684     
   29600617.1878684     
   29600617.1878683     
   29600617.1878684     
   29600617.1878683     
   29600617.1878683     
   29600617.1878683     
   29600617.1878683     
   29600617.1878682     
   29600617.1878682     
   29600617.1878682     
   29600617.1878682     
   29600617.1878681     
   29600617.1878680     
   29600617.1878680     
   29600617.1878680     
   29600617.1878679     
   29600617.1878679     
   29600617.1878679     
   29600617.1878678     
   29600617.1878678     
   29600617.1878679     
   29600617.1878678     
   29600617.1878679     
   29600617.1878679     
   29600617.1878679     
   29600617.1878679     
   29600617.1878679     
   29600617.1878679     
   29600617.1878679     
   27326435.9081632     
   27326435.9081633     
   27326435.9081632     
   27326435.9081633     
   27326435.9081632     
   27326435.9081633     
   27326435.9081633     
   27326435.9081634     
   27326435.9081633     
   27326435.9081634     
   27326435.9081634     
   27326435.9081634     
   27326435.9081634     
   27326435.9081635     
   27326435.9081635     
   27326435.9081635     
   27326435.9081635     
   27326435.9081635     
   27326435.9081634     
   27326435.9081634     
   27326435.9081634     
   27326435.9081634     
   27326435.9081634     
   27326435.9081633     
   27326435.9081633     
   27326435.9081633     
   27326435.9081634     
   27326435.9081633     
   27326435.9081633     
   27326435.9081633     
   27326435.9081632     
   27326435.9081633     
   27326435.9081632     
   27326435.9081632     
   27326435.9081631     
   27326435.9081631     
   27326435.9081630     
   27326435.9081630     
   27326435.9081630     
   27326435.9081630     
   27326435.9081629     
   27326435.9081630     
   27326435.9081629     
   27326435.9081629     
   27326435.9081629     
   27326435.9081629     
   27326435.9081629     
   27326435.9081629     
   27326435.9081629     
   27326435.9081629     
   27326435.9081629     
   24947607.9505814     
   24947607.9505814     
   24947607.9505814     
   24947607.9505814     
   24947607.9505814     
   24947607.9505814     
   24947607.9505814     
   24947607.9505815     
   24947607.9505815     
   24947607.9505815     
   24947607.9505815     
   24947607.9505815     
   24947607.9505815     
   24947607.9505815     
   24947607.9505816     
   24947607.9505815     
   24947607.9505815     
   24947607.9505815     
   24947607.9505815     
   24947607.9505815     
   24947607.9505815     
   24947607.9505815     
   24947607.9505815     
   24947607.9505815     
   24947607.9505815     
   24947607.9505815     
   24947607.9505815     
   24947607.9505815     
   24947607.9505815     
   24947607.9505814     
   24947607.9505814     
   24947607.9505814     
   24947607.9505814     
   24947607.9505813     
   24947607.9505813     
   24947607.9505813     
   24947607.9505812     
   24947607.9505812     
   24947607.9505812     
   24947607.9505812     
   24947607.9505811     
   24947607.9505812     
   24947607.9505811     
   24947607.9505811     
   24947607.9505811     
   24947607.9505811     
   24947607.9505812     
   24947607.9505812     
   24947607.9505812     
   24947607.9505812     
   24947607.9505812     
   22493572.6981604     
   22493572.6981604     
   22493572.6981604     
   22493572.6981604     
   22493572.6981604     
   22493572.6981604     
   22493572.6981604     
   22493572.6981604     
   22493572.6981605     
   22493572.6981605     
   22493572.6981605     
   22493572.6981605     
   22493572.6981605     
   22493572.6981605     
   22493572.6981605     
   22493572.6981605     
   22493572.6981605     
   22493572.6981605     
   22493572.6981605     
   22493572.6981605     
   22493572.6981605     
   22493572.6981605     
   22493572.6981605     
   22493572.6981605     
   22493572.6981605     
   22493572.6981605     
   22493572.6981605     
   22493572.6981605     
   22493572.6981605     
   22493572.6981605     
   22493572.6981605     
   22493572.6981605     
   22493572.6981605     
   22493572.6981605     
   22493572.6981604     
   22493572.6981604     
   22493572.6981604     
   22493572.6981603     
   22493572.6981603     
   22493572.6981603     
   22493572.6981603     
   22493572.6981603     
   22493572.6981603     
   22493572.6981603     
   22493572.6981603     
   22493572.6981603     
   22493572.6981603     
   22493572.6981603     
   22493572.6981603     
   22493572.6981603     
   22493572.6981603     
   20000000.0000000     
   20000000.0000000     
   20000000.0000000     
   20000000.0000000     
   20000000.0000000     
   20000000.0000000     
   20000000.0000000     
   20000000.0000000     
   20000000.0000000     
   20000000.0000000     
   20000000.0000000     
   20000000.0000000     
   20000000.0000000     
   20000000.0000000     
   20000000.0000000     
   20000000.0000000     
   20000000.0000000     
   20000000.0000000     
   20000000.0000000     
   20000000.0000000     
   20000000.0000000     
   20000000.0000000     
   20000000.0000000     
   20000000.0000000     
   20000000.0000000     
   20000000.0000000     
   20000000.0000000     
   20000000.0000000     
   20000000.0000000     
   20000000.0000000     
   20000000.0000000     
   20000000.0000000     
   20000000.0000000     
   20000000.0000000     
   20000000.0000000     
   20000000.0000000     
   20000000.0000000     
   20000000.0000000     
   20000000.0000000     
   20000000.0000000     
   20000000.0000000     
   20000000.0000000     
   20000000.0000000     
   20000000.0000000     
   20000000.0000000     
   20000000.0000000     
   20000000.0000000     
   20000000.0000000     
   20000000.0000000     
   20000000.0000000     
   20000000.0000000     
VECTORS u double 
    0.00000E+00         0.16072E-05         0.00000E+00
    0.00000E+00         0.16072E-05         0.00000E+00
    0.00000E+00         0.16071E-05         0.00000E+00
    0.00000E+00         0.16068E-05         0.00000E+00
    0.00000E+00         0.16063E-05         0.00000E+00
    0.00000E+00         0.16055E-05         0.00000E+00
    0.00000E+00         0.16042E-05         0.00000E+00
    0.00000E+00         0.16025E-05         0.00000E+00
    0.00000E+00         0.16001E-05         0.00000E+00
    0.00000E+00         0.15971E-05         0.00000E+00
    0.00000E+00         0.15934E-05         0.00000E+00
    0.00000E+00         0.15888E-05         0.00000E+00
    0.00000E+00         0.15833E-05         0.00000E+00
    0.00000E+00         0.15768E-05         0.00000E+00
    0.00000E+00         0.15692E-05         0.00000E+00
    0.00000E+00         0.15604E-05         0.00000E+00
    0.00000E+00         0.15504E-05         0.00000E+00
    0.00000E+00         0.15391E-05         0.00000E+00
    0.00000E+00         0.15264E-05         0.00000E+00
    0.00000E+00         0.15122E-05         0.00000E+00
    0.00000E+00         0.14965E-05         0.00000E+00
    0.00000E+00         0.14792E-05         0.00000E+00
    0.00000E+00         0.14601E-05         0.00000E+00
    0.00000E+00         0.14393E-05         0.00000E+00
    0.00000E+00         0.14166E-05         0.00000E+00
    0.00000E+00         0.13920E-05         0.00000E+00
    0.00000E+00         0.13655E-05         0.00000E+00
    0.00000E+00         0.13369E-05         0.00000E+00
    0.00000E+00         0.13062E-05         0.00000E+00
    0.00000E+00         0.12734E-05         0.00000E+00
    0.00000E+00         0.12383E-05         0.00000E+00
    0.00000E+00         0.12010E-05         0.00000E+00
    0.00000E+00         0.11613E-05         0.00000E+00
    0.00000E+00         0.11192E-05         0.00000E+00
    0.00000E+00         0.10747E-05         0.00000E+00
    0.00000E+00         0.10277E-05         0.00000E+00
    0.00000E+00         0.97815E-06         0.00000E+00
    0.00000E+00         0.92605E-06         0.00000E+00
    0.00000E+00         0.87133E-06         0.00000E+00
    0.00000E+00         0.81397E-06         0.00000E+00
    0.00000E+00         0.75391E-06         0.00000E+00
    0.00000E+00         0.69114E-06         0.00000E+00
    0.00000E+00         0.62562E-06         0.00000E+00
    0.00000E+00         0.55733E-06         0.00000E+00
    0.00000E+00         0.48624E-06         0.00000E+00
    0.00000E+00         0.41233E-06         0.00000E+00
    0.00000E+00         0.33559E-06         0.00000E+00
    0.00000E+00         0.25599E-06         0.00000E+00
    0.00000E+00         0.17353E-06         0.00000E+00
    0.00000E+00         0.88205E-07         0.00000E+00
    0.00000E+00         0.00000E+00         0.00000E+00
    0.73172E-06         0.16184E-05         0.00000E+00
    0.73578E-06         0.16184E-05         0.00000E+00
    0.73902E-06         0.16183E-05         0.00000E+00
    0.74142E-06         0.16180E-05         0.00000E+00
    0.74299E-06         0.16175E-05         0.00000E+00
    0.74372E-06         0.16167E-05         0.00000E+00
    0.74361E-06         0.16154E-05         0.00000E+00
    0.74265E-06         0.16136E-05         0.00000E+00
    0.74085E-06         0.16113E-05         0.00000E+00
    0.73821E-06         0.16083E-05         0.00000E+00
    0.73473E-06         0.16045E-05         0.00000E+00
    0.73041E-06         0.15999E-05         0.00000E+00
    0.72524E-06         0.15943E-05         0.00000E+00
    0.71924E-06         0.15878E-05         0.00000E+00
    0.71242E-06         0.15801E-05         0.00000E+00
    0.70476E-06         0.15713E-05         0.00000E+00
    0.69628E-06         0.15613E-05         0.00000E+00
    0.68699E-06         0.15499E-05         0.00000E+00
    0.67688E-06         0.15371E-05         0.00000E+00
    0.66598E-06         0.15228E-05         0.00000E+00
    0.65428E-06         0.15070E-05         0.00000E+00
    0.64179E-06         0.14895E-05         0.00000E+00
    0.62853E-06         0.14703E-05         0.00000E+00
    0.61451E-06         0.14494E-05         0.00000E+00
    0.59973E-06         0.14265E-05         0.00000E+00
    0.58421E-06         0.14018E-05         0.00000E+00
    0.56795E-06         0.13751E-05         0.00000E+00
    0.55098E-06         0.13463E-05         0.00000E+00
    0.53330E-06         0.13154E-05         0.00000E+00
    0.51493E-06         0.12823E-05         0.00000E+00
    0.49589E-06         0.12470E-05         0.00000E+00
    0.47618E-06         0.12094E-05         0.00000E+00
    0.45583E-06         0.11694E-05         0.00000E+00
    0.43484E-06         0.11270E-05         0.00000E+00
    0.41325E-06         0.10822E-05         0.00000E+00
    0.39106E-06         0.10349E-05         0.00000E+00
    0.36829E-06         0.98502E-06         0.00000E+00
    0.34496E-06         0.93255E-06         0.00000E+00
    0.32109E-06         0.87745E-06         0.00000E+00
    0.29670E-06         0.81968E-06         0.00000E+00
    0.27181E-06         0.75921E-06         0.00000E+00
    0.24644E-06         0.69599E-06         0.00000E+00
    0.22060E-06         0.63002E-06         0.00000E+00
    0.19433E-06         0.56124E-06         0.00000E+00
    0.16765E-06         0.48965E-06         0.00000E+00
    0.14056E-06         0.41522E-06         0.00000E+00
    0.11311E-06         0.33794E-06         0.00000E+00
    0.85299E-07         0.25779E-06         0.00000E+00
    0.57164E-07         0.17475E-06         0.00000E+00
    0.28723E-07         0.88822E-07         0.00000E+00
    0.00000E+00         0.00000E+00         0.00000E+00
    0.14737E-05         0.16521E-05         0.00000E+00
    0.14819E-05         0.16521E-05         0.00000E+00
    0.14884E-05         0.16520E-05         0.00000E+00
    0.14933E-05         0.16518E-05         0.00000E+00
    0.14964E-05         0.16513E-05         0.00000E+00
    0.14979E-05         0.16504E-05         0.00000E+00
    0.14977E-05         0.16492E-05         0.00000E+00
    0.14957E-05         0.16474E-05         0.00000E+00
    0.14921E-05         0.16450E-05         0.00000E+00
    0.14868E-05         0.16419E-05         0.00000E+00
    0.14798E-05         0.16381E-05         0.00000E+00
    0.14711E-05         0.16334E-05         0.00000E+00
    0.14607E-05         0.16277E-05         0.00000E+00
    0.14486E-05         0.16210E-05         0.00000E+00
    0.14348E-05         0.16133E-05         0.00000E+00
    0.14194E-05         0.16043E-05         0.00000E+00
    0.14023E-05         0.15940E-05         0.00000E+00
    0.13836E-05         0.15824E-05         0.00000E+00
    0.13633E-05         0.15693E-05         0.00000E+00
    0.13413E-05         0.15548E-05         0.00000E+00
    0.13177E-05         0.15386E-05         0.00000E+00
    0.12926E-05         0.15208E-05         0.00000E+00
    0.12659E-05         0.15012E-05         0.00000E+00
    0.12376E-05         0.14798E-05         0.00000E+00
    0.12079E-05         0.14565E-05         0.00000E+00
    0.11766E-05         0.14312E-05         0.00000E+00
    0.11439E-05         0.14040E-05         0.00000E+00
    0.11097E-05         0.13746E-05         0.00000E+00
    0.10741E-05         0.13430E-05         0.00000E+00
    0.10371E-05         0.13092E-05         0.00000E+00
    0.99871E-06         0.12732E-05         0.00000E+00
    0.95901E-06         0.12348E-05         0.00000E+00
    0.91802E-06         0.11940E-05         0.00000E+00
    0.87576E-06         0.11507E-05         0.00000E+00
    0.83226E-06         0.11050E-05         0.00000E+00
    0.78756E-06         0.10566E-05         0.00000E+00
    0.74170E-06         0.10057E-05         0.00000E+00
    0.69472E-06         0.95215E-06         0.00000E+00
    0.64664E-06         0.89589E-06         0.00000E+00
    0.59752E-06         0.83691E-06         0.00000E+00
    0.54739E-06         0.77516E-06         0.00000E+00
    0.49629E-06         0.71062E-06         0.00000E+00
    0.44426E-06         0.64326E-06         0.00000E+00
    0.39135E-06         0.57304E-06         0.00000E+00
    0.33760E-06         0.49994E-06         0.00000E+00
    0.28306E-06         0.42395E-06         0.00000E+00
    0.22776E-06         0.34504E-06         0.00000E+00
    0.17176E-06         0.26320E-06         0.00000E+00
    0.11510E-06         0.17842E-06         0.00000E+00
    0.57833E-07         0.90687E-07         0.00000E+00
    0.00000E+00         0.00000E+00         0.00000E+00
    0.22364E-05         0.17089E-05         0.00000E+00
    0.22488E-05         0.17089E-05         0.00000E+00
    0.22588E-05         0.17089E-05         0.00000E+00
    0.22661E-05         0.17086E-05         0.00000E+00
    0.22709E-05         0.17081E-05         0.00000E+00
    0.22732E-05         0.17073E-05         0.00000E+00
    0.22728E-05         0.17060E-05         0.00000E+00
    0.22699E-05         0.17042E-05         0.00000E+00
    0.22644E-05         0.17017E-05         0.00000E+00
    0.22564E-05         0.16985E-05         0.00000E+00
    0.22457E-05         0.16946E-05         0.00000E+00
    0.22325E-05         0.16897E-05         0.00000E+00
    0.22167E-05         0.16839E-05         0.00000E+00
    0.21984E-05         0.16770E-05         0.00000E+00
    0.21775E-05         0.16690E-05         0.00000E+00
    0.21541E-05         0.16597E-05         0.00000E+00
    0.21282E-05         0.16491E-05         0.00000E+00
    0.20997E-05         0.16371E-05         0.00000E+00
    0.20689E-05         0.16236E-05         0.00000E+00
    0.20355E-05         0.16085E-05         0.00000E+00
    0.19997E-05         0.15918E-05         0.00000E+00
    0.19616E-05         0.15734E-05         0.00000E+00
    0.19211E-05         0.15531E-05         0.00000E+00
    0.18782E-05         0.15310E-05         0.00000E+00
    0.18330E-05         0.15069E-05         0.00000E+00
    0.17855E-05         0.14808E-05         0.00000E+00
    0.17359E-05         0.14525E-05         0.00000E+00
    0.16840E-05         0.14221E-05         0.00000E+00
    0.16299E-05         0.13895E-05         0.00000E+00
    0.15738E-05         0.13546E-05         0.00000E+00
    0.15156E-05         0.13173E-05         0.00000E+00
    0.14553E-05         0.12775E-05         0.00000E+00
    0.13931E-05         0.12353E-05         0.00000E+00
    0.13290E-05         0.11906E-05         0.00000E+00
    0.12630E-05         0.11432E-05         0.00000E+00
    0.11951E-05         0.10932E-05         0.00000E+00
    0.11255E-05         0.10405E-05         0.00000E+00
    0.10542E-05         0.98512E-06         0.00000E+00
    0.98127E-06         0.92692E-06         0.00000E+00
    0.90672E-06         0.86589E-06         0.00000E+00
    0.83065E-06         0.80201E-06         0.00000E+00
    0.75310E-06         0.73523E-06         0.00000E+00
    0.67415E-06         0.66553E-06         0.00000E+00
    0.59385E-06         0.59288E-06         0.00000E+00
    0.51229E-06         0.51726E-06         0.00000E+00
    0.42952E-06         0.43863E-06         0.00000E+00
    0.34561E-06         0.35699E-06         0.00000E+00
    0.26063E-06         0.27232E-06         0.00000E+00
    0.17465E-06         0.18460E-06         0.00000E+00
    0.87753E-07         0.93828E-07         0.00000E+00
    0.00000E+00         0.00000E+00         0.00000E+00
    0.30307E-05         0.17897E-05         0.00000E+00
    0.30476E-05         0.17897E-05         0.00000E+00
    0.30610E-05         0.17897E-05         0.00000E+00
    0.30710E-05         0.17894E-05         0.00000E+00
    0.30776E-05         0.17889E-05         0.00000E+00
    0.30806E-05         0.17881E-05         0.00000E+00
    0.30801E-05         0.17867E-05         0.00000E+00
    0.30762E-05         0.17848E-05         0.00000E+00
    0.30687E-05         0.17823E-05         0.00000E+00
    0.30578E-05         0.17790E-05         0.00000E+00
    0.30434E-05         0.17749E-05         0.00000E+00
    0.30254E-05         0.17698E-05         0.00000E+00
    0.30040E-05         0.17637E-05         0.00000E+00
    0.29792E-05         0.17565E-05         0.00000E+00
    0.29509E-05         0.17481E-05         0.00000E+00
    0.29191E-05         0.17384E-05         0.00000E+00
    0.28840E-05         0.17273E-05         0.00000E+00
    0.28455E-05         0.17147E-05         0.00000E+00
    0.28036E-05         0.17006E-05         0.00000E+00
    0.27584E-05         0.16848E-05         0.00000E+00
    0.27100E-05         0.16673E-05         0.00000E+00
    0.26583E-05         0.16480E-05         0.00000E+00
    0.26033E-05         0.16268E-05         0.00000E+00
    0.25452E-05         0.16036E-05         0.00000E+00
    0.24840E-05         0.15784E-05         0.00000E+00
    0.24197E-05         0.15511E-05         0.00000E+00
    0.23523E-05         0.15215E-05         0.00000E+00
    0.22820E-05         0.14897E-05         0.00000E+00
    0.22088E-05         0.14555E-05         0.00000E+00
    0.21327E-05         0.14189E-05         0.00000E+00
    0.20538E-05         0.13798E-05         0.00000E+00
    0.19721E-05         0.13382E-05         0.00000E+00
    0.18878E-05         0.12940E-05         0.00000E+00
    0.18009E-05         0.12471E-05         0.00000E+00
    0.17115E-05         0.11975E-05         0.00000E+00
    0.16195E-05         0.11452E-05         0.00000E+00
    0.15252E-05         0.10900E-05         0.00000E+00
    0.14286E-05         0.10319E-05         0.00000E+00
    0.13297E-05         0.97096E-06         0.00000E+00
    0.12287E-05         0.90704E-06         0.00000E+00
    0.11256E-05         0.84012E-06         0.00000E+00
    0.10205E-05         0.77017E-06         0.00000E+00
    0.91351E-06         0.69716E-06         0.00000E+00
    0.80471E-06         0.62106E-06         0.00000E+00
    0.69418E-06         0.54184E-06         0.00000E+00
    0.58201E-06         0.45948E-06         0.00000E+00
    0.46831E-06         0.37396E-06         0.00000E+00
    0.35316E-06         0.28526E-06         0.00000E+00
    0.23666E-06         0.19337E-06         0.00000E+00
    0.11891E-06         0.98289E-07         0.00000E+00
    0.00000E+00         0.00000E+00         0.00000E+00
    0.38678E-05         0.18955E-05         0.00000E+00
    0.38894E-05         0.18956E-05         0.00000E+00
    0.39066E-05         0.18955E-05         0.00000E+00
    0.39193E-05         0.18953E-05         0.00000E+00
    0.39277E-05         0.18948E-05         0.00000E+00
    0.39315E-05         0.18939E-05         0.00000E+00
    0.39310E-05         0.18925E-05         0.00000E+00
    0.39259E-05         0.18905E-05         0.00000E+00
    0.39164E-05         0.18878E-05         0.00000E+00
    0.39024E-05         0.18844E-05         0.00000E+00
    0.38840E-05         0.18800E-05         0.00000E+00
    0.38611E-05         0.18746E-05         0.00000E+00
    0.38338E-05         0.18682E-05         0.00000E+00
    0.38021E-05         0.18606E-05         0.00000E+00
    0.37659E-05         0.18517E-05         0.00000E+00
    0.37254E-05         0.18414E-05         0.00000E+00
    0.36806E-05         0.18297E-05         0.00000E+00
    0.36314E-05         0.18164E-05         0.00000E+00
    0.35780E-05         0.18015E-05         0.00000E+00
    0.35203E-05         0.17848E-05         0.00000E+00
    0.34584E-05         0.17662E-05         0.00000E+00
    0.33924E-05         0.17458E-05         0.00000E+00
    0.33223E-05         0.17234E-05         0.00000E+00
    0.32481E-05         0.16988E-05         0.00000E+00
    0.31700E-05         0.16721E-05         0.00000E+00
    0.30879E-05         0.16431E-05         0.00000E+00
    0.30020E-05         0.16118E-05         0.00000E+00
    0.29122E-05         0.15781E-05         0.00000E+00
    0.28188E-05         0.15419E-05         0.00000E+00
    0.27217E-05         0.15031E-05         0.00000E+00
    0.26210E-05         0.14618E-05         0.00000E+00
    0.25168E-05         0.14177E-05         0.00000E+00
    0.24092E-05         0.13708E-05         0.00000E+00
    0.22982E-05         0.13212E-05         0.00000E+00
    0.21841E-05         0.12687E-05         0.00000E+00
    0.20667E-05         0.12132E-05         0.00000E+00
    0.19464E-05         0.11547E-05         0.00000E+00
    0.18231E-05         0.10932E-05         0.00000E+00
    0.16969E-05         0.10286E-05         0.00000E+00
    0.15680E-05         0.96093E-06         0.00000E+00
    0.14364E-05         0.89003E-06         0.00000E+00
    0.13023E-05         0.81593E-06         0.00000E+00
    0.11657E-05         0.73859E-06         0.00000E+00
    0.10269E-05         0.65796E-06         0.00000E+00
    0.88584E-06         0.57404E-06         0.00000E+00
    0.74271E-06         0.48678E-06         0.00000E+00
    0.59761E-06         0.39618E-06         0.00000E+00
    0.45066E-06         0.30221E-06         0.00000E+00
    0.30200E-06         0.20487E-06         0.00000E+00
    0.15173E-06         0.10413E-06         0.00000E+00
    0.00000E+00         0.00000E+00         0.00000E+00
    0.47597E-05         0.20278E-05         0.00000E+00
    0.47863E-05         0.20279E-05         0.00000E+00
    0.48074E-05         0.20279E-05         0.00000E+00
    0.48231E-05         0.20277E-05         0.00000E+00
    0.48333E-05         0.20272E-05         0.00000E+00
    0.48381E-05         0.20263E-05         0.00000E+00
    0.48374E-05         0.20248E-05         0.00000E+00
    0.48311E-05         0.20227E-05         0.00000E+00
    0.48194E-05         0.20198E-05         0.00000E+00
    0.48022E-05         0.20161E-05         0.00000E+00
    0.47795E-05         0.20115E-05         0.00000E+00
    0.47513E-05         0.20058E-05         0.00000E+00
    0.47177E-05         0.19989E-05         0.00000E+00
    0.46787E-05         0.19908E-05         0.00000E+00
    0.46342E-05         0.19813E-05         0.00000E+00
    0.45843E-05         0.19703E-05         0.00000E+00
    0.45291E-05         0.19578E-05         0.00000E+00
    0.44686E-05         0.19436E-05         0.00000E+00
    0.44029E-05         0.19276E-05         0.00000E+00
    0.43319E-05         0.19097E-05         0.00000E+00
    0.42557E-05         0.18899E-05         0.00000E+00
    0.41745E-05         0.18681E-05         0.00000E+00
    0.40882E-05         0.18441E-05         0.00000E+00
    0.39969E-05         0.18178E-05         0.00000E+00
    0.39007E-05         0.17892E-05         0.00000E+00
    0.37997E-05         0.17582E-05         0.00000E+00
    0.36940E-05         0.17247E-05         0.00000E+00
    0.35835E-05         0.16887E-05         0.00000E+00
    0.34685E-05         0.16499E-05         0.00000E+00
    0.33490E-05         0.16085E-05         0.00000E+00
    0.32251E-05         0.15642E-05         0.00000E+00
    0.30969E-05         0.15170E-05         0.00000E+00
    0.29644E-05         0.14669E-05         0.00000E+00
    0.28279E-05         0.14138E-05         0.00000E+00
    0.26875E-05         0.13576E-05         0.00000E+00
    0.25431E-05         0.12982E-05         0.00000E+00
    0.23950E-05         0.12357E-05         0.00000E+00
    0.22432E-05         0.11699E-05         0.00000E+00
    0.20880E-05         0.11008E-05         0.00000E+00
    0.19293E-05         0.10283E-05         0.00000E+00
    0.17674E-05         0.95244E-06         0.00000E+00
    0.16024E-05         0.87315E-06         0.00000E+00
    0.14344E-05         0.79038E-06         0.00000E+00
    0.12635E-05         0.70411E-06         0.00000E+00
    0.10900E-05         0.61430E-06         0.00000E+00
    0.91387E-06         0.52092E-06         0.00000E+00
    0.73533E-06         0.42397E-06         0.00000E+00
    0.55452E-06         0.32341E-06         0.00000E+00
    0.37159E-06         0.21924E-06         0.00000E+00
    0.18670E-06         0.11143E-06         0.00000E+00
    0.00000E+00         0.00000E+00         0.00000E+00
    0.57190E-05         0.21886E-05         0.00000E+00
    0.57509E-05         0.21887E-05         0.00000E+00
    0.57762E-05         0.21887E-05         0.00000E+00
    0.57951E-05         0.21885E-05         0.00000E+00
    0.58074E-05         0.21880E-05         0.00000E+00
    0.58131E-05         0.21870E-05         0.00000E+00
    0.58122E-05         0.21854E-05         0.00000E+00
    0.58047E-05         0.21831E-05         0.00000E+00
    0.57906E-05         0.21801E-05         0.00000E+00
    0.57699E-05         0.21761E-05         0.00000E+00
    0.57426E-05         0.21711E-05         0.00000E+00
    0.57087E-05         0.21650E-05         0.00000E+00
    0.56683E-05         0.21576E-05         0.00000E+00
    0.56214E-05         0.21488E-05         0.00000E+00
    0.55679E-05         0.21386E-05         0.00000E+00
    0.55080E-05         0.21268E-05         0.00000E+00
    0.54416E-05         0.21133E-05         0.00000E+00
    0.53689E-05         0.20979E-05         0.00000E+00
    0.52899E-05         0.20807E-05         0.00000E+00
    0.52046E-05         0.20615E-05         0.00000E+00
    0.51131E-05         0.20401E-05         0.00000E+00
    0.50154E-05         0.20165E-05         0.00000E+00
    0.49118E-05         0.19906E-05         0.00000E+00
    0.48021E-05         0.19623E-05         0.00000E+00
    0.46865E-05         0.19314E-05         0.00000E+00
    0.45651E-05         0.18980E-05         0.00000E+00
    0.44381E-05         0.18619E-05         0.00000E+00
    0.43054E-05         0.18229E-05         0.00000E+00
    0.41672E-05         0.17811E-05         0.00000E+00
    0.40236E-05         0.17364E-05         0.00000E+00
    0.38747E-05         0.16886E-05         0.00000E+00
    0.37206E-05         0.16377E-05         0.00000E+00
    0.35615E-05         0.15836E-05         0.00000E+00
    0.33975E-05         0.15262E-05         0.00000E+00
    0.32287E-05         0.14656E-05         0.00000E+00
    0.30553E-05         0.14015E-05         0.00000E+00
    0.28773E-05         0.13340E-05         0.00000E+00
    0.26950E-05         0.12629E-05         0.00000E+00
    0.25085E-05         0.11883E-05         0.00000E+00
    0.23179E-05         0.11101E-05         0.00000E+00
    0.21234E-05         0.10282E-05         0.00000E+00
    0.19251E-05         0.94261E-06         0.00000E+00
    0.17233E-05         0.85326E-06         0.00000E+00
    0.15180E-05         0.76013E-06         0.00000E+00
    0.13095E-05         0.66317E-06         0.00000E+00
    0.10979E-05         0.56237E-06         0.00000E+00
    0.88340E-06         0.45770E-06         0.00000E+00
    0.66618E-06         0.34915E-06         0.00000E+00
    0.44642E-06         0.23668E-06         0.00000E+00
    0.22429E-06         0.12030E-06         0.00000E+00
    0.00000E+00         0.00000E+00         0.00000E+00
    0.67592E-05         0.23798E-05         0.00000E+00
    0.67969E-05         0.23800E-05         0.00000E+00
    0.68268E-05         0.23801E-05         0.00000E+00
    0.68491E-05         0.23799E-05         0.00000E+00
    0.68636E-05         0.23793E-05         0.00000E+00
    0.68703E-05         0.23782E-05         0.00000E+00
    0.68692E-05         0.23766E-05         0.00000E+00
    0.68603E-05         0.23741E-05         0.00000E+00
    0.68436E-05         0.23708E-05         0.00000E+00
    0.68191E-05         0.23666E-05         0.00000E+00
    0.67868E-05         0.23611E-05         0.00000E+00
    0.67468E-05         0.23545E-05         0.00000E+00
    0.66990E-05         0.23465E-05         0.00000E+00
    0.66435E-05         0.23370E-05         0.00000E+00
    0.65803E-05         0.23259E-05         0.00000E+00
    0.65094E-05         0.23130E-05         0.00000E+00
    0.64310E-05         0.22983E-05         0.00000E+00
    0.63450E-05         0.22817E-05         0.00000E+00
    0.62516E-05         0.22630E-05         0.00000E+00
    0.61508E-05         0.22421E-05         0.00000E+00
    0.60426E-05         0.22188E-05         0.00000E+00
    0.59272E-05         0.21932E-05         0.00000E+00
    0.58046E-05         0.21650E-05         0.00000E+00
    0.56750E-05         0.21342E-05         0.00000E+00
    0.55384E-05         0.21007E-05         0.00000E+00
    0.53949E-05         0.20643E-05         0.00000E+00
    0.52447E-05         0.20250E-05         0.00000E+00
    0.50879E-05         0.19827E-05         0.00000E+00
    0.49246E-05         0.19373E-05         0.00000E+00
    0.47548E-05         0.18886E-05         0.00000E+00
    0.45789E-05         0.18366E-05         0.00000E+00
    0.43968E-05         0.17813E-05         0.00000E+00
    0.42088E-05         0.17224E-05         0.00000E+00
    0.40150E-05         0.16601E-05         0.00000E+00
    0.38155E-05         0.15941E-05         0.00000E+00
    0.36105E-05         0.15244E-05         0.00000E+00
    0.34002E-05         0.14509E-05         0.00000E+00
    0.31847E-05         0.13737E-05         0.00000E+00
    0.29643E-05         0.12925E-05         0.00000E+00
    0.27391E-05         0.12075E-05         0.00000E+00
    0.25092E-05         0.11184E-05         0.00000E+00
    0.22749E-05         0.10253E-05         0.00000E+00
    0.20364E-05         0.92811E-06         0.00000E+00
    0.17938E-05         0.82680E-06         0.00000E+00
    0.15474E-05         0.72135E-06         0.00000E+00
    0.12974E-05         0.61171E-06         0.00000E+00
    0.10439E-05         0.49786E-06         0.00000E+00
    0.78722E-06         0.37978E-06         0.00000E+00
    0.52753E-06         0.25745E-06         0.00000E+00
    0.26505E-06         0.13086E-06         0.00000E+00
    0.00000E+00         0.00000E+00         0.00000E+00
    0.78952E-05         0.26043E-05         0.00000E+00
    0.79391E-05         0.26045E-05         0.00000E+00
    0.79741E-05         0.26046E-05         0.00000E+00
    0.80000E-05         0.26044E-05         0.00000E+00
    0.80169E-05         0.26038E-05         0.00000E+00
    0.80246E-05         0.26027E-05         0.00000E+00
    0.80233E-05         0.26009E-05         0.00000E+00
    0.80129E-05         0.25983E-05         0.00000E+00
    0.79934E-05         0.25947E-05         0.00000E+00
    0.79647E-05         0.25900E-05         0.00000E+00
    0.79270E-05         0.25841E-05         0.00000E+00
    0.78802E-05         0.25769E-05         0.00000E+00
    0.78243E-05         0.25681E-05         0.00000E+00
    0.77594E-05         0.25577E-05         0.00000E+00
    0.76855E-05         0.25456E-05         0.00000E+00
    0.76028E-05         0.25316E-05         0.00000E+00
    0.75111E-05         0.25155E-05         0.00000E+00
    0.74107E-05         0.24973E-05         0.00000E+00
    0.73015E-05         0.24769E-05         0.00000E+00
    0.71837E-05         0.24540E-05         0.00000E+00
    0.70574E-05         0.24286E-05         0.00000E+00
    0.69225E-05         0.24005E-05         0.00000E+00
    0.67794E-05         0.23697E-05         0.00000E+00
    0.66279E-05         0.23360E-05         0.00000E+00
    0.64684E-05         0.22993E-05         0.00000E+00
    0.63008E-05         0.22596E-05         0.00000E+00
    0.61254E-05         0.22165E-05         0.00000E+00
    0.59422E-05         0.21702E-05         0.00000E+00
    0.57514E-05         0.21205E-05         0.00000E+00
    0.55532E-05         0.20672E-05         0.00000E+00
    0.53476E-05         0.20103E-05         0.00000E+00
    0.51350E-05         0.19498E-05         0.00000E+00
    0.49154E-05         0.18854E-05         0.00000E+00
    0.46890E-05         0.18171E-05         0.00000E+00
    0.44560E-05         0.17449E-05         0.00000E+00
    0.42166E-05         0.16686E-05         0.00000E+00
    0.39710E-05         0.15882E-05         0.00000E+00
    0.37193E-05         0.15037E-05         0.00000E+00
    0.34619E-05         0.14149E-05         0.00000E+00
    0.31988E-05         0.13217E-05         0.00000E+00
    0.29304E-05         0.12242E-05         0.00000E+00
    0.26568E-05         0.11223E-05         0.00000E+00
    0.23782E-05         0.10159E-05         0.00000E+00
    0.20949E-05         0.90505E-06         0.00000E+00
    0.18072E-05         0.78962E-06         0.00000E+00
    0.15151E-05         0.66960E-06         0.00000E+00
    0.12191E-05         0.54498E-06         0.00000E+00
    0.91935E-06         0.41572E-06         0.00000E+00
    0.61607E-06         0.28182E-06         0.00000E+00
    0.30953E-06         0.14324E-06         0.00000E+00
    0.00000E+00         0.00000E+00         0.00000E+00
    0.91429E-05         0.28650E-05         0.00000E+00
    0.91937E-05         0.28653E-05         0.00000E+00
    0.92341E-05         0.28654E-05         0.00000E+00
    0.92641E-05         0.28653E-05         0.00000E+00
    0.92836E-05         0.28646E-05         0.00000E+00
    0.92925E-05         0.28634E-05         0.00000E+00
    0.92910E-05         0.28615E-05         0.00000E+00
    0.92788E-05         0.28586E-05         0.00000E+00
    0.92561E-05         0.28547E-05         0.00000E+00
    0.92229E-05         0.28496E-05         0.00000E+00
    0.91791E-05         0.28431E-05         0.00000E+00
    0.91249E-05         0.28352E-05         0.00000E+00
    0.90601E-05         0.28256E-05         0.00000E+00
    0.89849E-05         0.28142E-05         0.00000E+00
    0.88994E-05         0.28009E-05         0.00000E+00
    0.88035E-05         0.27855E-05         0.00000E+00
    0.86973E-05         0.27678E-05         0.00000E+00
    0.85810E-05         0.27478E-05         0.00000E+00
    0.84545E-05         0.27253E-05         0.00000E+00
    0.83181E-05         0.27002E-05         0.00000E+00
    0.81717E-05         0.26722E-05         0.00000E+00
    0.80155E-05         0.26414E-05         0.00000E+00
    0.78497E-05         0.26075E-05         0.00000E+00
    0.76743E-05         0.25704E-05         0.00000E+00
    0.74896E-05         0.25301E-05         0.00000E+00
    0.72955E-05         0.24863E-05         0.00000E+00
    0.70923E-05         0.24390E-05         0.00000E+00
    0.68802E-05         0.23881E-05         0.00000E+00
    0.66593E-05         0.23333E-05         0.00000E+00
    0.64297E-05         0.22747E-05         0.00000E+00
    0.61917E-05         0.22122E-05         0.00000E+00
    0.59455E-05         0.21455E-05         0.00000E+00
    0.56912E-05         0.20747E-05         0.00000E+00
    0.54290E-05         0.19996E-05         0.00000E+00
    0.51593E-05         0.19201E-05         0.00000E+00
    0.48821E-05         0.18362E-05         0.00000E+00
    0.45977E-05         0.17477E-05         0.00000E+00
    0.43063E-05         0.16547E-05         0.00000E+00
    0.40082E-05         0.15569E-05         0.00000E+00
    0.37036E-05         0.14545E-05         0.00000E+00
    0.33928E-05         0.13472E-05         0.00000E+00
    0.30760E-05         0.12350E-05         0.00000E+00
    0.27535E-05         0.11180E-05         0.00000E+00
    0.24255E-05         0.99596E-06         0.00000E+00
    0.20923E-05         0.86893E-06         0.00000E+00
    0.17542E-05         0.73686E-06         0.00000E+00
    0.14115E-05         0.59972E-06         0.00000E+00
    0.10644E-05         0.45748E-06         0.00000E+00
    0.71327E-06         0.31013E-06         0.00000E+00
    0.35837E-06         0.15763E-06         0.00000E+00
    0.00000E+00         0.00000E+00         0.00000E+00
    0.10520E-04         0.31655E-05         0.00000E+00
    0.10578E-04         0.31659E-05         0.00000E+00
    0.10625E-04         0.31661E-05         0.00000E+00
    0.10659E-04         0.31659E-05         0.00000E+00
    0.10682E-04         0.31653E-05         0.00000E+00
    0.10692E-04         0.31640E-05         0.00000E+00
    0.10690E-04         0.31618E-05         0.00000E+00
    0.10676E-04         0.31587E-05         0.00000E+00
    0.10650E-04         0.31544E-05         0.00000E+00
    0.10611E-04         0.31488E-05         0.00000E+00
    0.10561E-04         0.31417E-05         0.00000E+00
    0.10498E-04         0.31330E-05         0.00000E+00
    0.10424E-04         0.31224E-05         0.00000E+00
    0.10337E-04         0.31098E-05         0.00000E+00
    0.10239E-04         0.30951E-05         0.00000E+00
    0.10128E-04         0.30781E-05         0.00000E+00
    0.10006E-04         0.30587E-05         0.00000E+00
    0.98723E-05         0.30366E-05         0.00000E+00
    0.97267E-05         0.30117E-05         0.00000E+00
    0.95697E-05         0.29840E-05         0.00000E+00
    0.94013E-05         0.29531E-05         0.00000E+00
    0.92216E-05         0.29191E-05         0.00000E+00
    0.90307E-05         0.28816E-05         0.00000E+00
    0.88289E-05         0.28407E-05         0.00000E+00
    0.86163E-05         0.27961E-05         0.00000E+00
    0.83930E-05         0.27478E-05         0.00000E+00
    0.81592E-05         0.26955E-05         0.00000E+00
    0.79151E-05         0.26392E-05         0.00000E+00
    0.76609E-05         0.25787E-05         0.00000E+00
    0.73968E-05         0.25140E-05         0.00000E+00
    0.71230E-05         0.24448E-05         0.00000E+00
    0.68397E-05         0.23712E-05         0.00000E+00
    0.65471E-05         0.22929E-05         0.00000E+00
    0.62455E-05         0.22099E-05         0.00000E+00
    0.59352E-05         0.21221E-05         0.00000E+00
    0.56162E-05         0.20293E-05         0.00000E+00
    0.52891E-05         0.19316E-05         0.00000E+00
    0.49539E-05         0.18288E-05         0.00000E+00
    0.46109E-05         0.17208E-05         0.00000E+00
    0.42605E-05         0.16075E-05         0.00000E+00
    0.39030E-05         0.14889E-05         0.00000E+00
    0.35385E-05         0.13650E-05         0.00000E+00
    0.31675E-05         0.12356E-05         0.00000E+00
    0.27902E-05         0.11008E-05         0.00000E+00
    0.24069E-05         0.96038E-06         0.00000E+00
    0.20180E-05         0.81441E-06         0.00000E+00
    0.16237E-05         0.66284E-06         0.00000E+00
    0.12244E-05         0.50563E-06         0.00000E+00
    0.82051E-06         0.34277E-06         0.00000E+00
    0.41225E-06         0.17423E-06         0.00000E+00
    0.00000E+00         0.00000E+00         0.00000E+00
    0.12046E-04         0.35099E-05         0.00000E+00
    0.12113E-04         0.35103E-05         0.00000E+00
    0.12166E-04         0.35106E-05         0.00000E+00
    0.12205E-04         0.35105E-05         0.00000E+00
    0.12231E-04         0.35098E-05         0.00000E+00
    0.12242E-04         0.35084E-05         0.00000E+00
    0.12240E-04         0.35061E-05         0.00000E+00
    0.12224E-04         0.35027E-05         0.00000E+00
    0.12194E-04         0.34980E-05         0.00000E+00
    0.12150E-04         0.34918E-05         0.00000E+00
    0.12092E-04         0.34840E-05         0.00000E+00
    0.12020E-04         0.34743E-05         0.00000E+00
    0.11935E-04         0.34626E-05         0.00000E+00
    0.11836E-04         0.34487E-05         0.00000E+00
    0.11723E-04         0.34324E-05         0.00000E+00
    0.11596E-04         0.34136E-05         0.00000E+00
    0.11456E-04         0.33921E-05         0.00000E+00
    0.11303E-04         0.33676E-05         0.00000E+00
    0.11136E-04         0.33401E-05         0.00000E+00
    0.10956E-04         0.33093E-05         0.00000E+00
    0.10763E-04         0.32751E-05         0.00000E+00
    0.10558E-04         0.32374E-05         0.00000E+00
    0.10339E-04         0.31959E-05         0.00000E+00
    0.10108E-04         0.31505E-05         0.00000E+00
    0.98644E-05         0.31011E-05         0.00000E+00
    0.96087E-05         0.30475E-05         0.00000E+00
    0.93410E-05         0.29895E-05         0.00000E+00
    0.90615E-05         0.29271E-05         0.00000E+00
    0.87704E-05         0.28600E-05         0.00000E+00
    0.84680E-05         0.27883E-05         0.00000E+00
    0.81545E-05         0.27116E-05         0.00000E+00
    0.78301E-05         0.26299E-05         0.00000E+00
    0.74952E-05         0.25431E-05         0.00000E+00
    0.71499E-05         0.24510E-05         0.00000E+00
    0.67945E-05         0.23536E-05         0.00000E+00
    0.64294E-05         0.22508E-05         0.00000E+00
    0.60549E-05         0.21424E-05         0.00000E+00
    0.56711E-05         0.20283E-05         0.00000E+00
    0.52785E-05         0.19085E-05         0.00000E+00
    0.48774E-05         0.17829E-05         0.00000E+00
    0.44680E-05         0.16514E-05         0.00000E+00
    0.40508E-05         0.15140E-05         0.00000E+00
    0.36260E-05         0.13705E-05         0.00000E+00
    0.31941E-05         0.12209E-05         0.00000E+00
    0.27553E-05         0.10652E-05         0.00000E+00
    0.23101E-05         0.90331E-06         0.00000E+00
    0.18587E-05         0.73520E-06         0.00000E+00
    0.14017E-05         0.56083E-06         0.00000E+00
    0.93928E-06         0.38019E-06         0.00000E+00
    0.47192E-06         0.19325E-06         0.00000E+00
    0.00000E+00         0.00000E+00         0.00000E+00
    0.13743E-04         0.39028E-05         0.00000E+00
    0.13819E-04         0.39033E-05         0.00000E+00
    0.13879E-04         0.39037E-05         0.00000E+00
    0.13924E-04         0.39036E-05         0.00000E+00
    0.13953E-04         0.39029E-05         0.00000E+00
    0.13966E-04         0.39014E-05         0.00000E+00
    0.13963E-04         0.38989E-05         0.00000E+00
    0.13945E-04         0.38951E-05         0.00000E+00
    0.13910E-04         0.38899E-05         0.00000E+00
    0.13860E-04         0.38831E-05         0.00000E+00
    0.13794E-04         0.38745E-05         0.00000E+00
    0.13712E-04         0.38638E-05         0.00000E+00
    0.13614E-04         0.38508E-05         0.00000E+00
    0.13501E-04         0.38354E-05         0.00000E+00
    0.13372E-04         0.38173E-05         0.00000E+00
    0.13228E-04         0.37964E-05         0.00000E+00
    0.13068E-04         0.37725E-05         0.00000E+00
    0.12893E-04         0.37453E-05         0.00000E+00
    0.12703E-04         0.37148E-05         0.00000E+00
    0.12497E-04         0.36806E-05         0.00000E+00
    0.12277E-04         0.36426E-05         0.00000E+00
    0.12042E-04         0.36006E-05         0.00000E+00
    0.11793E-04         0.35545E-05         0.00000E+00
    0.11529E-04         0.35041E-05         0.00000E+00
    0.11251E-04         0.34491E-05         0.00000E+00
    0.10960E-04         0.33895E-05         0.00000E+00
    0.10654E-04         0.33251E-05         0.00000E+00
    0.10335E-04         0.32557E-05         0.00000E+00
    0.10003E-04         0.31811E-05         0.00000E+00
    0.96584E-05         0.31013E-05         0.00000E+00
    0.93008E-05         0.30160E-05         0.00000E+00
    0.89308E-05         0.29252E-05         0.00000E+00
    0.85487E-05         0.28286E-05         0.00000E+00
    0.81548E-05         0.27263E-05         0.00000E+00
    0.77495E-05         0.26179E-05         0.00000E+00
    0.73330E-05         0.25035E-05         0.00000E+00
    0.69058E-05         0.23830E-05         0.00000E+00
    0.64681E-05         0.22561E-05         0.00000E+00
    0.60203E-05         0.21229E-05         0.00000E+00
    0.55627E-05         0.19832E-05         0.00000E+00
    0.50958E-05         0.18369E-05         0.00000E+00
    0.46200E-05         0.16840E-05         0.00000E+00
    0.41355E-05         0.15244E-05         0.00000E+00
    0.36429E-05         0.13581E-05         0.00000E+00
    0.31424E-05         0.11849E-05         0.00000E+00
    0.26346E-05         0.10048E-05         0.00000E+00
    0.21199E-05         0.81779E-06         0.00000E+00
    0.15986E-05         0.62384E-06         0.00000E+00
    0.10712E-05         0.42290E-06         0.00000E+00
    0.53822E-06         0.21496E-06         0.00000E+00
    0.00000E+00         0.00000E+00         0.00000E+00
    0.15634E-04         0.43495E-05         0.00000E+00
    0.15720E-04         0.43502E-05         0.00000E+00
    0.15789E-04         0.43506E-05         0.00000E+00
    0.15839E-04         0.43506E-05         0.00000E+00
    0.15872E-04         0.43499E-05         0.00000E+00
    0.15887E-04         0.43483E-05         0.00000E+00
    0.15884E-04         0.43455E-05         0.00000E+00
    0.15862E-04         0.43414E-05         0.00000E+00
    0.15823E-04         0.43357E-05         0.00000E+00
    0.15766E-04         0.43281E-05         0.00000E+00
    0.15690E-04         0.43185E-05         0.00000E+00
    0.15597E-04         0.43067E-05         0.00000E+00
    0.15486E-04         0.42923E-05         0.00000E+00
    0.15357E-04         0.42751E-05         0.00000E+00
    0.15210E-04         0.42551E-05         0.00000E+00
    0.15046E-04         0.42318E-05         0.00000E+00
    0.14864E-04         0.42052E-05         0.00000E+00
    0.14664E-04         0.41750E-05         0.00000E+00
    0.14448E-04         0.41409E-05         0.00000E+00
    0.14214E-04         0.41028E-05         0.00000E+00
    0.13964E-04         0.40605E-05         0.00000E+00
    0.13697E-04         0.40138E-05         0.00000E+00
    0.13413E-04         0.39624E-05         0.00000E+00
    0.13113E-04         0.39062E-05         0.00000E+00
    0.12797E-04         0.38450E-05         0.00000E+00
    0.12465E-04         0.37785E-05         0.00000E+00
    0.12117E-04         0.37067E-05         0.00000E+00
    0.11755E-04         0.36294E-05         0.00000E+00
    0.11377E-04         0.35463E-05         0.00000E+00
    0.10985E-04         0.34573E-05         0.00000E+00
    0.10578E-04         0.33623E-05         0.00000E+00
    0.10157E-04         0.32610E-05         0.00000E+00
    0.97223E-05         0.31534E-05         0.00000E+00
    0.92743E-05         0.30393E-05         0.00000E+00
    0.88133E-05         0.29185E-05         0.00000E+00
    0.83396E-05         0.27910E-05         0.00000E+00
    0.78537E-05         0.26566E-05         0.00000E+00
    0.73558E-05         0.25152E-05         0.00000E+00
    0.68466E-05         0.23667E-05         0.00000E+00
    0.63262E-05         0.22110E-05         0.00000E+00
    0.57952E-05         0.20479E-05         0.00000E+00
    0.52540E-05         0.18775E-05         0.00000E+00
    0.47030E-05         0.16995E-05         0.00000E+00
    0.41428E-05         0.15141E-05         0.00000E+00
    0.35737E-05         0.13210E-05         0.00000E+00
    0.29962E-05         0.11202E-05         0.00000E+00
    0.24108E-05         0.91174E-06         0.00000E+00
    0.18180E-05         0.69550E-06         0.00000E+00
    0.12182E-05         0.47148E-06         0.00000E+00
    0.61207E-06         0.23965E-06         0.00000E+00
    0.00000E+00         0.00000E+00         0.00000E+00
    0.17747E-04         0.48560E-05         0.00000E+00
    0.17844E-04         0.48569E-05         0.00000E+00
    0.17922E-04         0.48574E-05         0.00000E+00
    0.17979E-04         0.48575E-05         0.00000E+00
    0.18016E-04         0.48568E-05         0.00000E+00
    0.18032E-04         0.48550E-05         0.00000E+00
    0.18028E-04         0.48521E-05         0.00000E+00
    0.18004E-04         0.48475E-05         0.00000E+00
    0.17959E-04         0.48412E-05         0.00000E+00
    0.17894E-04         0.48328E-05         0.00000E+00
    0.17808E-04         0.48222E-05         0.00000E+00
    0.17702E-04         0.48090E-05         0.00000E+00
    0.17576E-04         0.47930E-05         0.00000E+00
    0.17429E-04         0.47739E-05         0.00000E+00
    0.17262E-04         0.47516E-05         0.00000E+00
    0.17075E-04         0.47257E-05         0.00000E+00
    0.16869E-04         0.46960E-05         0.00000E+00
    0.16643E-04         0.46622E-05         0.00000E+00
    0.16397E-04         0.46243E-05         0.00000E+00
    0.16131E-04         0.45818E-05         0.00000E+00
    0.15847E-04         0.45346E-05         0.00000E+00
    0.15544E-04         0.44824E-05         0.00000E+00
    0.15221E-04         0.44251E-05         0.00000E+00
    0.14881E-04         0.43623E-05         0.00000E+00
    0.14522E-04         0.42940E-05         0.00000E+00
    0.14145E-04         0.42199E-05         0.00000E+00
    0.13751E-04         0.41397E-05         0.00000E+00
    0.13339E-04         0.40533E-05         0.00000E+00
    0.12911E-04         0.39606E-05         0.00000E+00
    0.12465E-04         0.38612E-05         0.00000E+00
    0.12003E-04         0.37551E-05         0.00000E+00
    0.11526E-04         0.36420E-05         0.00000E+00
    0.11032E-04         0.35219E-05         0.00000E+00
    0.10524E-04         0.33944E-05         0.00000E+00
    0.10001E-04         0.32596E-05         0.00000E+00
    0.94633E-05         0.31172E-05         0.00000E+00
    0.89118E-05         0.29671E-05         0.00000E+00
    0.83469E-05         0.28092E-05         0.00000E+00
    0.77689E-05         0.26433E-05         0.00000E+00
    0.71784E-05         0.24694E-05         0.00000E+00
    0.65759E-05         0.22873E-05         0.00000E+00
    0.59618E-05         0.20969E-05         0.00000E+00
    0.53366E-05         0.18982E-05         0.00000E+00
    0.47008E-05         0.16910E-05         0.00000E+00
    0.40550E-05         0.14754E-05         0.00000E+00
    0.33997E-05         0.12512E-05         0.00000E+00
    0.27355E-05         0.10183E-05         0.00000E+00
    0.20628E-05         0.77681E-06         0.00000E+00
    0.13823E-05         0.52661E-06         0.00000E+00
    0.69451E-06         0.26767E-06         0.00000E+00
    0.00000E+00         0.00000E+00         0.00000E+00
    0.20110E-04         0.54291E-05         0.00000E+00
    0.20221E-04         0.54301E-05         0.00000E+00
    0.20308E-04         0.54309E-05         0.00000E+00
    0.20373E-04         0.54310E-05         0.00000E+00
    0.20414E-04         0.54303E-05         0.00000E+00
    0.20433E-04         0.54285E-05         0.00000E+00
    0.20428E-04         0.54252E-05         0.00000E+00
    0.20400E-04         0.54202E-05         0.00000E+00
    0.20349E-04         0.54133E-05         0.00000E+00
    0.20274E-04         0.54040E-05         0.00000E+00
    0.20177E-04         0.53922E-05         0.00000E+00
    0.20057E-04         0.53775E-05         0.00000E+00
    0.19913E-04         0.53596E-05         0.00000E+00
    0.19747E-04         0.53384E-05         0.00000E+00
    0.19558E-04         0.53135E-05         0.00000E+00
    0.19346E-04         0.52846E-05         0.00000E+00
    0.19112E-04         0.52514E-05         0.00000E+00
    0.18855E-04         0.52138E-05         0.00000E+00
    0.18576E-04         0.51714E-05         0.00000E+00
    0.18276E-04         0.51239E-05         0.00000E+00
    0.17953E-04         0.50712E-05         0.00000E+00
    0.17609E-04         0.50129E-05         0.00000E+00
    0.17244E-04         0.49488E-05         0.00000E+00
    0.16858E-04         0.48787E-05         0.00000E+00
    0.16452E-04         0.48023E-05         0.00000E+00
    0.16025E-04         0.47194E-05         0.00000E+00
    0.15578E-04         0.46298E-05         0.00000E+00
    0.15111E-04         0.45332E-05         0.00000E+00
    0.14625E-04         0.44295E-05         0.00000E+00
    0.14121E-04         0.43184E-05         0.00000E+00
    0.13598E-04         0.41997E-05         0.00000E+00
    0.13056E-04         0.40733E-05         0.00000E+00
    0.12497E-04         0.39390E-05         0.00000E+00
    0.11921E-04         0.37965E-05         0.00000E+00
    0.11329E-04         0.36457E-05         0.00000E+00
    0.10720E-04         0.34864E-05         0.00000E+00
    0.10095E-04         0.33186E-05         0.00000E+00
    0.94550E-05         0.31419E-05         0.00000E+00
    0.88003E-05         0.29564E-05         0.00000E+00
    0.81313E-05         0.27619E-05         0.00000E+00
    0.74488E-05         0.25583E-05         0.00000E+00
    0.67531E-05         0.23453E-05         0.00000E+00
    0.60449E-05         0.21231E-05         0.00000E+00
    0.53247E-05         0.18914E-05         0.00000E+00
    0.45932E-05         0.16502E-05         0.00000E+00
    0.38509E-05         0.13994E-05         0.00000E+00
    0.30985E-05         0.11390E-05         0.00000E+00
    0.23366E-05         0.86887E-06         0.00000E+00
    0.15657E-05         0.58901E-06         0.00000E+00
    0.78667E-06         0.29940E-06         0.00000E+00
    0.00000E+00         0.00000E+00         0.00000E+00
    0.22758E-04         0.60764E-05         0.00000E+00
    0.22883E-04         0.60777E-05         0.00000E+00
    0.22981E-04         0.60786E-05         0.00000E+00
    0.23054E-04         0.60789E-05         0.00000E+00
    0.23101E-04         0.60782E-05         0.00000E+00
    0.23121E-04         0.60763E-05         0.00000E+00
    0.23115E-04         0.60727E-05         0.00000E+00
    0.23084E-04         0.60672E-05         0.00000E+00
    0.23025E-04         0.60595E-05         0.00000E+00
    0.22941E-04         0.60493E-05         0.00000E+00
    0.22831E-04         0.60361E-05         0.00000E+00
    0.22694E-04         0.60197E-05         0.00000E+00
    0.22531E-04         0.59999E-05         0.00000E+00
    0.22343E-04         0.59762E-05         0.00000E+00
    0.22129E-04         0.59483E-05         0.00000E+00
    0.21889E-04         0.59161E-05         0.00000E+00
    0.21623E-04         0.58790E-05         0.00000E+00
    0.21333E-04         0.58370E-05         0.00000E+00
    0.21017E-04         0.57895E-05         0.00000E+00
    0.20677E-04         0.57365E-05         0.00000E+00
    0.20312E-04         0.56775E-05         0.00000E+00
    0.19922E-04         0.56123E-05         0.00000E+00
    0.19509E-04         0.55406E-05         0.00000E+00
    0.19072E-04         0.54622E-05         0.00000E+00
    0.18612E-04         0.53767E-05         0.00000E+00
    0.18129E-04         0.52839E-05         0.00000E+00
    0.17623E-04         0.51836E-05         0.00000E+00
    0.17095E-04         0.50756E-05         0.00000E+00
    0.16545E-04         0.49595E-05         0.00000E+00
    0.15974E-04         0.48351E-05         0.00000E+00
    0.15382E-04         0.47023E-05         0.00000E+00
    0.14770E-04         0.45608E-05         0.00000E+00
    0.14138E-04         0.44103E-05         0.00000E+00
    0.13486E-04         0.42508E-05         0.00000E+00
    0.12815E-04         0.40820E-05         0.00000E+00
    0.12126E-04         0.39037E-05         0.00000E+00
    0.11420E-04         0.37158E-05         0.00000E+00
    0.10696E-04         0.35180E-05         0.00000E+00
    0.99549E-05         0.33103E-05         0.00000E+00
    0.91981E-05         0.30925E-05         0.00000E+00
    0.84260E-05         0.28645E-05         0.00000E+00
    0.76390E-05         0.26261E-05         0.00000E+00
    0.68378E-05         0.23773E-05         0.00000E+00
    0.60232E-05         0.21179E-05         0.00000E+00
    0.51957E-05         0.18478E-05         0.00000E+00
    0.43560E-05         0.15670E-05         0.00000E+00
    0.35049E-05         0.12754E-05         0.00000E+00
    0.26430E-05         0.97292E-06         0.00000E+00
    0.17711E-05         0.65955E-06         0.00000E+00
    0.88984E-06         0.33525E-06         0.00000E+00
    0.00000E+00         0.00000E+00         0.00000E+00
    0.25728E-04         0.68064E-05         0.00000E+00
    0.25868E-04         0.68080E-05         0.00000E+00
    0.25980E-04         0.68091E-05         0.00000E+00
    0.26061E-04         0.68096E-05         0.00000E+00
    0.26114E-04         0.68090E-05         0.00000E+00
    0.26136E-04         0.68069E-05         0.00000E+00
    0.26129E-04         0.68031E-05         0.00000E+00
    0.26093E-04         0.67971E-05         0.00000E+00
    0.26027E-04         0.67886E-05         0.00000E+00
    0.25931E-04         0.67772E-05         0.00000E+00
    0.25806E-04         0.67626E-05         0.00000E+00
    0.25651E-04         0.67443E-05         0.00000E+00
    0.25467E-04         0.67222E-05         0.00000E+00
    0.25253E-04         0.66958E-05         0.00000E+00
    0.25011E-04         0.66647E-05         0.00000E+00
    0.24739E-04         0.66286E-05         0.00000E+00
    0.24439E-04         0.65872E-05         0.00000E+00
    0.24110E-04         0.65401E-05         0.00000E+00
    0.23753E-04         0.64871E-05         0.00000E+00
    0.23368E-04         0.64277E-05         0.00000E+00
    0.22955E-04         0.63617E-05         0.00000E+00
    0.22515E-04         0.62887E-05         0.00000E+00
    0.22048E-04         0.62084E-05         0.00000E+00
    0.21554E-04         0.61206E-05         0.00000E+00
    0.21034E-04         0.60249E-05         0.00000E+00
    0.20487E-04         0.59210E-05         0.00000E+00
    0.19916E-04         0.58087E-05         0.00000E+00
    0.19319E-04         0.56876E-05         0.00000E+00
    0.18697E-04         0.55575E-05         0.00000E+00
    0.18052E-04         0.54182E-05         0.00000E+00
    0.17383E-04         0.52694E-05         0.00000E+00
    0.16691E-04         0.51109E-05         0.00000E+00
    0.15976E-04         0.49423E-05         0.00000E+00
    0.15239E-04         0.47636E-05         0.00000E+00
    0.14482E-04         0.45744E-05         0.00000E+00
    0.13703E-04         0.43747E-05         0.00000E+00
    0.12904E-04         0.41641E-05         0.00000E+00
    0.12086E-04         0.39425E-05         0.00000E+00
    0.11249E-04         0.37098E-05         0.00000E+00
    0.10394E-04         0.34657E-05         0.00000E+00
    0.95211E-05         0.32102E-05         0.00000E+00
    0.86317E-05         0.29431E-05         0.00000E+00
    0.77264E-05         0.26642E-05         0.00000E+00
    0.68059E-05         0.23735E-05         0.00000E+00
    0.58708E-05         0.20708E-05         0.00000E+00
    0.49221E-05         0.17561E-05         0.00000E+00
    0.39603E-05         0.14293E-05         0.00000E+00
    0.29864E-05         0.10904E-05         0.00000E+00
    0.20012E-05         0.73917E-06         0.00000E+00
    0.10055E-05         0.37572E-06         0.00000E+00
    0.00000E+00         0.00000E+00         0.00000E+00
    0.29062E-04         0.76288E-05         0.00000E+00
    0.29220E-04         0.76307E-05         0.00000E+00
    0.29345E-04         0.76322E-05         0.00000E+00
    0.29436E-04         0.76328E-05         0.00000E+00
    0.29495E-04         0.76323E-05         0.00000E+00
    0.29520E-04         0.76302E-05         0.00000E+00
    0.29512E-04         0.76260E-05         0.00000E+00
    0.29470E-04         0.76195E-05         0.00000E+00
    0.29395E-04         0.76101E-05         0.00000E+00
    0.29286E-04         0.75974E-05         0.00000E+00
    0.29144E-04         0.75812E-05         0.00000E+00
    0.28969E-04         0.75609E-05         0.00000E+00
    0.28760E-04         0.75362E-05         0.00000E+00
    0.28519E-04         0.75067E-05         0.00000E+00
    0.28245E-04         0.74719E-05         0.00000E+00
    0.27938E-04         0.74316E-05         0.00000E+00
    0.27598E-04         0.73853E-05         0.00000E+00
    0.27227E-04         0.73327E-05         0.00000E+00
    0.26823E-04         0.72733E-05         0.00000E+00
    0.26388E-04         0.72068E-05         0.00000E+00
    0.25921E-04         0.71328E-05         0.00000E+00
    0.25424E-04         0.70511E-05         0.00000E+00
    0.24896E-04         0.69612E-05         0.00000E+00
    0.24338E-04         0.68628E-05         0.00000E+00
    0.23750E-04         0.67555E-05         0.00000E+00
    0.23133E-04         0.66391E-05         0.00000E+00
    0.22487E-04         0.65132E-05         0.00000E+00
    0.21813E-04         0.63775E-05         0.00000E+00
    0.21111E-04         0.62317E-05         0.00000E+00
    0.20382E-04         0.60756E-05         0.00000E+00
    0.19627E-04         0.59087E-05         0.00000E+00
    0.18845E-04         0.57310E-05         0.00000E+00
    0.18038E-04         0.55420E-05         0.00000E+00
    0.17206E-04         0.53417E-05         0.00000E+00
    0.16350E-04         0.51296E-05         0.00000E+00
    0.15471E-04         0.49056E-05         0.00000E+00
    0.14569E-04         0.46695E-05         0.00000E+00
    0.13645E-04         0.44210E-05         0.00000E+00
    0.12700E-04         0.41601E-05         0.00000E+00
    0.11734E-04         0.38864E-05         0.00000E+00
    0.10749E-04         0.35999E-05         0.00000E+00
    0.97451E-05         0.33003E-05         0.00000E+00
    0.87230E-05         0.29876E-05         0.00000E+00
    0.76837E-05         0.26616E-05         0.00000E+00
    0.66280E-05         0.23223E-05         0.00000E+00
    0.55568E-05         0.19694E-05         0.00000E+00
    0.44710E-05         0.16029E-05         0.00000E+00
    0.33716E-05         0.12228E-05         0.00000E+00
    0.22593E-05         0.82893E-06         0.00000E+00
    0.11351E-05         0.42135E-06         0.00000E+00
    0.00000E+00         0.00000E+00         0.00000E+00
    0.32806E-04         0.85543E-05         0.00000E+00
    0.32984E-04         0.85566E-05         0.00000E+00
    0.33124E-04         0.85584E-05         0.00000E+00
    0.33227E-04         0.85594E-05         0.00000E+00
    0.33292E-04         0.85590E-05         0.00000E+00
    0.33320E-04         0.85568E-05         0.00000E+00
    0.33310E-04         0.85523E-05         0.00000E+00
    0.33262E-04         0.85451E-05         0.00000E+00
    0.33177E-04         0.85348E-05         0.00000E+00
    0.33054E-04         0.85208E-05         0.00000E+00
    0.32893E-04         0.85027E-05         0.00000E+00
    0.32694E-04         0.84801E-05         0.00000E+00
    0.32459E-04         0.84526E-05         0.00000E+00
    0.32186E-04         0.84196E-05         0.00000E+00
    0.31876E-04         0.83808E-05         0.00000E+00
    0.31529E-04         0.83357E-05         0.00000E+00
    0.31145E-04         0.82839E-05         0.00000E+00
    0.30725E-04         0.82250E-05         0.00000E+00
    0.30269E-04         0.81585E-05         0.00000E+00
    0.29778E-04         0.80840E-05         0.00000E+00
    0.29251E-04         0.80012E-05         0.00000E+00
    0.28689E-04         0.79096E-05         0.00000E+00
    0.28093E-04         0.78088E-05         0.00000E+00
    0.27463E-04         0.76985E-05         0.00000E+00
    0.26799E-04         0.75783E-05         0.00000E+00
    0.26103E-04         0.74478E-05         0.00000E+00
    0.25374E-04         0.73066E-05         0.00000E+00
    0.24613E-04         0.71545E-05         0.00000E+00
    0.23821E-04         0.69910E-05         0.00000E+00
    0.22998E-04         0.68159E-05         0.00000E+00
    0.22145E-04         0.66288E-05         0.00000E+00
    0.21263E-04         0.64294E-05         0.00000E+00
    0.20352E-04         0.62175E-05         0.00000E+00
    0.19413E-04         0.59927E-05         0.00000E+00
    0.18447E-04         0.57548E-05         0.00000E+00
    0.17455E-04         0.55036E-05         0.00000E+00
    0.16437E-04         0.52387E-05         0.00000E+00
    0.15395E-04         0.49600E-05         0.00000E+00
    0.14329E-04         0.46673E-05         0.00000E+00
    0.13239E-04         0.43603E-05         0.00000E+00
    0.12127E-04         0.40388E-05         0.00000E+00
    0.10995E-04         0.37028E-05         0.00000E+00
    0.98413E-05         0.33520E-05         0.00000E+00
    0.86687E-05         0.29862E-05         0.00000E+00
    0.74776E-05         0.26055E-05         0.00000E+00
    0.62691E-05         0.22096E-05         0.00000E+00
    0.50441E-05         0.17984E-05         0.00000E+00
    0.38037E-05         0.13719E-05         0.00000E+00
    0.25488E-05         0.93005E-06         0.00000E+00
    0.12806E-05         0.47275E-06         0.00000E+00
    0.00000E+00         0.00000E+00         0.00000E+00
    0.37014E-04         0.95948E-05         0.00000E+00
    0.37214E-04         0.95976E-05         0.00000E+00
    0.37371E-04         0.95999E-05         0.00000E+00
    0.37486E-04         0.96013E-05         0.00000E+00
    0.37559E-04         0.96011E-05         0.00000E+00
    0.37590E-04         0.95988E-05         0.00000E+00
    0.37578E-04         0.95940E-05         0.00000E+00
    0.37523E-04         0.95862E-05         0.00000E+00
    0.37426E-04         0.95748E-05         0.00000E+00
    0.37286E-04         0.95593E-05         0.00000E+00
    0.37104E-04         0.95393E-05         0.00000E+00
    0.36880E-04         0.95141E-05         0.00000E+00
    0.36613E-04         0.94834E-05         0.00000E+00
    0.36304E-04         0.94466E-05         0.00000E+00
    0.35954E-04         0.94032E-05         0.00000E+00
    0.35562E-04         0.93528E-05         0.00000E+00
    0.35129E-04         0.92949E-05         0.00000E+00
    0.34655E-04         0.92289E-05         0.00000E+00
    0.34140E-04         0.91544E-05         0.00000E+00
    0.33585E-04         0.90710E-05         0.00000E+00
    0.32990E-04         0.89782E-05         0.00000E+00
    0.32356E-04         0.88755E-05         0.00000E+00
    0.31684E-04         0.87626E-05         0.00000E+00
    0.30973E-04         0.86389E-05         0.00000E+00
    0.30224E-04         0.85041E-05         0.00000E+00
    0.29438E-04         0.83577E-05         0.00000E+00
    0.28615E-04         0.81994E-05         0.00000E+00
    0.27757E-04         0.80287E-05         0.00000E+00
    0.26863E-04         0.78454E-05         0.00000E+00
    0.25935E-04         0.76489E-05         0.00000E+00
    0.24973E-04         0.74390E-05         0.00000E+00
    0.23978E-04         0.72154E-05         0.00000E+00
    0.22950E-04         0.69776E-05         0.00000E+00
    0.21891E-04         0.67254E-05         0.00000E+00
    0.20802E-04         0.64585E-05         0.00000E+00
    0.19683E-04         0.61766E-05         0.00000E+00
    0.18535E-04         0.58793E-05         0.00000E+00
    0.17360E-04         0.55666E-05         0.00000E+00
    0.16157E-04         0.52381E-05         0.00000E+00
    0.14928E-04         0.48936E-05         0.00000E+00
    0.13675E-04         0.45329E-05         0.00000E+00
    0.12397E-04         0.41557E-05         0.00000E+00
    0.11097E-04         0.37620E-05         0.00000E+00
    0.97745E-05         0.33516E-05         0.00000E+00
    0.84315E-05         0.29242E-05         0.00000E+00
    0.70688E-05         0.24799E-05         0.00000E+00
    0.56875E-05         0.20184E-05         0.00000E+00
    0.42888E-05         0.15398E-05         0.00000E+00
    0.28739E-05         0.10439E-05         0.00000E+00
    0.14439E-05         0.53061E-06         0.00000E+00
    0.00000E+00         0.00000E+00         0.00000E+00
    0.41745E-04         0.10764E-04         0.00000E+00
    0.41969E-04         0.10767E-04         0.00000E+00
    0.42145E-04         0.10770E-04         0.00000E+00
    0.42274E-04         0.10772E-04         0.00000E+00
    0.42356E-04         0.10772E-04         0.00000E+00
    0.42389E-04         0.10770E-04         0.00000E+00
    0.42374E-04         0.10765E-04         0.00000E+00
    0.42312E-04         0.10756E-04         0.00000E+00
    0.42201E-04         0.10744E-04         0.00000E+00
    0.42043E-04         0.10727E-04         0.00000E+00
    0.41837E-04         0.10704E-04         0.00000E+00
    0.41583E-04         0.10676E-04         0.00000E+00
    0.41281E-04         0.10642E-04         0.00000E+00
    0.40932E-04         0.10601E-04         0.00000E+00
    0.40537E-04         0.10553E-04         0.00000E+00
    0.40094E-04         0.10496E-04         0.00000E+00
    0.39605E-04         0.10431E-04         0.00000E+00
    0.39070E-04         0.10357E-04         0.00000E+00
    0.38489E-04         0.10274E-04         0.00000E+00
    0.37862E-04         0.10181E-04         0.00000E+00
    0.37191E-04         0.10077E-04         0.00000E+00
    0.36476E-04         0.99615E-05         0.00000E+00
    0.35717E-04         0.98349E-05         0.00000E+00
    0.34915E-04         0.96962E-05         0.00000E+00
    0.34070E-04         0.95450E-05         0.00000E+00
    0.33184E-04         0.93809E-05         0.00000E+00
    0.32256E-04         0.92033E-05         0.00000E+00
    0.31288E-04         0.90118E-05         0.00000E+00
    0.30280E-04         0.88061E-05         0.00000E+00
    0.29233E-04         0.85857E-05         0.00000E+00
    0.28149E-04         0.83502E-05         0.00000E+00
    0.27027E-04         0.80992E-05         0.00000E+00
    0.25868E-04         0.78324E-05         0.00000E+00
    0.24675E-04         0.75493E-05         0.00000E+00
    0.23447E-04         0.72498E-05         0.00000E+00
    0.22185E-04         0.69334E-05         0.00000E+00
    0.20891E-04         0.65998E-05         0.00000E+00
    0.19566E-04         0.62488E-05         0.00000E+00
    0.18210E-04         0.58801E-05         0.00000E+00
    0.16825E-04         0.54934E-05         0.00000E+00
    0.15412E-04         0.50884E-05         0.00000E+00
    0.13972E-04         0.46651E-05         0.00000E+00
    0.12507E-04         0.42232E-05         0.00000E+00
    0.11016E-04         0.37624E-05         0.00000E+00
    0.95026E-05         0.32827E-05         0.00000E+00
    0.79667E-05         0.27839E-05         0.00000E+00
    0.64100E-05         0.22659E-05         0.00000E+00
    0.48336E-05         0.17286E-05         0.00000E+00
    0.32390E-05         0.11719E-05         0.00000E+00
    0.16273E-05         0.59568E-06         0.00000E+00
    0.00000E+00         0.00000E+00         0.00000E+00
    0.47065E-04         0.12076E-04         0.00000E+00
    0.47316E-04         0.12080E-04         0.00000E+00
    0.47514E-04         0.12084E-04         0.00000E+00
    0.47658E-04         0.12086E-04         0.00000E+00
    0.47748E-04         0.12087E-04         0.00000E+00
    0.47785E-04         0.12085E-04         0.00000E+00
    0.47767E-04         0.12079E-04         0.00000E+00
    0.47696E-04         0.12070E-04         0.00000E+00
    0.47570E-04         0.12056E-04         0.00000E+00
    0.47390E-04         0.12037E-04         0.00000E+00
    0.47157E-04         0.12013E-04         0.00000E+00
    0.46869E-04         0.11982E-04         0.00000E+00
    0.46529E-04         0.11943E-04         0.00000E+00
    0.46135E-04         0.11898E-04         0.00000E+00
    0.45687E-04         0.11844E-04         0.00000E+00
    0.45188E-04         0.11781E-04         0.00000E+00
    0.44636E-04         0.11708E-04         0.00000E+00
    0.44031E-04         0.11625E-04         0.00000E+00
    0.43376E-04         0.11532E-04         0.00000E+00
    0.42669E-04         0.11427E-04         0.00000E+00
    0.41913E-04         0.11311E-04         0.00000E+00
    0.41106E-04         0.11182E-04         0.00000E+00
    0.40250E-04         0.11040E-04         0.00000E+00
    0.39345E-04         0.10884E-04         0.00000E+00
    0.38393E-04         0.10715E-04         0.00000E+00
    0.37393E-04         0.10531E-04         0.00000E+00
    0.36347E-04         0.10331E-04         0.00000E+00
    0.35256E-04         0.10117E-04         0.00000E+00
    0.34120E-04         0.98857E-05         0.00000E+00
    0.32940E-04         0.96384E-05         0.00000E+00
    0.31717E-04         0.93741E-05         0.00000E+00
    0.30452E-04         0.90924E-05         0.00000E+00
    0.29147E-04         0.87930E-05         0.00000E+00
    0.27802E-04         0.84753E-05         0.00000E+00
    0.26418E-04         0.81391E-05         0.00000E+00
    0.24996E-04         0.77839E-05         0.00000E+00
    0.23538E-04         0.74095E-05         0.00000E+00
    0.22044E-04         0.70155E-05         0.00000E+00
    0.20517E-04         0.66016E-05         0.00000E+00
    0.18956E-04         0.61675E-05         0.00000E+00
    0.17364E-04         0.57129E-05         0.00000E+00
    0.15742E-04         0.52377E-05         0.00000E+00
    0.14090E-04         0.47415E-05         0.00000E+00
    0.12411E-04         0.42243E-05         0.00000E+00
    0.10706E-04         0.36857E-05         0.00000E+00
    0.89753E-05         0.31257E-05         0.00000E+00
    0.72215E-05         0.25441E-05         0.00000E+00
    0.54455E-05         0.19408E-05         0.00000E+00
    0.36490E-05         0.13157E-05         0.00000E+00
    0.18333E-05         0.66882E-06         0.00000E+00
    0.00000E+00         0.00000E+00         0.00000E+00
    0.53049E-04         0.13548E-04         0.00000E+00
    0.53331E-04         0.13554E-04         0.00000E+00
    0.53552E-04         0.13558E-04         0.00000E+00
    0.53713E-04         0.13561E-04         0.00000E+00
    0.53813E-04         0.13562E-04         0.00000E+00
    0.53853E-04         0.13560E-04         0.00000E+00
    0.53832E-04         0.13555E-04         0.00000E+00
    0.53750E-04         0.13545E-04         0.00000E+00
    0.53607E-04         0.13530E-04         0.00000E+00
    0.53403E-04         0.13509E-04         0.00000E+00
    0.53138E-04         0.13481E-04         0.00000E+00
    0.52813E-04         0.13447E-04         0.00000E+00
    0.52428E-04         0.13404E-04         0.00000E+00
    0.51983E-04         0.13353E-04         0.00000E+00
    0.51478E-04         0.13293E-04         0.00000E+00
    0.50914E-04         0.13222E-04         0.00000E+00
    0.50291E-04         0.13141E-04         0.00000E+00
    0.49609E-04         0.13049E-04         0.00000E+00
    0.48869E-04         0.12944E-04         0.00000E+00
    0.48072E-04         0.12827E-04         0.00000E+00
    0.47219E-04         0.12696E-04         0.00000E+00
    0.46309E-04         0.12552E-04         0.00000E+00
    0.45344E-04         0.12393E-04         0.00000E+00
    0.44324E-04         0.12218E-04         0.00000E+00
    0.43250E-04         0.12028E-04         0.00000E+00
    0.42123E-04         0.11822E-04         0.00000E+00
    0.40944E-04         0.11598E-04         0.00000E+00
    0.39714E-04         0.11357E-04         0.00000E+00
    0.38434E-04         0.11098E-04         0.00000E+00
    0.37104E-04         0.10821E-04         0.00000E+00
    0.35726E-04         0.10524E-04         0.00000E+00
    0.34302E-04         0.10208E-04         0.00000E+00
    0.32831E-04         0.98719E-05         0.00000E+00
    0.31315E-04         0.95154E-05         0.00000E+00
    0.29756E-04         0.91380E-05         0.00000E+00
    0.28154E-04         0.87393E-05         0.00000E+00
    0.26511E-04         0.83190E-05         0.00000E+00
    0.24829E-04         0.78767E-05         0.00000E+00
    0.23108E-04         0.74120E-05         0.00000E+00
    0.21350E-04         0.69247E-05         0.00000E+00
    0.19557E-04         0.64144E-05         0.00000E+00
    0.17730E-04         0.58808E-05         0.00000E+00
    0.15869E-04         0.53238E-05         0.00000E+00
    0.13978E-04         0.47431E-05         0.00000E+00
    0.12057E-04         0.41384E-05         0.00000E+00
    0.10108E-04         0.35096E-05         0.00000E+00
    0.81331E-05         0.28566E-05         0.00000E+00
    0.61329E-05         0.21792E-05         0.00000E+00
    0.41096E-05         0.14774E-05         0.00000E+00
    0.20647E-05         0.75099E-06         0.00000E+00
    0.00000E+00         0.00000E+00         0.00000E+00
    0.59781E-04         0.15199E-04         0.00000E+00
    0.60097E-04         0.15206E-04         0.00000E+00
    0.60344E-04         0.15211E-04         0.00000E+00
    0.60524E-04         0.15215E-04         0.00000E+00
    0.60635E-04         0.15217E-04         0.00000E+00
    0.60678E-04         0.15215E-04         0.00000E+00
    0.60652E-04         0.15209E-04         0.00000E+00
    0.60558E-04         0.15198E-04         0.00000E+00
    0.60395E-04         0.15182E-04         0.00000E+00
    0.60164E-04         0.15159E-04         0.00000E+00
    0.59865E-04         0.15129E-04         0.00000E+00
    0.59497E-04         0.15091E-04         0.00000E+00
    0.59062E-04         0.15043E-04         0.00000E+00
    0.58559E-04         0.14986E-04         0.00000E+00
    0.57988E-04         0.14919E-04         0.00000E+00
    0.57351E-04         0.14840E-04         0.00000E+00
    0.56648E-04         0.14750E-04         0.00000E+00
    0.55879E-04         0.14646E-04         0.00000E+00
    0.55045E-04         0.14529E-04         0.00000E+00
    0.54146E-04         0.14398E-04         0.00000E+00
    0.53183E-04         0.14252E-04         0.00000E+00
    0.52158E-04         0.14090E-04         0.00000E+00
    0.51069E-04         0.13911E-04         0.00000E+00
    0.49920E-04         0.13716E-04         0.00000E+00
    0.48710E-04         0.13502E-04         0.00000E+00
    0.47440E-04         0.13271E-04         0.00000E+00
    0.46111E-04         0.13020E-04         0.00000E+00
    0.44725E-04         0.12750E-04         0.00000E+00
    0.43282E-04         0.12459E-04         0.00000E+00
    0.41784E-04         0.12148E-04         0.00000E+00
    0.40232E-04         0.11815E-04         0.00000E+00
    0.38627E-04         0.11460E-04         0.00000E+00
    0.36970E-04         0.11083E-04         0.00000E+00
    0.35263E-04         0.10683E-04         0.00000E+00
    0.33506E-04         0.10259E-04         0.00000E+00
    0.31703E-04         0.98119E-05         0.00000E+00
    0.29853E-04         0.93401E-05         0.00000E+00
    0.27958E-04         0.88436E-05         0.00000E+00
    0.26020E-04         0.83219E-05         0.00000E+00
    0.24040E-04         0.77748E-05         0.00000E+00
    0.22021E-04         0.72019E-05         0.00000E+00
    0.19963E-04         0.66030E-05         0.00000E+00
    0.17868E-04         0.59776E-05         0.00000E+00
    0.15739E-04         0.53255E-05         0.00000E+00
    0.13576E-04         0.46467E-05         0.00000E+00
    0.11381E-04         0.39407E-05         0.00000E+00
    0.91572E-05         0.32075E-05         0.00000E+00
    0.69051E-05         0.24469E-05         0.00000E+00
    0.46270E-05         0.16589E-05         0.00000E+00
    0.23246E-05         0.84326E-06         0.00000E+00
    0.00000E+00         0.00000E+00         0.00000E+00
    0.67356E-04         0.17049E-04         0.00000E+00
    0.67709E-04         0.17056E-04         0.00000E+00
    0.67986E-04         0.17063E-04         0.00000E+00
    0.68186E-04         0.17068E-04         0.00000E+00
    0.68309E-04         0.17071E-04         0.00000E+00
    0.68355E-04         0.17069E-04         0.00000E+00
    0.68324E-04         0.17064E-04         0.00000E+00
    0.68216E-04         0.17052E-04         0.00000E+00
    0.68031E-04         0.17034E-04         0.00000E+00
    0.67769E-04         0.17009E-04         0.00000E+00
    0.67429E-04         0.16976E-04         0.00000E+00
    0.67013E-04         0.16934E-04         0.00000E+00
    0.66521E-04         0.16881E-04         0.00000E+00
    0.65953E-04         0.16818E-04         0.00000E+00
    0.65309E-04         0.16742E-04         0.00000E+00
    0.64590E-04         0.16655E-04         0.00000E+00
    0.63796E-04         0.16553E-04         0.00000E+00
    0.62929E-04         0.16438E-04         0.00000E+00
    0.61988E-04         0.16307E-04         0.00000E+00
    0.60974E-04         0.16160E-04         0.00000E+00
    0.59889E-04         0.15996E-04         0.00000E+00
    0.58732E-04         0.15814E-04         0.00000E+00
    0.57506E-04         0.15614E-04         0.00000E+00
    0.56210E-04         0.15395E-04         0.00000E+00
    0.54846E-04         0.15156E-04         0.00000E+00
    0.53415E-04         0.14896E-04         0.00000E+00
    0.51918E-04         0.14615E-04         0.00000E+00
    0.50357E-04         0.14312E-04         0.00000E+00
    0.48732E-04         0.13986E-04         0.00000E+00
    0.47044E-04         0.13637E-04         0.00000E+00
    0.45296E-04         0.13263E-04         0.00000E+00
    0.43488E-04         0.12865E-04         0.00000E+00
    0.41622E-04         0.12442E-04         0.00000E+00
    0.39699E-04         0.11993E-04         0.00000E+00
    0.37721E-04         0.11518E-04         0.00000E+00
    0.35690E-04         0.11015E-04         0.00000E+00
    0.33607E-04         0.10486E-04         0.00000E+00
    0.31473E-04         0.99285E-05         0.00000E+00
    0.29291E-04         0.93429E-05         0.00000E+00
    0.27063E-04         0.87288E-05         0.00000E+00
    0.24789E-04         0.80857E-05         0.00000E+00
    0.22472E-04         0.74133E-05         0.00000E+00
    0.20114E-04         0.67112E-05         0.00000E+00
    0.17717E-04         0.59792E-05         0.00000E+00
    0.15282E-04         0.52170E-05         0.00000E+00
    0.12812E-04         0.44245E-05         0.00000E+00
    0.10308E-04         0.36013E-05         0.00000E+00
    0.77727E-05         0.27474E-05         0.00000E+00
    0.52083E-05         0.18626E-05         0.00000E+00
    0.26167E-05         0.94682E-06         0.00000E+00
    0.00000E+00         0.00000E+00         0.00000E+00
    0.75880E-04         0.19119E-04         0.00000E+00
    0.76275E-04         0.19129E-04         0.00000E+00
    0.76584E-04         0.19138E-04         0.00000E+00
    0.76807E-04         0.19144E-04         0.00000E+00
    0.76943E-04         0.19147E-04         0.00000E+00
    0.76992E-04         0.19147E-04         0.00000E+00
    0.76955E-04         0.19141E-04         0.00000E+00
    0.76830E-04         0.19129E-04         0.00000E+00
    0.76619E-04         0.19110E-04         0.00000E+00
    0.76321E-04         0.19082E-04         0.00000E+00
    0.75937E-04         0.19045E-04         0.00000E+00
    0.75466E-04         0.18998E-04         0.00000E+00
    0.74910E-04         0.18940E-04         0.00000E+00
    0.74267E-04         0.18870E-04         0.00000E+00
    0.73540E-04         0.18786E-04         0.00000E+00
    0.72729E-04         0.18688E-04         0.00000E+00
    0.71833E-04         0.18575E-04         0.00000E+00
    0.70854E-04         0.18445E-04         0.00000E+00
    0.69793E-04         0.18299E-04         0.00000E+00
    0.68650E-04         0.18134E-04         0.00000E+00
    0.67426E-04         0.17951E-04         0.00000E+00
    0.66123E-04         0.17748E-04         0.00000E+00
    0.64741E-04         0.17524E-04         0.00000E+00
    0.63280E-04         0.17278E-04         0.00000E+00
    0.61744E-04         0.17010E-04         0.00000E+00
    0.60132E-04         0.16719E-04         0.00000E+00
    0.58445E-04         0.16404E-04         0.00000E+00
    0.56686E-04         0.16064E-04         0.00000E+00
    0.54856E-04         0.15698E-04         0.00000E+00
    0.52955E-04         0.15306E-04         0.00000E+00
    0.50986E-04         0.14887E-04         0.00000E+00
    0.48950E-04         0.14441E-04         0.00000E+00
    0.46849E-04         0.13966E-04         0.00000E+00
    0.44684E-04         0.13462E-04         0.00000E+00
    0.42457E-04         0.12929E-04         0.00000E+00
    0.40170E-04         0.12365E-04         0.00000E+00
    0.37825E-04         0.11771E-04         0.00000E+00
    0.35423E-04         0.11145E-04         0.00000E+00
    0.32967E-04         0.10488E-04         0.00000E+00
    0.30458E-04         0.97987E-05         0.00000E+00
    0.27899E-04         0.90769E-05         0.00000E+00
    0.25291E-04         0.83221E-05         0.00000E+00
    0.22637E-04         0.75341E-05         0.00000E+00
    0.19939E-04         0.67124E-05         0.00000E+00
    0.17198E-04         0.58568E-05         0.00000E+00
    0.14418E-04         0.49671E-05         0.00000E+00
    0.11600E-04         0.40430E-05         0.00000E+00
    0.87473E-05         0.30844E-05         0.00000E+00
    0.58614E-05         0.20911E-05         0.00000E+00
    0.29448E-05         0.10630E-05         0.00000E+00
    0.00000E+00         0.00000E+00         0.00000E+00
    0.85472E-04         0.21437E-04         0.00000E+00
    0.85914E-04         0.21448E-04         0.00000E+00
    0.86258E-04         0.21459E-04         0.00000E+00
    0.86506E-04         0.21467E-04         0.00000E+00
    0.86656E-04         0.21472E-04         0.00000E+00
    0.86708E-04         0.21472E-04         0.00000E+00
    0.86663E-04         0.21466E-04         0.00000E+00
    0.86520E-04         0.21454E-04         0.00000E+00
    0.86279E-04         0.21433E-04         0.00000E+00
    0.85941E-04         0.21403E-04         0.00000E+00
    0.85505E-04         0.21363E-04         0.00000E+00
    0.84972E-04         0.21311E-04         0.00000E+00
    0.84343E-04         0.21246E-04         0.00000E+00
    0.83617E-04         0.21168E-04         0.00000E+00
    0.82796E-04         0.21075E-04         0.00000E+00
    0.81880E-04         0.20965E-04         0.00000E+00
    0.80869E-04         0.20839E-04         0.00000E+00
    0.79765E-04         0.20694E-04         0.00000E+00
    0.78568E-04         0.20531E-04         0.00000E+00
    0.77280E-04         0.20347E-04         0.00000E+00
    0.75900E-04         0.20141E-04         0.00000E+00
    0.74431E-04         0.19914E-04         0.00000E+00
    0.72873E-04         0.19663E-04         0.00000E+00
    0.71228E-04         0.19388E-04         0.00000E+00
    0.69496E-04         0.19088E-04         0.00000E+00
    0.67680E-04         0.18761E-04         0.00000E+00
    0.65781E-04         0.18408E-04         0.00000E+00
    0.63800E-04         0.18027E-04         0.00000E+00
    0.61738E-04         0.17617E-04         0.00000E+00
    0.59598E-04         0.17177E-04         0.00000E+00
    0.57381E-04         0.16708E-04         0.00000E+00
    0.55088E-04         0.16207E-04         0.00000E+00
    0.52723E-04         0.15674E-04         0.00000E+00
    0.50286E-04         0.15109E-04         0.00000E+00
    0.47779E-04         0.14510E-04         0.00000E+00
    0.45205E-04         0.13878E-04         0.00000E+00
    0.42565E-04         0.13211E-04         0.00000E+00
    0.39862E-04         0.12509E-04         0.00000E+00
    0.37097E-04         0.11772E-04         0.00000E+00
    0.34274E-04         0.10998E-04         0.00000E+00
    0.31393E-04         0.10188E-04         0.00000E+00
    0.28459E-04         0.93410E-05         0.00000E+00
    0.25472E-04         0.84565E-05         0.00000E+00
    0.22435E-04         0.75343E-05         0.00000E+00
    0.19352E-04         0.65741E-05         0.00000E+00
    0.16223E-04         0.55754E-05         0.00000E+00
    0.13052E-04         0.45382E-05         0.00000E+00
    0.98422E-05         0.34622E-05         0.00000E+00
    0.65950E-05         0.23473E-05         0.00000E+00
    0.33133E-05         0.11932E-05         0.00000E+00
    0.00000E+00         0.00000E+00         0.00000E+00
    0.96267E-04         0.24027E-04         0.00000E+00
    0.96760E-04         0.24042E-04         0.00000E+00
    0.97144E-04         0.24055E-04         0.00000E+00
    0.97419E-04         0.24065E-04         0.00000E+00
    0.97584E-04         0.24072E-04         0.00000E+00
    0.97639E-04         0.24073E-04         0.00000E+00
    0.97584E-04         0.24068E-04         0.00000E+00
    0.97419E-04         0.24055E-04         0.00000E+00
    0.97144E-04         0.24033E-04         0.00000E+00
    0.96760E-04         0.24000E-04         0.00000E+00
    0.96266E-04         0.23956E-04         0.00000E+00
    0.95663E-04         0.23899E-04         0.00000E+00
    0.94951E-04         0.23827E-04         0.00000E+00
    0.94131E-04         0.23740E-04         0.00000E+00
    0.93204E-04         0.23636E-04         0.00000E+00
    0.92169E-04         0.23515E-04         0.00000E+00
    0.91029E-04         0.23374E-04         0.00000E+00
    0.89783E-04         0.23212E-04         0.00000E+00
    0.88433E-04         0.23029E-04         0.00000E+00
    0.86980E-04         0.22824E-04         0.00000E+00
    0.85425E-04         0.22594E-04         0.00000E+00
    0.83769E-04         0.22339E-04         0.00000E+00
    0.82014E-04         0.22059E-04         0.00000E+00
    0.80160E-04         0.21751E-04         0.00000E+00
    0.78210E-04         0.21414E-04         0.00000E+00
    0.76164E-04         0.21049E-04         0.00000E+00
    0.74025E-04         0.20653E-04         0.00000E+00
    0.71793E-04         0.20225E-04         0.00000E+00
    0.69472E-04         0.19766E-04         0.00000E+00
    0.67062E-04         0.19273E-04         0.00000E+00
    0.64566E-04         0.18746E-04         0.00000E+00
    0.61986E-04         0.18185E-04         0.00000E+00
    0.59323E-04         0.17587E-04         0.00000E+00
    0.56579E-04         0.16953E-04         0.00000E+00
    0.53758E-04         0.16282E-04         0.00000E+00
    0.50860E-04         0.15572E-04         0.00000E+00
    0.47890E-04         0.14824E-04         0.00000E+00
    0.44847E-04         0.14037E-04         0.00000E+00
    0.41737E-04         0.13210E-04         0.00000E+00
    0.38559E-04         0.12342E-04         0.00000E+00
    0.35318E-04         0.11433E-04         0.00000E+00
    0.32016E-04         0.10482E-04         0.00000E+00
    0.28656E-04         0.94901E-05         0.00000E+00
    0.25240E-04         0.84553E-05         0.00000E+00
    0.21770E-04         0.73777E-05         0.00000E+00
    0.18251E-04         0.62571E-05         0.00000E+00
    0.14684E-04         0.50931E-05         0.00000E+00
    0.11072E-04         0.38856E-05         0.00000E+00
    0.74189E-05         0.26343E-05         0.00000E+00
    0.37273E-05         0.13392E-05         0.00000E+00
    0.00000E+00         0.00000E+00         0.00000E+00
    0.10841E-03         0.26922E-04         0.00000E+00
    0.10896E-03         0.26940E-04         0.00000E+00
    0.10939E-03         0.26956E-04         0.00000E+00
    0.10970E-03         0.26969E-04         0.00000E+00
    0.10988E-03         0.26978E-04         0.00000E+00
    0.10994E-03         0.26980E-04         0.00000E+00
    0.10987E-03         0.26976E-04         0.00000E+00
    0.10968E-03         0.26963E-04         0.00000E+00
    0.10937E-03         0.26939E-04         0.00000E+00
    0.10893E-03         0.26904E-04         0.00000E+00
    0.10837E-03         0.26856E-04         0.00000E+00
    0.10768E-03         0.26793E-04         0.00000E+00
    0.10688E-03         0.26714E-04         0.00000E+00
    0.10595E-03         0.26617E-04         0.00000E+00
    0.10491E-03         0.26502E-04         0.00000E+00
    0.10374E-03         0.26366E-04         0.00000E+00
    0.10245E-03         0.26209E-04         0.00000E+00
    0.10105E-03         0.26029E-04         0.00000E+00
    0.99523E-04         0.25825E-04         0.00000E+00
    0.97885E-04         0.25595E-04         0.00000E+00
    0.96132E-04         0.25339E-04         0.00000E+00
    0.94265E-04         0.25054E-04         0.00000E+00
    0.92287E-04         0.24740E-04         0.00000E+00
    0.90199E-04         0.24395E-04         0.00000E+00
    0.88002E-04         0.24018E-04         0.00000E+00
    0.85697E-04         0.23609E-04         0.00000E+00
    0.83288E-04         0.23165E-04         0.00000E+00
    0.80776E-04         0.22686E-04         0.00000E+00
    0.78162E-04         0.22171E-04         0.00000E+00
    0.75449E-04         0.21619E-04         0.00000E+00
    0.72639E-04         0.21029E-04         0.00000E+00
    0.69734E-04         0.20399E-04         0.00000E+00
    0.66737E-04         0.19729E-04         0.00000E+00
    0.63650E-04         0.19018E-04         0.00000E+00
    0.60474E-04         0.18265E-04         0.00000E+00
    0.57214E-04         0.17470E-04         0.00000E+00
    0.53871E-04         0.16631E-04         0.00000E+00
    0.50448E-04         0.15748E-04         0.00000E+00
    0.46948E-04         0.14820E-04         0.00000E+00
    0.43373E-04         0.13847E-04         0.00000E+00
    0.39727E-04         0.12827E-04         0.00000E+00
    0.36013E-04         0.11761E-04         0.00000E+00
    0.32232E-04         0.10648E-04         0.00000E+00
    0.28389E-04         0.94866E-05         0.00000E+00
    0.24487E-04         0.82778E-05         0.00000E+00
    0.20528E-04         0.70205E-05         0.00000E+00
    0.16515E-04         0.57146E-05         0.00000E+00
    0.12453E-04         0.43598E-05         0.00000E+00
    0.83443E-05         0.29559E-05         0.00000E+00
    0.41922E-05         0.15026E-05         0.00000E+00
    0.00000E+00         0.00000E+00         0.00000E+00
    0.12208E-03         0.30154E-04         0.00000E+00
    0.12270E-03         0.30176E-04         0.00000E+00
    0.12317E-03         0.30195E-04         0.00000E+00
    0.12351E-03         0.30212E-04         0.00000E+00
    0.12371E-03         0.30223E-04         0.00000E+00
    0.12377E-03         0.30228E-04         0.00000E+00
    0.12369E-03         0.30225E-04         0.00000E+00
    0.12347E-03         0.30212E-04         0.00000E+00
    0.12311E-03         0.30187E-04         0.00000E+00
    0.12261E-03         0.30149E-04         0.00000E+00
    0.12198E-03         0.30096E-04         0.00000E+00
    0.12120E-03         0.30027E-04         0.00000E+00
    0.12029E-03         0.29940E-04         0.00000E+00
    0.11924E-03         0.29833E-04         0.00000E+00
    0.11806E-03         0.29705E-04         0.00000E+00
    0.11674E-03         0.29555E-04         0.00000E+00
    0.11529E-03         0.29380E-04         0.00000E+00
    0.11370E-03         0.29179E-04         0.00000E+00
    0.11199E-03         0.28951E-04         0.00000E+00
    0.11014E-03         0.28695E-04         0.00000E+00
    0.10816E-03         0.28408E-04         0.00000E+00
    0.10606E-03         0.28089E-04         0.00000E+00
    0.10383E-03         0.27738E-04         0.00000E+00
    0.10148E-03         0.27352E-04         0.00000E+00
    0.99005E-04         0.26931E-04         0.00000E+00
    0.96410E-04         0.26472E-04         0.00000E+00
    0.93697E-04         0.25976E-04         0.00000E+00
    0.90868E-04         0.25439E-04         0.00000E+00
    0.87925E-04         0.24863E-04         0.00000E+00
    0.84871E-04         0.24244E-04         0.00000E+00
    0.81708E-04         0.23582E-04         0.00000E+00
    0.78439E-04         0.22877E-04         0.00000E+00
    0.75066E-04         0.22126E-04         0.00000E+00
    0.71592E-04         0.21329E-04         0.00000E+00
    0.68019E-04         0.20485E-04         0.00000E+00
    0.64350E-04         0.19593E-04         0.00000E+00
    0.60589E-04         0.18653E-04         0.00000E+00
    0.56738E-04         0.17663E-04         0.00000E+00
    0.52801E-04         0.16622E-04         0.00000E+00
    0.48780E-04         0.15530E-04         0.00000E+00
    0.44679E-04         0.14387E-04         0.00000E+00
    0.40500E-04         0.13192E-04         0.00000E+00
    0.36248E-04         0.11943E-04         0.00000E+00
    0.31926E-04         0.10641E-04         0.00000E+00
    0.27537E-04         0.92852E-05         0.00000E+00
    0.23084E-04         0.78750E-05         0.00000E+00
    0.18572E-04         0.64103E-05         0.00000E+00
    0.14004E-04         0.48906E-05         0.00000E+00
    0.93835E-05         0.33158E-05         0.00000E+00
    0.47142E-05         0.16856E-05         0.00000E+00
    0.00000E+00         0.00000E+00         0.00000E+00
    0.13747E-03         0.33760E-04         0.00000E+00
    0.13815E-03         0.33786E-04         0.00000E+00
    0.13868E-03         0.33810E-04         0.00000E+00
    0.13905E-03         0.33831E-04         0.00000E+00
    0.13927E-03         0.33846E-04         0.00000E+00
    0.13933E-03         0.33853E-04         0.00000E+00
    0.13923E-03         0.33851E-04         0.00000E+00
    0.13898E-03         0.33838E-04         0.00000E+00
    0.13857E-03         0.33813E-04         0.00000E+00
    0.13800E-03         0.33772E-04         0.00000E+00
    0.13728E-03         0.33715E-04         0.00000E+00
    0.13640E-03         0.33639E-04         0.00000E+00
    0.13537E-03         0.33543E-04         0.00000E+00
    0.13419E-03         0.33425E-04         0.00000E+00
    0.13285E-03         0.33284E-04         0.00000E+00
    0.13136E-03         0.33116E-04         0.00000E+00
    0.12972E-03         0.32922E-04         0.00000E+00
    0.12793E-03         0.32698E-04         0.00000E+00
    0.12600E-03         0.32444E-04         0.00000E+00
    0.12391E-03         0.32158E-04         0.00000E+00
    0.12169E-03         0.31838E-04         0.00000E+00
    0.11932E-03         0.31482E-04         0.00000E+00
    0.11680E-03         0.31089E-04         0.00000E+00
    0.11415E-03         0.30658E-04         0.00000E+00
    0.11137E-03         0.30187E-04         0.00000E+00
    0.10844E-03         0.29674E-04         0.00000E+00
    0.10539E-03         0.29118E-04         0.00000E+00
    0.10220E-03         0.28517E-04         0.00000E+00
    0.98892E-04         0.27871E-04         0.00000E+00
    0.95455E-04         0.27178E-04         0.00000E+00
    0.91895E-04         0.26437E-04         0.00000E+00
    0.88216E-04         0.25647E-04         0.00000E+00
    0.84420E-04         0.24806E-04         0.00000E+00
    0.80511E-04         0.23913E-04         0.00000E+00
    0.76491E-04         0.22967E-04         0.00000E+00
    0.72365E-04         0.21968E-04         0.00000E+00
    0.68134E-04         0.20914E-04         0.00000E+00
    0.63802E-04         0.19804E-04         0.00000E+00
    0.59373E-04         0.18638E-04         0.00000E+00
    0.54851E-04         0.17414E-04         0.00000E+00
    0.50238E-04         0.16132E-04         0.00000E+00
    0.45539E-04         0.14792E-04         0.00000E+00
    0.40758E-04         0.13392E-04         0.00000E+00
    0.35897E-04         0.11932E-04         0.00000E+00
    0.30962E-04         0.10412E-04         0.00000E+00
    0.25955E-04         0.88309E-05         0.00000E+00
    0.20882E-04         0.71885E-05         0.00000E+00
    0.15745E-04         0.54844E-05         0.00000E+00
    0.10550E-04         0.37184E-05         0.00000E+00
    0.53002E-05         0.18903E-05         0.00000E+00
    0.00000E+00         0.00000E+00         0.00000E+00
    0.15478E-03         0.37778E-04         0.00000E+00
    0.15554E-03         0.37810E-04         0.00000E+00
    0.15612E-03         0.37840E-04         0.00000E+00
    0.15654E-03         0.37865E-04         0.00000E+00
    0.15677E-03         0.37885E-04         0.00000E+00
    0.15683E-03         0.37896E-04         0.00000E+00
    0.15671E-03         0.37896E-04         0.00000E+00
    0.15642E-03         0.37884E-04         0.00000E+00
    0.15595E-03         0.37858E-04         0.00000E+00
    0.15530E-03         0.37814E-04         0.00000E+00
    0.15448E-03         0.37752E-04         0.00000E+00
    0.15349E-03         0.37670E-04         0.00000E+00
    0.15232E-03         0.37565E-04         0.00000E+00
    0.15098E-03         0.37435E-04         0.00000E+00
    0.14947E-03         0.37278E-04         0.00000E+00
    0.14779E-03         0.37092E-04         0.00000E+00
    0.14594E-03         0.36876E-04         0.00000E+00
    0.14392E-03         0.36628E-04         0.00000E+00
    0.14174E-03         0.36345E-04         0.00000E+00
    0.13939E-03         0.36026E-04         0.00000E+00
    0.13688E-03         0.35668E-04         0.00000E+00
    0.13421E-03         0.35271E-04         0.00000E+00
    0.13138E-03         0.34832E-04         0.00000E+00
    0.12839E-03         0.34350E-04         0.00000E+00
    0.12525E-03         0.33823E-04         0.00000E+00
    0.12196E-03         0.33249E-04         0.00000E+00
    0.11852E-03         0.32628E-04         0.00000E+00
    0.11494E-03         0.31956E-04         0.00000E+00
    0.11121E-03         0.31233E-04         0.00000E+00
    0.10734E-03         0.30457E-04         0.00000E+00
    0.10333E-03         0.29628E-04         0.00000E+00
    0.99195E-04         0.28742E-04         0.00000E+00
    0.94924E-04         0.27800E-04         0.00000E+00
    0.90527E-04         0.26800E-04         0.00000E+00
    0.86005E-04         0.25741E-04         0.00000E+00
    0.81363E-04         0.24622E-04         0.00000E+00
    0.76604E-04         0.23441E-04         0.00000E+00
    0.71732E-04         0.22197E-04         0.00000E+00
    0.66752E-04         0.20890E-04         0.00000E+00
    0.61666E-04         0.19519E-04         0.00000E+00
    0.56479E-04         0.18083E-04         0.00000E+00
    0.51196E-04         0.16581E-04         0.00000E+00
    0.45819E-04         0.15012E-04         0.00000E+00
    0.40355E-04         0.13376E-04         0.00000E+00
    0.34806E-04         0.11672E-04         0.00000E+00
    0.29177E-04         0.98996E-05         0.00000E+00
    0.23474E-04         0.80585E-05         0.00000E+00
    0.17700E-04         0.61483E-05         0.00000E+00
    0.11859E-04         0.41686E-05         0.00000E+00
    0.59580E-05         0.21192E-05         0.00000E+00
    0.00000E+00         0.00000E+00         0.00000E+00
    0.17426E-03         0.42252E-04         0.00000E+00
    0.17510E-03         0.42291E-04         0.00000E+00
    0.17575E-03         0.42328E-04         0.00000E+00
    0.17620E-03         0.42359E-04         0.00000E+00
    0.17646E-03         0.42384E-04         0.00000E+00
    0.17651E-03         0.42399E-04         0.00000E+00
    0.17637E-03         0.42403E-04         0.00000E+00
    0.17603E-03         0.42393E-04         0.00000E+00
    0.17549E-03         0.42366E-04         0.00000E+00
    0.17476E-03         0.42320E-04         0.00000E+00
    0.17383E-03         0.42254E-04         0.00000E+00
    0.17270E-03         0.42164E-04         0.00000E+00
    0.17138E-03         0.42049E-04         0.00000E+00
    0.16986E-03         0.41905E-04         0.00000E+00
    0.16815E-03         0.41732E-04         0.00000E+00
    0.16625E-03         0.41527E-04         0.00000E+00
    0.16417E-03         0.41287E-04         0.00000E+00
    0.16189E-03         0.41011E-04         0.00000E+00
    0.15942E-03         0.40696E-04         0.00000E+00
    0.15678E-03         0.40341E-04         0.00000E+00
    0.15395E-03         0.39942E-04         0.00000E+00
    0.15094E-03         0.39499E-04         0.00000E+00
    0.14775E-03         0.39009E-04         0.00000E+00
    0.14438E-03         0.38471E-04         0.00000E+00
    0.14085E-03         0.37882E-04         0.00000E+00
    0.13714E-03         0.37241E-04         0.00000E+00
    0.13327E-03         0.36546E-04         0.00000E+00
    0.12924E-03         0.35795E-04         0.00000E+00
    0.12504E-03         0.34986E-04         0.00000E+00
    0.12069E-03         0.34118E-04         0.00000E+00
    0.11618E-03         0.33190E-04         0.00000E+00
    0.11152E-03         0.32199E-04         0.00000E+00
    0.10672E-03         0.31144E-04         0.00000E+00
    0.10177E-03         0.30025E-04         0.00000E+00
    0.96684E-04         0.28839E-04         0.00000E+00
    0.91463E-04         0.27585E-04         0.00000E+00
    0.86112E-04         0.26263E-04         0.00000E+00
    0.80634E-04         0.24870E-04         0.00000E+00
    0.75033E-04         0.23406E-04         0.00000E+00
    0.69315E-04         0.21871E-04         0.00000E+00
    0.63484E-04         0.20262E-04         0.00000E+00
    0.57544E-04         0.18579E-04         0.00000E+00
    0.51500E-04         0.16821E-04         0.00000E+00
    0.45357E-04         0.14988E-04         0.00000E+00
    0.39120E-04         0.13079E-04         0.00000E+00
    0.32793E-04         0.11093E-04         0.00000E+00
    0.26383E-04         0.90305E-05         0.00000E+00
    0.19893E-04         0.68900E-05         0.00000E+00
    0.13329E-04         0.46716E-05         0.00000E+00
    0.66960E-05         0.23750E-05         0.00000E+00
    0.00000E+00         0.00000E+00         0.00000E+00
    0.19617E-03         0.47229E-04         0.00000E+00
    0.19711E-03         0.47276E-04         0.00000E+00
    0.19783E-03         0.47321E-04         0.00000E+00
    0.19832E-03         0.47360E-04         0.00000E+00
    0.19859E-03         0.47392E-04         0.00000E+00
    0.19865E-03         0.47412E-04         0.00000E+00
    0.19847E-03         0.47420E-04         0.00000E+00
    0.19808E-03         0.47412E-04         0.00000E+00
    0.19746E-03         0.47386E-04         0.00000E+00
    0.19663E-03         0.47338E-04         0.00000E+00
    0.19557E-03         0.47267E-04         0.00000E+00
    0.19429E-03         0.47170E-04         0.00000E+00
    0.19279E-03         0.47044E-04         0.00000E+00
    0.19108E-03         0.46887E-04         0.00000E+00
    0.18915E-03         0.46696E-04         0.00000E+00
    0.18700E-03         0.46469E-04         0.00000E+00
    0.18464E-03         0.46203E-04         0.00000E+00
    0.18207E-03         0.45897E-04         0.00000E+00
    0.17929E-03         0.45547E-04         0.00000E+00
    0.17631E-03         0.45151E-04         0.00000E+00
    0.17312E-03         0.44708E-04         0.00000E+00
    0.16972E-03         0.44214E-04         0.00000E+00
    0.16613E-03         0.43667E-04         0.00000E+00
    0.16234E-03         0.43067E-04         0.00000E+00
    0.15836E-03         0.42409E-04         0.00000E+00
    0.15419E-03         0.41693E-04         0.00000E+00
    0.14983E-03         0.40916E-04         0.00000E+00
    0.14529E-03         0.40077E-04         0.00000E+00
    0.14057E-03         0.39173E-04         0.00000E+00
    0.13567E-03         0.38202E-04         0.00000E+00
    0.13060E-03         0.37164E-04         0.00000E+00
    0.12536E-03         0.36055E-04         0.00000E+00
    0.11995E-03         0.34876E-04         0.00000E+00
    0.11439E-03         0.33623E-04         0.00000E+00
    0.10867E-03         0.32296E-04         0.00000E+00
    0.10280E-03         0.30893E-04         0.00000E+00
    0.96782E-04         0.29412E-04         0.00000E+00
    0.90623E-04         0.27853E-04         0.00000E+00
    0.84327E-04         0.26215E-04         0.00000E+00
    0.77899E-04         0.24495E-04         0.00000E+00
    0.71344E-04         0.22694E-04         0.00000E+00
    0.64667E-04         0.20809E-04         0.00000E+00
    0.57874E-04         0.18841E-04         0.00000E+00
    0.50970E-04         0.16788E-04         0.00000E+00
    0.43960E-04         0.14650E-04         0.00000E+00
    0.36850E-04         0.12426E-04         0.00000E+00
    0.29646E-04         0.10116E-04         0.00000E+00
    0.22353E-04         0.77182E-05         0.00000E+00
    0.14977E-04         0.52332E-05         0.00000E+00
    0.75240E-05         0.26605E-05         0.00000E+00
    0.00000E+00         0.00000E+00         0.00000E+00
    0.22083E-03         0.52758E-04         0.00000E+00
    0.22187E-03         0.52815E-04         0.00000E+00
    0.22266E-03         0.52870E-04         0.00000E+00
    0.22320E-03         0.52918E-04         0.00000E+00
    0.22349E-03         0.52958E-04         0.00000E+00
    0.22353E-03         0.52986E-04         0.00000E+00
    0.22333E-03         0.52999E-04         0.00000E+00
    0.22287E-03         0.52995E-04         0.00000E+00
    0.22216E-03         0.52969E-04         0.00000E+00
    0.22120E-03         0.52920E-04         0.00000E+00
    0.22000E-03         0.52845E-04         0.00000E+00
    0.21855E-03         0.52740E-04         0.00000E+00
    0.21685E-03         0.52603E-04         0.00000E+00
    0.21491E-03         0.52431E-04         0.00000E+00
    0.21273E-03         0.52221E-04         0.00000E+00
    0.21030E-03         0.51971E-04         0.00000E+00
    0.20764E-03         0.51677E-04         0.00000E+00
    0.20474E-03         0.51337E-04         0.00000E+00
    0.20161E-03         0.50949E-04         0.00000E+00
    0.19824E-03         0.50509E-04         0.00000E+00
    0.19464E-03         0.50015E-04         0.00000E+00
    0.19082E-03         0.49465E-04         0.00000E+00
    0.18677E-03         0.48857E-04         0.00000E+00
    0.18251E-03         0.48187E-04         0.00000E+00
    0.17802E-03         0.47453E-04         0.00000E+00
    0.17333E-03         0.46654E-04         0.00000E+00
    0.16842E-03         0.45787E-04         0.00000E+00
    0.16331E-03         0.44849E-04         0.00000E+00
    0.15799E-03         0.43839E-04         0.00000E+00
    0.15248E-03         0.42754E-04         0.00000E+00
    0.14678E-03         0.41594E-04         0.00000E+00
    0.14088E-03         0.40355E-04         0.00000E+00
    0.13481E-03         0.39036E-04         0.00000E+00
    0.12855E-03         0.37635E-04         0.00000E+00
    0.12212E-03         0.36150E-04         0.00000E+00
    0.11552E-03         0.34581E-04         0.00000E+00
    0.10875E-03         0.32924E-04         0.00000E+00
    0.10183E-03         0.31180E-04         0.00000E+00
    0.94752E-04         0.29347E-04         0.00000E+00
    0.87527E-04         0.27422E-04         0.00000E+00
    0.80160E-04         0.25406E-04         0.00000E+00
    0.72657E-04         0.23297E-04         0.00000E+00
    0.65023E-04         0.21094E-04         0.00000E+00
    0.57265E-04         0.18796E-04         0.00000E+00
    0.49389E-04         0.16403E-04         0.00000E+00
    0.41400E-04         0.13913E-04         0.00000E+00
    0.33306E-04         0.11326E-04         0.00000E+00
    0.25112E-04         0.86421E-05         0.00000E+00
    0.16826E-04         0.58598E-05         0.00000E+00
    0.84526E-05         0.29792E-05         0.00000E+00
    0.00000E+00         0.00000E+00         0.00000E+00
    0.24856E-03         0.58892E-04         0.00000E+00
    0.24971E-03         0.58962E-04         0.00000E+00
    0.25058E-03         0.59029E-04         0.00000E+00
    0.25117E-03         0.59089E-04         0.00000E+00
    0.25148E-03         0.59139E-04         0.00000E+00
    0.25151E-03         0.59176E-04         0.00000E+00
    0.25126E-03         0.59196E-04         0.00000E+00
    0.25073E-03         0.59196E-04         0.00000E+00
    0.24992E-03         0.59173E-04         0.00000E+00
    0.24883E-03         0.59124E-04         0.00000E+00
    0.24746E-03         0.59044E-04         0.00000E+00
    0.24581E-03         0.58932E-04         0.00000E+00
    0.24389E-03         0.58784E-04         0.00000E+00
    0.24169E-03         0.58596E-04         0.00000E+00
    0.23922E-03         0.58366E-04         0.00000E+00
    0.23648E-03         0.58090E-04         0.00000E+00
    0.23347E-03         0.57765E-04         0.00000E+00
    0.23020E-03         0.57389E-04         0.00000E+00
    0.22666E-03         0.56959E-04         0.00000E+00
    0.22286E-03         0.56471E-04         0.00000E+00
    0.21881E-03         0.55922E-04         0.00000E+00
    0.21450E-03         0.55310E-04         0.00000E+00
    0.20994E-03         0.54632E-04         0.00000E+00
    0.20514E-03         0.53886E-04         0.00000E+00
    0.20009E-03         0.53068E-04         0.00000E+00
    0.19480E-03         0.52177E-04         0.00000E+00
    0.18928E-03         0.51209E-04         0.00000E+00
    0.18353E-03         0.50163E-04         0.00000E+00
    0.17755E-03         0.49035E-04         0.00000E+00
    0.17135E-03         0.47824E-04         0.00000E+00
    0.16493E-03         0.46527E-04         0.00000E+00
    0.15830E-03         0.45143E-04         0.00000E+00
    0.15147E-03         0.43669E-04         0.00000E+00
    0.14443E-03         0.42103E-04         0.00000E+00
    0.13720E-03         0.40444E-04         0.00000E+00
    0.12978E-03         0.38689E-04         0.00000E+00
    0.12218E-03         0.36837E-04         0.00000E+00
    0.11440E-03         0.34887E-04         0.00000E+00
    0.10644E-03         0.32836E-04         0.00000E+00
    0.98325E-04         0.30684E-04         0.00000E+00
    0.90047E-04         0.28429E-04         0.00000E+00
    0.81617E-04         0.26070E-04         0.00000E+00
    0.73040E-04         0.23605E-04         0.00000E+00
    0.64324E-04         0.21034E-04         0.00000E+00
    0.55476E-04         0.18356E-04         0.00000E+00
    0.46502E-04         0.15571E-04         0.00000E+00
    0.37409E-04         0.12676E-04         0.00000E+00
    0.28206E-04         0.96720E-05         0.00000E+00
    0.18898E-04         0.65583E-05         0.00000E+00
    0.94937E-05         0.33344E-05         0.00000E+00
    0.00000E+00         0.00000E+00         0.00000E+00
    0.27975E-03         0.65689E-04         0.00000E+00
    0.28103E-03         0.65774E-04         0.00000E+00
    0.28199E-03         0.65856E-04         0.00000E+00
    0.28263E-03         0.65930E-04         0.00000E+00
    0.28296E-03         0.65993E-04         0.00000E+00
    0.28297E-03         0.66041E-04         0.00000E+00
    0.28266E-03         0.66070E-04         0.00000E+00
    0.28204E-03         0.66077E-04         0.00000E+00
    0.28111E-03         0.66057E-04         0.00000E+00
    0.27986E-03         0.66008E-04         0.00000E+00
    0.27830E-03         0.65926E-04         0.00000E+00
    0.27643E-03         0.65807E-04         0.00000E+00
    0.27425E-03         0.65646E-04         0.00000E+00
    0.27176E-03         0.65442E-04         0.00000E+00
    0.26897E-03         0.65190E-04         0.00000E+00
    0.26587E-03         0.64887E-04         0.00000E+00
    0.26247E-03         0.64530E-04         0.00000E+00
    0.25878E-03         0.64114E-04         0.00000E+00
    0.25479E-03         0.63638E-04         0.00000E+00
    0.25051E-03         0.63096E-04         0.00000E+00
    0.24594E-03         0.62487E-04         0.00000E+00
    0.24108E-03         0.61808E-04         0.00000E+00
    0.23594E-03         0.61054E-04         0.00000E+00
    0.23053E-03         0.60223E-04         0.00000E+00
    0.22485E-03         0.59313E-04         0.00000E+00
    0.21890E-03         0.58319E-04         0.00000E+00
    0.21268E-03         0.57240E-04         0.00000E+00
    0.20621E-03         0.56073E-04         0.00000E+00
    0.19948E-03         0.54815E-04         0.00000E+00
    0.19251E-03         0.53464E-04         0.00000E+00
    0.18529E-03         0.52017E-04         0.00000E+00
    0.17784E-03         0.50471E-04         0.00000E+00
    0.17015E-03         0.48825E-04         0.00000E+00
    0.16224E-03         0.47076E-04         0.00000E+00
    0.15412E-03         0.45222E-04         0.00000E+00
    0.14578E-03         0.43262E-04         0.00000E+00
    0.13723E-03         0.41192E-04         0.00000E+00
    0.12849E-03         0.39013E-04         0.00000E+00
    0.11955E-03         0.36721E-04         0.00000E+00
    0.11043E-03         0.34315E-04         0.00000E+00
    0.10113E-03         0.31794E-04         0.00000E+00
    0.91660E-04         0.29156E-04         0.00000E+00
    0.82026E-04         0.26401E-04         0.00000E+00
    0.72236E-04         0.23526E-04         0.00000E+00
    0.62298E-04         0.20532E-04         0.00000E+00
    0.52220E-04         0.17416E-04         0.00000E+00
    0.42009E-04         0.14179E-04         0.00000E+00
    0.31673E-04         0.10819E-04         0.00000E+00
    0.21221E-04         0.73362E-05         0.00000E+00
    0.10660E-04         0.37300E-05         0.00000E+00
    0.00000E+00         0.00000E+00         0.00000E+00
    0.31484E-03         0.73208E-04         0.00000E+00
    0.31624E-03         0.73312E-04         0.00000E+00
    0.31729E-03         0.73412E-04         0.00000E+00
    0.31799E-03         0.73503E-04         0.00000E+00
    0.31833E-03         0.73581E-04         0.00000E+00
    0.31832E-03         0.73643E-04         0.00000E+00
    0.31795E-03         0.73684E-04         0.00000E+00
    0.31723E-03         0.73700E-04         0.00000E+00
    0.31615E-03         0.73686E-04         0.00000E+00
    0.31473E-03         0.73639E-04         0.00000E+00
    0.31295E-03         0.73555E-04         0.00000E+00
    0.31082E-03         0.73429E-04         0.00000E+00
    0.30835E-03         0.73257E-04         0.00000E+00
    0.30553E-03         0.73036E-04         0.00000E+00
    0.30237E-03         0.72761E-04         0.00000E+00
    0.29887E-03         0.72429E-04         0.00000E+00
    0.29503E-03         0.72036E-04         0.00000E+00
    0.29086E-03         0.71578E-04         0.00000E+00
    0.28635E-03         0.71051E-04         0.00000E+00
    0.28153E-03         0.70452E-04         0.00000E+00
    0.27637E-03         0.69777E-04         0.00000E+00
    0.27090E-03         0.69022E-04         0.00000E+00
    0.26512E-03         0.68185E-04         0.00000E+00
    0.25902E-03         0.67261E-04         0.00000E+00
    0.25262E-03         0.66248E-04         0.00000E+00
    0.24592E-03         0.65143E-04         0.00000E+00
    0.23893E-03         0.63941E-04         0.00000E+00
    0.23164E-03         0.62641E-04         0.00000E+00
    0.22408E-03         0.61238E-04         0.00000E+00
    0.21623E-03         0.59732E-04         0.00000E+00
    0.20812E-03         0.58117E-04         0.00000E+00
    0.19974E-03         0.56393E-04         0.00000E+00
    0.19110E-03         0.54556E-04         0.00000E+00
    0.18221E-03         0.52604E-04         0.00000E+00
    0.17308E-03         0.50535E-04         0.00000E+00
    0.16371E-03         0.48346E-04         0.00000E+00
    0.15410E-03         0.46035E-04         0.00000E+00
    0.14428E-03         0.43601E-04         0.00000E+00
    0.13424E-03         0.41040E-04         0.00000E+00
    0.12400E-03         0.38353E-04         0.00000E+00
    0.11355E-03         0.35537E-04         0.00000E+00
    0.10291E-03         0.32589E-04         0.00000E+00
    0.92095E-04         0.29510E-04         0.00000E+00
    0.81102E-04         0.26298E-04         0.00000E+00
    0.69943E-04         0.22951E-04         0.00000E+00
    0.58626E-04         0.19469E-04         0.00000E+00
    0.47162E-04         0.15851E-04         0.00000E+00
    0.35558E-04         0.12095E-04         0.00000E+00
    0.23823E-04         0.82018E-05         0.00000E+00
    0.11968E-04         0.41702E-05         0.00000E+00
    0.00000E+00         0.00000E+00         0.00000E+00
    0.35429E-03         0.81513E-04         0.00000E+00
    0.35584E-03         0.81639E-04         0.00000E+00
    0.35699E-03         0.81761E-04         0.00000E+00
    0.35773E-03         0.81873E-04         0.00000E+00
    0.35809E-03         0.81971E-04         0.00000E+00
    0.35804E-03         0.82050E-04         0.00000E+00
    0.35760E-03         0.82106E-04         0.00000E+00
    0.35675E-03         0.82133E-04         0.00000E+00
    0.35552E-03         0.82127E-04         0.00000E+00
    0.35388E-03         0.82084E-04         0.00000E+00
    0.35186E-03         0.81999E-04         0.00000E+00
    0.34944E-03         0.81867E-04         0.00000E+00
    0.34663E-03         0.81684E-04         0.00000E+00
    0.34344E-03         0.81446E-04         0.00000E+00
    0.33986E-03         0.81147E-04         0.00000E+00
    0.33590E-03         0.80785E-04         0.00000E+00
    0.33156E-03         0.80353E-04         0.00000E+00
    0.32685E-03         0.79849E-04         0.00000E+00
    0.32177E-03         0.79268E-04         0.00000E+00
    0.31632E-03         0.78606E-04         0.00000E+00
    0.31052E-03         0.77859E-04         0.00000E+00
    0.30435E-03         0.77023E-04         0.00000E+00
    0.29783E-03         0.76094E-04         0.00000E+00
    0.29097E-03         0.75069E-04         0.00000E+00
    0.28376E-03         0.73943E-04         0.00000E+00
    0.27622E-03         0.72713E-04         0.00000E+00
    0.26835E-03         0.71376E-04         0.00000E+00
    0.26016E-03         0.69929E-04         0.00000E+00
    0.25165E-03         0.68367E-04         0.00000E+00
    0.24283E-03         0.66688E-04         0.00000E+00
    0.23370E-03         0.64889E-04         0.00000E+00
    0.22428E-03         0.62967E-04         0.00000E+00
    0.21457E-03         0.60919E-04         0.00000E+00
    0.20459E-03         0.58742E-04         0.00000E+00
    0.19432E-03         0.56434E-04         0.00000E+00
    0.18379E-03         0.53992E-04         0.00000E+00
    0.17301E-03         0.51413E-04         0.00000E+00
    0.16197E-03         0.48696E-04         0.00000E+00
    0.15070E-03         0.45839E-04         0.00000E+00
    0.13919E-03         0.42839E-04         0.00000E+00
    0.12746E-03         0.39694E-04         0.00000E+00
    0.11552E-03         0.36404E-04         0.00000E+00
    0.10337E-03         0.32965E-04         0.00000E+00
    0.91031E-04         0.29378E-04         0.00000E+00
    0.78504E-04         0.25640E-04         0.00000E+00
    0.65801E-04         0.21751E-04         0.00000E+00
    0.52932E-04         0.17709E-04         0.00000E+00
    0.39908E-04         0.13513E-04         0.00000E+00
    0.26737E-04         0.91639E-05         0.00000E+00
    0.13431E-04         0.46595E-05         0.00000E+00
    0.00000E+00         0.00000E+00         0.00000E+00
    0.39865E-03         0.90667E-04         0.00000E+00
    0.40035E-03         0.90821E-04         0.00000E+00
    0.40160E-03         0.90969E-04         0.00000E+00
    0.40240E-03         0.91107E-04         0.00000E+00
    0.40276E-03         0.91229E-04         0.00000E+00
    0.40267E-03         0.91329E-04         0.00000E+00
    0.40213E-03         0.91404E-04         0.00000E+00
    0.40115E-03         0.91446E-04         0.00000E+00
    0.39972E-03         0.91452E-04         0.00000E+00
    0.39785E-03         0.91415E-04         0.00000E+00
    0.39554E-03         0.91331E-04         0.00000E+00
    0.39279E-03         0.91195E-04         0.00000E+00
    0.38960E-03         0.91002E-04         0.00000E+00
    0.38598E-03         0.90746E-04         0.00000E+00
    0.38193E-03         0.90423E-04         0.00000E+00
    0.37745E-03         0.90029E-04         0.00000E+00
    0.37255E-03         0.89557E-04         0.00000E+00
    0.36723E-03         0.89003E-04         0.00000E+00
    0.36150E-03         0.88364E-04         0.00000E+00
    0.35535E-03         0.87634E-04         0.00000E+00
    0.34880E-03         0.86808E-04         0.00000E+00
    0.34186E-03         0.85883E-04         0.00000E+00
    0.33451E-03         0.84854E-04         0.00000E+00
    0.32678E-03         0.83716E-04         0.00000E+00
    0.31867E-03         0.82467E-04         0.00000E+00
    0.31019E-03         0.81101E-04         0.00000E+00
    0.30133E-03         0.79615E-04         0.00000E+00
    0.29211E-03         0.78006E-04         0.00000E+00
    0.28254E-03         0.76268E-04         0.00000E+00
    0.27263E-03         0.74400E-04         0.00000E+00
    0.26237E-03         0.72397E-04         0.00000E+00
    0.25178E-03         0.70256E-04         0.00000E+00
    0.24087E-03         0.67975E-04         0.00000E+00
    0.22965E-03         0.65549E-04         0.00000E+00
    0.21812E-03         0.62976E-04         0.00000E+00
    0.20629E-03         0.60254E-04         0.00000E+00
    0.19418E-03         0.57379E-04         0.00000E+00
    0.18179E-03         0.54349E-04         0.00000E+00
    0.16913E-03         0.51162E-04         0.00000E+00
    0.15621E-03         0.47816E-04         0.00000E+00
    0.14304E-03         0.44308E-04         0.00000E+00
    0.12963E-03         0.40636E-04         0.00000E+00
    0.11600E-03         0.36800E-04         0.00000E+00
    0.10215E-03         0.32796E-04         0.00000E+00
    0.88089E-04         0.28625E-04         0.00000E+00
    0.73833E-04         0.24284E-04         0.00000E+00
    0.59392E-04         0.19772E-04         0.00000E+00
    0.44777E-04         0.15088E-04         0.00000E+00
    0.29999E-04         0.10232E-04         0.00000E+00
    0.15070E-04         0.52028E-05         0.00000E+00
    0.00000E+00         0.00000E+00         0.00000E+00
    0.44852E-03         0.10074E-03         0.00000E+00
    0.45038E-03         0.10092E-03         0.00000E+00
    0.45173E-03         0.10111E-03         0.00000E+00
    0.45259E-03         0.10127E-03         0.00000E+00
    0.45294E-03         0.10143E-03         0.00000E+00
    0.45280E-03         0.10155E-03         0.00000E+00
    0.45215E-03         0.10165E-03         0.00000E+00
    0.45100E-03         0.10171E-03         0.00000E+00
    0.44935E-03         0.10173E-03         0.00000E+00
    0.44721E-03         0.10171E-03         0.00000E+00
    0.44457E-03         0.10163E-03         0.00000E+00
    0.44144E-03         0.10149E-03         0.00000E+00
    0.43782E-03         0.10129E-03         0.00000E+00
    0.43371E-03         0.10101E-03         0.00000E+00
    0.42912E-03         0.10067E-03         0.00000E+00
    0.42406E-03         0.10024E-03         0.00000E+00
    0.41852E-03         0.99723E-04         0.00000E+00
    0.41251E-03         0.99117E-04         0.00000E+00
    0.40604E-03         0.98415E-04         0.00000E+00
    0.39911E-03         0.97611E-04         0.00000E+00
    0.39173E-03         0.96701E-04         0.00000E+00
    0.38390E-03         0.95679E-04         0.00000E+00
    0.37563E-03         0.94540E-04         0.00000E+00
    0.36692E-03         0.93281E-04         0.00000E+00
    0.35779E-03         0.91896E-04         0.00000E+00
    0.34824E-03         0.90381E-04         0.00000E+00
    0.33828E-03         0.88732E-04         0.00000E+00
    0.32791E-03         0.86944E-04         0.00000E+00
    0.31715E-03         0.85013E-04         0.00000E+00
    0.30600E-03         0.82936E-04         0.00000E+00
    0.29448E-03         0.80708E-04         0.00000E+00
    0.28258E-03         0.78327E-04         0.00000E+00
    0.27032E-03         0.75787E-04         0.00000E+00
    0.25771E-03         0.73087E-04         0.00000E+00
    0.24476E-03         0.70222E-04         0.00000E+00
    0.23148E-03         0.67190E-04         0.00000E+00
    0.21788E-03         0.63987E-04         0.00000E+00
    0.20397E-03         0.60612E-04         0.00000E+00
    0.18975E-03         0.57060E-04         0.00000E+00
    0.17525E-03         0.53330E-04         0.00000E+00
    0.16048E-03         0.49420E-04         0.00000E+00
    0.14543E-03         0.45327E-04         0.00000E+00
    0.13013E-03         0.41049E-04         0.00000E+00
    0.11459E-03         0.36585E-04         0.00000E+00
    0.98814E-04         0.31933E-04         0.00000E+00
    0.82821E-04         0.27091E-04         0.00000E+00
    0.66621E-04         0.22059E-04         0.00000E+00
    0.50226E-04         0.16834E-04         0.00000E+00
    0.33649E-04         0.11416E-04         0.00000E+00
    0.16903E-04         0.58053E-05         0.00000E+00
    0.00000E+00         0.00000E+00         0.00000E+00
    0.50456E-03         0.11179E-03         0.00000E+00
    0.50660E-03         0.11202E-03         0.00000E+00
    0.50806E-03         0.11224E-03         0.00000E+00
    0.50897E-03         0.11244E-03         0.00000E+00
    0.50931E-03         0.11263E-03         0.00000E+00
    0.50909E-03         0.11279E-03         0.00000E+00
    0.50830E-03         0.11292E-03         0.00000E+00
    0.50696E-03         0.11300E-03         0.00000E+00
    0.50506E-03         0.11305E-03         0.00000E+00
    0.50260E-03         0.11303E-03         0.00000E+00
    0.49958E-03         0.11296E-03         0.00000E+00
    0.49602E-03         0.11282E-03         0.00000E+00
    0.49190E-03         0.11261E-03         0.00000E+00
    0.48725E-03         0.11233E-03         0.00000E+00
    0.48205E-03         0.11195E-03         0.00000E+00
    0.47632E-03         0.11149E-03         0.00000E+00
    0.47006E-03         0.11093E-03         0.00000E+00
    0.46327E-03         0.11027E-03         0.00000E+00
    0.45597E-03         0.10950E-03         0.00000E+00
    0.44815E-03         0.10862E-03         0.00000E+00
    0.43982E-03         0.10762E-03         0.00000E+00
    0.43100E-03         0.10649E-03         0.00000E+00
    0.42169E-03         0.10523E-03         0.00000E+00
    0.41189E-03         0.10384E-03         0.00000E+00
    0.40161E-03         0.10231E-03         0.00000E+00
    0.39086E-03         0.10063E-03         0.00000E+00
    0.37966E-03         0.98803E-04         0.00000E+00
    0.36800E-03         0.96819E-04         0.00000E+00
    0.35590E-03         0.94677E-04         0.00000E+00
    0.34337E-03         0.92370E-04         0.00000E+00
    0.33042E-03         0.89895E-04         0.00000E+00
    0.31705E-03         0.87248E-04         0.00000E+00
    0.30328E-03         0.84425E-04         0.00000E+00
    0.28912E-03         0.81422E-04         0.00000E+00
    0.27458E-03         0.78235E-04         0.00000E+00
    0.25967E-03         0.74861E-04         0.00000E+00
    0.24440E-03         0.71297E-04         0.00000E+00
    0.22878E-03         0.67539E-04         0.00000E+00
    0.21283E-03         0.63585E-04         0.00000E+00
    0.19656E-03         0.59432E-04         0.00000E+00
    0.17998E-03         0.55077E-04         0.00000E+00
    0.16310E-03         0.50518E-04         0.00000E+00
    0.14594E-03         0.45753E-04         0.00000E+00
    0.12850E-03         0.40779E-04         0.00000E+00
    0.11081E-03         0.35595E-04         0.00000E+00
    0.92873E-04         0.30199E-04         0.00000E+00
    0.74704E-04         0.24590E-04         0.00000E+00
    0.56319E-04         0.18767E-04         0.00000E+00
    0.37730E-04         0.12728E-04         0.00000E+00
    0.18953E-04         0.64725E-05         0.00000E+00
    0.00000E+00         0.00000E+00         0.00000E+00
    0.56755E-03         0.12389E-03         0.00000E+00
    0.56976E-03         0.12417E-03         0.00000E+00
    0.57134E-03         0.12443E-03         0.00000E+00
    0.57229E-03         0.12469E-03         0.00000E+00
    0.57260E-03         0.12492E-03         0.00000E+00
    0.57229E-03         0.12512E-03         0.00000E+00
    0.57134E-03         0.12528E-03         0.00000E+00
    0.56977E-03         0.12540E-03         0.00000E+00
    0.56757E-03         0.12546E-03         0.00000E+00
    0.56474E-03         0.12547E-03         0.00000E+00
    0.56129E-03         0.12541E-03         0.00000E+00
    0.55723E-03         0.12528E-03         0.00000E+00
    0.55256E-03         0.12507E-03         0.00000E+00
    0.54727E-03         0.12476E-03         0.00000E+00
    0.54138E-03         0.12437E-03         0.00000E+00
    0.53490E-03         0.12387E-03         0.00000E+00
    0.52782E-03         0.12327E-03         0.00000E+00
    0.52015E-03         0.12255E-03         0.00000E+00
    0.51191E-03         0.12171E-03         0.00000E+00
    0.50309E-03         0.12074E-03         0.00000E+00
    0.49370E-03         0.11964E-03         0.00000E+00
    0.48376E-03         0.11840E-03         0.00000E+00
    0.47327E-03         0.11702E-03         0.00000E+00
    0.46223E-03         0.11548E-03         0.00000E+00
    0.45066E-03         0.11379E-03         0.00000E+00
    0.43858E-03         0.11193E-03         0.00000E+00
    0.42597E-03         0.10991E-03         0.00000E+00
    0.41287E-03         0.10771E-03         0.00000E+00
    0.39927E-03         0.10534E-03         0.00000E+00
    0.38518E-03         0.10278E-03         0.00000E+00
    0.37063E-03         0.10003E-03         0.00000E+00
    0.35561E-03         0.97093E-04         0.00000E+00
    0.34015E-03         0.93958E-04         0.00000E+00
    0.32425E-03         0.90622E-04         0.00000E+00
    0.30793E-03         0.87081E-04         0.00000E+00
    0.29119E-03         0.83331E-04         0.00000E+00
    0.27406E-03         0.79369E-04         0.00000E+00
    0.25653E-03         0.75190E-04         0.00000E+00
    0.23864E-03         0.70792E-04         0.00000E+00
    0.22038E-03         0.66172E-04         0.00000E+00
    0.20179E-03         0.61327E-04         0.00000E+00
    0.18285E-03         0.56253E-04         0.00000E+00
    0.16361E-03         0.50950E-04         0.00000E+00
    0.14406E-03         0.45414E-04         0.00000E+00
    0.12422E-03         0.39643E-04         0.00000E+00
    0.10411E-03         0.33635E-04         0.00000E+00
    0.83740E-04         0.27389E-04         0.00000E+00
    0.63129E-04         0.20904E-04         0.00000E+00
    0.42292E-04         0.14178E-04         0.00000E+00
    0.21243E-04         0.72102E-05         0.00000E+00
    0.00000E+00         0.00000E+00         0.00000E+00
    0.63831E-03         0.13710E-03         0.00000E+00
    0.64071E-03         0.13743E-03         0.00000E+00
    0.64240E-03         0.13776E-03         0.00000E+00
    0.64338E-03         0.13806E-03         0.00000E+00
    0.64366E-03         0.13835E-03         0.00000E+00
    0.64322E-03         0.13860E-03         0.00000E+00
    0.64208E-03         0.13881E-03         0.00000E+00
    0.64023E-03         0.13896E-03         0.00000E+00
    0.63768E-03         0.13906E-03         0.00000E+00
    0.63444E-03         0.13910E-03         0.00000E+00
    0.63050E-03         0.13906E-03         0.00000E+00
    0.62586E-03         0.13893E-03         0.00000E+00
    0.62055E-03         0.13872E-03         0.00000E+00
    0.61455E-03         0.13841E-03         0.00000E+00
    0.60787E-03         0.13799E-03         0.00000E+00
    0.60053E-03         0.13746E-03         0.00000E+00
    0.59253E-03         0.13681E-03         0.00000E+00
    0.58386E-03         0.13603E-03         0.00000E+00
    0.57455E-03         0.13512E-03         0.00000E+00
    0.56461E-03         0.13406E-03         0.00000E+00
    0.55402E-03         0.13286E-03         0.00000E+00
    0.54282E-03         0.13150E-03         0.00000E+00
    0.53100E-03         0.12997E-03         0.00000E+00
    0.51858E-03         0.12828E-03         0.00000E+00
    0.50556E-03         0.12641E-03         0.00000E+00
    0.49196E-03         0.12437E-03         0.00000E+00
    0.47779E-03         0.12213E-03         0.00000E+00
    0.46306E-03         0.11970E-03         0.00000E+00
    0.44777E-03         0.11707E-03         0.00000E+00
    0.43195E-03         0.11424E-03         0.00000E+00
    0.41560E-03         0.11120E-03         0.00000E+00
    0.39874E-03         0.10794E-03         0.00000E+00
    0.38138E-03         0.10446E-03         0.00000E+00
    0.36353E-03         0.10076E-03         0.00000E+00
    0.34521E-03         0.96829E-04         0.00000E+00
    0.32643E-03         0.92666E-04         0.00000E+00
    0.30721E-03         0.88266E-04         0.00000E+00
    0.28755E-03         0.83625E-04         0.00000E+00
    0.26748E-03         0.78739E-04         0.00000E+00
    0.24701E-03         0.73605E-04         0.00000E+00
    0.22615E-03         0.68219E-04         0.00000E+00
    0.20493E-03         0.62579E-04         0.00000E+00
    0.18335E-03         0.56683E-04         0.00000E+00
    0.16143E-03         0.50526E-04         0.00000E+00
    0.13920E-03         0.44108E-04         0.00000E+00
    0.11666E-03         0.37426E-04         0.00000E+00
    0.93833E-04         0.30478E-04         0.00000E+00
    0.70736E-04         0.23263E-04         0.00000E+00
    0.47387E-04         0.15779E-04         0.00000E+00
    0.23802E-04         0.80247E-05         0.00000E+00
    0.00000E+00         0.00000E+00         0.00000E+00
    0.71779E-03         0.15146E-03         0.00000E+00
    0.72039E-03         0.15187E-03         0.00000E+00
    0.72219E-03         0.15226E-03         0.00000E+00
    0.72319E-03         0.15264E-03         0.00000E+00
    0.72340E-03         0.15299E-03         0.00000E+00
    0.72281E-03         0.15330E-03         0.00000E+00
    0.72143E-03         0.15356E-03         0.00000E+00
    0.71926E-03         0.15377E-03         0.00000E+00
    0.71631E-03         0.15392E-03         0.00000E+00
    0.71258E-03         0.15398E-03         0.00000E+00
    0.70807E-03         0.15397E-03         0.00000E+00
    0.70278E-03         0.15386E-03         0.00000E+00
    0.69673E-03         0.15365E-03         0.00000E+00
    0.68992E-03         0.15334E-03         0.00000E+00
    0.68235E-03         0.15290E-03         0.00000E+00
    0.67404E-03         0.15234E-03         0.00000E+00
    0.66499E-03         0.15164E-03         0.00000E+00
    0.65520E-03         0.15081E-03         0.00000E+00
    0.64469E-03         0.14981E-03         0.00000E+00
    0.63346E-03         0.14867E-03         0.00000E+00
    0.62153E-03         0.14735E-03         0.00000E+00
    0.60891E-03         0.14586E-03         0.00000E+00
    0.59560E-03         0.14419E-03         0.00000E+00
    0.58162E-03         0.14233E-03         0.00000E+00
    0.56697E-03         0.14027E-03         0.00000E+00
    0.55167E-03         0.13802E-03         0.00000E+00
    0.53574E-03         0.13555E-03         0.00000E+00
    0.51918E-03         0.13287E-03         0.00000E+00
    0.50200E-03         0.12996E-03         0.00000E+00
    0.48423E-03         0.12683E-03         0.00000E+00
    0.46587E-03         0.12346E-03         0.00000E+00
    0.44694E-03         0.11986E-03         0.00000E+00
    0.42745E-03         0.11601E-03         0.00000E+00
    0.40742E-03         0.11191E-03         0.00000E+00
    0.38687E-03         0.10755E-03         0.00000E+00
    0.36580E-03         0.10293E-03         0.00000E+00
    0.34424E-03         0.98054E-04         0.00000E+00
    0.32220E-03         0.92905E-04         0.00000E+00
    0.29969E-03         0.87483E-04         0.00000E+00
    0.27674E-03         0.81784E-04         0.00000E+00
    0.25336E-03         0.75806E-04         0.00000E+00
    0.22958E-03         0.69544E-04         0.00000E+00
    0.20539E-03         0.62995E-04         0.00000E+00
    0.18084E-03         0.56157E-04         0.00000E+00
    0.15592E-03         0.49026E-04         0.00000E+00
    0.13067E-03         0.41602E-04         0.00000E+00
    0.10510E-03         0.33881E-04         0.00000E+00
    0.79229E-04         0.25861E-04         0.00000E+00
    0.53075E-04         0.17542E-04         0.00000E+00
    0.26659E-04         0.89221E-05         0.00000E+00
    0.00000E+00         0.00000E+00         0.00000E+00
    0.80705E-03         0.16703E-03         0.00000E+00
    0.80984E-03         0.16752E-03         0.00000E+00
    0.81174E-03         0.16800E-03         0.00000E+00
    0.81274E-03         0.16846E-03         0.00000E+00
    0.81286E-03         0.16889E-03         0.00000E+00
    0.81208E-03         0.16928E-03         0.00000E+00
    0.81042E-03         0.16961E-03         0.00000E+00
    0.80788E-03         0.16988E-03         0.00000E+00
    0.80445E-03         0.17008E-03         0.00000E+00
    0.80016E-03         0.17019E-03         0.00000E+00
    0.79499E-03         0.17021E-03         0.00000E+00
    0.78896E-03         0.17013E-03         0.00000E+00
    0.78207E-03         0.16994E-03         0.00000E+00
    0.77433E-03         0.16962E-03         0.00000E+00
    0.76575E-03         0.16917E-03         0.00000E+00
    0.75633E-03         0.16858E-03         0.00000E+00
    0.74609E-03         0.16784E-03         0.00000E+00
    0.73503E-03         0.16694E-03         0.00000E+00
    0.72316E-03         0.16587E-03         0.00000E+00
    0.71050E-03         0.16463E-03         0.00000E+00
    0.69705E-03         0.16320E-03         0.00000E+00
    0.68282E-03         0.16157E-03         0.00000E+00
    0.66783E-03         0.15974E-03         0.00000E+00
    0.65209E-03         0.15771E-03         0.00000E+00
    0.63562E-03         0.15545E-03         0.00000E+00
    0.61841E-03         0.15297E-03         0.00000E+00
    0.60050E-03         0.15025E-03         0.00000E+00
    0.58189E-03         0.14729E-03         0.00000E+00
    0.56260E-03         0.14409E-03         0.00000E+00
    0.54264E-03         0.14063E-03         0.00000E+00
    0.52202E-03         0.13691E-03         0.00000E+00
    0.50078E-03         0.13293E-03         0.00000E+00
    0.47891E-03         0.12867E-03         0.00000E+00
    0.45644E-03         0.12413E-03         0.00000E+00
    0.43338E-03         0.11931E-03         0.00000E+00
    0.40976E-03         0.11420E-03         0.00000E+00
    0.38558E-03         0.10880E-03         0.00000E+00
    0.36087E-03         0.10309E-03         0.00000E+00
    0.33565E-03         0.97084E-04         0.00000E+00
    0.30993E-03         0.90767E-04         0.00000E+00
    0.28374E-03         0.84139E-04         0.00000E+00
    0.25708E-03         0.77194E-04         0.00000E+00
    0.22999E-03         0.69930E-04         0.00000E+00
    0.20249E-03         0.62343E-04         0.00000E+00
    0.17459E-03         0.54431E-04         0.00000E+00
    0.14631E-03         0.46191E-04         0.00000E+00
    0.11767E-03         0.37621E-04         0.00000E+00
    0.88703E-04         0.28718E-04         0.00000E+00
    0.59420E-04         0.19482E-04         0.00000E+00
    0.29845E-04         0.99091E-05         0.00000E+00
    0.00000E+00         0.00000E+00         0.00000E+00
    0.90725E-03         0.18383E-03         0.00000E+00
    0.91024E-03         0.18443E-03         0.00000E+00
    0.91222E-03         0.18501E-03         0.00000E+00
    0.91320E-03         0.18557E-03         0.00000E+00
    0.91319E-03         0.18610E-03         0.00000E+00
    0.91218E-03         0.18657E-03         0.00000E+00
    0.91018E-03         0.18699E-03         0.00000E+00
    0.90719E-03         0.18734E-03         0.00000E+00
    0.90321E-03         0.18761E-03         0.00000E+00
    0.89826E-03         0.18778E-03         0.00000E+00
    0.89234E-03         0.18785E-03         0.00000E+00
    0.88545E-03         0.18781E-03         0.00000E+00
    0.87761E-03         0.18763E-03         0.00000E+00
    0.86881E-03         0.18733E-03         0.00000E+00
    0.85908E-03         0.18687E-03         0.00000E+00
    0.84841E-03         0.18626E-03         0.00000E+00
    0.83682E-03         0.18548E-03         0.00000E+00
    0.82432E-03         0.18452E-03         0.00000E+00
    0.81092E-03         0.18337E-03         0.00000E+00
    0.79663E-03         0.18203E-03         0.00000E+00
    0.78147E-03         0.18048E-03         0.00000E+00
    0.76544E-03         0.17871E-03         0.00000E+00
    0.74856E-03         0.17671E-03         0.00000E+00
    0.73085E-03         0.17449E-03         0.00000E+00
    0.71231E-03         0.17201E-03         0.00000E+00
    0.69297E-03         0.16929E-03         0.00000E+00
    0.67284E-03         0.16631E-03         0.00000E+00
    0.65193E-03         0.16306E-03         0.00000E+00
    0.63026E-03         0.15953E-03         0.00000E+00
    0.60785E-03         0.15572E-03         0.00000E+00
    0.58471E-03         0.15162E-03         0.00000E+00
    0.56087E-03         0.14723E-03         0.00000E+00
    0.53634E-03         0.14253E-03         0.00000E+00
    0.51114E-03         0.13752E-03         0.00000E+00
    0.48529E-03         0.13219E-03         0.00000E+00
    0.45880E-03         0.12654E-03         0.00000E+00
    0.43170E-03         0.12056E-03         0.00000E+00
    0.40402E-03         0.11425E-03         0.00000E+00
    0.37576E-03         0.10760E-03         0.00000E+00
    0.34695E-03         0.10061E-03         0.00000E+00
    0.31761E-03         0.93270E-04         0.00000E+00
    0.28776E-03         0.85578E-04         0.00000E+00
    0.25743E-03         0.77532E-04         0.00000E+00
    0.22663E-03         0.69126E-04         0.00000E+00
    0.19539E-03         0.60358E-04         0.00000E+00
    0.16374E-03         0.51225E-04         0.00000E+00
    0.13169E-03         0.41724E-04         0.00000E+00
    0.99264E-04         0.31853E-04         0.00000E+00
    0.66493E-04         0.21609E-04         0.00000E+00
    0.33397E-04         0.10992E-04         0.00000E+00
    0.00000E+00         0.00000E+00         0.00000E+00
    0.10197E-02         0.20187E-03         0.00000E+00
    0.10229E-02         0.20259E-03         0.00000E+00
    0.10249E-02         0.20330E-03         0.00000E+00
    0.10259E-02         0.20398E-03         0.00000E+00
    0.10257E-02         0.20462E-03         0.00000E+00
    0.10244E-02         0.20521E-03         0.00000E+00
    0.10220E-02         0.20574E-03         0.00000E+00
    0.10184E-02         0.20618E-03         0.00000E+00
    0.10138E-02         0.20654E-03         0.00000E+00
    0.10081E-02         0.20679E-03         0.00000E+00
    0.10013E-02         0.20692E-03         0.00000E+00
    0.99346E-03         0.20693E-03         0.00000E+00
    0.98452E-03         0.20679E-03         0.00000E+00
    0.97452E-03         0.20650E-03         0.00000E+00
    0.96348E-03         0.20605E-03         0.00000E+00
    0.95139E-03         0.20542E-03         0.00000E+00
    0.93827E-03         0.20461E-03         0.00000E+00
    0.92415E-03         0.20359E-03         0.00000E+00
    0.90901E-03         0.20237E-03         0.00000E+00
    0.89289E-03         0.20093E-03         0.00000E+00
    0.87579E-03         0.19925E-03         0.00000E+00
    0.85774E-03         0.19734E-03         0.00000E+00
    0.83873E-03         0.19517E-03         0.00000E+00
    0.81880E-03         0.19274E-03         0.00000E+00
    0.79795E-03         0.19004E-03         0.00000E+00
    0.77621E-03         0.18706E-03         0.00000E+00
    0.75358E-03         0.18380E-03         0.00000E+00
    0.73010E-03         0.18023E-03         0.00000E+00
    0.70577E-03         0.17636E-03         0.00000E+00
    0.68061E-03         0.17217E-03         0.00000E+00
    0.65465E-03         0.16766E-03         0.00000E+00
    0.62791E-03         0.16282E-03         0.00000E+00
    0.60040E-03         0.15764E-03         0.00000E+00
    0.57214E-03         0.15212E-03         0.00000E+00
    0.54316E-03         0.14624E-03         0.00000E+00
    0.51348E-03         0.14001E-03         0.00000E+00
    0.48313E-03         0.13341E-03         0.00000E+00
    0.45211E-03         0.12644E-03         0.00000E+00
    0.42046E-03         0.11909E-03         0.00000E+00
    0.38820E-03         0.11136E-03         0.00000E+00
    0.35535E-03         0.10325E-03         0.00000E+00
    0.32194E-03         0.94743E-04         0.00000E+00
    0.28799E-03         0.85843E-04         0.00000E+00
    0.25353E-03         0.76543E-04         0.00000E+00
    0.21857E-03         0.66840E-04         0.00000E+00
    0.18316E-03         0.56731E-04         0.00000E+00
    0.14730E-03         0.46213E-04         0.00000E+00
    0.11103E-03         0.35283E-04         0.00000E+00
    0.74371E-04         0.23938E-04         0.00000E+00
    0.37353E-04         0.12178E-04         0.00000E+00
    0.00000E+00         0.00000E+00         0.00000E+00
    0.11459E-02         0.22113E-03         0.00000E+00
    0.11492E-02         0.22200E-03         0.00000E+00
    0.11513E-02         0.22286E-03         0.00000E+00
    0.11521E-02         0.22369E-03         0.00000E+00
    0.11517E-02         0.22448E-03         0.00000E+00
    0.11501E-02         0.22520E-03         0.00000E+00
    0.11472E-02         0.22585E-03         0.00000E+00
    0.11430E-02         0.22642E-03         0.00000E+00
    0.11377E-02         0.22688E-03         0.00000E+00
    0.11311E-02         0.22723E-03         0.00000E+00
    0.11233E-02         0.22744E-03         0.00000E+00
    0.11143E-02         0.22752E-03         0.00000E+00
    0.11041E-02         0.22744E-03         0.00000E+00
    0.10927E-02         0.22718E-03         0.00000E+00
    0.10802E-02         0.22675E-03         0.00000E+00
    0.10665E-02         0.22611E-03         0.00000E+00
    0.10516E-02         0.22527E-03         0.00000E+00
    0.10357E-02         0.22421E-03         0.00000E+00
    0.10186E-02         0.22292E-03         0.00000E+00
    0.10004E-02         0.22138E-03         0.00000E+00
    0.98112E-03         0.21958E-03         0.00000E+00
    0.96078E-03         0.21751E-03         0.00000E+00
    0.93938E-03         0.21517E-03         0.00000E+00
    0.91695E-03         0.21253E-03         0.00000E+00
    0.89351E-03         0.20959E-03         0.00000E+00
    0.86907E-03         0.20635E-03         0.00000E+00
    0.84365E-03         0.20278E-03         0.00000E+00
    0.81728E-03         0.19887E-03         0.00000E+00
    0.78996E-03         0.19463E-03         0.00000E+00
    0.76174E-03         0.19004E-03         0.00000E+00
    0.73262E-03         0.18509E-03         0.00000E+00
    0.70263E-03         0.17977E-03         0.00000E+00
    0.67179E-03         0.17408E-03         0.00000E+00
    0.64012E-03         0.16800E-03         0.00000E+00
    0.60765E-03         0.16153E-03         0.00000E+00
    0.57441E-03         0.15466E-03         0.00000E+00
    0.54041E-03         0.14739E-03         0.00000E+00
    0.50568E-03         0.13971E-03         0.00000E+00
    0.47025E-03         0.13160E-03         0.00000E+00
    0.43415E-03         0.12308E-03         0.00000E+00
    0.39739E-03         0.11412E-03         0.00000E+00
    0.36001E-03         0.10473E-03         0.00000E+00
    0.32202E-03         0.94904E-04         0.00000E+00
    0.28347E-03         0.84631E-04         0.00000E+00
    0.24438E-03         0.73910E-04         0.00000E+00
    0.20477E-03         0.62738E-04         0.00000E+00
    0.16468E-03         0.51111E-04         0.00000E+00
    0.12412E-03         0.39026E-04         0.00000E+00
    0.83140E-04         0.26480E-04         0.00000E+00
    0.41755E-04         0.13472E-04         0.00000E+00
    0.00000E+00         0.00000E+00         0.00000E+00
    0.12874E-02         0.24155E-03         0.00000E+00
    0.12909E-02         0.24261E-03         0.00000E+00
    0.12930E-02         0.24365E-03         0.00000E+00
    0.12937E-02         0.24466E-03         0.00000E+00
    0.12929E-02         0.24561E-03         0.00000E+00
    0.12908E-02         0.24651E-03         0.00000E+00
    0.12873E-02         0.24731E-03         0.00000E+00
    0.12825E-02         0.24803E-03         0.00000E+00
    0.12762E-02         0.24862E-03         0.00000E+00
    0.12686E-02         0.24909E-03         0.00000E+00
    0.12597E-02         0.24942E-03         0.00000E+00
    0.12494E-02         0.24958E-03         0.00000E+00
    0.12378E-02         0.24957E-03         0.00000E+00
    0.12248E-02         0.24937E-03         0.00000E+00
    0.12106E-02         0.24897E-03         0.00000E+00
    0.11951E-02         0.24835E-03         0.00000E+00
    0.11783E-02         0.24750E-03         0.00000E+00
    0.11602E-02         0.24640E-03         0.00000E+00
    0.11409E-02         0.24504E-03         0.00000E+00
    0.11204E-02         0.24341E-03         0.00000E+00
    0.10986E-02         0.24149E-03         0.00000E+00
    0.10757E-02         0.23927E-03         0.00000E+00
    0.10516E-02         0.23674E-03         0.00000E+00
    0.10264E-02         0.23389E-03         0.00000E+00
    0.10001E-02         0.23071E-03         0.00000E+00
    0.97259E-03         0.22718E-03         0.00000E+00
    0.94404E-03         0.22329E-03         0.00000E+00
    0.91443E-03         0.21904E-03         0.00000E+00
    0.88379E-03         0.21440E-03         0.00000E+00
    0.85212E-03         0.20938E-03         0.00000E+00
    0.81947E-03         0.20396E-03         0.00000E+00
    0.78585E-03         0.19813E-03         0.00000E+00
    0.75129E-03         0.19188E-03         0.00000E+00
    0.71582E-03         0.18521E-03         0.00000E+00
    0.67945E-03         0.17811E-03         0.00000E+00
    0.64223E-03         0.17056E-03         0.00000E+00
    0.60417E-03         0.16256E-03         0.00000E+00
    0.56531E-03         0.15411E-03         0.00000E+00
    0.52566E-03         0.14519E-03         0.00000E+00
    0.48527E-03         0.13580E-03         0.00000E+00
    0.44416E-03         0.12593E-03         0.00000E+00
    0.40235E-03         0.11558E-03         0.00000E+00
    0.35988E-03         0.10475E-03         0.00000E+00
    0.31678E-03         0.93421E-04         0.00000E+00
    0.27308E-03         0.81596E-04         0.00000E+00
    0.22881E-03         0.69270E-04         0.00000E+00
    0.18400E-03         0.56438E-04         0.00000E+00
    0.13868E-03         0.43098E-04         0.00000E+00
    0.92890E-04         0.29247E-04         0.00000E+00
    0.46651E-04         0.14881E-04         0.00000E+00
    0.00000E+00         0.00000E+00         0.00000E+00
    0.14460E-02         0.26303E-03         0.00000E+00
    0.14496E-02         0.26431E-03         0.00000E+00
    0.14517E-02         0.26557E-03         0.00000E+00
    0.14521E-02         0.26679E-03         0.00000E+00
    0.14510E-02         0.26796E-03         0.00000E+00
    0.14484E-02         0.26905E-03         0.00000E+00
    0.14442E-02         0.27005E-03         0.00000E+00
    0.14385E-02         0.27095E-03         0.00000E+00
    0.14312E-02         0.27171E-03         0.00000E+00
    0.14224E-02         0.27234E-03         0.00000E+00
    0.14121E-02         0.27280E-03         0.00000E+00
    0.14003E-02         0.27308E-03         0.00000E+00
    0.13871E-02         0.27317E-03         0.00000E+00
    0.13724E-02         0.27305E-03         0.00000E+00
    0.13562E-02         0.27270E-03         0.00000E+00
    0.13386E-02         0.27211E-03         0.00000E+00
    0.13196E-02         0.27126E-03         0.00000E+00
    0.12991E-02         0.27014E-03         0.00000E+00
    0.12773E-02         0.26873E-03         0.00000E+00
    0.12542E-02         0.26701E-03         0.00000E+00
    0.12297E-02         0.26498E-03         0.00000E+00
    0.12039E-02         0.26262E-03         0.00000E+00
    0.11768E-02         0.25991E-03         0.00000E+00
    0.11484E-02         0.25685E-03         0.00000E+00
    0.11188E-02         0.25341E-03         0.00000E+00
    0.10879E-02         0.24959E-03         0.00000E+00
    0.10559E-02         0.24537E-03         0.00000E+00
    0.10226E-02         0.24074E-03         0.00000E+00
    0.98824E-03         0.23570E-03         0.00000E+00
    0.95274E-03         0.23022E-03         0.00000E+00
    0.91614E-03         0.22430E-03         0.00000E+00
    0.87846E-03         0.21793E-03         0.00000E+00
    0.83975E-03         0.21110E-03         0.00000E+00
    0.80003E-03         0.20379E-03         0.00000E+00
    0.75932E-03         0.19601E-03         0.00000E+00
    0.71766E-03         0.18773E-03         0.00000E+00
    0.67508E-03         0.17895E-03         0.00000E+00
    0.63160E-03         0.16967E-03         0.00000E+00
    0.58727E-03         0.15987E-03         0.00000E+00
    0.54210E-03         0.14956E-03         0.00000E+00
    0.49614E-03         0.13871E-03         0.00000E+00
    0.44942E-03         0.12733E-03         0.00000E+00
    0.40196E-03         0.11541E-03         0.00000E+00
    0.35380E-03         0.10294E-03         0.00000E+00
    0.30498E-03         0.89923E-04         0.00000E+00
    0.25552E-03         0.76348E-04         0.00000E+00
    0.20547E-03         0.62212E-04         0.00000E+00
    0.15486E-03         0.47513E-04         0.00000E+00
    0.10372E-03         0.32247E-04         0.00000E+00
    0.52089E-04         0.16410E-04         0.00000E+00
    0.00000E+00         0.00000E+00         0.00000E+00
    0.16238E-02         0.28541E-03         0.00000E+00
    0.16275E-02         0.28695E-03         0.00000E+00
    0.16294E-02         0.28848E-03         0.00000E+00
    0.16295E-02         0.28996E-03         0.00000E+00
    0.16280E-02         0.29138E-03         0.00000E+00
    0.16246E-02         0.29272E-03         0.00000E+00
    0.16196E-02         0.29395E-03         0.00000E+00
    0.16128E-02         0.29507E-03         0.00000E+00
    0.16044E-02         0.29604E-03         0.00000E+00
    0.15942E-02         0.29686E-03         0.00000E+00
    0.15824E-02         0.29749E-03         0.00000E+00
    0.15689E-02         0.29793E-03         0.00000E+00
    0.15538E-02         0.29815E-03         0.00000E+00
    0.15370E-02         0.29814E-03         0.00000E+00
    0.15186E-02         0.29787E-03         0.00000E+00
    0.14987E-02         0.29734E-03         0.00000E+00
    0.14771E-02         0.29652E-03         0.00000E+00
    0.14541E-02         0.29539E-03         0.00000E+00
    0.14294E-02         0.29395E-03         0.00000E+00
    0.14033E-02         0.29217E-03         0.00000E+00
    0.13757E-02         0.29004E-03         0.00000E+00
    0.13466E-02         0.28754E-03         0.00000E+00
    0.13161E-02         0.28465E-03         0.00000E+00
    0.12842E-02         0.28137E-03         0.00000E+00
    0.12509E-02         0.27768E-03         0.00000E+00
    0.12163E-02         0.27356E-03         0.00000E+00
    0.11803E-02         0.26900E-03         0.00000E+00
    0.11430E-02         0.26400E-03         0.00000E+00
    0.11044E-02         0.25852E-03         0.00000E+00
    0.10646E-02         0.25257E-03         0.00000E+00
    0.10236E-02         0.24613E-03         0.00000E+00
    0.98144E-03         0.23919E-03         0.00000E+00
    0.93809E-03         0.23173E-03         0.00000E+00
    0.89363E-03         0.22375E-03         0.00000E+00
    0.84808E-03         0.21525E-03         0.00000E+00
    0.80148E-03         0.20619E-03         0.00000E+00
    0.75386E-03         0.19659E-03         0.00000E+00
    0.70525E-03         0.18642E-03         0.00000E+00
    0.65570E-03         0.17569E-03         0.00000E+00
    0.60523E-03         0.16438E-03         0.00000E+00
    0.55387E-03         0.15248E-03         0.00000E+00
    0.50168E-03         0.13999E-03         0.00000E+00
    0.44867E-03         0.12690E-03         0.00000E+00
    0.39489E-03         0.11321E-03         0.00000E+00
    0.34038E-03         0.98906E-04         0.00000E+00
    0.28517E-03         0.83987E-04         0.00000E+00
    0.22931E-03         0.68447E-04         0.00000E+00
    0.17282E-03         0.52282E-04         0.00000E+00
    0.11574E-03         0.35488E-04         0.00000E+00
    0.58124E-04         0.18061E-04         0.00000E+00
    0.00000E+00         0.00000E+00         0.00000E+00
    0.18229E-02         0.30844E-03         0.00000E+00
    0.18266E-02         0.31030E-03         0.00000E+00
    0.18283E-02         0.31214E-03         0.00000E+00
    0.18280E-02         0.31394E-03         0.00000E+00
    0.18258E-02         0.31567E-03         0.00000E+00
    0.18217E-02         0.31730E-03         0.00000E+00
    0.18157E-02         0.31882E-03         0.00000E+00
    0.18077E-02         0.32021E-03         0.00000E+00
    0.17978E-02         0.32144E-03         0.00000E+00
    0.17861E-02         0.32250E-03         0.00000E+00
    0.17725E-02         0.32335E-03         0.00000E+00
    0.17570E-02         0.32398E-03         0.00000E+00
    0.17397E-02         0.32438E-03         0.00000E+00
    0.17207E-02         0.32451E-03         0.00000E+00
    0.16998E-02         0.32437E-03         0.00000E+00
    0.16771E-02         0.32392E-03         0.00000E+00
    0.16527E-02         0.32316E-03         0.00000E+00
    0.16266E-02         0.32206E-03         0.00000E+00
    0.15988E-02         0.32061E-03         0.00000E+00
    0.15694E-02         0.31878E-03         0.00000E+00
    0.15383E-02         0.31657E-03         0.00000E+00
    0.15055E-02         0.31395E-03         0.00000E+00
    0.14712E-02         0.31090E-03         0.00000E+00
    0.14353E-02         0.30741E-03         0.00000E+00
    0.13979E-02         0.30347E-03         0.00000E+00
    0.13590E-02         0.29906E-03         0.00000E+00
    0.13186E-02         0.29416E-03         0.00000E+00
    0.12768E-02         0.28876E-03         0.00000E+00
    0.12336E-02         0.28284E-03         0.00000E+00
    0.11890E-02         0.27640E-03         0.00000E+00
    0.11431E-02         0.26941E-03         0.00000E+00
    0.10958E-02         0.26188E-03         0.00000E+00
    0.10473E-02         0.25377E-03         0.00000E+00
    0.99757E-03         0.24509E-03         0.00000E+00
    0.94663E-03         0.23582E-03         0.00000E+00
    0.89453E-03         0.22595E-03         0.00000E+00
    0.84130E-03         0.21546E-03         0.00000E+00
    0.78699E-03         0.20436E-03         0.00000E+00
    0.73163E-03         0.19263E-03         0.00000E+00
    0.67526E-03         0.18026E-03         0.00000E+00
    0.61792E-03         0.16724E-03         0.00000E+00
    0.55965E-03         0.15357E-03         0.00000E+00
    0.50048E-03         0.13924E-03         0.00000E+00
    0.44047E-03         0.12423E-03         0.00000E+00
    0.37964E-03         0.10856E-03         0.00000E+00
    0.31805E-03         0.92195E-04         0.00000E+00
    0.25573E-03         0.75148E-04         0.00000E+00
    0.19272E-03         0.57409E-04         0.00000E+00
    0.12907E-03         0.38974E-04         0.00000E+00
    0.64813E-04         0.19839E-04         0.00000E+00
    0.00000E+00         0.00000E+00         0.00000E+00
    0.20458E-02         0.33178E-03         0.00000E+00
    0.20494E-02         0.33403E-03         0.00000E+00
    0.20508E-02         0.33626E-03         0.00000E+00
    0.20500E-02         0.33843E-03         0.00000E+00
    0.20470E-02         0.34053E-03         0.00000E+00
    0.20419E-02         0.34252E-03         0.00000E+00
    0.20346E-02         0.34439E-03         0.00000E+00
    0.20252E-02         0.34611E-03         0.00000E+00
    0.20137E-02         0.34766E-03         0.00000E+00
    0.20001E-02         0.34901E-03         0.00000E+00
    0.19845E-02         0.35014E-03         0.00000E+00
    0.19668E-02         0.35102E-03         0.00000E+00
    0.19470E-02         0.35164E-03         0.00000E+00
    0.19253E-02         0.35197E-03         0.00000E+00
    0.19016E-02         0.35199E-03         0.00000E+00
    0.18759E-02         0.35168E-03         0.00000E+00
    0.18483E-02         0.35102E-03         0.00000E+00
    0.18187E-02         0.34998E-03         0.00000E+00
    0.17873E-02         0.34855E-03         0.00000E+00
    0.17541E-02         0.34671E-03         0.00000E+00
    0.17190E-02         0.34444E-03         0.00000E+00
    0.16822E-02         0.34172E-03         0.00000E+00
    0.16436E-02         0.33853E-03         0.00000E+00
    0.16033E-02         0.33485E-03         0.00000E+00
    0.15612E-02         0.33067E-03         0.00000E+00
    0.15176E-02         0.32597E-03         0.00000E+00
    0.14723E-02         0.32073E-03         0.00000E+00
    0.14254E-02         0.31494E-03         0.00000E+00
    0.13770E-02         0.30858E-03         0.00000E+00
    0.13270E-02         0.30164E-03         0.00000E+00
    0.12756E-02         0.29409E-03         0.00000E+00
    0.12227E-02         0.28594E-03         0.00000E+00
    0.11685E-02         0.27716E-03         0.00000E+00
    0.11129E-02         0.26775E-03         0.00000E+00
    0.10559E-02         0.25768E-03         0.00000E+00
    0.99770E-03         0.24695E-03         0.00000E+00
    0.93825E-03         0.23555E-03         0.00000E+00
    0.87760E-03         0.22346E-03         0.00000E+00
    0.81579E-03         0.21068E-03         0.00000E+00
    0.75287E-03         0.19719E-03         0.00000E+00
    0.68889E-03         0.18299E-03         0.00000E+00
    0.62388E-03         0.16806E-03         0.00000E+00
    0.55788E-03         0.15240E-03         0.00000E+00
    0.49095E-03         0.13601E-03         0.00000E+00
    0.42313E-03         0.11886E-03         0.00000E+00
    0.35446E-03         0.10097E-03         0.00000E+00
    0.28499E-03         0.82313E-04         0.00000E+00
    0.21476E-03         0.62894E-04         0.00000E+00
    0.14382E-03         0.42705E-04         0.00000E+00
    0.72220E-04         0.21741E-04         0.00000E+00
    0.00000E+00         0.00000E+00         0.00000E+00
    0.22952E-02         0.35498E-03         0.00000E+00
    0.22986E-02         0.35770E-03         0.00000E+00
    0.22995E-02         0.36038E-03         0.00000E+00
    0.22980E-02         0.36301E-03         0.00000E+00
    0.22941E-02         0.36556E-03         0.00000E+00
    0.22877E-02         0.36799E-03         0.00000E+00
    0.22790E-02         0.37028E-03         0.00000E+00
    0.22680E-02         0.37241E-03         0.00000E+00
    0.22546E-02         0.37434E-03         0.00000E+00
    0.22388E-02         0.37606E-03         0.00000E+00
    0.22208E-02         0.37753E-03         0.00000E+00
    0.22005E-02         0.37873E-03         0.00000E+00
    0.21779E-02         0.37963E-03         0.00000E+00
    0.21532E-02         0.38022E-03         0.00000E+00
    0.21262E-02         0.38046E-03         0.00000E+00
    0.20970E-02         0.38034E-03         0.00000E+00
    0.20658E-02         0.37983E-03         0.00000E+00
    0.20324E-02         0.37890E-03         0.00000E+00
    0.19969E-02         0.37755E-03         0.00000E+00
    0.19594E-02         0.37573E-03         0.00000E+00
    0.19199E-02         0.37344E-03         0.00000E+00
    0.18784E-02         0.37065E-03         0.00000E+00
    0.18350E-02         0.36735E-03         0.00000E+00
    0.17897E-02         0.36351E-03         0.00000E+00
    0.17425E-02         0.35911E-03         0.00000E+00
    0.16935E-02         0.35414E-03         0.00000E+00
    0.16427E-02         0.34858E-03         0.00000E+00
    0.15902E-02         0.34240E-03         0.00000E+00
    0.15360E-02         0.33560E-03         0.00000E+00
    0.14800E-02         0.32816E-03         0.00000E+00
    0.14225E-02         0.32005E-03         0.00000E+00
    0.13634E-02         0.31127E-03         0.00000E+00
    0.13027E-02         0.30181E-03         0.00000E+00
    0.12406E-02         0.29164E-03         0.00000E+00
    0.11770E-02         0.28075E-03         0.00000E+00
    0.11120E-02         0.26913E-03         0.00000E+00
    0.10456E-02         0.25677E-03         0.00000E+00
    0.97792E-03         0.24365E-03         0.00000E+00
    0.90896E-03         0.22977E-03         0.00000E+00
    0.83879E-03         0.21511E-03         0.00000E+00
    0.76744E-03         0.19966E-03         0.00000E+00
    0.69496E-03         0.18342E-03         0.00000E+00
    0.62140E-03         0.16637E-03         0.00000E+00
    0.54681E-03         0.14850E-03         0.00000E+00
    0.47124E-03         0.12981E-03         0.00000E+00
    0.39474E-03         0.11029E-03         0.00000E+00
    0.31736E-03         0.89930E-04         0.00000E+00
    0.23914E-03         0.68727E-04         0.00000E+00
    0.16014E-03         0.46675E-04         0.00000E+00
    0.80411E-04         0.23767E-04         0.00000E+00
    0.00000E+00         0.00000E+00         0.00000E+00
    0.25741E-02         0.37744E-03         0.00000E+00
    0.25771E-02         0.38071E-03         0.00000E+00
    0.25774E-02         0.38395E-03         0.00000E+00
    0.25749E-02         0.38713E-03         0.00000E+00
    0.25698E-02         0.39021E-03         0.00000E+00
    0.25620E-02         0.39317E-03         0.00000E+00
    0.25516E-02         0.39597E-03         0.00000E+00
    0.25386E-02         0.39859E-03         0.00000E+00
    0.25229E-02         0.40100E-03         0.00000E+00
    0.25047E-02         0.40317E-03         0.00000E+00
    0.24839E-02         0.40506E-03         0.00000E+00
    0.24606E-02         0.40666E-03         0.00000E+00
    0.24349E-02         0.40793E-03         0.00000E+00
    0.24066E-02         0.40884E-03         0.00000E+00
    0.23760E-02         0.40938E-03         0.00000E+00
    0.23429E-02         0.40952E-03         0.00000E+00
    0.23075E-02         0.40922E-03         0.00000E+00
    0.22697E-02         0.40847E-03         0.00000E+00
    0.22297E-02         0.40724E-03         0.00000E+00
    0.21874E-02         0.40551E-03         0.00000E+00
    0.21429E-02         0.40326E-03         0.00000E+00
    0.20962E-02         0.40045E-03         0.00000E+00
    0.20474E-02         0.39708E-03         0.00000E+00
    0.19965E-02         0.39311E-03         0.00000E+00
    0.19436E-02         0.38853E-03         0.00000E+00
    0.18886E-02         0.38332E-03         0.00000E+00
    0.18317E-02         0.37746E-03         0.00000E+00
    0.17728E-02         0.37092E-03         0.00000E+00
    0.17121E-02         0.36370E-03         0.00000E+00
    0.16495E-02         0.35576E-03         0.00000E+00
    0.15852E-02         0.34710E-03         0.00000E+00
    0.15191E-02         0.33770E-03         0.00000E+00
    0.14513E-02         0.32754E-03         0.00000E+00
    0.13819E-02         0.31661E-03         0.00000E+00
    0.13109E-02         0.30488E-03         0.00000E+00
    0.12384E-02         0.29235E-03         0.00000E+00
    0.11643E-02         0.27901E-03         0.00000E+00
    0.10889E-02         0.26483E-03         0.00000E+00
    0.10120E-02         0.24981E-03         0.00000E+00
    0.93377E-03         0.23394E-03         0.00000E+00
    0.85426E-03         0.21720E-03         0.00000E+00
    0.77352E-03         0.19958E-03         0.00000E+00
    0.69159E-03         0.18107E-03         0.00000E+00
    0.60853E-03         0.16166E-03         0.00000E+00
    0.52440E-03         0.14135E-03         0.00000E+00
    0.43924E-03         0.12012E-03         0.00000E+00
    0.35311E-03         0.97971E-04         0.00000E+00
    0.26607E-03         0.74889E-04         0.00000E+00
    0.17816E-03         0.50871E-04         0.00000E+00
    0.89456E-04         0.25910E-04         0.00000E+00
    0.00000E+00         0.00000E+00         0.00000E+00
    0.28857E-02         0.39836E-03         0.00000E+00
    0.28881E-02         0.40230E-03         0.00000E+00
    0.28875E-02         0.40621E-03         0.00000E+00
    0.28840E-02         0.41004E-03         0.00000E+00
    0.28774E-02         0.41378E-03         0.00000E+00
    0.28678E-02         0.41737E-03         0.00000E+00
    0.28554E-02         0.42080E-03         0.00000E+00
    0.28400E-02         0.42402E-03         0.00000E+00
    0.28217E-02         0.42700E-03         0.00000E+00
    0.28006E-02         0.42972E-03         0.00000E+00
    0.27767E-02         0.43214E-03         0.00000E+00
    0.27500E-02         0.43423E-03         0.00000E+00
    0.27205E-02         0.43596E-03         0.00000E+00
    0.26883E-02         0.43730E-03         0.00000E+00
    0.26534E-02         0.43822E-03         0.00000E+00
    0.26159E-02         0.43870E-03         0.00000E+00
    0.25758E-02         0.43870E-03         0.00000E+00
    0.25331E-02         0.43821E-03         0.00000E+00
    0.24879E-02         0.43718E-03         0.00000E+00
    0.24403E-02         0.43561E-03         0.00000E+00
    0.23901E-02         0.43345E-03         0.00000E+00
    0.23376E-02         0.43070E-03         0.00000E+00
    0.22828E-02         0.42731E-03         0.00000E+00
    0.22256E-02         0.42328E-03         0.00000E+00
    0.21662E-02         0.41857E-03         0.00000E+00
    0.21046E-02         0.41316E-03         0.00000E+00
    0.20408E-02         0.40704E-03         0.00000E+00
    0.19749E-02         0.40018E-03         0.00000E+00
    0.19070E-02         0.39256E-03         0.00000E+00
    0.18370E-02         0.38417E-03         0.00000E+00
    0.17651E-02         0.37497E-03         0.00000E+00
    0.16913E-02         0.36497E-03         0.00000E+00
    0.16156E-02         0.35412E-03         0.00000E+00
    0.15382E-02         0.34243E-03         0.00000E+00
    0.14589E-02         0.32987E-03         0.00000E+00
    0.13780E-02         0.31643E-03         0.00000E+00
    0.12955E-02         0.30209E-03         0.00000E+00
    0.12114E-02         0.28684E-03         0.00000E+00
    0.11257E-02         0.27066E-03         0.00000E+00
    0.10386E-02         0.25354E-03         0.00000E+00
    0.95010E-03         0.23546E-03         0.00000E+00
    0.86022E-03         0.21643E-03         0.00000E+00
    0.76905E-03         0.19641E-03         0.00000E+00
    0.67664E-03         0.17541E-03         0.00000E+00
    0.58304E-03         0.15341E-03         0.00000E+00
    0.48833E-03         0.13041E-03         0.00000E+00
    0.39255E-03         0.10639E-03         0.00000E+00
    0.29577E-03         0.81346E-04         0.00000E+00
    0.19804E-03         0.55271E-04         0.00000E+00
    0.99432E-04         0.28158E-04         0.00000E+00
    0.00000E+00         0.00000E+00         0.00000E+00
    0.32336E-02         0.41673E-03         0.00000E+00
    0.32352E-02         0.42148E-03         0.00000E+00
    0.32335E-02         0.42619E-03         0.00000E+00
    0.32285E-02         0.43082E-03         0.00000E+00
    0.32201E-02         0.43533E-03         0.00000E+00
    0.32085E-02         0.43970E-03         0.00000E+00
    0.31935E-02         0.44387E-03         0.00000E+00
    0.31754E-02         0.44782E-03         0.00000E+00
    0.31541E-02         0.45151E-03         0.00000E+00
    0.31296E-02         0.45490E-03         0.00000E+00
    0.31021E-02         0.45797E-03         0.00000E+00
    0.30714E-02         0.46067E-03         0.00000E+00
    0.30377E-02         0.46298E-03         0.00000E+00
    0.30010E-02         0.46485E-03         0.00000E+00
    0.29613E-02         0.46627E-03         0.00000E+00
    0.29188E-02         0.46720E-03         0.00000E+00
    0.28734E-02         0.46761E-03         0.00000E+00
    0.28251E-02         0.46747E-03         0.00000E+00
    0.27741E-02         0.46675E-03         0.00000E+00
    0.27203E-02         0.46542E-03         0.00000E+00
    0.26639E-02         0.46346E-03         0.00000E+00
    0.26049E-02         0.46083E-03         0.00000E+00
    0.25432E-02         0.45752E-03         0.00000E+00
    0.24791E-02         0.45349E-03         0.00000E+00
    0.24124E-02         0.44872E-03         0.00000E+00
    0.23434E-02         0.44319E-03         0.00000E+00
    0.22720E-02         0.43687E-03         0.00000E+00
    0.21983E-02         0.42975E-03         0.00000E+00
    0.21223E-02         0.42179E-03         0.00000E+00
    0.20441E-02         0.41298E-03         0.00000E+00
    0.19638E-02         0.40330E-03         0.00000E+00
    0.18814E-02         0.39272E-03         0.00000E+00
    0.17970E-02         0.38122E-03         0.00000E+00
    0.17106E-02         0.36880E-03         0.00000E+00
    0.16223E-02         0.35543E-03         0.00000E+00
    0.15321E-02         0.34108E-03         0.00000E+00
    0.14402E-02         0.32576E-03         0.00000E+00
    0.13465E-02         0.30943E-03         0.00000E+00
    0.12512E-02         0.29208E-03         0.00000E+00
    0.11542E-02         0.27371E-03         0.00000E+00
    0.10557E-02         0.25429E-03         0.00000E+00
    0.95578E-03         0.23381E-03         0.00000E+00
    0.85440E-03         0.21226E-03         0.00000E+00
    0.75167E-03         0.18963E-03         0.00000E+00
    0.64765E-03         0.16590E-03         0.00000E+00
    0.54240E-03         0.14107E-03         0.00000E+00
    0.43598E-03         0.11512E-03         0.00000E+00
    0.32847E-03         0.88048E-04         0.00000E+00
    0.21993E-03         0.59842E-04         0.00000E+00
    0.11042E-03         0.30496E-04         0.00000E+00
    0.00000E+00         0.00000E+00         0.00000E+00
    0.36217E-02         0.43130E-03         0.00000E+00
    0.36223E-02         0.43701E-03         0.00000E+00
    0.36191E-02         0.44268E-03         0.00000E+00
    0.36122E-02         0.44826E-03         0.00000E+00
    0.36017E-02         0.45371E-03         0.00000E+00
    0.35875E-02         0.45900E-03         0.00000E+00
    0.35697E-02         0.46408E-03         0.00000E+00
    0.35483E-02         0.46891E-03         0.00000E+00
    0.35234E-02         0.47345E-03         0.00000E+00
    0.34951E-02         0.47767E-03         0.00000E+00
    0.34633E-02         0.48153E-03         0.00000E+00
    0.34281E-02         0.48499E-03         0.00000E+00
    0.33896E-02         0.48802E-03         0.00000E+00
    0.33477E-02         0.49057E-03         0.00000E+00
    0.33026E-02         0.49262E-03         0.00000E+00
    0.32543E-02         0.49414E-03         0.00000E+00
    0.32029E-02         0.49508E-03         0.00000E+00
    0.31484E-02         0.49542E-03         0.00000E+00
    0.30908E-02         0.49512E-03         0.00000E+00
    0.30302E-02         0.49416E-03         0.00000E+00
    0.29667E-02         0.49250E-03         0.00000E+00
    0.29003E-02         0.49012E-03         0.00000E+00
    0.28311E-02         0.48698E-03         0.00000E+00
    0.27591E-02         0.48306E-03         0.00000E+00
    0.26844E-02         0.47834E-03         0.00000E+00
    0.26071E-02         0.47277E-03         0.00000E+00
    0.25272E-02         0.46635E-03         0.00000E+00
    0.24447E-02         0.45904E-03         0.00000E+00
    0.23598E-02         0.45082E-03         0.00000E+00
    0.22725E-02         0.44167E-03         0.00000E+00
    0.21829E-02         0.43156E-03         0.00000E+00
    0.20910E-02         0.42048E-03         0.00000E+00
    0.19968E-02         0.40839E-03         0.00000E+00
    0.19005E-02         0.39529E-03         0.00000E+00
    0.18022E-02         0.38114E-03         0.00000E+00
    0.17018E-02         0.36594E-03         0.00000E+00
    0.15995E-02         0.34966E-03         0.00000E+00
    0.14953E-02         0.33228E-03         0.00000E+00
    0.13892E-02         0.31379E-03         0.00000E+00
    0.12815E-02         0.29418E-03         0.00000E+00
    0.11720E-02         0.27342E-03         0.00000E+00
    0.10609E-02         0.25150E-03         0.00000E+00
    0.94831E-03         0.22841E-03         0.00000E+00
    0.83421E-03         0.20414E-03         0.00000E+00
    0.71871E-03         0.17866E-03         0.00000E+00
    0.60186E-03         0.15197E-03         0.00000E+00
    0.48375E-03         0.12406E-03         0.00000E+00
    0.36444E-03         0.94923E-04         0.00000E+00
    0.24399E-03         0.64537E-04         0.00000E+00
    0.12249E-03         0.32899E-04         0.00000E+00
    0.00000E+00         0.00000E+00         0.00000E+00
    0.40544E-02         0.44045E-03         0.00000E+00
    0.40535E-02         0.44732E-03         0.00000E+00
    0.40484E-02         0.45413E-03         0.00000E+00
    0.40392E-02         0.46085E-03         0.00000E+00
    0.40260E-02         0.46744E-03         0.00000E+00
    0.40088E-02         0.47384E-03         0.00000E+00
    0.39875E-02         0.48000E-03         0.00000E+00
    0.39624E-02         0.48590E-03         0.00000E+00
    0.39334E-02         0.49149E-03         0.00000E+00
    0.39005E-02         0.49671E-03         0.00000E+00
    0.38638E-02         0.50154E-03         0.00000E+00
    0.38234E-02         0.50594E-03         0.00000E+00
    0.37794E-02         0.50985E-03         0.00000E+00
    0.37317E-02         0.51326E-03         0.00000E+00
    0.36804E-02         0.51611E-03         0.00000E+00
    0.36256E-02         0.51837E-03         0.00000E+00
    0.35674E-02         0.52000E-03         0.00000E+00
    0.35058E-02         0.52098E-03         0.00000E+00
    0.34408E-02         0.52126E-03         0.00000E+00
    0.33725E-02         0.52082E-03         0.00000E+00
    0.33011E-02         0.51961E-03         0.00000E+00
    0.32265E-02         0.51761E-03         0.00000E+00
    0.31488E-02         0.51479E-03         0.00000E+00
    0.30681E-02         0.51112E-03         0.00000E+00
    0.29844E-02         0.50656E-03         0.00000E+00
    0.28978E-02         0.50109E-03         0.00000E+00
    0.28085E-02         0.49468E-03         0.00000E+00
    0.27163E-02         0.48730E-03         0.00000E+00
    0.26215E-02         0.47893E-03         0.00000E+00
    0.25241E-02         0.46955E-03         0.00000E+00
    0.24241E-02         0.45912E-03         0.00000E+00
    0.23216E-02         0.44762E-03         0.00000E+00
    0.22168E-02         0.43503E-03         0.00000E+00
    0.21096E-02         0.42133E-03         0.00000E+00
    0.20001E-02         0.40649E-03         0.00000E+00
    0.18884E-02         0.39050E-03         0.00000E+00
    0.17746E-02         0.37334E-03         0.00000E+00
    0.16588E-02         0.35497E-03         0.00000E+00
    0.15410E-02         0.33540E-03         0.00000E+00
    0.14213E-02         0.31459E-03         0.00000E+00
    0.12997E-02         0.29253E-03         0.00000E+00
    0.11764E-02         0.26921E-03         0.00000E+00
    0.10514E-02         0.24461E-03         0.00000E+00
    0.92485E-03         0.21871E-03         0.00000E+00
    0.79673E-03         0.19150E-03         0.00000E+00
    0.66715E-03         0.16297E-03         0.00000E+00
    0.53618E-03         0.13309E-03         0.00000E+00
    0.40391E-03         0.10187E-03         0.00000E+00
    0.27041E-03         0.69291E-04         0.00000E+00
    0.13574E-03         0.35336E-04         0.00000E+00
    0.00000E+00         0.00000E+00         0.00000E+00
    0.45361E-02         0.44221E-03         0.00000E+00
    0.45333E-02         0.45045E-03         0.00000E+00
    0.45258E-02         0.45864E-03         0.00000E+00
    0.45139E-02         0.46673E-03         0.00000E+00
    0.44974E-02         0.47467E-03         0.00000E+00
    0.44765E-02         0.48240E-03         0.00000E+00
    0.44513E-02         0.48989E-03         0.00000E+00
    0.44217E-02         0.49707E-03         0.00000E+00
    0.43878E-02         0.50391E-03         0.00000E+00
    0.43497E-02         0.51036E-03         0.00000E+00
    0.43074E-02         0.51638E-03         0.00000E+00
    0.42611E-02         0.52192E-03         0.00000E+00
    0.42107E-02         0.52694E-03         0.00000E+00
    0.41563E-02         0.53140E-03         0.00000E+00
    0.40980E-02         0.53525E-03         0.00000E+00
    0.40359E-02         0.53846E-03         0.00000E+00
    0.39699E-02         0.54099E-03         0.00000E+00
    0.39003E-02         0.54280E-03         0.00000E+00
    0.38270E-02         0.54385E-03         0.00000E+00
    0.37502E-02         0.54411E-03         0.00000E+00
    0.36698E-02         0.54354E-03         0.00000E+00
    0.35860E-02         0.54211E-03         0.00000E+00
    0.34989E-02         0.53978E-03         0.00000E+00
    0.34084E-02         0.53652E-03         0.00000E+00
    0.33147E-02         0.53230E-03         0.00000E+00
    0.32179E-02         0.52709E-03         0.00000E+00
    0.31180E-02         0.52085E-03         0.00000E+00
    0.30151E-02         0.51356E-03         0.00000E+00
    0.29093E-02         0.50520E-03         0.00000E+00
    0.28006E-02         0.49572E-03         0.00000E+00
    0.26892E-02         0.48511E-03         0.00000E+00
    0.25751E-02         0.47333E-03         0.00000E+00
    0.24584E-02         0.46037E-03         0.00000E+00
    0.23391E-02         0.44620E-03         0.00000E+00
    0.22174E-02         0.43080E-03         0.00000E+00
    0.20933E-02         0.41413E-03         0.00000E+00
    0.19669E-02         0.39619E-03         0.00000E+00
    0.18382E-02         0.37694E-03         0.00000E+00
    0.17075E-02         0.35638E-03         0.00000E+00
    0.15746E-02         0.33447E-03         0.00000E+00
    0.14398E-02         0.31120E-03         0.00000E+00
    0.13031E-02         0.28655E-03         0.00000E+00
    0.11645E-02         0.26051E-03         0.00000E+00
    0.10242E-02         0.23305E-03         0.00000E+00
    0.88224E-03         0.20416E-03         0.00000E+00
    0.73869E-03         0.17383E-03         0.00000E+00
    0.59363E-03         0.14204E-03         0.00000E+00
    0.44716E-03         0.10877E-03         0.00000E+00
    0.29934E-03         0.74018E-04         0.00000E+00
    0.15026E-03         0.37764E-04         0.00000E+00
    0.00000E+00         0.00000E+00         0.00000E+00
    0.50720E-02         0.43412E-03         0.00000E+00
    0.50666E-02         0.44401E-03         0.00000E+00
    0.50562E-02         0.45385E-03         0.00000E+00
    0.50408E-02         0.46358E-03         0.00000E+00
    0.50205E-02         0.47313E-03         0.00000E+00
    0.49952E-02         0.48247E-03         0.00000E+00
    0.49652E-02         0.49153E-03         0.00000E+00
    0.49304E-02         0.50027E-03         0.00000E+00
    0.48908E-02         0.50863E-03         0.00000E+00
    0.48467E-02         0.51656E-03         0.00000E+00
    0.47980E-02         0.52403E-03         0.00000E+00
    0.47448E-02         0.53097E-03         0.00000E+00
    0.46871E-02         0.53735E-03         0.00000E+00
    0.46252E-02         0.54311E-03         0.00000E+00
    0.45589E-02         0.54822E-03         0.00000E+00
    0.44884E-02         0.55262E-03         0.00000E+00
    0.44139E-02         0.55629E-03         0.00000E+00
    0.43352E-02         0.55917E-03         0.00000E+00
    0.42526E-02         0.56123E-03         0.00000E+00
    0.41661E-02         0.56243E-03         0.00000E+00
    0.40757E-02         0.56273E-03         0.00000E+00
    0.39817E-02         0.56209E-03         0.00000E+00
    0.38839E-02         0.56048E-03         0.00000E+00
    0.37826E-02         0.55786E-03         0.00000E+00
    0.36778E-02         0.55419E-03         0.00000E+00
    0.35696E-02         0.54945E-03         0.00000E+00
    0.34580E-02         0.54359E-03         0.00000E+00
    0.33432E-02         0.53660E-03         0.00000E+00
    0.32252E-02         0.52843E-03         0.00000E+00
    0.31042E-02         0.51906E-03         0.00000E+00
    0.29801E-02         0.50846E-03         0.00000E+00
    0.28531E-02         0.49660E-03         0.00000E+00
    0.27233E-02         0.48345E-03         0.00000E+00
    0.25908E-02         0.46898E-03         0.00000E+00
    0.24555E-02         0.45318E-03         0.00000E+00
    0.23177E-02         0.43601E-03         0.00000E+00
    0.21775E-02         0.41745E-03         0.00000E+00
    0.20348E-02         0.39748E-03         0.00000E+00
    0.18897E-02         0.37607E-03         0.00000E+00
    0.17425E-02         0.35321E-03         0.00000E+00
    0.15931E-02         0.32887E-03         0.00000E+00
    0.14417E-02         0.30303E-03         0.00000E+00
    0.12882E-02         0.27567E-03         0.00000E+00
    0.11329E-02         0.24677E-03         0.00000E+00
    0.97578E-03         0.21631E-03         0.00000E+00
    0.81693E-03         0.18429E-03         0.00000E+00
    0.65646E-03         0.15067E-03         0.00000E+00
    0.49445E-03         0.11545E-03         0.00000E+00
    0.33097E-03         0.78607E-04         0.00000E+00
    0.16613E-03         0.40128E-04         0.00000E+00
    0.00000E+00         0.00000E+00         0.00000E+00
    0.56673E-02         0.41319E-03         0.00000E+00
    0.56588E-02         0.42505E-03         0.00000E+00
    0.56447E-02         0.43686E-03         0.00000E+00
    0.56251E-02         0.44854E-03         0.00000E+00
    0.56001E-02         0.46004E-03         0.00000E+00
    0.55697E-02         0.47129E-03         0.00000E+00
    0.55339E-02         0.48225E-03         0.00000E+00
    0.54930E-02         0.49286E-03         0.00000E+00
    0.54469E-02         0.50305E-03         0.00000E+00
    0.53958E-02         0.51278E-03         0.00000E+00
    0.53397E-02         0.52200E-03         0.00000E+00
    0.52786E-02         0.53066E-03         0.00000E+00
    0.52127E-02         0.53870E-03         0.00000E+00
    0.51421E-02         0.54607E-03         0.00000E+00
    0.50668E-02         0.55273E-03         0.00000E+00
    0.49869E-02         0.55864E-03         0.00000E+00
    0.49025E-02         0.56374E-03         0.00000E+00
    0.48138E-02         0.56799E-03         0.00000E+00
    0.47206E-02         0.57135E-03         0.00000E+00
    0.46233E-02         0.57378E-03         0.00000E+00
    0.45218E-02         0.57523E-03         0.00000E+00
    0.44163E-02         0.57567E-03         0.00000E+00
    0.43068E-02         0.57505E-03         0.00000E+00
    0.41934E-02         0.57335E-03         0.00000E+00
    0.40762E-02         0.57051E-03         0.00000E+00
    0.39553E-02         0.56651E-03         0.00000E+00
    0.38308E-02         0.56131E-03         0.00000E+00
    0.37028E-02         0.55487E-03         0.00000E+00
    0.35714E-02         0.54717E-03         0.00000E+00
    0.34366E-02         0.53816E-03         0.00000E+00
    0.32986E-02         0.52782E-03         0.00000E+00
    0.31574E-02         0.51612E-03         0.00000E+00
    0.30132E-02         0.50303E-03         0.00000E+00
    0.28661E-02         0.48851E-03         0.00000E+00
    0.27160E-02         0.47255E-03         0.00000E+00
    0.25632E-02         0.45511E-03         0.00000E+00
    0.24077E-02         0.43616E-03         0.00000E+00
    0.22496E-02         0.41569E-03         0.00000E+00
    0.20889E-02         0.39366E-03         0.00000E+00
    0.19259E-02         0.37005E-03         0.00000E+00
    0.17606E-02         0.34484E-03         0.00000E+00
    0.15930E-02         0.31800E-03         0.00000E+00
    0.14233E-02         0.28952E-03         0.00000E+00
    0.12516E-02         0.25937E-03         0.00000E+00
    0.10779E-02         0.22754E-03         0.00000E+00
    0.90233E-03         0.19399E-03         0.00000E+00
    0.72502E-03         0.15872E-03         0.00000E+00
    0.54604E-03         0.12170E-03         0.00000E+00
    0.36548E-03         0.82918E-04         0.00000E+00
    0.18344E-03         0.42357E-04         0.00000E+00
    0.00000E+00         0.00000E+00         0.00000E+00
    0.63278E-02         0.37578E-03         0.00000E+00
    0.63153E-02         0.38999E-03         0.00000E+00
    0.62967E-02         0.40414E-03         0.00000E+00
    0.62720E-02         0.41816E-03         0.00000E+00
    0.62413E-02         0.43198E-03         0.00000E+00
    0.62048E-02         0.44553E-03         0.00000E+00
    0.61624E-02         0.45876E-03         0.00000E+00
    0.61144E-02         0.47161E-03         0.00000E+00
    0.60607E-02         0.48402E-03         0.00000E+00
    0.60014E-02         0.49592E-03         0.00000E+00
    0.59368E-02         0.50727E-03         0.00000E+00
    0.58667E-02         0.51801E-03         0.00000E+00
    0.57914E-02         0.52808E-03         0.00000E+00
    0.57110E-02         0.53743E-03         0.00000E+00
    0.56254E-02         0.54601E-03         0.00000E+00
    0.55349E-02         0.55378E-03         0.00000E+00
    0.54395E-02         0.56068E-03         0.00000E+00
    0.53393E-02         0.56666E-03         0.00000E+00
    0.52345E-02         0.57168E-03         0.00000E+00
    0.51250E-02         0.57569E-03         0.00000E+00
    0.50111E-02         0.57866E-03         0.00000E+00
    0.48927E-02         0.58052E-03         0.00000E+00
    0.47701E-02         0.58126E-03         0.00000E+00
    0.46433E-02         0.58081E-03         0.00000E+00
    0.45124E-02         0.57915E-03         0.00000E+00
    0.43775E-02         0.57624E-03         0.00000E+00
    0.42387E-02         0.57203E-03         0.00000E+00
    0.40961E-02         0.56649E-03         0.00000E+00
    0.39498E-02         0.55958E-03         0.00000E+00
    0.38000E-02         0.55127E-03         0.00000E+00
    0.36466E-02         0.54153E-03         0.00000E+00
    0.34899E-02         0.53031E-03         0.00000E+00
    0.33298E-02         0.51760E-03         0.00000E+00
    0.31666E-02         0.50336E-03         0.00000E+00
    0.30003E-02         0.48755E-03         0.00000E+00
    0.28310E-02         0.47014E-03         0.00000E+00
    0.26588E-02         0.45112E-03         0.00000E+00
    0.24838E-02         0.43045E-03         0.00000E+00
    0.23061E-02         0.40809E-03         0.00000E+00
    0.21258E-02         0.38404E-03         0.00000E+00
    0.19431E-02         0.35825E-03         0.00000E+00
    0.17579E-02         0.33071E-03         0.00000E+00
    0.15705E-02         0.30138E-03         0.00000E+00
    0.13808E-02         0.27026E-03         0.00000E+00
    0.11891E-02         0.23730E-03         0.00000E+00
    0.99532E-03         0.20250E-03         0.00000E+00
    0.79967E-03         0.16582E-03         0.00000E+00
    0.60221E-03         0.12725E-03         0.00000E+00
    0.40305E-03         0.86775E-04         0.00000E+00
    0.20228E-03         0.44363E-04         0.00000E+00
    0.00000E+00         0.00000E+00         0.00000E+00
    0.70596E-02         0.31748E-03         0.00000E+00
    0.70421E-02         0.33450E-03         0.00000E+00
    0.70179E-02         0.35144E-03         0.00000E+00
    0.69871E-02         0.36824E-03         0.00000E+00
    0.69497E-02         0.38483E-03         0.00000E+00
    0.69059E-02         0.40113E-03         0.00000E+00
    0.68557E-02         0.41709E-03         0.00000E+00
    0.67994E-02         0.43263E-03         0.00000E+00
    0.67368E-02         0.44769E-03         0.00000E+00
    0.66683E-02         0.46221E-03         0.00000E+00
    0.65938E-02         0.47613E-03         0.00000E+00
    0.65135E-02         0.48940E-03         0.00000E+00
    0.64275E-02         0.50194E-03         0.00000E+00
    0.63358E-02         0.51372E-03         0.00000E+00
    0.62387E-02         0.52466E-03         0.00000E+00
    0.61362E-02         0.53473E-03         0.00000E+00
    0.60284E-02         0.54387E-03         0.00000E+00
    0.59154E-02         0.55202E-03         0.00000E+00
    0.57974E-02         0.55913E-03         0.00000E+00
    0.56744E-02         0.56517E-03         0.00000E+00
    0.55466E-02         0.57008E-03         0.00000E+00
    0.54140E-02         0.57381E-03         0.00000E+00
    0.52768E-02         0.57633E-03         0.00000E+00
    0.51351E-02         0.57758E-03         0.00000E+00
    0.49890E-02         0.57753E-03         0.00000E+00
    0.48386E-02         0.57613E-03         0.00000E+00
    0.46840E-02         0.57334E-03         0.00000E+00
    0.45253E-02         0.56912E-03         0.00000E+00
    0.43627E-02         0.56344E-03         0.00000E+00
    0.41962E-02         0.55625E-03         0.00000E+00
    0.40260E-02         0.54752E-03         0.00000E+00
    0.38522E-02         0.53722E-03         0.00000E+00
    0.36748E-02         0.52530E-03         0.00000E+00
    0.34939E-02         0.51174E-03         0.00000E+00
    0.33098E-02         0.49650E-03         0.00000E+00
    0.31225E-02         0.47955E-03         0.00000E+00
    0.29321E-02         0.46085E-03         0.00000E+00
    0.27386E-02         0.44038E-03         0.00000E+00
    0.25423E-02         0.41811E-03         0.00000E+00
    0.23433E-02         0.39400E-03         0.00000E+00
    0.21415E-02         0.36803E-03         0.00000E+00
    0.19372E-02         0.34017E-03         0.00000E+00
    0.17304E-02         0.31038E-03         0.00000E+00
    0.15213E-02         0.27866E-03         0.00000E+00
    0.13099E-02         0.24496E-03         0.00000E+00
    0.10963E-02         0.20926E-03         0.00000E+00
    0.88075E-03         0.17155E-03         0.00000E+00
    0.66322E-03         0.13179E-03         0.00000E+00
    0.44385E-03         0.89957E-04         0.00000E+00
    0.22274E-03         0.46036E-04         0.00000E+00
    0.00000E+00         0.00000E+00         0.00000E+00
    0.78691E-02         0.23299E-03         0.00000E+00
    0.78455E-02         0.25335E-03         0.00000E+00
    0.78145E-02         0.27363E-03         0.00000E+00
    0.77762E-02         0.29375E-03         0.00000E+00
    0.77309E-02         0.31363E-03         0.00000E+00
    0.76785E-02         0.33322E-03         0.00000E+00
    0.76192E-02         0.35242E-03         0.00000E+00
    0.75531E-02         0.37119E-03         0.00000E+00
    0.74803E-02         0.38944E-03         0.00000E+00
    0.74010E-02         0.40711E-03         0.00000E+00
    0.73153E-02         0.42414E-03         0.00000E+00
    0.72233E-02         0.44046E-03         0.00000E+00
    0.71251E-02         0.45601E-03         0.00000E+00
    0.70208E-02         0.47074E-03         0.00000E+00
    0.69106E-02         0.48458E-03         0.00000E+00
    0.67945E-02         0.49748E-03         0.00000E+00
    0.66728E-02         0.50939E-03         0.00000E+00
    0.65455E-02         0.52024E-03         0.00000E+00
    0.64127E-02         0.52999E-03         0.00000E+00
    0.62746E-02         0.53858E-03         0.00000E+00
    0.61313E-02         0.54596E-03         0.00000E+00
    0.59830E-02         0.55210E-03         0.00000E+00
    0.58296E-02         0.55693E-03         0.00000E+00
    0.56714E-02         0.56041E-03         0.00000E+00
    0.55085E-02         0.56249E-03         0.00000E+00
    0.53410E-02         0.56314E-03         0.00000E+00
    0.51690E-02         0.56231E-03         0.00000E+00
    0.49926E-02         0.55995E-03         0.00000E+00
    0.48120E-02         0.55602E-03         0.00000E+00
    0.46273E-02         0.55049E-03         0.00000E+00
    0.44386E-02         0.54331E-03         0.00000E+00
    0.42460E-02         0.53445E-03         0.00000E+00
    0.40496E-02         0.52387E-03         0.00000E+00
    0.38496E-02         0.51152E-03         0.00000E+00
    0.36460E-02         0.49738E-03         0.00000E+00
    0.34390E-02         0.48140E-03         0.00000E+00
    0.32287E-02         0.46356E-03         0.00000E+00
    0.30152E-02         0.44382E-03         0.00000E+00
    0.27986E-02         0.42215E-03         0.00000E+00
    0.25791E-02         0.39851E-03         0.00000E+00
    0.23567E-02         0.37287E-03         0.00000E+00
    0.21316E-02         0.34520E-03         0.00000E+00
    0.19038E-02         0.31547E-03         0.00000E+00
    0.16735E-02         0.28366E-03         0.00000E+00
    0.14408E-02         0.24972E-03         0.00000E+00
    0.12058E-02         0.21363E-03         0.00000E+00
    0.96858E-03         0.17537E-03         0.00000E+00
    0.72929E-03         0.13490E-03         0.00000E+00
    0.48803E-03         0.92199E-04         0.00000E+00
    0.24490E-03         0.47241E-04         0.00000E+00
    0.00000E+00         0.00000E+00         0.00000E+00
    0.87629E-02         0.11600E-03         0.00000E+00
    0.87317E-02         0.14032E-03         0.00000E+00
    0.86925E-02         0.16456E-03         0.00000E+00
    0.86454E-02         0.18862E-03         0.00000E+00
    0.85906E-02         0.21244E-03         0.00000E+00
    0.85281E-02         0.23594E-03         0.00000E+00
    0.84581E-02         0.25903E-03         0.00000E+00
    0.83807E-02         0.28165E-03         0.00000E+00
    0.82962E-02         0.30372E-03         0.00000E+00
    0.82045E-02         0.32517E-03         0.00000E+00
    0.81059E-02         0.34594E-03         0.00000E+00
    0.80005E-02         0.36595E-03         0.00000E+00
    0.78885E-02         0.38515E-03         0.00000E+00
    0.77699E-02         0.40347E-03         0.00000E+00
    0.76449E-02         0.42084E-03         0.00000E+00
    0.75136E-02         0.43721E-03         0.00000E+00
    0.73763E-02         0.45253E-03         0.00000E+00
    0.72329E-02         0.46672E-03         0.00000E+00
    0.70837E-02         0.47974E-03         0.00000E+00
    0.69288E-02         0.49154E-03         0.00000E+00
    0.67683E-02         0.50205E-03         0.00000E+00
    0.66024E-02         0.51123E-03         0.00000E+00
    0.64312E-02         0.51903E-03         0.00000E+00
    0.62548E-02         0.52539E-03         0.00000E+00
    0.60733E-02         0.53027E-03         0.00000E+00
    0.58870E-02         0.53363E-03         0.00000E+00
    0.56958E-02         0.53541E-03         0.00000E+00
    0.55000E-02         0.53557E-03         0.00000E+00
    0.52997E-02         0.53406E-03         0.00000E+00
    0.50950E-02         0.53085E-03         0.00000E+00
    0.48861E-02         0.52589E-03         0.00000E+00
    0.46730E-02         0.51914E-03         0.00000E+00
    0.44559E-02         0.51055E-03         0.00000E+00
    0.42349E-02         0.50009E-03         0.00000E+00
    0.40101E-02         0.48771E-03         0.00000E+00
    0.37818E-02         0.47339E-03         0.00000E+00
    0.35498E-02         0.45708E-03         0.00000E+00
    0.33145E-02         0.43874E-03         0.00000E+00
    0.30759E-02         0.41833E-03         0.00000E+00
    0.28342E-02         0.39583E-03         0.00000E+00
    0.25894E-02         0.37120E-03         0.00000E+00
    0.23417E-02         0.34439E-03         0.00000E+00
    0.20912E-02         0.31538E-03         0.00000E+00
    0.18380E-02         0.28413E-03         0.00000E+00
    0.15823E-02         0.25061E-03         0.00000E+00
    0.13240E-02         0.21479E-03         0.00000E+00
    0.10635E-02         0.17663E-03         0.00000E+00
    0.80067E-03         0.13610E-03         0.00000E+00
    0.53575E-03         0.93173E-04         0.00000E+00
    0.26882E-03         0.47817E-04         0.00000E+00
    0.00000E+00         0.00000E+00         0.00000E+00
    0.97480E-02        -0.41029E-04         0.00000E+00
    0.97076E-02        -0.11999E-04         0.00000E+00
    0.96584E-02         0.16939E-04         0.00000E+00
    0.96008E-02         0.45698E-04         0.00000E+00
    0.95347E-02         0.74194E-04         0.00000E+00
    0.94603E-02         0.10234E-03         0.00000E+00
    0.93779E-02         0.13007E-03         0.00000E+00
    0.92875E-02         0.15729E-03         0.00000E+00
    0.91893E-02         0.18392E-03         0.00000E+00
    0.90835E-02         0.20991E-03         0.00000E+00
    0.89702E-02         0.23517E-03         0.00000E+00
    0.88496E-02         0.25963E-03         0.00000E+00
    0.87218E-02         0.28322E-03         0.00000E+00
    0.85871E-02         0.30589E-03         0.00000E+00
    0.84454E-02         0.32756E-03         0.00000E+00
    0.82971E-02         0.34817E-03         0.00000E+00
    0.81422E-02         0.36766E-03         0.00000E+00
    0.79810E-02         0.38597E-03         0.00000E+00
    0.78135E-02         0.40305E-03         0.00000E+00
    0.76399E-02         0.41882E-03         0.00000E+00
    0.74603E-02         0.43324E-03         0.00000E+00
    0.72750E-02         0.44626E-03         0.00000E+00
    0.70840E-02         0.45782E-03         0.00000E+00
    0.68875E-02         0.46786E-03         0.00000E+00
    0.66857E-02         0.47634E-03         0.00000E+00
    0.64786E-02         0.48321E-03         0.00000E+00
    0.62665E-02         0.48841E-03         0.00000E+00
    0.60494E-02         0.49190E-03         0.00000E+00
    0.58276E-02         0.49364E-03         0.00000E+00
    0.56011E-02         0.49357E-03         0.00000E+00
    0.53700E-02         0.49164E-03         0.00000E+00
    0.51346E-02         0.48783E-03         0.00000E+00
    0.48950E-02         0.48207E-03         0.00000E+00
    0.46512E-02         0.47433E-03         0.00000E+00
    0.44034E-02         0.46456E-03         0.00000E+00
    0.41518E-02         0.45273E-03         0.00000E+00
    0.38964E-02         0.43879E-03         0.00000E+00
    0.36375E-02         0.42269E-03         0.00000E+00
    0.33751E-02         0.40441E-03         0.00000E+00
    0.31093E-02         0.38389E-03         0.00000E+00
    0.28404E-02         0.36111E-03         0.00000E+00
    0.25683E-02         0.33601E-03         0.00000E+00
    0.22932E-02         0.30857E-03         0.00000E+00
    0.20153E-02         0.27874E-03         0.00000E+00
    0.17347E-02         0.24648E-03         0.00000E+00
    0.14514E-02         0.21177E-03         0.00000E+00
    0.11657E-02         0.17456E-03         0.00000E+00
    0.87753E-03         0.13481E-03         0.00000E+00
    0.58713E-03         0.92490E-04         0.00000E+00
    0.29458E-03         0.47566E-04         0.00000E+00
    0.00000E+00         0.00000E+00         0.00000E+00
    0.10831E-01        -0.24699E-03         0.00000E+00
    0.10780E-01        -0.21237E-03         0.00000E+00
    0.10719E-01        -0.17786E-03         0.00000E+00
    0.10648E-01        -0.14353E-03         0.00000E+00
    0.10569E-01        -0.10948E-03         0.00000E+00
    0.10481E-01        -0.75801E-04         0.00000E+00
    0.10384E-01        -0.42567E-04         0.00000E+00
    0.10278E-01        -0.98645E-05         0.00000E+00
    0.10165E-01         0.22227E-04         0.00000E+00
    0.10043E-01         0.53631E-04         0.00000E+00
    0.99125E-02         0.84272E-04         0.00000E+00
    0.97746E-02         0.11408E-03         0.00000E+00
    0.96291E-02         0.14297E-03         0.00000E+00
    0.94761E-02         0.17089E-03         0.00000E+00
    0.93158E-02         0.19777E-03         0.00000E+00
    0.91483E-02         0.22353E-03         0.00000E+00
    0.89739E-02         0.24812E-03         0.00000E+00
    0.87927E-02         0.27147E-03         0.00000E+00
    0.86048E-02         0.29353E-03         0.00000E+00
    0.84105E-02         0.31422E-03         0.00000E+00
    0.82099E-02         0.33350E-03         0.00000E+00
    0.80031E-02         0.35131E-03         0.00000E+00
    0.77904E-02         0.36758E-03         0.00000E+00
    0.75718E-02         0.38227E-03         0.00000E+00
    0.73476E-02         0.39532E-03         0.00000E+00
    0.71179E-02         0.40668E-03         0.00000E+00
    0.68828E-02         0.41629E-03         0.00000E+00
    0.66424E-02         0.42411E-03         0.00000E+00
    0.63971E-02         0.43008E-03         0.00000E+00
    0.61468E-02         0.43416E-03         0.00000E+00
    0.58917E-02         0.43629E-03         0.00000E+00
    0.56321E-02         0.43643E-03         0.00000E+00
    0.53679E-02         0.43453E-03         0.00000E+00
    0.50995E-02         0.43054E-03         0.00000E+00
    0.48268E-02         0.42442E-03         0.00000E+00
    0.45500E-02         0.41612E-03         0.00000E+00
    0.42694E-02         0.40560E-03         0.00000E+00
    0.39849E-02         0.39280E-03         0.00000E+00
    0.36968E-02         0.37769E-03         0.00000E+00
    0.34051E-02         0.36022E-03         0.00000E+00
    0.31101E-02         0.34035E-03         0.00000E+00
    0.28117E-02         0.31803E-03         0.00000E+00
    0.25103E-02         0.29322E-03         0.00000E+00
    0.22058E-02         0.26588E-03         0.00000E+00
    0.18984E-02         0.23596E-03         0.00000E+00
    0.15882E-02         0.20342E-03         0.00000E+00
    0.12754E-02         0.16823E-03         0.00000E+00
    0.96005E-03         0.13033E-03         0.00000E+00
    0.64229E-03         0.89684E-04         0.00000E+00
    0.32223E-03         0.46256E-04         0.00000E+00
    0.00000E+00         0.00000E+00         0.00000E+00
    0.12019E-01        -0.51233E-03         0.00000E+00
    0.11954E-01        -0.47110E-03         0.00000E+00
    0.11879E-01        -0.42998E-03         0.00000E+00
    0.11794E-01        -0.38906E-03         0.00000E+00
    0.11699E-01        -0.34843E-03         0.00000E+00
    0.11595E-01        -0.30818E-03         0.00000E+00
    0.11481E-01        -0.26840E-03         0.00000E+00
    0.11358E-01        -0.22917E-03         0.00000E+00
    0.11227E-01        -0.19058E-03         0.00000E+00
    0.11086E-01        -0.15271E-03         0.00000E+00
    0.10937E-01        -0.11563E-03         0.00000E+00
    0.10779E-01        -0.79425E-04         0.00000E+00
    0.10614E-01        -0.44162E-04         0.00000E+00
    0.10440E-01        -0.99157E-05         0.00000E+00
    0.10259E-01         0.23245E-04         0.00000E+00
    0.10070E-01         0.55252E-04         0.00000E+00
    0.98741E-02         0.86038E-04         0.00000E+00
    0.96707E-02         0.11554E-03         0.00000E+00
    0.94603E-02         0.14369E-03         0.00000E+00
    0.92431E-02         0.17043E-03         0.00000E+00
    0.90192E-02         0.19570E-03         0.00000E+00
    0.87889E-02         0.21943E-03         0.00000E+00
    0.85522E-02         0.24158E-03         0.00000E+00
    0.83094E-02         0.26208E-03         0.00000E+00
    0.80607E-02         0.28087E-03         0.00000E+00
    0.78062E-02         0.29790E-03         0.00000E+00
    0.75460E-02         0.31312E-03         0.00000E+00
    0.72804E-02         0.32647E-03         0.00000E+00
    0.70094E-02         0.33789E-03         0.00000E+00
    0.67334E-02         0.34734E-03         0.00000E+00
    0.64523E-02         0.35476E-03         0.00000E+00
    0.61663E-02         0.36011E-03         0.00000E+00
    0.58757E-02         0.36332E-03         0.00000E+00
    0.55805E-02         0.36435E-03         0.00000E+00
    0.52810E-02         0.36314E-03         0.00000E+00
    0.49771E-02         0.35966E-03         0.00000E+00
    0.46692E-02         0.35384E-03         0.00000E+00
    0.43572E-02         0.34564E-03         0.00000E+00
    0.40415E-02         0.33500E-03         0.00000E+00
    0.37220E-02         0.32189E-03         0.00000E+00
    0.33989E-02         0.30625E-03         0.00000E+00
    0.30724E-02         0.28803E-03         0.00000E+00
    0.27426E-02         0.26718E-03         0.00000E+00
    0.24096E-02         0.24366E-03         0.00000E+00
    0.20736E-02         0.21741E-03         0.00000E+00
    0.17346E-02         0.18839E-03         0.00000E+00
    0.13928E-02         0.15654E-03         0.00000E+00
    0.10483E-02         0.12183E-03         0.00000E+00
    0.70129E-03         0.84204E-04         0.00000E+00
    0.35181E-03         0.43609E-04         0.00000E+00
    0.00000E+00         0.00000E+00         0.00000E+00
    0.13319E-01        -0.84927E-03         0.00000E+00
    0.13238E-01        -0.80024E-03         0.00000E+00
    0.13147E-01        -0.75130E-03         0.00000E+00
    0.13044E-01        -0.70258E-03         0.00000E+00
    0.12931E-01        -0.65415E-03         0.00000E+00
    0.12808E-01        -0.60612E-03         0.00000E+00
    0.12675E-01        -0.55858E-03         0.00000E+00
    0.12532E-01        -0.51160E-03         0.00000E+00
    0.12379E-01        -0.46529E-03         0.00000E+00
    0.12218E-01        -0.41971E-03         0.00000E+00
    0.12047E-01        -0.37495E-03         0.00000E+00
    0.11867E-01        -0.33109E-03         0.00000E+00
    0.11679E-01        -0.28820E-03         0.00000E+00
    0.11483E-01        -0.24635E-03         0.00000E+00
    0.11278E-01        -0.20562E-03         0.00000E+00
    0.11066E-01        -0.16608E-03         0.00000E+00
    0.10845E-01        -0.12780E-03         0.00000E+00
    0.10617E-01        -0.90832E-04         0.00000E+00
    0.10382E-01        -0.55256E-04         0.00000E+00
    0.10139E-01        -0.21130E-04         0.00000E+00
    0.98899E-02         0.11481E-04         0.00000E+00
    0.96336E-02         0.42517E-04         0.00000E+00
    0.93708E-02         0.71915E-04         0.00000E+00
    0.91016E-02         0.99617E-04         0.00000E+00
    0.88261E-02         0.12556E-03         0.00000E+00
    0.85446E-02         0.14969E-03         0.00000E+00
    0.82572E-02         0.17195E-03         0.00000E+00
    0.79641E-02         0.19229E-03         0.00000E+00
    0.76655E-02         0.21063E-03         0.00000E+00
    0.73615E-02         0.22693E-03         0.00000E+00
    0.70523E-02         0.24114E-03         0.00000E+00
    0.67380E-02         0.25319E-03         0.00000E+00
    0.64188E-02         0.26303E-03         0.00000E+00
    0.60949E-02         0.27061E-03         0.00000E+00
    0.57664E-02         0.27588E-03         0.00000E+00
    0.54335E-02         0.27876E-03         0.00000E+00
    0.50962E-02         0.27922E-03         0.00000E+00
    0.47548E-02         0.27720E-03         0.00000E+00
    0.44094E-02         0.27264E-03         0.00000E+00
    0.40602E-02         0.26549E-03         0.00000E+00
    0.37072E-02         0.25569E-03         0.00000E+00
    0.33505E-02         0.24319E-03         0.00000E+00
    0.29904E-02         0.22793E-03         0.00000E+00
    0.26270E-02         0.20986E-03         0.00000E+00
    0.22604E-02         0.18892E-03         0.00000E+00
    0.18906E-02         0.16506E-03         0.00000E+00
    0.15179E-02         0.13823E-03         0.00000E+00
    0.11424E-02         0.10836E-03         0.00000E+00
    0.76417E-03         0.75403E-04         0.00000E+00
    0.38332E-03         0.39302E-04         0.00000E+00
    0.00000E+00         0.00000E+00         0.00000E+00
    0.14738E-01        -0.12720E-02         0.00000E+00
    0.14637E-01        -0.12138E-02         0.00000E+00
    0.14526E-01        -0.11556E-02         0.00000E+00
    0.14403E-01        -0.10977E-02         0.00000E+00
    0.14269E-01        -0.10400E-02         0.00000E+00
    0.14124E-01        -0.98280E-03         0.00000E+00
    0.13968E-01        -0.92606E-03         0.00000E+00
    0.13802E-01        -0.86990E-03         0.00000E+00
    0.13626E-01        -0.81442E-03         0.00000E+00
    0.13441E-01        -0.75968E-03         0.00000E+00
    0.13246E-01        -0.70578E-03         0.00000E+00
    0.13041E-01        -0.65279E-03         0.00000E+00
    0.12828E-01        -0.60078E-03         0.00000E+00
    0.12606E-01        -0.54984E-03         0.00000E+00
    0.12375E-01        -0.50003E-03         0.00000E+00
    0.12136E-01        -0.45142E-03         0.00000E+00
    0.11889E-01        -0.40409E-03         0.00000E+00
    0.11633E-01        -0.35811E-03         0.00000E+00
    0.11371E-01        -0.31353E-03         0.00000E+00
    0.11100E-01        -0.27042E-03         0.00000E+00
    0.10823E-01        -0.22886E-03         0.00000E+00
    0.10538E-01        -0.18889E-03         0.00000E+00
    0.10247E-01        -0.15060E-03         0.00000E+00
    0.99490E-02        -0.11402E-03         0.00000E+00
    0.96444E-02        -0.79241E-04         0.00000E+00
    0.93336E-02        -0.46307E-04         0.00000E+00
    0.90168E-02        -0.15283E-04         0.00000E+00
    0.86940E-02         0.13771E-04         0.00000E+00
    0.83654E-02         0.40796E-04         0.00000E+00
    0.80313E-02         0.65731E-04         0.00000E+00
    0.76918E-02         0.88517E-04         0.00000E+00
    0.73471E-02         0.10909E-03         0.00000E+00
    0.69973E-02         0.12740E-03         0.00000E+00
    0.66426E-02         0.14338E-03         0.00000E+00
    0.62831E-02         0.15698E-03         0.00000E+00
    0.59191E-02         0.16812E-03         0.00000E+00
    0.55505E-02         0.17676E-03         0.00000E+00
    0.51777E-02         0.18283E-03         0.00000E+00
    0.48007E-02         0.18627E-03         0.00000E+00
    0.44196E-02         0.18702E-03         0.00000E+00
    0.40347E-02         0.18502E-03         0.00000E+00
    0.36460E-02         0.18021E-03         0.00000E+00
    0.32537E-02         0.17253E-03         0.00000E+00
    0.28579E-02         0.16190E-03         0.00000E+00
    0.24587E-02         0.14828E-03         0.00000E+00
    0.20563E-02         0.13160E-03         0.00000E+00
    0.16508E-02         0.11179E-03         0.00000E+00
    0.12423E-02         0.88785E-04         0.00000E+00
    0.83092E-03         0.62531E-04         0.00000E+00
    0.41678E-03         0.32957E-04         0.00000E+00
    0.00000E+00         0.00000E+00         0.00000E+00
    0.16279E-01        -0.17970E-02         0.00000E+00
    0.16157E-01        -0.17279E-02         0.00000E+00
    0.16022E-01        -0.16588E-02         0.00000E+00
    0.15875E-01        -0.15900E-02         0.00000E+00
    0.15716E-01        -0.15215E-02         0.00000E+00
    0.15546E-01        -0.14534E-02         0.00000E+00
    0.15365E-01        -0.13858E-02         0.00000E+00
    0.15173E-01        -0.13188E-02         0.00000E+00
    0.14970E-01        -0.12525E-02         0.00000E+00
    0.14758E-01        -0.11869E-02         0.00000E+00
    0.14535E-01        -0.11221E-02         0.00000E+00
    0.14303E-01        -0.10582E-02         0.00000E+00
    0.14061E-01        -0.99537E-03         0.00000E+00
    0.13810E-01        -0.93357E-03         0.00000E+00
    0.13550E-01        -0.87289E-03         0.00000E+00
    0.13282E-01        -0.81343E-03         0.00000E+00
    0.13005E-01        -0.75523E-03         0.00000E+00
    0.12720E-01        -0.69838E-03         0.00000E+00
    0.12427E-01        -0.64293E-03         0.00000E+00
    0.12127E-01        -0.58897E-03         0.00000E+00
    0.11819E-01        -0.53654E-03         0.00000E+00
    0.11503E-01        -0.48572E-03         0.00000E+00
    0.11181E-01        -0.43656E-03         0.00000E+00
    0.10851E-01        -0.38914E-03         0.00000E+00
    0.10515E-01        -0.34352E-03         0.00000E+00
    0.10173E-01        -0.29976E-03         0.00000E+00
    0.98243E-02        -0.25792E-03         0.00000E+00
    0.94696E-02        -0.21807E-03         0.00000E+00
    0.91089E-02        -0.18027E-03         0.00000E+00
    0.87425E-02        -0.14458E-03         0.00000E+00
    0.83706E-02        -0.11107E-03         0.00000E+00
    0.79933E-02        -0.79794E-04         0.00000E+00
    0.76108E-02        -0.50827E-04         0.00000E+00
    0.72232E-02        -0.24229E-04         0.00000E+00
    0.68307E-02        -0.66748E-07         0.00000E+00
    0.64335E-02         0.21596E-04         0.00000E+00
    0.60316E-02         0.40691E-04         0.00000E+00
    0.56254E-02         0.57154E-04         0.00000E+00
    0.52148E-02         0.70916E-04         0.00000E+00
    0.48000E-02         0.81910E-04         0.00000E+00
    0.43813E-02         0.90067E-04         0.00000E+00
    0.39586E-02         0.95317E-04         0.00000E+00
    0.35321E-02         0.97590E-04         0.00000E+00
    0.31021E-02         0.96817E-04         0.00000E+00
    0.26685E-02         0.92925E-04         0.00000E+00
    0.22315E-02         0.85843E-04         0.00000E+00
    0.17913E-02         0.75497E-04         0.00000E+00
    0.13479E-02         0.61814E-04         0.00000E+00
    0.90146E-03         0.44720E-04         0.00000E+00
    0.45213E-03         0.24141E-04         0.00000E+00
    0.00000E+00         0.00000E+00         0.00000E+00
    0.17949E-01        -0.24430E-02         0.00000E+00
    0.17800E-01        -0.23611E-02         0.00000E+00
    0.17638E-01        -0.22793E-02         0.00000E+00
    0.17463E-01        -0.21977E-02         0.00000E+00
    0.17276E-01        -0.21164E-02         0.00000E+00
    0.17077E-01        -0.20355E-02         0.00000E+00
    0.16867E-01        -0.19550E-02         0.00000E+00
    0.16645E-01        -0.18752E-02         0.00000E+00
    0.16412E-01        -0.17960E-02         0.00000E+00
    0.16169E-01        -0.17176E-02         0.00000E+00
    0.15916E-01        -0.16399E-02         0.00000E+00
    0.15652E-01        -0.15632E-02         0.00000E+00
    0.15379E-01        -0.14874E-02         0.00000E+00
    0.15096E-01        -0.14127E-02         0.00000E+00
    0.14804E-01        -0.13390E-02         0.00000E+00
    0.14504E-01        -0.12666E-02         0.00000E+00
    0.14194E-01        -0.11954E-02         0.00000E+00
    0.13877E-01        -0.11255E-02         0.00000E+00
    0.13551E-01        -0.10570E-02         0.00000E+00
    0.13217E-01        -0.98996E-03         0.00000E+00
    0.12876E-01        -0.92442E-03         0.00000E+00
    0.12527E-01        -0.86046E-03         0.00000E+00
    0.12171E-01        -0.79814E-03         0.00000E+00
    0.11808E-01        -0.73754E-03         0.00000E+00
    0.11438E-01        -0.67871E-03         0.00000E+00
    0.11062E-01        -0.62173E-03         0.00000E+00
    0.10679E-01        -0.56664E-03         0.00000E+00
    0.10290E-01        -0.51354E-03         0.00000E+00
    0.98947E-02        -0.46247E-03         0.00000E+00
    0.94939E-02        -0.41351E-03         0.00000E+00
    0.90873E-02        -0.36672E-03         0.00000E+00
    0.86753E-02        -0.32218E-03         0.00000E+00
    0.82580E-02        -0.27995E-03         0.00000E+00
    0.78355E-02        -0.24010E-03         0.00000E+00
    0.74080E-02        -0.20271E-03         0.00000E+00
    0.69757E-02        -0.16784E-03         0.00000E+00
    0.65386E-02        -0.13557E-03         0.00000E+00
    0.60970E-02        -0.10598E-03         0.00000E+00
    0.56509E-02        -0.79130E-04         0.00000E+00
    0.52006E-02        -0.55105E-04         0.00000E+00
    0.47461E-02        -0.33982E-04         0.00000E+00
    0.42876E-02        -0.15837E-04         0.00000E+00
    0.38252E-02        -0.75081E-06         0.00000E+00
    0.33590E-02         0.11197E-04         0.00000E+00
    0.28892E-02         0.19926E-04         0.00000E+00
    0.24158E-02         0.25353E-04         0.00000E+00
    0.19390E-02         0.27394E-04         0.00000E+00
    0.14590E-02         0.25965E-04         0.00000E+00
    0.97568E-03         0.20981E-04         0.00000E+00
    0.48933E-03         0.12355E-04         0.00000E+00
    0.00000E+00         0.00000E+00         0.00000E+00
    0.19750E-01        -0.32315E-02         0.00000E+00
    0.19570E-01        -0.31346E-02         0.00000E+00
    0.19376E-01        -0.30377E-02         0.00000E+00
    0.19169E-01        -0.29411E-02         0.00000E+00
    0.18950E-01        -0.28448E-02         0.00000E+00
    0.18718E-01        -0.27488E-02         0.00000E+00
    0.18474E-01        -0.26533E-02         0.00000E+00
    0.18219E-01        -0.25583E-02         0.00000E+00
    0.17952E-01        -0.24640E-02         0.00000E+00
    0.17675E-01        -0.23704E-02         0.00000E+00
    0.17387E-01        -0.22775E-02         0.00000E+00
    0.17088E-01        -0.21855E-02         0.00000E+00
    0.16780E-01        -0.20945E-02         0.00000E+00
    0.16462E-01        -0.20044E-02         0.00000E+00
    0.16135E-01        -0.19153E-02         0.00000E+00
    0.15799E-01        -0.18274E-02         0.00000E+00
    0.15454E-01        -0.17407E-02         0.00000E+00
    0.15101E-01        -0.16553E-02         0.00000E+00
    0.14739E-01        -0.15711E-02         0.00000E+00
    0.14370E-01        -0.14884E-02         0.00000E+00
    0.13992E-01        -0.14071E-02         0.00000E+00
    0.13607E-01        -0.13273E-02         0.00000E+00
    0.13215E-01        -0.12492E-02         0.00000E+00
    0.12816E-01        -0.11726E-02         0.00000E+00
    0.12410E-01        -0.10978E-02         0.00000E+00
    0.11997E-01        -0.10248E-02         0.00000E+00
    0.11578E-01        -0.95359E-03         0.00000E+00
    0.11152E-01        -0.88433E-03         0.00000E+00
    0.10721E-01        -0.81707E-03         0.00000E+00
    0.10283E-01        -0.75187E-03         0.00000E+00
    0.98400E-02        -0.68881E-03         0.00000E+00
    0.93913E-02        -0.62795E-03         0.00000E+00
    0.89372E-02        -0.56938E-03         0.00000E+00
    0.84779E-02        -0.51318E-03         0.00000E+00
    0.80135E-02        -0.45941E-03         0.00000E+00
    0.75441E-02        -0.40816E-03         0.00000E+00
    0.70700E-02        -0.35951E-03         0.00000E+00
    0.65912E-02        -0.31354E-03         0.00000E+00
    0.61079E-02        -0.27033E-03         0.00000E+00
    0.56202E-02        -0.22998E-03         0.00000E+00
    0.51282E-02        -0.19256E-03         0.00000E+00
    0.46321E-02        -0.15817E-03         0.00000E+00
    0.41320E-02        -0.12689E-03         0.00000E+00
    0.36280E-02        -0.98811E-04         0.00000E+00
    0.31202E-02        -0.74034E-04         0.00000E+00
    0.26087E-02        -0.52650E-04         0.00000E+00
    0.20937E-02        -0.34752E-04         0.00000E+00
    0.15752E-02        -0.20440E-04         0.00000E+00
    0.10534E-02        -0.98101E-05         0.00000E+00
    0.52826E-03        -0.29632E-05         0.00000E+00
    0.00000E+00         0.00000E+00         0.00000E+00
    0.21684E-01        -0.41868E-02         0.00000E+00
    0.21467E-01        -0.40722E-02         0.00000E+00
    0.21237E-01        -0.39578E-02         0.00000E+00
    0.20993E-01        -0.38435E-02         0.00000E+00
    0.20736E-01        -0.37295E-02         0.00000E+00
    0.20467E-01        -0.36159E-02         0.00000E+00
    0.20185E-01        -0.35026E-02         0.00000E+00
    0.19892E-01        -0.33899E-02         0.00000E+00
    0.19587E-01        -0.32778E-02         0.00000E+00
    0.19272E-01        -0.31663E-02         0.00000E+00
    0.18945E-01        -0.30555E-02         0.00000E+00
    0.18609E-01        -0.29455E-02         0.00000E+00
    0.18262E-01        -0.28364E-02         0.00000E+00
    0.17905E-01        -0.27281E-02         0.00000E+00
    0.17540E-01        -0.26208E-02         0.00000E+00
    0.17165E-01        -0.25146E-02         0.00000E+00
    0.16781E-01        -0.24094E-02         0.00000E+00
    0.16389E-01        -0.23055E-02         0.00000E+00
    0.15989E-01        -0.22027E-02         0.00000E+00
    0.15580E-01        -0.21012E-02         0.00000E+00
    0.15164E-01        -0.20011E-02         0.00000E+00
    0.14740E-01        -0.19024E-02         0.00000E+00
    0.14310E-01        -0.18052E-02         0.00000E+00
    0.13872E-01        -0.17095E-02         0.00000E+00
    0.13427E-01        -0.16154E-02         0.00000E+00
    0.12975E-01        -0.15230E-02         0.00000E+00
    0.12518E-01        -0.14324E-02         0.00000E+00
    0.12054E-01        -0.13436E-02         0.00000E+00
    0.11583E-01        -0.12567E-02         0.00000E+00
    0.11107E-01        -0.11718E-02         0.00000E+00
    0.10626E-01        -0.10890E-02         0.00000E+00
    0.10138E-01        -0.10082E-02         0.00000E+00
    0.96456E-02        -0.92971E-03         0.00000E+00
    0.91476E-02        -0.85350E-03         0.00000E+00
    0.86445E-02        -0.77967E-03         0.00000E+00
    0.81365E-02        -0.70831E-03         0.00000E+00
    0.76236E-02        -0.63951E-03         0.00000E+00
    0.71059E-02        -0.57336E-03         0.00000E+00
    0.65837E-02        -0.50996E-03         0.00000E+00
    0.60571E-02        -0.44940E-03         0.00000E+00
    0.55260E-02        -0.39177E-03         0.00000E+00
    0.49908E-02        -0.33719E-03         0.00000E+00
    0.44514E-02        -0.28574E-03         0.00000E+00
    0.39080E-02        -0.23754E-03         0.00000E+00
    0.33607E-02        -0.19268E-03         0.00000E+00
    0.28096E-02        -0.15128E-03         0.00000E+00
    0.22547E-02        -0.11344E-03         0.00000E+00
    0.16962E-02        -0.79282E-04         0.00000E+00
    0.11342E-02        -0.48912E-04         0.00000E+00
    0.56880E-03        -0.22446E-04         0.00000E+00
    0.00000E+00         0.00000E+00         0.00000E+00
    0.23748E-01        -0.53359E-02         0.00000E+00
    0.23490E-01        -0.52008E-02         0.00000E+00
    0.23217E-01        -0.50657E-02         0.00000E+00
    0.22931E-01        -0.49309E-02         0.00000E+00
    0.22632E-01        -0.47962E-02         0.00000E+00
    0.22320E-01        -0.46619E-02         0.00000E+00
    0.21996E-01        -0.45279E-02         0.00000E+00
    0.21660E-01        -0.43943E-02         0.00000E+00
    0.21313E-01        -0.42613E-02         0.00000E+00
    0.20955E-01        -0.41288E-02         0.00000E+00
    0.20586E-01        -0.39969E-02         0.00000E+00
    0.20207E-01        -0.38657E-02         0.00000E+00
    0.19818E-01        -0.37353E-02         0.00000E+00
    0.19419E-01        -0.36056E-02         0.00000E+00
    0.19011E-01        -0.34768E-02         0.00000E+00
    0.18595E-01        -0.33488E-02         0.00000E+00
    0.18169E-01        -0.32219E-02         0.00000E+00
    0.17735E-01        -0.30959E-02         0.00000E+00
    0.17293E-01        -0.29710E-02         0.00000E+00
    0.16843E-01        -0.28473E-02         0.00000E+00
    0.16386E-01        -0.27248E-02         0.00000E+00
    0.15921E-01        -0.26035E-02         0.00000E+00
    0.15449E-01        -0.24835E-02         0.00000E+00
    0.14970E-01        -0.23650E-02         0.00000E+00
    0.14484E-01        -0.22479E-02         0.00000E+00
    0.13992E-01        -0.21323E-02         0.00000E+00
    0.13494E-01        -0.20183E-02         0.00000E+00
    0.12989E-01        -0.19061E-02         0.00000E+00
    0.12478E-01        -0.17956E-02         0.00000E+00
    0.11962E-01        -0.16869E-02         0.00000E+00
    0.11440E-01        -0.15801E-02         0.00000E+00
    0.10912E-01        -0.14754E-02         0.00000E+00
    0.10379E-01        -0.13727E-02         0.00000E+00
    0.98411E-02        -0.12722E-02         0.00000E+00
    0.92978E-02        -0.11741E-02         0.00000E+00
    0.87495E-02        -0.10782E-02         0.00000E+00
    0.81964E-02        -0.98491E-03         0.00000E+00
    0.76385E-02        -0.89415E-03         0.00000E+00
    0.70760E-02        -0.80608E-03         0.00000E+00
    0.65090E-02        -0.72079E-03         0.00000E+00
    0.59375E-02        -0.63840E-03         0.00000E+00
    0.53618E-02        -0.55903E-03         0.00000E+00
    0.47818E-02        -0.48278E-03         0.00000E+00
    0.41976E-02        -0.40978E-03         0.00000E+00
    0.36095E-02        -0.34014E-03         0.00000E+00
    0.30173E-02        -0.27399E-03         0.00000E+00
    0.24213E-02        -0.21145E-03         0.00000E+00
    0.18215E-02        -0.15265E-03         0.00000E+00
    0.12179E-02        -0.97721E-04         0.00000E+00
    0.61075E-03        -0.46793E-04         0.00000E+00
    0.00000E+00         0.00000E+00         0.00000E+00
    0.25938E-01        -0.67092E-02         0.00000E+00
    0.25631E-01        -0.65500E-02         0.00000E+00
    0.25311E-01        -0.63909E-02         0.00000E+00
    0.24977E-01        -0.62320E-02         0.00000E+00
    0.24630E-01        -0.60732E-02         0.00000E+00
    0.24270E-01        -0.59147E-02         0.00000E+00
    0.23899E-01        -0.57564E-02         0.00000E+00
    0.23516E-01        -0.55985E-02         0.00000E+00
    0.23121E-01        -0.54410E-02         0.00000E+00
    0.22716E-01        -0.52839E-02         0.00000E+00
    0.22301E-01        -0.51273E-02         0.00000E+00
    0.21875E-01        -0.49712E-02         0.00000E+00
    0.21440E-01        -0.48158E-02         0.00000E+00
    0.20996E-01        -0.46609E-02         0.00000E+00
    0.20542E-01        -0.45067E-02         0.00000E+00
    0.20080E-01        -0.43532E-02         0.00000E+00
    0.19609E-01        -0.42005E-02         0.00000E+00
    0.19131E-01        -0.40486E-02         0.00000E+00
    0.18644E-01        -0.38976E-02         0.00000E+00
    0.18150E-01        -0.37475E-02         0.00000E+00
    0.17649E-01        -0.35984E-02         0.00000E+00
    0.17141E-01        -0.34503E-02         0.00000E+00
    0.16625E-01        -0.33034E-02         0.00000E+00
    0.16103E-01        -0.31576E-02         0.00000E+00
    0.15575E-01        -0.30131E-02         0.00000E+00
    0.15040E-01        -0.28699E-02         0.00000E+00
    0.14499E-01        -0.27281E-02         0.00000E+00
    0.13952E-01        -0.25878E-02         0.00000E+00
    0.13400E-01        -0.24491E-02         0.00000E+00
    0.12841E-01        -0.23119E-02         0.00000E+00
    0.12277E-01        -0.21765E-02         0.00000E+00
    0.11708E-01        -0.20430E-02         0.00000E+00
    0.11133E-01        -0.19113E-02         0.00000E+00
    0.10554E-01        -0.17817E-02         0.00000E+00
    0.99689E-02        -0.16542E-02         0.00000E+00
    0.93793E-02        -0.15289E-02         0.00000E+00
    0.87847E-02        -0.14059E-02         0.00000E+00
    0.81855E-02        -0.12855E-02         0.00000E+00
    0.75815E-02        -0.11675E-02         0.00000E+00
    0.69731E-02        -0.10523E-02         0.00000E+00
    0.63601E-02        -0.93989E-03         0.00000E+00
    0.57428E-02        -0.83041E-03         0.00000E+00
    0.51211E-02        -0.72400E-03         0.00000E+00
    0.44951E-02        -0.62080E-03         0.00000E+00
    0.38650E-02        -0.52094E-03         0.00000E+00
    0.32308E-02        -0.42457E-03         0.00000E+00
    0.25925E-02        -0.33181E-03         0.00000E+00
    0.19502E-02        -0.24283E-03         0.00000E+00
    0.13040E-02        -0.15777E-03         0.00000E+00
    0.65390E-03        -0.76772E-04         0.00000E+00
    0.00000E+00         0.00000E+00         0.00000E+00
    0.28244E-01        -0.83397E-02         0.00000E+00
    0.27883E-01        -0.81526E-02         0.00000E+00
    0.27508E-01        -0.79655E-02         0.00000E+00
    0.27120E-01        -0.77785E-02         0.00000E+00
    0.26719E-01        -0.75916E-02         0.00000E+00
    0.26306E-01        -0.74049E-02         0.00000E+00
    0.25882E-01        -0.72183E-02         0.00000E+00
    0.25446E-01        -0.70320E-02         0.00000E+00
    0.25000E-01        -0.68459E-02         0.00000E+00
    0.24544E-01        -0.66601E-02         0.00000E+00
    0.24077E-01        -0.64746E-02         0.00000E+00
    0.23601E-01        -0.62894E-02         0.00000E+00
    0.23116E-01        -0.61046E-02         0.00000E+00
    0.22622E-01        -0.59202E-02         0.00000E+00
    0.22120E-01        -0.57363E-02         0.00000E+00
    0.21609E-01        -0.55528E-02         0.00000E+00
    0.21091E-01        -0.53698E-02         0.00000E+00
    0.20565E-01        -0.51874E-02         0.00000E+00
    0.20032E-01        -0.50057E-02         0.00000E+00
    0.19491E-01        -0.48245E-02         0.00000E+00
    0.18944E-01        -0.46441E-02         0.00000E+00
    0.18390E-01        -0.44644E-02         0.00000E+00
    0.17829E-01        -0.42856E-02         0.00000E+00
    0.17262E-01        -0.41077E-02         0.00000E+00
    0.16689E-01        -0.39307E-02         0.00000E+00
    0.16110E-01        -0.37548E-02         0.00000E+00
    0.15525E-01        -0.35800E-02         0.00000E+00
    0.14935E-01        -0.34064E-02         0.00000E+00
    0.14339E-01        -0.32341E-02         0.00000E+00
    0.13737E-01        -0.30632E-02         0.00000E+00
    0.13131E-01        -0.28937E-02         0.00000E+00
    0.12519E-01        -0.27258E-02         0.00000E+00
    0.11902E-01        -0.25596E-02         0.00000E+00
    0.11279E-01        -0.23951E-02         0.00000E+00
    0.10652E-01        -0.22326E-02         0.00000E+00
    0.10020E-01        -0.20721E-02         0.00000E+00
    0.93838E-02        -0.19137E-02         0.00000E+00
    0.87424E-02        -0.17576E-02         0.00000E+00
    0.80963E-02        -0.16039E-02         0.00000E+00
    0.74457E-02        -0.14528E-02         0.00000E+00
    0.67905E-02        -0.13043E-02         0.00000E+00
    0.61309E-02        -0.11586E-02         0.00000E+00
    0.54668E-02        -0.10159E-02         0.00000E+00
    0.47983E-02        -0.87630E-03         0.00000E+00
    0.41255E-02        -0.73999E-03         0.00000E+00
    0.34484E-02        -0.60711E-03         0.00000E+00
    0.27671E-02        -0.47782E-03         0.00000E+00
    0.20815E-02        -0.35230E-03         0.00000E+00
    0.13918E-02        -0.23070E-03         0.00000E+00
    0.69795E-03        -0.11321E-03         0.00000E+00
    0.00000E+00         0.00000E+00         0.00000E+00
    0.30653E-01        -0.10263E-01         0.00000E+00
    0.30229E-01        -0.10044E-01         0.00000E+00
    0.29793E-01        -0.98242E-02         0.00000E+00
    0.29344E-01        -0.96046E-02         0.00000E+00
    0.28884E-01        -0.93851E-02         0.00000E+00
    0.28412E-01        -0.91656E-02         0.00000E+00
    0.27929E-01        -0.89462E-02         0.00000E+00
    0.27436E-01        -0.87268E-02         0.00000E+00
    0.26933E-01        -0.85074E-02         0.00000E+00
    0.26421E-01        -0.82882E-02         0.00000E+00
    0.25899E-01        -0.80690E-02         0.00000E+00
    0.25369E-01        -0.78499E-02         0.00000E+00
    0.24830E-01        -0.76309E-02         0.00000E+00
    0.24284E-01        -0.74120E-02         0.00000E+00
    0.23729E-01        -0.71933E-02         0.00000E+00
    0.23168E-01        -0.69747E-02         0.00000E+00
    0.22599E-01        -0.67564E-02         0.00000E+00
    0.22023E-01        -0.65382E-02         0.00000E+00
    0.21440E-01        -0.63204E-02         0.00000E+00
    0.20851E-01        -0.61028E-02         0.00000E+00
    0.20256E-01        -0.58856E-02         0.00000E+00
    0.19655E-01        -0.56689E-02         0.00000E+00
    0.19047E-01        -0.54526E-02         0.00000E+00
    0.18434E-01        -0.52368E-02         0.00000E+00
    0.17815E-01        -0.50217E-02         0.00000E+00
    0.17191E-01        -0.48072E-02         0.00000E+00
    0.16562E-01        -0.45935E-02         0.00000E+00
    0.15927E-01        -0.43806E-02         0.00000E+00
    0.15287E-01        -0.41687E-02         0.00000E+00
    0.14641E-01        -0.39578E-02         0.00000E+00
    0.13991E-01        -0.37481E-02         0.00000E+00
    0.13336E-01        -0.35396E-02         0.00000E+00
    0.12676E-01        -0.33324E-02         0.00000E+00
    0.12011E-01        -0.31268E-02         0.00000E+00
    0.11341E-01        -0.29228E-02         0.00000E+00
    0.10667E-01        -0.27205E-02         0.00000E+00
    0.99878E-02        -0.25201E-02         0.00000E+00
    0.93040E-02        -0.23217E-02         0.00000E+00
    0.86155E-02        -0.21254E-02         0.00000E+00
    0.79225E-02        -0.19315E-02         0.00000E+00
    0.72248E-02        -0.17401E-02         0.00000E+00
    0.65226E-02        -0.15513E-02         0.00000E+00
    0.58159E-02        -0.13653E-02         0.00000E+00
    0.51046E-02        -0.11823E-02         0.00000E+00
    0.43888E-02        -0.10025E-02         0.00000E+00
    0.36685E-02        -0.82596E-03         0.00000E+00
    0.29437E-02        -0.65296E-03         0.00000E+00
    0.22145E-02        -0.48367E-03         0.00000E+00
    0.14807E-02        -0.31828E-03         0.00000E+00
    0.74259E-03        -0.15699E-03         0.00000E+00
    0.00000E+00         0.00000E+00         0.00000E+00
    0.33143E-01        -0.12519E-01         0.00000E+00
    0.32650E-01        -0.12261E-01         0.00000E+00
    0.32145E-01        -0.12004E-01         0.00000E+00
    0.31629E-01        -0.11747E-01         0.00000E+00
    0.31102E-01        -0.11490E-01         0.00000E+00
    0.30565E-01        -0.11232E-01         0.00000E+00
    0.30019E-01        -0.10975E-01         0.00000E+00
    0.29463E-01        -0.10717E-01         0.00000E+00
    0.28899E-01        -0.10459E-01         0.00000E+00
    0.28326E-01        -0.10201E-01         0.00000E+00
    0.27746E-01        -0.99425E-02         0.00000E+00
    0.27157E-01        -0.96839E-02         0.00000E+00
    0.26562E-01        -0.94252E-02         0.00000E+00
    0.25960E-01        -0.91662E-02         0.00000E+00
    0.25351E-01        -0.89070E-02         0.00000E+00
    0.24735E-01        -0.86475E-02         0.00000E+00
    0.24114E-01        -0.83879E-02         0.00000E+00
    0.23486E-01        -0.81281E-02         0.00000E+00
    0.22852E-01        -0.78682E-02         0.00000E+00
    0.22214E-01        -0.76081E-02         0.00000E+00
    0.21569E-01        -0.73480E-02         0.00000E+00
    0.20919E-01        -0.70879E-02         0.00000E+00
    0.20264E-01        -0.68278E-02         0.00000E+00
    0.19604E-01        -0.65677E-02         0.00000E+00
    0.18939E-01        -0.63079E-02         0.00000E+00
    0.18269E-01        -0.60483E-02         0.00000E+00
    0.17595E-01        -0.57890E-02         0.00000E+00
    0.16915E-01        -0.55301E-02         0.00000E+00
    0.16231E-01        -0.52718E-02         0.00000E+00
    0.15542E-01        -0.50140E-02         0.00000E+00
    0.14848E-01        -0.47570E-02         0.00000E+00
    0.14150E-01        -0.45008E-02         0.00000E+00
    0.13447E-01        -0.42456E-02         0.00000E+00
    0.12740E-01        -0.39915E-02         0.00000E+00
    0.12028E-01        -0.37387E-02         0.00000E+00
    0.11311E-01        -0.34872E-02         0.00000E+00
    0.10590E-01        -0.32373E-02         0.00000E+00
    0.98639E-02        -0.29891E-02         0.00000E+00
    0.91333E-02        -0.27427E-02         0.00000E+00
    0.83982E-02        -0.24984E-02         0.00000E+00
    0.76584E-02        -0.22563E-02         0.00000E+00
    0.69139E-02        -0.20166E-02         0.00000E+00
    0.61647E-02        -0.17795E-02         0.00000E+00
    0.54108E-02        -0.15452E-02         0.00000E+00
    0.46522E-02        -0.13138E-02         0.00000E+00
    0.38888E-02        -0.10856E-02         0.00000E+00
    0.31207E-02        -0.86087E-03         0.00000E+00
    0.23477E-02        -0.63969E-03         0.00000E+00
    0.15700E-02        -0.42234E-03         0.00000E+00
    0.78741E-03        -0.20903E-03         0.00000E+00
    0.00000E+00         0.00000E+00         0.00000E+00
    0.35687E-01        -0.15146E-01         0.00000E+00
    0.35116E-01        -0.14845E-01         0.00000E+00
    0.34535E-01        -0.14545E-01         0.00000E+00
    0.33945E-01        -0.14244E-01         0.00000E+00
    0.33346E-01        -0.13943E-01         0.00000E+00
    0.32738E-01        -0.13641E-01         0.00000E+00
    0.32123E-01        -0.13340E-01         0.00000E+00
    0.31500E-01        -0.13038E-01         0.00000E+00
    0.30869E-01        -0.12735E-01         0.00000E+00
    0.30233E-01        -0.12432E-01         0.00000E+00
    0.29589E-01        -0.12128E-01         0.00000E+00
    0.28940E-01        -0.11824E-01         0.00000E+00
    0.28285E-01        -0.11519E-01         0.00000E+00
    0.27624E-01        -0.11214E-01         0.00000E+00
    0.26959E-01        -0.10908E-01         0.00000E+00
    0.26288E-01        -0.10601E-01         0.00000E+00
    0.25612E-01        -0.10293E-01         0.00000E+00
    0.24931E-01        -0.99853E-02         0.00000E+00
    0.24246E-01        -0.96765E-02         0.00000E+00
    0.23556E-01        -0.93671E-02         0.00000E+00
    0.22862E-01        -0.90571E-02         0.00000E+00
    0.22164E-01        -0.87465E-02         0.00000E+00
    0.21461E-01        -0.84354E-02         0.00000E+00
    0.20754E-01        -0.81239E-02         0.00000E+00
    0.20043E-01        -0.78121E-02         0.00000E+00
    0.19328E-01        -0.74999E-02         0.00000E+00
    0.18608E-01        -0.71876E-02         0.00000E+00
    0.17885E-01        -0.68751E-02         0.00000E+00
    0.17157E-01        -0.65626E-02         0.00000E+00
    0.16425E-01        -0.62503E-02         0.00000E+00
    0.15689E-01        -0.59381E-02         0.00000E+00
    0.14949E-01        -0.56263E-02         0.00000E+00
    0.14204E-01        -0.53151E-02         0.00000E+00
    0.13455E-01        -0.50044E-02         0.00000E+00
    0.12702E-01        -0.46946E-02         0.00000E+00
    0.11944E-01        -0.43857E-02         0.00000E+00
    0.11182E-01        -0.40780E-02         0.00000E+00
    0.10415E-01        -0.37716E-02         0.00000E+00
    0.96431E-02        -0.34666E-02         0.00000E+00
    0.88668E-02        -0.31634E-02         0.00000E+00
    0.80858E-02        -0.28620E-02         0.00000E+00
    0.72999E-02        -0.25627E-02         0.00000E+00
    0.65092E-02        -0.22657E-02         0.00000E+00
    0.57135E-02        -0.19713E-02         0.00000E+00
    0.49128E-02        -0.16795E-02         0.00000E+00
    0.41070E-02        -0.13908E-02         0.00000E+00
    0.32961E-02        -0.11052E-02         0.00000E+00
    0.24800E-02        -0.82314E-03         0.00000E+00
    0.16586E-02        -0.54473E-03         0.00000E+00
    0.83199E-03        -0.27027E-03         0.00000E+00
    0.00000E+00         0.00000E+00         0.00000E+00
    0.38247E-01        -0.18186E-01         0.00000E+00
    0.37590E-01        -0.17836E-01         0.00000E+00
    0.36927E-01        -0.17485E-01         0.00000E+00
    0.36255E-01        -0.17134E-01         0.00000E+00
    0.35578E-01        -0.16783E-01         0.00000E+00
    0.34894E-01        -0.16431E-01         0.00000E+00
    0.34204E-01        -0.16078E-01         0.00000E+00
    0.33510E-01        -0.15725E-01         0.00000E+00
    0.32810E-01        -0.15371E-01         0.00000E+00
    0.32105E-01        -0.15016E-01         0.00000E+00
    0.31397E-01        -0.14661E-01         0.00000E+00
    0.30684E-01        -0.14304E-01         0.00000E+00
    0.29967E-01        -0.13946E-01         0.00000E+00
    0.29247E-01        -0.13587E-01         0.00000E+00
    0.28523E-01        -0.13226E-01         0.00000E+00
    0.27796E-01        -0.12865E-01         0.00000E+00
    0.27065E-01        -0.12502E-01         0.00000E+00
    0.26331E-01        -0.12138E-01         0.00000E+00
    0.25594E-01        -0.11773E-01         0.00000E+00
    0.24854E-01        -0.11406E-01         0.00000E+00
    0.24111E-01        -0.11039E-01         0.00000E+00
    0.23364E-01        -0.10670E-01         0.00000E+00
    0.22615E-01        -0.10300E-01         0.00000E+00
    0.21862E-01        -0.99288E-02         0.00000E+00
    0.21106E-01        -0.95567E-02         0.00000E+00
    0.20347E-01        -0.91838E-02         0.00000E+00
    0.19584E-01        -0.88101E-02         0.00000E+00
    0.18818E-01        -0.84356E-02         0.00000E+00
    0.18049E-01        -0.80605E-02         0.00000E+00
    0.17276E-01        -0.76849E-02         0.00000E+00
    0.16499E-01        -0.73090E-02         0.00000E+00
    0.15718E-01        -0.69329E-02         0.00000E+00
    0.14934E-01        -0.65567E-02         0.00000E+00
    0.14145E-01        -0.61806E-02         0.00000E+00
    0.13352E-01        -0.58047E-02         0.00000E+00
    0.12555E-01        -0.54294E-02         0.00000E+00
    0.11754E-01        -0.50546E-02         0.00000E+00
    0.10948E-01        -0.46807E-02         0.00000E+00
    0.10137E-01        -0.43078E-02         0.00000E+00
    0.93213E-02        -0.39362E-02         0.00000E+00
    0.85008E-02        -0.35661E-02         0.00000E+00
    0.76752E-02        -0.31977E-02         0.00000E+00
    0.68445E-02        -0.28312E-02         0.00000E+00
    0.60085E-02        -0.24669E-02         0.00000E+00
    0.51672E-02        -0.21051E-02         0.00000E+00
    0.43203E-02        -0.17459E-02         0.00000E+00
    0.34678E-02        -0.13897E-02         0.00000E+00
    0.26096E-02        -0.10367E-02         0.00000E+00
    0.17457E-02        -0.68728E-03         0.00000E+00
    0.87582E-03        -0.34160E-03         0.00000E+00
    0.00000E+00         0.00000E+00         0.00000E+00
    0.40775E-01        -0.21681E-01         0.00000E+00
    0.40026E-01        -0.21273E-01         0.00000E+00
    0.39272E-01        -0.20865E-01         0.00000E+00
    0.38514E-01        -0.20456E-01         0.00000E+00
    0.37752E-01        -0.20047E-01         0.00000E+00
    0.36987E-01        -0.19638E-01         0.00000E+00
    0.36220E-01        -0.19227E-01         0.00000E+00
    0.35450E-01        -0.18815E-01         0.00000E+00
    0.34677E-01        -0.18402E-01         0.00000E+00
    0.33903E-01        -0.17988E-01         0.00000E+00
    0.33127E-01        -0.17572E-01         0.00000E+00
    0.32349E-01        -0.17155E-01         0.00000E+00
    0.31570E-01        -0.16736E-01         0.00000E+00
    0.30789E-01        -0.16315E-01         0.00000E+00
    0.30007E-01        -0.15892E-01         0.00000E+00
    0.29224E-01        -0.15468E-01         0.00000E+00
    0.28439E-01        -0.15042E-01         0.00000E+00
    0.27653E-01        -0.14613E-01         0.00000E+00
    0.26865E-01        -0.14183E-01         0.00000E+00
    0.26076E-01        -0.13751E-01         0.00000E+00
    0.25285E-01        -0.13317E-01         0.00000E+00
    0.24493E-01        -0.12882E-01         0.00000E+00
    0.23699E-01        -0.12444E-01         0.00000E+00
    0.22903E-01        -0.12005E-01         0.00000E+00
    0.22104E-01        -0.11563E-01         0.00000E+00
    0.21304E-01        -0.11121E-01         0.00000E+00
    0.20501E-01        -0.10676E-01         0.00000E+00
    0.19695E-01        -0.10231E-01         0.00000E+00
    0.18887E-01        -0.97837E-02         0.00000E+00
    0.18075E-01        -0.93355E-02         0.00000E+00
    0.17261E-01        -0.88863E-02         0.00000E+00
    0.16443E-01        -0.84362E-02         0.00000E+00
    0.15621E-01        -0.79854E-02         0.00000E+00
    0.14796E-01        -0.75341E-02         0.00000E+00
    0.13967E-01        -0.70824E-02         0.00000E+00
    0.13133E-01        -0.66306E-02         0.00000E+00
    0.12296E-01        -0.61788E-02         0.00000E+00
    0.11453E-01        -0.57274E-02         0.00000E+00
    0.10606E-01        -0.52764E-02         0.00000E+00
    0.97537E-02        -0.48262E-02         0.00000E+00
    0.88963E-02        -0.43770E-02         0.00000E+00
    0.80335E-02        -0.39291E-02         0.00000E+00
    0.71653E-02        -0.34827E-02         0.00000E+00
    0.62913E-02        -0.30381E-02         0.00000E+00
    0.54114E-02        -0.25955E-02         0.00000E+00
    0.45255E-02        -0.21553E-02         0.00000E+00
    0.36333E-02        -0.17177E-02         0.00000E+00
    0.27349E-02        -0.12831E-02         0.00000E+00
    0.18299E-02        -0.85171E-03         0.00000E+00
    0.91832E-03        -0.42391E-03         0.00000E+00
    0.00000E+00         0.00000E+00         0.00000E+00
    0.43212E-01        -0.25669E-01         0.00000E+00
    0.42363E-01        -0.25195E-01         0.00000E+00
    0.41512E-01        -0.24722E-01         0.00000E+00
    0.40662E-01        -0.24247E-01         0.00000E+00
    0.39812E-01        -0.23772E-01         0.00000E+00
    0.38963E-01        -0.23296E-01         0.00000E+00
    0.38114E-01        -0.22819E-01         0.00000E+00
    0.37266E-01        -0.22340E-01         0.00000E+00
    0.36420E-01        -0.21860E-01         0.00000E+00
    0.35575E-01        -0.21377E-01         0.00000E+00
    0.34731E-01        -0.20893E-01         0.00000E+00
    0.33888E-01        -0.20407E-01         0.00000E+00
    0.33047E-01        -0.19918E-01         0.00000E+00
    0.32207E-01        -0.19427E-01         0.00000E+00
    0.31368E-01        -0.18933E-01         0.00000E+00
    0.30530E-01        -0.18437E-01         0.00000E+00
    0.29694E-01        -0.17938E-01         0.00000E+00
    0.28857E-01        -0.17437E-01         0.00000E+00
    0.28022E-01        -0.16933E-01         0.00000E+00
    0.27187E-01        -0.16426E-01         0.00000E+00
    0.26352E-01        -0.15916E-01         0.00000E+00
    0.25517E-01        -0.15404E-01         0.00000E+00
    0.24682E-01        -0.14889E-01         0.00000E+00
    0.23846E-01        -0.14372E-01         0.00000E+00
    0.23009E-01        -0.13852E-01         0.00000E+00
    0.22171E-01        -0.13329E-01         0.00000E+00
    0.21332E-01        -0.12804E-01         0.00000E+00
    0.20491E-01        -0.12278E-01         0.00000E+00
    0.19648E-01        -0.11748E-01         0.00000E+00
    0.18803E-01        -0.11218E-01         0.00000E+00
    0.17955E-01        -0.10685E-01         0.00000E+00
    0.17104E-01        -0.10150E-01         0.00000E+00
    0.16250E-01        -0.96146E-02         0.00000E+00
    0.15392E-01        -0.90775E-02         0.00000E+00
    0.14531E-01        -0.85395E-02         0.00000E+00
    0.13665E-01        -0.80006E-02         0.00000E+00
    0.12795E-01        -0.74611E-02         0.00000E+00
    0.11920E-01        -0.69213E-02         0.00000E+00
    0.11040E-01        -0.63813E-02         0.00000E+00
    0.10155E-01        -0.58416E-02         0.00000E+00
    0.92643E-02        -0.53023E-02         0.00000E+00
    0.83678E-02        -0.47637E-02         0.00000E+00
    0.74653E-02        -0.42262E-02         0.00000E+00
    0.65564E-02        -0.36899E-02         0.00000E+00
    0.56411E-02        -0.31553E-02         0.00000E+00
    0.47190E-02        -0.26227E-02         0.00000E+00
    0.37899E-02        -0.20923E-02         0.00000E+00
    0.28536E-02        -0.15644E-02         0.00000E+00
    0.19100E-02        -0.10396E-02         0.00000E+00
    0.95888E-03        -0.51797E-03         0.00000E+00
    0.00000E+00         0.00000E+00         0.00000E+00
    0.45484E-01        -0.30184E-01         0.00000E+00
    0.44529E-01        -0.29636E-01         0.00000E+00
    0.43578E-01        -0.29088E-01         0.00000E+00
    0.42631E-01        -0.28539E-01         0.00000E+00
    0.41690E-01        -0.27989E-01         0.00000E+00
    0.40754E-01        -0.27437E-01         0.00000E+00
    0.39823E-01        -0.26884E-01         0.00000E+00
    0.38897E-01        -0.26329E-01         0.00000E+00
    0.37977E-01        -0.25772E-01         0.00000E+00
    0.37061E-01        -0.25212E-01         0.00000E+00
    0.36151E-01        -0.24650E-01         0.00000E+00
    0.35245E-01        -0.24085E-01         0.00000E+00
    0.34344E-01        -0.23517E-01         0.00000E+00
    0.33448E-01        -0.22946E-01         0.00000E+00
    0.32556E-01        -0.22372E-01         0.00000E+00
    0.31667E-01        -0.21794E-01         0.00000E+00
    0.30782E-01        -0.21213E-01         0.00000E+00
    0.29901E-01        -0.20628E-01         0.00000E+00
    0.29022E-01        -0.20040E-01         0.00000E+00
    0.28146E-01        -0.19448E-01         0.00000E+00
    0.27272E-01        -0.18853E-01         0.00000E+00
    0.26400E-01        -0.18254E-01         0.00000E+00
    0.25529E-01        -0.17652E-01         0.00000E+00
    0.24659E-01        -0.17046E-01         0.00000E+00
    0.23790E-01        -0.16437E-01         0.00000E+00
    0.22920E-01        -0.15824E-01         0.00000E+00
    0.22051E-01        -0.15209E-01         0.00000E+00
    0.21180E-01        -0.14590E-01         0.00000E+00
    0.20308E-01        -0.13968E-01         0.00000E+00
    0.19435E-01        -0.13344E-01         0.00000E+00
    0.18559E-01        -0.12716E-01         0.00000E+00
    0.17681E-01        -0.12087E-01         0.00000E+00
    0.16800E-01        -0.11455E-01         0.00000E+00
    0.15916E-01        -0.10821E-01         0.00000E+00
    0.15027E-01        -0.10185E-01         0.00000E+00
    0.14135E-01        -0.95482E-02         0.00000E+00
    0.13238E-01        -0.89097E-02         0.00000E+00
    0.12336E-01        -0.82701E-02         0.00000E+00
    0.11428E-01        -0.76297E-02         0.00000E+00
    0.10515E-01        -0.69889E-02         0.00000E+00
    0.95957E-02        -0.63479E-02         0.00000E+00
    0.86701E-02        -0.57070E-02         0.00000E+00
    0.77377E-02        -0.50665E-02         0.00000E+00
    0.67982E-02        -0.44268E-02         0.00000E+00
    0.58513E-02        -0.37883E-02         0.00000E+00
    0.48968E-02        -0.31512E-02         0.00000E+00
    0.39344E-02        -0.25158E-02         0.00000E+00
    0.29637E-02        -0.18827E-02         0.00000E+00
    0.19846E-02        -0.12521E-02         0.00000E+00
    0.99674E-03        -0.62438E-03         0.00000E+00
    0.00000E+00         0.00000E+00         0.00000E+00
    0.47503E-01        -0.35254E-01         0.00000E+00
    0.46438E-01        -0.34622E-01         0.00000E+00
    0.45383E-01        -0.33989E-01         0.00000E+00
    0.44339E-01        -0.33355E-01         0.00000E+00
    0.43305E-01        -0.32720E-01         0.00000E+00
    0.42283E-01        -0.32083E-01         0.00000E+00
    0.41270E-01        -0.31444E-01         0.00000E+00
    0.40268E-01        -0.30803E-01         0.00000E+00
    0.39276E-01        -0.30159E-01         0.00000E+00
    0.38293E-01        -0.29512E-01         0.00000E+00
    0.37320E-01        -0.28861E-01         0.00000E+00
    0.36356E-01        -0.28207E-01         0.00000E+00
    0.35400E-01        -0.27550E-01         0.00000E+00
    0.34452E-01        -0.26889E-01         0.00000E+00
    0.33512E-01        -0.26223E-01         0.00000E+00
    0.32579E-01        -0.25553E-01         0.00000E+00
    0.31652E-01        -0.24880E-01         0.00000E+00
    0.30732E-01        -0.24201E-01         0.00000E+00
    0.29817E-01        -0.23519E-01         0.00000E+00
    0.28907E-01        -0.22832E-01         0.00000E+00
    0.28001E-01        -0.22140E-01         0.00000E+00
    0.27099E-01        -0.21444E-01         0.00000E+00
    0.26200E-01        -0.20743E-01         0.00000E+00
    0.25304E-01        -0.20038E-01         0.00000E+00
    0.24410E-01        -0.19329E-01         0.00000E+00
    0.23517E-01        -0.18616E-01         0.00000E+00
    0.22624E-01        -0.17898E-01         0.00000E+00
    0.21732E-01        -0.17176E-01         0.00000E+00
    0.20839E-01        -0.16451E-01         0.00000E+00
    0.19945E-01        -0.15722E-01         0.00000E+00
    0.19050E-01        -0.14989E-01         0.00000E+00
    0.18152E-01        -0.14253E-01         0.00000E+00
    0.17251E-01        -0.13513E-01         0.00000E+00
    0.16347E-01        -0.12771E-01         0.00000E+00
    0.15439E-01        -0.12027E-01         0.00000E+00
    0.14527E-01        -0.11279E-01         0.00000E+00
    0.13609E-01        -0.10530E-01         0.00000E+00
    0.12686E-01        -0.97790E-02         0.00000E+00
    0.11758E-01        -0.90264E-02         0.00000E+00
    0.10823E-01        -0.82725E-02         0.00000E+00
    0.98808E-02        -0.75178E-02         0.00000E+00
    0.89316E-02        -0.67625E-02         0.00000E+00
    0.79748E-02        -0.60070E-02         0.00000E+00
    0.70099E-02        -0.52516E-02         0.00000E+00
    0.60366E-02        -0.44968E-02         0.00000E+00
    0.50544E-02        -0.37428E-02         0.00000E+00
    0.40631E-02        -0.29902E-02         0.00000E+00
    0.30623E-02        -0.22391E-02         0.00000E+00
    0.20518E-02        -0.14902E-02         0.00000E+00
    0.10311E-02        -0.74366E-03         0.00000E+00
    0.00000E+00         0.00000E+00         0.00000E+00
    0.49162E-01        -0.40894E-01         0.00000E+00
    0.47986E-01        -0.40166E-01         0.00000E+00
    0.46828E-01        -0.39438E-01         0.00000E+00
    0.45687E-01        -0.38709E-01         0.00000E+00
    0.44564E-01        -0.37978E-01         0.00000E+00
    0.43458E-01        -0.37245E-01         0.00000E+00
    0.42368E-01        -0.36509E-01         0.00000E+00
    0.41294E-01        -0.35771E-01         0.00000E+00
    0.40235E-01        -0.35029E-01         0.00000E+00
    0.39192E-01        -0.34284E-01         0.00000E+00
    0.38162E-01        -0.33534E-01         0.00000E+00
    0.37146E-01        -0.32781E-01         0.00000E+00
    0.36143E-01        -0.32023E-01         0.00000E+00
    0.35152E-01        -0.31260E-01         0.00000E+00
    0.34172E-01        -0.30493E-01         0.00000E+00
    0.33203E-01        -0.29720E-01         0.00000E+00
    0.32244E-01        -0.28943E-01         0.00000E+00
    0.31294E-01        -0.28160E-01         0.00000E+00
    0.30352E-01        -0.27372E-01         0.00000E+00
    0.29418E-01        -0.26579E-01         0.00000E+00
    0.28490E-01        -0.25780E-01         0.00000E+00
    0.27568E-01        -0.24976E-01         0.00000E+00
    0.26651E-01        -0.24166E-01         0.00000E+00
    0.25739E-01        -0.23351E-01         0.00000E+00
    0.24829E-01        -0.22531E-01         0.00000E+00
    0.23922E-01        -0.21705E-01         0.00000E+00
    0.23017E-01        -0.20875E-01         0.00000E+00
    0.22113E-01        -0.20039E-01         0.00000E+00
    0.21209E-01        -0.19199E-01         0.00000E+00
    0.20305E-01        -0.18354E-01         0.00000E+00
    0.19399E-01        -0.17504E-01         0.00000E+00
    0.18490E-01        -0.16650E-01         0.00000E+00
    0.17579E-01        -0.15792E-01         0.00000E+00
    0.16665E-01        -0.14931E-01         0.00000E+00
    0.15746E-01        -0.14065E-01         0.00000E+00
    0.14822E-01        -0.13196E-01         0.00000E+00
    0.13893E-01        -0.12325E-01         0.00000E+00
    0.12958E-01        -0.11450E-01         0.00000E+00
    0.12015E-01        -0.10573E-01         0.00000E+00
    0.11066E-01        -0.96945E-02         0.00000E+00
    0.10108E-01        -0.88140E-02         0.00000E+00
    0.91427E-02        -0.79321E-02         0.00000E+00
    0.81681E-02        -0.70492E-02         0.00000E+00
    0.71841E-02        -0.61658E-02         0.00000E+00
    0.61904E-02        -0.52823E-02         0.00000E+00
    0.51865E-02        -0.43989E-02         0.00000E+00
    0.41720E-02        -0.35162E-02         0.00000E+00
    0.31465E-02        -0.26345E-02         0.00000E+00
    0.21096E-02        -0.17542E-02         0.00000E+00
    0.10608E-02        -0.87585E-03         0.00000E+00
    0.00000E+00         0.00000E+00         0.00000E+00
    0.50340E-01        -0.47102E-01         0.00000E+00
    0.49056E-01        -0.46268E-01         0.00000E+00
    0.47798E-01        -0.45433E-01         0.00000E+00
    0.46566E-01        -0.44596E-01         0.00000E+00
    0.45359E-01        -0.43758E-01         0.00000E+00
    0.44176E-01        -0.42917E-01         0.00000E+00
    0.43016E-01        -0.42073E-01         0.00000E+00
    0.41878E-01        -0.41226E-01         0.00000E+00
    0.40763E-01        -0.40375E-01         0.00000E+00
    0.39667E-01        -0.39520E-01         0.00000E+00
    0.38592E-01        -0.38661E-01         0.00000E+00
    0.37534E-01        -0.37796E-01         0.00000E+00
    0.36495E-01        -0.36927E-01         0.00000E+00
    0.35472E-01        -0.36052E-01         0.00000E+00
    0.34464E-01        -0.35171E-01         0.00000E+00
    0.33471E-01        -0.34285E-01         0.00000E+00
    0.32491E-01        -0.33393E-01         0.00000E+00
    0.31524E-01        -0.32494E-01         0.00000E+00
    0.30567E-01        -0.31590E-01         0.00000E+00
    0.29621E-01        -0.30680E-01         0.00000E+00
    0.28684E-01        -0.29763E-01         0.00000E+00
    0.27755E-01        -0.28840E-01         0.00000E+00
    0.26832E-01        -0.27911E-01         0.00000E+00
    0.25916E-01        -0.26975E-01         0.00000E+00
    0.25004E-01        -0.26033E-01         0.00000E+00
    0.24096E-01        -0.25085E-01         0.00000E+00
    0.23191E-01        -0.24131E-01         0.00000E+00
    0.22287E-01        -0.23172E-01         0.00000E+00
    0.21384E-01        -0.22206E-01         0.00000E+00
    0.20481E-01        -0.21234E-01         0.00000E+00
    0.19576E-01        -0.20258E-01         0.00000E+00
    0.18669E-01        -0.19275E-01         0.00000E+00
    0.17759E-01        -0.18288E-01         0.00000E+00
    0.16846E-01        -0.17296E-01         0.00000E+00
    0.15927E-01        -0.16299E-01         0.00000E+00
    0.15002E-01        -0.15298E-01         0.00000E+00
    0.14071E-01        -0.14293E-01         0.00000E+00
    0.13133E-01        -0.13284E-01         0.00000E+00
    0.12187E-01        -0.12271E-01         0.00000E+00
    0.11232E-01        -0.11256E-01         0.00000E+00
    0.10267E-01        -0.10237E-01         0.00000E+00
    0.92931E-02        -0.92168E-02         0.00000E+00
    0.83084E-02        -0.81944E-02         0.00000E+00
    0.73129E-02        -0.71705E-02         0.00000E+00
    0.63059E-02        -0.61456E-02         0.00000E+00
    0.52869E-02        -0.51202E-02         0.00000E+00
    0.42557E-02        -0.40947E-02         0.00000E+00
    0.32117E-02        -0.30696E-02         0.00000E+00
    0.21550E-02        -0.20456E-02         0.00000E+00
    0.10849E-02        -0.10223E-02         0.00000E+00
    0.00000E+00         0.00000E+00         0.00000E+00
    0.50897E-01        -0.53855E-01         0.00000E+00
    0.49513E-01        -0.52902E-01         0.00000E+00
    0.48164E-01        -0.51948E-01         0.00000E+00
    0.46850E-01        -0.50992E-01         0.00000E+00
    0.45570E-01        -0.50034E-01         0.00000E+00
    0.44322E-01        -0.49073E-01         0.00000E+00
    0.43104E-01        -0.48109E-01         0.00000E+00
    0.41916E-01        -0.47142E-01         0.00000E+00
    0.40756E-01        -0.46169E-01         0.00000E+00
    0.39623E-01        -0.45193E-01         0.00000E+00
    0.38515E-01        -0.44211E-01         0.00000E+00
    0.37431E-01        -0.43224E-01         0.00000E+00
    0.36369E-01        -0.42231E-01         0.00000E+00
    0.35329E-01        -0.41233E-01         0.00000E+00
    0.34308E-01        -0.40228E-01         0.00000E+00
    0.33306E-01        -0.39217E-01         0.00000E+00
    0.32321E-01        -0.38199E-01         0.00000E+00
    0.31351E-01        -0.37175E-01         0.00000E+00
    0.30396E-01        -0.36144E-01         0.00000E+00
    0.29453E-01        -0.35106E-01         0.00000E+00
    0.28522E-01        -0.34061E-01         0.00000E+00
    0.27601E-01        -0.33009E-01         0.00000E+00
    0.26688E-01        -0.31951E-01         0.00000E+00
    0.25783E-01        -0.30885E-01         0.00000E+00
    0.24884E-01        -0.29812E-01         0.00000E+00
    0.23990E-01        -0.28733E-01         0.00000E+00
    0.23100E-01        -0.27647E-01         0.00000E+00
    0.22211E-01        -0.26553E-01         0.00000E+00
    0.21324E-01        -0.25454E-01         0.00000E+00
    0.20436E-01        -0.24347E-01         0.00000E+00
    0.19548E-01        -0.23234E-01         0.00000E+00
    0.18656E-01        -0.22115E-01         0.00000E+00
    0.17761E-01        -0.20990E-01         0.00000E+00
    0.16861E-01        -0.19859E-01         0.00000E+00
    0.15956E-01        -0.18722E-01         0.00000E+00
    0.15043E-01        -0.17579E-01         0.00000E+00
    0.14123E-01        -0.16431E-01         0.00000E+00
    0.13194E-01        -0.15278E-01         0.00000E+00
    0.12255E-01        -0.14121E-01         0.00000E+00
    0.11306E-01        -0.12959E-01         0.00000E+00
    0.10345E-01        -0.11792E-01         0.00000E+00
    0.93727E-02        -0.10622E-01         0.00000E+00
    0.83873E-02        -0.94490E-02         0.00000E+00
    0.73885E-02        -0.82728E-02         0.00000E+00
    0.63762E-02        -0.70942E-02         0.00000E+00
    0.53501E-02        -0.59135E-02         0.00000E+00
    0.43101E-02        -0.47309E-02         0.00000E+00
    0.32555E-02        -0.35467E-02         0.00000E+00
    0.21849E-02        -0.23616E-02         0.00000E+00
    0.10992E-02        -0.11788E-02         0.00000E+00
    0.00000E+00         0.00000E+00         0.00000E+00
    0.50677E-01        -0.61101E-01         0.00000E+00
    0.49207E-01        -0.60016E-01         0.00000E+00
    0.47784E-01        -0.58929E-01         0.00000E+00
    0.46404E-01        -0.57841E-01         0.00000E+00
    0.45067E-01        -0.56751E-01         0.00000E+00
    0.43770E-01        -0.55658E-01         0.00000E+00
    0.42513E-01        -0.54561E-01         0.00000E+00
    0.41292E-01        -0.53460E-01         0.00000E+00
    0.40105E-01        -0.52355E-01         0.00000E+00
    0.38953E-01        -0.51245E-01         0.00000E+00
    0.37831E-01        -0.50129E-01         0.00000E+00
    0.36739E-01        -0.49008E-01         0.00000E+00
    0.35674E-01        -0.47880E-01         0.00000E+00
    0.34635E-01        -0.46747E-01         0.00000E+00
    0.33621E-01        -0.45607E-01         0.00000E+00
    0.32628E-01        -0.44460E-01         0.00000E+00
    0.31656E-01        -0.43307E-01         0.00000E+00
    0.30703E-01        -0.42147E-01         0.00000E+00
    0.29767E-01        -0.40979E-01         0.00000E+00
    0.28846E-01        -0.39805E-01         0.00000E+00
    0.27939E-01        -0.38623E-01         0.00000E+00
    0.27044E-01        -0.37434E-01         0.00000E+00
    0.26159E-01        -0.36238E-01         0.00000E+00
    0.25283E-01        -0.35034E-01         0.00000E+00
    0.24415E-01        -0.33823E-01         0.00000E+00
    0.23552E-01        -0.32605E-01         0.00000E+00
    0.22693E-01        -0.31380E-01         0.00000E+00
    0.21838E-01        -0.30147E-01         0.00000E+00
    0.20983E-01        -0.28907E-01         0.00000E+00
    0.20128E-01        -0.27659E-01         0.00000E+00
    0.19272E-01        -0.26405E-01         0.00000E+00
    0.18412E-01        -0.25144E-01         0.00000E+00
    0.17548E-01        -0.23875E-01         0.00000E+00
    0.16678E-01        -0.22600E-01         0.00000E+00
    0.15802E-01        -0.21318E-01         0.00000E+00
    0.14917E-01        -0.20029E-01         0.00000E+00
    0.14022E-01        -0.18734E-01         0.00000E+00
    0.13117E-01        -0.17433E-01         0.00000E+00
    0.12200E-01        -0.16126E-01         0.00000E+00
    0.11270E-01        -0.14812E-01         0.00000E+00
    0.10326E-01        -0.13493E-01         0.00000E+00
    0.93667E-02        -0.12169E-01         0.00000E+00
    0.83927E-02        -0.10839E-01         0.00000E+00
    0.74027E-02        -0.95034E-02         0.00000E+00
    0.63952E-02        -0.81624E-02         0.00000E+00
    0.53692E-02        -0.68170E-02         0.00000E+00
    0.43240E-02        -0.54693E-02         0.00000E+00
    0.32624E-02        -0.41197E-02         0.00000E+00
    0.21895E-02        -0.27664E-02         0.00000E+00
    0.11032E-02        -0.13978E-02         0.00000E+00
    0.00000E+00         0.00000E+00         0.00000E+00
    0.49514E-01        -0.68750E-01         0.00000E+00
    0.47981E-01        -0.67520E-01         0.00000E+00
    0.46504E-01        -0.66288E-01         0.00000E+00
    0.45082E-01        -0.65055E-01         0.00000E+00
    0.43712E-01        -0.63819E-01         0.00000E+00
    0.42390E-01        -0.62581E-01         0.00000E+00
    0.41116E-01        -0.61338E-01         0.00000E+00
    0.39886E-01        -0.60092E-01         0.00000E+00
    0.38697E-01        -0.58841E-01         0.00000E+00
    0.37548E-01        -0.57585E-01         0.00000E+00
    0.36436E-01        -0.56324E-01         0.00000E+00
    0.35359E-01        -0.55057E-01         0.00000E+00
    0.34315E-01        -0.53784E-01         0.00000E+00
    0.33300E-01        -0.52505E-01         0.00000E+00
    0.32314E-01        -0.51219E-01         0.00000E+00
    0.31353E-01        -0.49928E-01         0.00000E+00
    0.30416E-01        -0.48629E-01         0.00000E+00
    0.29501E-01        -0.47324E-01         0.00000E+00
    0.28605E-01        -0.46012E-01         0.00000E+00
    0.27727E-01        -0.44693E-01         0.00000E+00
    0.26865E-01        -0.43367E-01         0.00000E+00
    0.26016E-01        -0.42034E-01         0.00000E+00
    0.25179E-01        -0.40694E-01         0.00000E+00
    0.24352E-01        -0.39347E-01         0.00000E+00
    0.23534E-01        -0.37993E-01         0.00000E+00
    0.22721E-01        -0.36631E-01         0.00000E+00
    0.21914E-01        -0.35263E-01         0.00000E+00
    0.21110E-01        -0.33887E-01         0.00000E+00
    0.20306E-01        -0.32504E-01         0.00000E+00
    0.19503E-01        -0.31114E-01         0.00000E+00
    0.18697E-01        -0.29717E-01         0.00000E+00
    0.17888E-01        -0.28312E-01         0.00000E+00
    0.17073E-01        -0.26900E-01         0.00000E+00
    0.16252E-01        -0.25481E-01         0.00000E+00
    0.15422E-01        -0.24055E-01         0.00000E+00
    0.14582E-01        -0.22622E-01         0.00000E+00
    0.13730E-01        -0.21181E-01         0.00000E+00
    0.12866E-01        -0.19734E-01         0.00000E+00
    0.11987E-01        -0.18280E-01         0.00000E+00
    0.11092E-01        -0.16819E-01         0.00000E+00
    0.10180E-01        -0.15351E-01         0.00000E+00
    0.92492E-02        -0.13875E-01         0.00000E+00
    0.82971E-02        -0.12394E-01         0.00000E+00
    0.73234E-02        -0.10910E-01         0.00000E+00
    0.63309E-02        -0.94221E-02         0.00000E+00
    0.53206E-02        -0.79257E-02         0.00000E+00
    0.42938E-02        -0.64095E-02         0.00000E+00
    0.32448E-02        -0.48584E-02         0.00000E+00
    0.21798E-02        -0.32725E-02         0.00000E+00
    0.10984E-02        -0.16516E-02         0.00000E+00
    0.00000E+00         0.00000E+00         0.00000E+00
    0.47231E-01        -0.76670E-01         0.00000E+00
    0.45666E-01        -0.75281E-01         0.00000E+00
    0.44169E-01        -0.73891E-01         0.00000E+00
    0.42735E-01        -0.72500E-01         0.00000E+00
    0.41363E-01        -0.71106E-01         0.00000E+00
    0.40048E-01        -0.69709E-01         0.00000E+00
    0.38787E-01        -0.68309E-01         0.00000E+00
    0.37578E-01        -0.66904E-01         0.00000E+00
    0.36417E-01        -0.65496E-01         0.00000E+00
    0.35302E-01        -0.64082E-01         0.00000E+00
    0.34228E-01        -0.62664E-01         0.00000E+00
    0.33194E-01        -0.61240E-01         0.00000E+00
    0.32197E-01        -0.59812E-01         0.00000E+00
    0.31233E-01        -0.58377E-01         0.00000E+00
    0.30301E-01        -0.56937E-01         0.00000E+00
    0.29398E-01        -0.55491E-01         0.00000E+00
    0.28521E-01        -0.54039E-01         0.00000E+00
    0.27668E-01        -0.52582E-01         0.00000E+00
    0.26836E-01        -0.51118E-01         0.00000E+00
    0.26023E-01        -0.49649E-01         0.00000E+00
    0.25228E-01        -0.48173E-01         0.00000E+00
    0.24447E-01        -0.46692E-01         0.00000E+00
    0.23679E-01        -0.45204E-01         0.00000E+00
    0.22922E-01        -0.43710E-01         0.00000E+00
    0.22174E-01        -0.42210E-01         0.00000E+00
    0.21433E-01        -0.40704E-01         0.00000E+00
    0.20697E-01        -0.39192E-01         0.00000E+00
    0.19963E-01        -0.37674E-01         0.00000E+00
    0.19231E-01        -0.36149E-01         0.00000E+00
    0.18499E-01        -0.34618E-01         0.00000E+00
    0.17763E-01        -0.33080E-01         0.00000E+00
    0.17024E-01        -0.31536E-01         0.00000E+00
    0.16278E-01        -0.29985E-01         0.00000E+00
    0.15525E-01        -0.28427E-01         0.00000E+00
    0.14762E-01        -0.26863E-01         0.00000E+00
    0.13987E-01        -0.25292E-01         0.00000E+00
    0.13198E-01        -0.23714E-01         0.00000E+00
    0.12394E-01        -0.22129E-01         0.00000E+00
    0.11572E-01        -0.20537E-01         0.00000E+00
    0.10730E-01        -0.18938E-01         0.00000E+00
    0.98652E-02        -0.17333E-01         0.00000E+00
    0.89793E-02        -0.15725E-01         0.00000E+00
    0.80734E-02        -0.14108E-01         0.00000E+00
    0.71448E-02        -0.12463E-01         0.00000E+00
    0.61956E-02        -0.10785E-01         0.00000E+00
    0.52278E-02        -0.90700E-02         0.00000E+00
    0.42396E-02        -0.73172E-02         0.00000E+00
    0.32288E-02        -0.55316E-02         0.00000E+00
    0.21887E-02        -0.37147E-02         0.00000E+00
    0.11131E-02        -0.18701E-02         0.00000E+00
    0.00000E+00         0.00000E+00         0.00000E+00
    0.43652E-01        -0.84677E-01         0.00000E+00
    0.42097E-01        -0.83117E-01         0.00000E+00
    0.40620E-01        -0.81556E-01         0.00000E+00
    0.39217E-01        -0.79993E-01         0.00000E+00
    0.37882E-01        -0.78428E-01         0.00000E+00
    0.36613E-01        -0.76861E-01         0.00000E+00
    0.35405E-01        -0.75290E-01         0.00000E+00
    0.34255E-01        -0.73716E-01         0.00000E+00
    0.33158E-01        -0.72138E-01         0.00000E+00
    0.32110E-01        -0.70557E-01         0.00000E+00
    0.31110E-01        -0.68971E-01         0.00000E+00
    0.30152E-01        -0.67381E-01         0.00000E+00
    0.29233E-01        -0.65787E-01         0.00000E+00
    0.28352E-01        -0.64189E-01         0.00000E+00
    0.27503E-01        -0.62586E-01         0.00000E+00
    0.26685E-01        -0.60979E-01         0.00000E+00
    0.25895E-01        -0.59367E-01         0.00000E+00
    0.25130E-01        -0.57752E-01         0.00000E+00
    0.24387E-01        -0.56132E-01         0.00000E+00
    0.23664E-01        -0.54508E-01         0.00000E+00
    0.22958E-01        -0.52879E-01         0.00000E+00
    0.22268E-01        -0.51247E-01         0.00000E+00
    0.21591E-01        -0.49610E-01         0.00000E+00
    0.20925E-01        -0.47969E-01         0.00000E+00
    0.20267E-01        -0.46324E-01         0.00000E+00
    0.19617E-01        -0.44675E-01         0.00000E+00
    0.18971E-01        -0.43021E-01         0.00000E+00
    0.18328E-01        -0.41363E-01         0.00000E+00
    0.17687E-01        -0.39701E-01         0.00000E+00
    0.17045E-01        -0.38034E-01         0.00000E+00
    0.16400E-01        -0.36362E-01         0.00000E+00
    0.15750E-01        -0.34685E-01         0.00000E+00
    0.15094E-01        -0.33003E-01         0.00000E+00
    0.14430E-01        -0.31316E-01         0.00000E+00
    0.13754E-01        -0.29623E-01         0.00000E+00
    0.13067E-01        -0.27925E-01         0.00000E+00
    0.12364E-01        -0.26221E-01         0.00000E+00
    0.11643E-01        -0.24510E-01         0.00000E+00
    0.10902E-01        -0.22793E-01         0.00000E+00
    0.10142E-01        -0.21073E-01         0.00000E+00
    0.93609E-02        -0.19332E-01         0.00000E+00
    0.85597E-02        -0.17559E-01         0.00000E+00
    0.77394E-02        -0.15747E-01         0.00000E+00
    0.68980E-02        -0.13896E-01         0.00000E+00
    0.60314E-02        -0.12008E-01         0.00000E+00
    0.51328E-02        -0.10084E-01         0.00000E+00
    0.41954E-02        -0.81258E-02         0.00000E+00
    0.32161E-02        -0.61360E-02         0.00000E+00
    0.21921E-02        -0.41172E-02         0.00000E+00
    0.11208E-02        -0.20713E-02         0.00000E+00
    0.00000E+00         0.00000E+00         0.00000E+00
    0.38605E-01        -0.92528E-01         0.00000E+00
    0.37116E-01        -0.90784E-01         0.00000E+00
    0.35713E-01        -0.89039E-01         0.00000E+00
    0.34391E-01        -0.87294E-01         0.00000E+00
    0.33145E-01        -0.85546E-01         0.00000E+00
    0.31971E-01        -0.83797E-01         0.00000E+00
    0.30862E-01        -0.82046E-01         0.00000E+00
    0.29815E-01        -0.80292E-01         0.00000E+00
    0.28825E-01        -0.78535E-01         0.00000E+00
    0.27888E-01        -0.76776E-01         0.00000E+00
    0.26999E-01        -0.75014E-01         0.00000E+00
    0.26155E-01        -0.73250E-01         0.00000E+00
    0.25352E-01        -0.71483E-01         0.00000E+00
    0.24585E-01        -0.69715E-01         0.00000E+00
    0.23853E-01        -0.67943E-01         0.00000E+00
    0.23150E-01        -0.66170E-01         0.00000E+00
    0.22475E-01        -0.64395E-01         0.00000E+00
    0.21825E-01        -0.62619E-01         0.00000E+00
    0.21196E-01        -0.60840E-01         0.00000E+00
    0.20586E-01        -0.59061E-01         0.00000E+00
    0.19993E-01        -0.57280E-01         0.00000E+00
    0.19414E-01        -0.55497E-01         0.00000E+00
    0.18848E-01        -0.53714E-01         0.00000E+00
    0.18292E-01        -0.51929E-01         0.00000E+00
    0.17744E-01        -0.50142E-01         0.00000E+00
    0.17202E-01        -0.48355E-01         0.00000E+00
    0.16665E-01        -0.46565E-01         0.00000E+00
    0.16131E-01        -0.44774E-01         0.00000E+00
    0.15597E-01        -0.42981E-01         0.00000E+00
    0.15063E-01        -0.41186E-01         0.00000E+00
    0.14527E-01        -0.39389E-01         0.00000E+00
    0.13986E-01        -0.37589E-01         0.00000E+00
    0.13440E-01        -0.35786E-01         0.00000E+00
    0.12885E-01        -0.33979E-01         0.00000E+00
    0.12321E-01        -0.32169E-01         0.00000E+00
    0.11744E-01        -0.30355E-01         0.00000E+00
    0.11154E-01        -0.28536E-01         0.00000E+00
    0.10550E-01        -0.26712E-01         0.00000E+00
    0.99297E-02        -0.24872E-01         0.00000E+00
    0.92940E-02        -0.23001E-01         0.00000E+00
    0.86425E-02        -0.21094E-01         0.00000E+00
    0.79706E-02        -0.19149E-01         0.00000E+00
    0.72723E-02        -0.17167E-01         0.00000E+00
    0.65407E-02        -0.15147E-01         0.00000E+00
    0.57686E-02        -0.13089E-01         0.00000E+00
    0.49503E-02        -0.10993E-01         0.00000E+00
    0.40810E-02        -0.88615E-02         0.00000E+00
    0.31552E-02        -0.66945E-02         0.00000E+00
    0.21684E-02        -0.44934E-02         0.00000E+00
    0.11187E-02        -0.22606E-02         0.00000E+00
    0.00000E+00         0.00000E+00         0.00000E+00
    0.31945E-01        -0.99906E-01         0.00000E+00
    0.30587E-01        -0.97970E-01         0.00000E+00
    0.29322E-01        -0.96033E-01         0.00000E+00
    0.28144E-01        -0.94095E-01         0.00000E+00
    0.27046E-01        -0.92157E-01         0.00000E+00
    0.26024E-01        -0.90217E-01         0.00000E+00
    0.25071E-01        -0.88275E-01         0.00000E+00
    0.24181E-01        -0.86333E-01         0.00000E+00
    0.23350E-01        -0.84389E-01         0.00000E+00
    0.22571E-01        -0.82445E-01         0.00000E+00
    0.21839E-01        -0.80501E-01         0.00000E+00
    0.21151E-01        -0.78557E-01         0.00000E+00
    0.20502E-01        -0.76614E-01         0.00000E+00
    0.19887E-01        -0.74672E-01         0.00000E+00
    0.19303E-01        -0.72731E-01         0.00000E+00
    0.18746E-01        -0.70792E-01         0.00000E+00
    0.18214E-01        -0.68855E-01         0.00000E+00
    0.17703E-01        -0.66921E-01         0.00000E+00
    0.17211E-01        -0.64988E-01         0.00000E+00
    0.16736E-01        -0.63058E-01         0.00000E+00
    0.16275E-01        -0.61131E-01         0.00000E+00
    0.15826E-01        -0.59206E-01         0.00000E+00
    0.15388E-01        -0.57283E-01         0.00000E+00
    0.14958E-01        -0.55363E-01         0.00000E+00
    0.14535E-01        -0.53445E-01         0.00000E+00
    0.14117E-01        -0.51528E-01         0.00000E+00
    0.13703E-01        -0.49613E-01         0.00000E+00
    0.13291E-01        -0.47700E-01         0.00000E+00
    0.12880E-01        -0.45787E-01         0.00000E+00
    0.12469E-01        -0.43876E-01         0.00000E+00
    0.12056E-01        -0.41964E-01         0.00000E+00
    0.11640E-01        -0.40052E-01         0.00000E+00
    0.11220E-01        -0.38140E-01         0.00000E+00
    0.10795E-01        -0.36226E-01         0.00000E+00
    0.10362E-01        -0.34310E-01         0.00000E+00
    0.99227E-02        -0.32392E-01         0.00000E+00
    0.94750E-02        -0.30464E-01         0.00000E+00
    0.90181E-02        -0.28522E-01         0.00000E+00
    0.85517E-02        -0.26552E-01         0.00000E+00
    0.80720E-02        -0.24552E-01         0.00000E+00
    0.75733E-02        -0.22521E-01         0.00000E+00
    0.70500E-02        -0.20455E-01         0.00000E+00
    0.64956E-02        -0.18351E-01         0.00000E+00
    0.59030E-02        -0.16209E-01         0.00000E+00
    0.52637E-02        -0.14024E-01         0.00000E+00
    0.45701E-02        -0.11796E-01         0.00000E+00
    0.38148E-02        -0.95237E-02         0.00000E+00
    0.29914E-02        -0.72058E-02         0.00000E+00
    0.20922E-02        -0.48432E-02         0.00000E+00
    0.10976E-02        -0.24402E-02         0.00000E+00
    0.00000E+00         0.00000E+00         0.00000E+00
    0.23562E-01        -0.10647E+00         0.00000E+00
    0.22408E-01        -0.10432E+00         0.00000E+00
    0.21352E-01        -0.10217E+00         0.00000E+00
    0.20391E-01        -0.10003E+00         0.00000E+00
    0.19516E-01        -0.97882E-01         0.00000E+00
    0.18718E-01        -0.95736E-01         0.00000E+00
    0.17989E-01        -0.93593E-01         0.00000E+00
    0.17320E-01        -0.91452E-01         0.00000E+00
    0.16705E-01        -0.89315E-01         0.00000E+00
    0.16137E-01        -0.87182E-01         0.00000E+00
    0.15611E-01        -0.85054E-01         0.00000E+00
    0.15122E-01        -0.82933E-01         0.00000E+00
    0.14664E-01        -0.80818E-01         0.00000E+00
    0.14234E-01        -0.78710E-01         0.00000E+00
    0.13828E-01        -0.76609E-01         0.00000E+00
    0.13444E-01        -0.74516E-01         0.00000E+00
    0.13077E-01        -0.72430E-01         0.00000E+00
    0.12727E-01        -0.70353E-01         0.00000E+00
    0.12390E-01        -0.68283E-01         0.00000E+00
    0.12066E-01        -0.66220E-01         0.00000E+00
    0.11752E-01        -0.64164E-01         0.00000E+00
    0.11446E-01        -0.62115E-01         0.00000E+00
    0.11148E-01        -0.60073E-01         0.00000E+00
    0.10856E-01        -0.58037E-01         0.00000E+00
    0.10569E-01        -0.56006E-01         0.00000E+00
    0.10285E-01        -0.53980E-01         0.00000E+00
    0.10004E-01        -0.51959E-01         0.00000E+00
    0.97244E-02        -0.49942E-01         0.00000E+00
    0.94459E-02        -0.47928E-01         0.00000E+00
    0.91674E-02        -0.45917E-01         0.00000E+00
    0.88883E-02        -0.43909E-01         0.00000E+00
    0.86079E-02        -0.41902E-01         0.00000E+00
    0.83258E-02        -0.39896E-01         0.00000E+00
    0.80417E-02        -0.37890E-01         0.00000E+00
    0.77552E-02        -0.35882E-01         0.00000E+00
    0.74660E-02        -0.33868E-01         0.00000E+00
    0.71739E-02        -0.31847E-01         0.00000E+00
    0.68775E-02        -0.29811E-01         0.00000E+00
    0.65726E-02        -0.27752E-01         0.00000E+00
    0.62554E-02        -0.25669E-01         0.00000E+00
    0.59222E-02        -0.23559E-01         0.00000E+00
    0.55683E-02        -0.21418E-01         0.00000E+00
    0.51880E-02        -0.19241E-01         0.00000E+00
    0.47743E-02        -0.17024E-01         0.00000E+00
    0.43185E-02        -0.14762E-01         0.00000E+00
    0.38107E-02        -0.12449E-01         0.00000E+00
    0.32403E-02        -0.10080E-01         0.00000E+00
    0.25962E-02        -0.76509E-02         0.00000E+00
    0.18595E-02        -0.51593E-02         0.00000E+00
    0.99558E-03        -0.26066E-02         0.00000E+00
    0.00000E+00         0.00000E+00         0.00000E+00
    0.13200E-01        -0.11179E+00         0.00000E+00
    0.12370E-01        -0.10940E+00         0.00000E+00
    0.11667E-01        -0.10700E+00         0.00000E+00
    0.11061E-01        -0.10461E+00         0.00000E+00
    0.10532E-01        -0.10222E+00         0.00000E+00
    0.10063E-01        -0.99844E-01         0.00000E+00
    0.96455E-02        -0.97480E-01         0.00000E+00
    0.92700E-02        -0.95132E-01         0.00000E+00
    0.89300E-02        -0.92798E-01         0.00000E+00
    0.86206E-02        -0.90481E-01         0.00000E+00
    0.83382E-02        -0.88182E-01         0.00000E+00
    0.80791E-02        -0.85901E-01         0.00000E+00
    0.78398E-02        -0.83640E-01         0.00000E+00
    0.76173E-02        -0.81398E-01         0.00000E+00
    0.74092E-02        -0.79175E-01         0.00000E+00
    0.72133E-02        -0.76967E-01         0.00000E+00
    0.70276E-02        -0.74772E-01         0.00000E+00
    0.68501E-02        -0.72590E-01         0.00000E+00
    0.66798E-02        -0.70421E-01         0.00000E+00
    0.65157E-02        -0.68264E-01         0.00000E+00
    0.63568E-02        -0.66117E-01         0.00000E+00
    0.62025E-02        -0.63982E-01         0.00000E+00
    0.60518E-02        -0.61856E-01         0.00000E+00
    0.59042E-02        -0.59739E-01         0.00000E+00
    0.57590E-02        -0.57630E-01         0.00000E+00
    0.56157E-02        -0.55529E-01         0.00000E+00
    0.54737E-02        -0.53434E-01         0.00000E+00
    0.53327E-02        -0.51344E-01         0.00000E+00
    0.51921E-02        -0.49260E-01         0.00000E+00
    0.50516E-02        -0.47179E-01         0.00000E+00
    0.49112E-02        -0.45101E-01         0.00000E+00
    0.47705E-02        -0.43025E-01         0.00000E+00
    0.46296E-02        -0.40951E-01         0.00000E+00
    0.44888E-02        -0.38876E-01         0.00000E+00
    0.43484E-02        -0.36800E-01         0.00000E+00
    0.42083E-02        -0.34721E-01         0.00000E+00
    0.40678E-02        -0.32634E-01         0.00000E+00
    0.39254E-02        -0.30540E-01         0.00000E+00
    0.37788E-02        -0.28433E-01         0.00000E+00
    0.36255E-02        -0.26306E-01         0.00000E+00
    0.34631E-02        -0.24156E-01         0.00000E+00
    0.32893E-02        -0.21978E-01         0.00000E+00
    0.31007E-02        -0.19768E-01         0.00000E+00
    0.28932E-02        -0.17520E-01         0.00000E+00
    0.26613E-02        -0.15228E-01         0.00000E+00
    0.23970E-02        -0.12884E-01         0.00000E+00
    0.20900E-02        -0.10479E-01         0.00000E+00
    0.17268E-02        -0.80013E-02         0.00000E+00
    0.12888E-02        -0.54383E-02         0.00000E+00
    0.74050E-03        -0.27755E-02         0.00000E+00
    0.00000E+00         0.00000E+00         0.00000E+00
    0.00000E+00        -0.11447E+00         0.00000E+00
    0.00000E+00        -0.11183E+00         0.00000E+00
    0.00000E+00        -0.10921E+00         0.00000E+00
    0.00000E+00        -0.10662E+00         0.00000E+00
    0.00000E+00        -0.10406E+00         0.00000E+00
    0.00000E+00        -0.10154E+00         0.00000E+00
    0.00000E+00        -0.99048E-01         0.00000E+00
    0.00000E+00        -0.96587E-01         0.00000E+00
    0.00000E+00        -0.94152E-01         0.00000E+00
    0.00000E+00        -0.91742E-01         0.00000E+00
    0.00000E+00        -0.89357E-01         0.00000E+00
    0.00000E+00        -0.87000E-01         0.00000E+00
    0.00000E+00        -0.84668E-01         0.00000E+00
    0.00000E+00        -0.82361E-01         0.00000E+00
    0.00000E+00        -0.80080E-01         0.00000E+00
    0.00000E+00        -0.77822E-01         0.00000E+00
    0.00000E+00        -0.75586E-01         0.00000E+00
    0.00000E+00        -0.73367E-01         0.00000E+00
    0.00000E+00        -0.71162E-01         0.00000E+00
    0.00000E+00        -0.68971E-01         0.00000E+00
    0.00000E+00        -0.66792E-01         0.00000E+00
    0.00000E+00        -0.64625E-01         0.00000E+00
    0.00000E+00        -0.62469E-01         0.00000E+00
    0.00000E+00        -0.60323E-01         0.00000E+00
    0.00000E+00        -0.58187E-01         0.00000E+00
    0.00000E+00        -0.56058E-01         0.00000E+00
    0.00000E+00        -0.53936E-01         0.00000E+00
    0.00000E+00        -0.51820E-01         0.00000E+00
    0.00000E+00        -0.49710E-01         0.00000E+00
    0.00000E+00        -0.47603E-01         0.00000E+00
    0.00000E+00        -0.45499E-01         0.00000E+00
    0.00000E+00        -0.43398E-01         0.00000E+00
    0.00000E+00        -0.41296E-01         0.00000E+00
    0.00000E+00        -0.39195E-01         0.00000E+00
    0.00000E+00        -0.37092E-01         0.00000E+00
    0.00000E+00        -0.34987E-01         0.00000E+00
    0.00000E+00        -0.32881E-01         0.00000E+00
    0.00000E+00        -0.30768E-01         0.00000E+00
    0.00000E+00        -0.28644E-01         0.00000E+00
    0.00000E+00        -0.26504E-01         0.00000E+00
    0.00000E+00        -0.24342E-01         0.00000E+00
    0.00000E+00        -0.22155E-01         0.00000E+00
    0.00000E+00        -0.19938E-01         0.00000E+00
    0.00000E+00        -0.17685E-01         0.00000E+00
    0.00000E+00        -0.15391E-01         0.00000E+00
    0.00000E+00        -0.13046E-01         0.00000E+00
    0.00000E+00        -0.10640E-01         0.00000E+00
    0.00000E+00        -0.81576E-02         0.00000E+00
    0.00000E+00        -0.55791E-02         0.00000E+00
    0.00000E+00        -0.28751E-02         0.00000E+00
    0.00000E+00         0.00000E+00         0.00000E+00
CELL_DATA       5000
VECTORS vDarcy double 
    0.20118E-13         0.00000E+00         0.00000E+00
    0.20118E-13         0.23283E-20         0.00000E+00
    0.20118E-13         0.46566E-20         0.00000E+00
    0.20118E-13         0.18626E-20         0.00000E+00
    0.20118E-13         0.41910E-20         0.00000E+00
    0.20118E-13         0.88476E-20         0.00000E+00
    0.20118E-13         0.53551E-20         0.00000E+00
    0.20118E-13         0.23283E-20         0.00000E+00
    0.20118E-13         0.27940E-20         0.00000E+00
    0.20118E-13         0.46566E-21         0.00000E+00
    0.20118E-13        -0.18626E-20         0.00000E+00
    0.20118E-13         0.23283E-21         0.00000E+00
    0.20118E-13        -0.27940E-20         0.00000E+00
    0.20118E-13         0.55879E-20         0.00000E+00
    0.20118E-13         0.25611E-20         0.00000E+00
    0.20118E-13        -0.23283E-20         0.00000E+00
    0.20118E-13         0.23283E-20         0.00000E+00
    0.20118E-13         0.27940E-20         0.00000E+00
    0.20118E-13         0.23283E-20         0.00000E+00
    0.20118E-13        -0.18626E-20         0.00000E+00
    0.20118E-13         0.00000E+00         0.00000E+00
    0.20118E-13        -0.23283E-20         0.00000E+00
    0.20118E-13         0.00000E+00         0.00000E+00
    0.20118E-13         0.27940E-20         0.00000E+00
    0.20118E-13        -0.13970E-20         0.00000E+00
    0.20118E-13         0.46566E-21         0.00000E+00
    0.20118E-13         0.46566E-21         0.00000E+00
    0.20118E-13         0.23283E-20         0.00000E+00
    0.20118E-13         0.00000E+00         0.00000E+00
    0.20118E-13         0.23283E-20         0.00000E+00
    0.20118E-13         0.00000E+00         0.00000E+00
    0.20118E-13         0.46566E-20         0.00000E+00
    0.20118E-13         0.00000E+00         0.00000E+00
    0.20118E-13        -0.18626E-20         0.00000E+00
    0.20118E-13         0.23283E-20         0.00000E+00
    0.20118E-13         0.00000E+00         0.00000E+00
    0.20118E-13        -0.23283E-20         0.00000E+00
    0.20118E-13         0.46566E-20         0.00000E+00
    0.20118E-13         0.00000E+00         0.00000E+00
    0.20118E-13         0.23283E-20         0.00000E+00
    0.20118E-13         0.53551E-20         0.00000E+00
    0.20118E-13         0.23283E-21         0.00000E+00
    0.20118E-13         0.23283E-20         0.00000E+00
    0.20118E-13         0.39581E-20         0.00000E+00
    0.20118E-13        -0.46566E-21         0.00000E+00
    0.20118E-13         0.23283E-20         0.00000E+00
    0.20118E-13         0.18626E-20         0.00000E+00
    0.20118E-13         0.69849E-20         0.00000E+00
    0.20118E-13         0.23283E-20         0.00000E+00
    0.20118E-13         0.37253E-20         0.00000E+00
    0.20956E-13         0.00000E+00         0.00000E+00
    0.20956E-13         0.93132E-20         0.00000E+00
    0.20956E-13         0.17695E-19         0.00000E+00
    0.20956E-13         0.19092E-19         0.00000E+00
    0.20956E-13         0.12340E-19         0.00000E+00
    0.20956E-13         0.10710E-19         0.00000E+00
    0.20956E-13         0.37253E-20         0.00000E+00
    0.20956E-13         0.18626E-20         0.00000E+00
    0.20956E-13         0.23283E-20         0.00000E+00
    0.20956E-13         0.18626E-20         0.00000E+00
    0.20956E-13         0.46566E-21         0.00000E+00
    0.20956E-13        -0.39581E-20         0.00000E+00
    0.20956E-13         0.00000E+00         0.00000E+00
    0.20956E-13         0.81491E-20         0.00000E+00
    0.20956E-13         0.76834E-20         0.00000E+00
    0.20956E-13         0.74506E-20         0.00000E+00
    0.20956E-13        -0.23283E-20         0.00000E+00
    0.20956E-13         0.27940E-20         0.00000E+00
    0.20956E-13         0.65193E-20         0.00000E+00
    0.20956E-13         0.51223E-20         0.00000E+00
    0.20956E-13         0.17229E-19         0.00000E+00
    0.20956E-13         0.12573E-19         0.00000E+00
    0.20956E-13         0.00000E+00         0.00000E+00
    0.20956E-13         0.00000E+00         0.00000E+00
    0.20956E-13         0.46566E-21         0.00000E+00
    0.20956E-13         0.23283E-20         0.00000E+00
    0.20956E-13        -0.23283E-21         0.00000E+00
    0.20956E-13        -0.69849E-20         0.00000E+00
    0.20956E-13        -0.74506E-20         0.00000E+00
    0.20956E-13        -0.69849E-20         0.00000E+00
    0.20956E-13         0.46566E-20         0.00000E+00
    0.20956E-13         0.18626E-20         0.00000E+00
    0.20956E-13         0.27940E-20         0.00000E+00
    0.20956E-13        -0.18626E-20         0.00000E+00
    0.20956E-13         0.18626E-20         0.00000E+00
    0.20956E-13         0.00000E+00         0.00000E+00
    0.20956E-13         0.74506E-20         0.00000E+00
    0.20956E-13        -0.46566E-21         0.00000E+00
    0.20956E-13         0.00000E+00         0.00000E+00
    0.20956E-13        -0.46566E-21         0.00000E+00
    0.20956E-13         0.13970E-20         0.00000E+00
    0.20956E-13         0.37253E-20         0.00000E+00
    0.20956E-13        -0.27940E-20         0.00000E+00
    0.20956E-13        -0.46566E-20         0.00000E+00
    0.20956E-13         0.23283E-21         0.00000E+00
    0.20956E-13         0.46566E-20         0.00000E+00
    0.20956E-13         0.13737E-19         0.00000E+00
    0.20956E-13         0.97789E-20         0.00000E+00
    0.20956E-13         0.93132E-20         0.00000E+00
    0.20956E-13         0.13970E-20         0.00000E+00
    0.22665E-13         0.23283E-20         0.00000E+00
    0.22665E-13         0.17928E-19         0.00000E+00
    0.22665E-13         0.22585E-19         0.00000E+00
    0.22665E-13         0.24680E-19         0.00000E+00
    0.22665E-13         0.24680E-19         0.00000E+00
    0.22665E-13         0.17229E-19         0.00000E+00
    0.22665E-13         0.44238E-20         0.00000E+00
    0.22665E-13        -0.27940E-20         0.00000E+00
    0.22665E-13         0.20955E-20         0.00000E+00
    0.22665E-13         0.44238E-20         0.00000E+00
    0.22665E-13         0.27940E-20         0.00000E+00
    0.22665E-13        -0.10710E-19         0.00000E+00
    0.22665E-13        -0.69849E-20         0.00000E+00
    0.22665E-13        -0.69849E-21         0.00000E+00
    0.22665E-13         0.69849E-20         0.00000E+00
    0.22665E-13        -0.23283E-20         0.00000E+00
    0.22665E-13         0.46566E-20         0.00000E+00
    0.22665E-13         0.97789E-20         0.00000E+00
    0.22665E-13         0.14901E-19         0.00000E+00
    0.22665E-13         0.55879E-20         0.00000E+00
    0.22665E-13         0.15832E-19         0.00000E+00
    0.22665E-13         0.32596E-20         0.00000E+00
    0.22665E-13        -0.93132E-21         0.00000E+00
    0.22665E-13        -0.27940E-20         0.00000E+00
    0.22665E-13         0.46566E-21         0.00000E+00
    0.22665E-13         0.60536E-20         0.00000E+00
    0.22665E-13        -0.16298E-20         0.00000E+00
    0.22665E-13        -0.69849E-21         0.00000E+00
    0.22665E-13        -0.93132E-21         0.00000E+00
    0.22665E-13        -0.90804E-20         0.00000E+00
    0.22665E-13         0.32596E-20         0.00000E+00
    0.22665E-13         0.25611E-20         0.00000E+00
    0.22665E-13         0.37253E-20         0.00000E+00
    0.22665E-13         0.65193E-20         0.00000E+00
    0.22665E-13         0.11642E-19         0.00000E+00
    0.22665E-13        -0.23283E-20         0.00000E+00
    0.22665E-13         0.46566E-21         0.00000E+00
    0.22665E-13        -0.13970E-20         0.00000E+00
    0.22665E-13         0.18626E-20         0.00000E+00
    0.22665E-13        -0.69849E-20         0.00000E+00
    0.22665E-13         0.93132E-21         0.00000E+00
    0.22665E-13        -0.18626E-20         0.00000E+00
    0.22665E-13         0.60536E-20         0.00000E+00
    0.22665E-13        -0.16764E-19         0.00000E+00
    0.22665E-13        -0.18626E-20         0.00000E+00
    0.22665E-13         0.23283E-21         0.00000E+00
    0.22665E-13         0.53551E-20         0.00000E+00
    0.22665E-13         0.23283E-21         0.00000E+00
    0.22665E-13        -0.46566E-20         0.00000E+00
    0.22665E-13         0.37253E-20         0.00000E+00
    0.25316E-13        -0.32596E-20         0.00000E+00
    0.25316E-13         0.46566E-21         0.00000E+00
    0.25316E-13         0.10245E-19         0.00000E+00
    0.25316E-13         0.41910E-20         0.00000E+00
    0.25316E-13         0.10710E-19         0.00000E+00
    0.25316E-13         0.10710E-19         0.00000E+00
    0.25316E-13         0.97789E-20         0.00000E+00
    0.25316E-13         0.00000E+00         0.00000E+00
    0.25316E-13        -0.37253E-20         0.00000E+00
    0.25316E-13         0.37253E-20         0.00000E+00
    0.25316E-13        -0.51223E-20         0.00000E+00
    0.25316E-13        -0.79162E-20         0.00000E+00
    0.25316E-13        -0.74506E-20         0.00000E+00
    0.25316E-13         0.93132E-21         0.00000E+00
    0.25316E-13         0.13970E-20         0.00000E+00
    0.25316E-13         0.32596E-20         0.00000E+00
    0.25316E-13         0.55879E-20         0.00000E+00
    0.25316E-13         0.10245E-19         0.00000E+00
    0.25316E-13         0.14901E-19         0.00000E+00
    0.25316E-13         0.18626E-19         0.00000E+00
    0.25316E-13         0.93132E-21         0.00000E+00
    0.25316E-13        -0.65193E-20         0.00000E+00
    0.25316E-13        -0.60536E-20         0.00000E+00
    0.25316E-13        -0.93132E-21         0.00000E+00
    0.25316E-13        -0.23283E-20         0.00000E+00
    0.25316E-13        -0.23283E-20         0.00000E+00
    0.25316E-13        -0.51223E-20         0.00000E+00
    0.25316E-13         0.69849E-20         0.00000E+00
    0.25316E-13         0.10245E-19         0.00000E+00
    0.25316E-13         0.12107E-19         0.00000E+00
    0.25316E-13         0.51223E-20         0.00000E+00
    0.25316E-13         0.10245E-19         0.00000E+00
    0.25316E-13         0.23283E-20         0.00000E+00
    0.25316E-13         0.00000E+00         0.00000E+00
    0.25316E-13         0.37253E-20         0.00000E+00
    0.25316E-13        -0.69849E-20         0.00000E+00
    0.25316E-13        -0.46566E-20         0.00000E+00
    0.25316E-13         0.51223E-20         0.00000E+00
    0.25316E-13         0.23283E-20         0.00000E+00
    0.25316E-13        -0.93132E-21         0.00000E+00
    0.25316E-13         0.23283E-20         0.00000E+00
    0.25316E-13         0.60536E-20         0.00000E+00
    0.25316E-13         0.88476E-20         0.00000E+00
    0.25316E-13        -0.69849E-20         0.00000E+00
    0.25316E-13         0.10245E-19         0.00000E+00
    0.25316E-13         0.46566E-21         0.00000E+00
    0.25316E-13        -0.60536E-20         0.00000E+00
    0.25316E-13         0.13970E-20         0.00000E+00
    0.25316E-13        -0.11176E-19         0.00000E+00
    0.25316E-13         0.27940E-20         0.00000E+00
    0.29017E-13        -0.60536E-20         0.00000E+00
    0.29017E-13        -0.16764E-19         0.00000E+00
    0.29017E-13        -0.79162E-20         0.00000E+00
    0.29017E-13        -0.17462E-19         0.00000E+00
    0.29017E-13        -0.69849E-21         0.00000E+00
    0.29017E-13         0.79162E-20         0.00000E+00
    0.29017E-13         0.51223E-20         0.00000E+00
    0.29017E-13        -0.46566E-21         0.00000E+00
    0.29017E-13        -0.13970E-20         0.00000E+00
    0.29017E-13        -0.69849E-20         0.00000E+00
    0.29017E-13        -0.15832E-19         0.00000E+00
    0.29017E-13        -0.15832E-19         0.00000E+00
    0.29017E-13        -0.93132E-20         0.00000E+00
    0.29017E-13         0.13970E-20         0.00000E+00
    0.29017E-13         0.93132E-20         0.00000E+00
    0.29017E-13         0.14901E-19         0.00000E+00
    0.29017E-13         0.51223E-20         0.00000E+00
    0.29017E-13         0.00000E+00         0.00000E+00
    0.29017E-13         0.19558E-19         0.00000E+00
    0.29017E-13         0.18626E-19         0.00000E+00
    0.29017E-13         0.13970E-20         0.00000E+00
    0.29017E-13         0.10710E-19         0.00000E+00
    0.29017E-13        -0.32596E-20         0.00000E+00
    0.29017E-13         0.69849E-20         0.00000E+00
    0.29017E-13         0.11176E-19         0.00000E+00
    0.29017E-13        -0.37253E-20         0.00000E+00
    0.29017E-13         0.93132E-21         0.00000E+00
    0.29017E-13        -0.69849E-20         0.00000E+00
    0.29017E-13         0.60536E-20         0.00000E+00
    0.29017E-13         0.60536E-20         0.00000E+00
    0.29017E-13         0.93132E-20         0.00000E+00
    0.29017E-13        -0.93132E-21         0.00000E+00
    0.29017E-13        -0.74506E-20         0.00000E+00
    0.29017E-13        -0.46566E-21         0.00000E+00
    0.29017E-13        -0.74506E-20         0.00000E+00
    0.29017E-13        -0.12107E-19         0.00000E+00
    0.29017E-13        -0.32596E-20         0.00000E+00
    0.29017E-13         0.15367E-19         0.00000E+00
    0.29017E-13         0.12573E-19         0.00000E+00
    0.29017E-13         0.10710E-19         0.00000E+00
    0.29017E-13         0.15367E-19         0.00000E+00
    0.29017E-13         0.11176E-19         0.00000E+00
    0.29017E-13         0.16764E-19         0.00000E+00
    0.29017E-13         0.14435E-19         0.00000E+00
    0.29017E-13         0.10477E-19         0.00000E+00
    0.29017E-13         0.23283E-20         0.00000E+00
    0.29017E-13         0.41910E-20         0.00000E+00
    0.29017E-13         0.74506E-20         0.00000E+00
    0.29017E-13         0.00000E+00         0.00000E+00
    0.29017E-13        -0.27940E-20         0.00000E+00
    0.33918E-13        -0.23283E-20         0.00000E+00
    0.33918E-13         0.27940E-20         0.00000E+00
    0.33918E-13        -0.20955E-20         0.00000E+00
    0.33918E-13        -0.23283E-21         0.00000E+00
    0.33918E-13         0.65193E-20         0.00000E+00
    0.33918E-13        -0.41910E-20         0.00000E+00
    0.33918E-13        -0.13970E-20         0.00000E+00
    0.33918E-13        -0.41910E-20         0.00000E+00
    0.33918E-13        -0.12340E-19         0.00000E+00
    0.33918E-13        -0.26077E-19         0.00000E+00
    0.33918E-13        -0.69849E-20         0.00000E+00
    0.33918E-13        -0.97789E-20         0.00000E+00
    0.33918E-13        -0.16764E-19         0.00000E+00
    0.33918E-13        -0.74506E-20         0.00000E+00
    0.33918E-13        -0.74506E-20         0.00000E+00
    0.33918E-13        -0.97789E-20         0.00000E+00
    0.33918E-13        -0.37253E-20         0.00000E+00
    0.33918E-13         0.23283E-20         0.00000E+00
    0.33918E-13         0.55879E-20         0.00000E+00
    0.33918E-13         0.00000E+00         0.00000E+00
    0.33918E-13        -0.51223E-20         0.00000E+00
    0.33918E-13         0.51223E-20         0.00000E+00
    0.33918E-13         0.93132E-20         0.00000E+00
    0.33918E-13         0.93132E-21         0.00000E+00
    0.33918E-13         0.11176E-19         0.00000E+00
    0.33918E-13         0.12573E-19         0.00000E+00
    0.33918E-13         0.10245E-19         0.00000E+00
    0.33918E-13        -0.46566E-20         0.00000E+00
    0.33918E-13         0.55879E-20         0.00000E+00
    0.33918E-13         0.32596E-20         0.00000E+00
    0.33918E-13         0.18626E-20         0.00000E+00
    0.33918E-13         0.41910E-20         0.00000E+00
    0.33918E-13        -0.60536E-20         0.00000E+00
    0.33918E-13         0.27940E-20         0.00000E+00
    0.33918E-13        -0.27940E-20         0.00000E+00
    0.33918E-13         0.13970E-20         0.00000E+00
    0.33918E-13         0.51223E-20         0.00000E+00
    0.33918E-13         0.10710E-19         0.00000E+00
    0.33918E-13         0.55879E-20         0.00000E+00
    0.33918E-13         0.12107E-19         0.00000E+00
    0.33918E-13         0.20489E-19         0.00000E+00
    0.33918E-13         0.13504E-19         0.00000E+00
    0.33918E-13         0.23749E-19         0.00000E+00
    0.33918E-13         0.18161E-19         0.00000E+00
    0.33918E-13         0.13970E-19         0.00000E+00
    0.33918E-13         0.69849E-20         0.00000E+00
    0.33918E-13         0.93132E-21         0.00000E+00
    0.33918E-13         0.79162E-20         0.00000E+00
    0.33918E-13        -0.79162E-20         0.00000E+00
    0.33918E-13        -0.48894E-20         0.00000E+00
    0.40219E-13         0.41910E-20         0.00000E+00
    0.40219E-13         0.88476E-20         0.00000E+00
    0.40219E-13         0.14435E-19         0.00000E+00
    0.40219E-13        -0.46566E-20         0.00000E+00
    0.40220E-13        -0.15367E-19         0.00000E+00
    0.40220E-13        -0.12107E-19         0.00000E+00
    0.40220E-13        -0.79162E-20         0.00000E+00
    0.40220E-13        -0.15367E-19         0.00000E+00
    0.40220E-13        -0.34459E-19         0.00000E+00
    0.40220E-13        -0.30268E-19         0.00000E+00
    0.40220E-13        -0.14435E-19         0.00000E+00
    0.40220E-13        -0.93132E-20         0.00000E+00
    0.40220E-13        -0.93132E-20         0.00000E+00
    0.40220E-13        -0.11642E-19         0.00000E+00
    0.40220E-13        -0.15832E-19         0.00000E+00
    0.40220E-13        -0.18161E-19         0.00000E+00
    0.40220E-13        -0.16298E-19         0.00000E+00
    0.40220E-13        -0.21886E-19         0.00000E+00
    0.40220E-13        -0.18161E-19         0.00000E+00
    0.40220E-13        -0.21420E-19         0.00000E+00
    0.40220E-13        -0.93132E-20         0.00000E+00
    0.40220E-13         0.46566E-21         0.00000E+00
    0.40220E-13         0.79162E-20         0.00000E+00
    0.40220E-13        -0.46566E-20         0.00000E+00
    0.40220E-13        -0.13970E-20         0.00000E+00
    0.40220E-13        -0.46566E-21         0.00000E+00
    0.40220E-13         0.13970E-19         0.00000E+00
    0.40220E-13         0.11642E-19         0.00000E+00
    0.40220E-13         0.74506E-20         0.00000E+00
    0.40220E-13         0.74506E-20         0.00000E+00
    0.40220E-13         0.00000E+00         0.00000E+00
    0.40220E-13         0.11642E-19         0.00000E+00
    0.40220E-13         0.37253E-20         0.00000E+00
    0.40220E-13        -0.10710E-19         0.00000E+00
    0.40220E-13         0.93132E-21         0.00000E+00
    0.40220E-13         0.14435E-19         0.00000E+00
    0.40220E-13         0.11176E-19         0.00000E+00
    0.40220E-13         0.93132E-20         0.00000E+00
    0.40220E-13         0.44238E-20         0.00000E+00
    0.40220E-13         0.22352E-19         0.00000E+00
    0.40220E-13         0.14901E-19         0.00000E+00
    0.40220E-13         0.15367E-19         0.00000E+00
    0.40220E-13         0.11176E-19         0.00000E+00
    0.40220E-13         0.16764E-19         0.00000E+00
    0.40220E-13         0.11642E-19         0.00000E+00
    0.40220E-13         0.13970E-20         0.00000E+00
    0.40220E-13        -0.34925E-20         0.00000E+00
    0.40220E-13         0.46566E-20         0.00000E+00
    0.40220E-13        -0.97789E-20         0.00000E+00
    0.40220E-13        -0.11642E-19         0.00000E+00
    0.48177E-13         0.20955E-20         0.00000E+00
    0.48177E-13        -0.14435E-19         0.00000E+00
    0.48177E-13        -0.10710E-19         0.00000E+00
    0.48177E-13        -0.22352E-19         0.00000E+00
    0.48177E-13        -0.24214E-19         0.00000E+00
    0.48177E-13        -0.10710E-19         0.00000E+00
    0.48177E-13        -0.14203E-19         0.00000E+00
    0.48177E-13        -0.18626E-19         0.00000E+00
    0.48177E-13        -0.25146E-19         0.00000E+00
    0.48177E-13        -0.20489E-19         0.00000E+00
    0.48177E-13        -0.15832E-19         0.00000E+00
    0.48177E-13        -0.21886E-19         0.00000E+00
    0.48177E-13        -0.12573E-19         0.00000E+00
    0.48177E-13         0.32596E-20         0.00000E+00
    0.48177E-13        -0.55879E-20         0.00000E+00
    0.48177E-13        -0.14435E-19         0.00000E+00
    0.48177E-13        -0.16764E-19         0.00000E+00
    0.48177E-13        -0.12107E-19         0.00000E+00
    0.48177E-13        -0.16298E-19         0.00000E+00
    0.48177E-13        -0.18161E-19         0.00000E+00
    0.48177E-13        -0.16764E-19         0.00000E+00
    0.48177E-13        -0.69849E-20         0.00000E+00
    0.48177E-13        -0.74506E-20         0.00000E+00
    0.48177E-13         0.39581E-20         0.00000E+00
    0.48177E-13         0.69849E-20         0.00000E+00
    0.48177E-13         0.51223E-20         0.00000E+00
    0.48177E-13         0.18626E-20         0.00000E+00
    0.48177E-13         0.18626E-20         0.00000E+00
    0.48177E-13        -0.46566E-20         0.00000E+00
    0.48177E-13        -0.23283E-20         0.00000E+00
    0.48177E-13         0.23283E-20         0.00000E+00
    0.48177E-13         0.69849E-20         0.00000E+00
    0.48177E-13         0.97789E-20         0.00000E+00
    0.48177E-13         0.41910E-20         0.00000E+00
    0.48177E-13         0.55879E-20         0.00000E+00
    0.48177E-13         0.10245E-19         0.00000E+00
    0.48177E-13         0.88476E-20         0.00000E+00
    0.48177E-13         0.69849E-20         0.00000E+00
    0.48177E-13         0.97789E-20         0.00000E+00
    0.48177E-13         0.14901E-19         0.00000E+00
    0.48177E-13         0.55879E-20         0.00000E+00
    0.48177E-13         0.00000E+00         0.00000E+00
    0.48177E-13        -0.55879E-20         0.00000E+00
    0.48177E-13         0.74506E-20         0.00000E+00
    0.48177E-13        -0.51223E-20         0.00000E+00
    0.48177E-13        -0.88476E-20         0.00000E+00
    0.48177E-13         0.58208E-20         0.00000E+00
    0.48177E-13         0.46566E-20         0.00000E+00
    0.48177E-13         0.32596E-20         0.00000E+00
    0.48177E-13        -0.16764E-19         0.00000E+00
    0.58114E-13        -0.18626E-20         0.00000E+00
    0.58114E-13        -0.13039E-19         0.00000E+00
    0.58114E-13        -0.18626E-20         0.00000E+00
    0.58114E-13        -0.19092E-19         0.00000E+00
    0.58114E-13        -0.79162E-20         0.00000E+00
    0.58114E-13        -0.88476E-20         0.00000E+00
    0.58114E-13        -0.19092E-19         0.00000E+00
    0.58114E-13        -0.23749E-19         0.00000E+00
    0.58114E-13        -0.11642E-19         0.00000E+00
    0.58114E-13        -0.55879E-20         0.00000E+00
    0.58114E-13        -0.60536E-20         0.00000E+00
    0.58114E-13        -0.74506E-20         0.00000E+00
    0.58114E-13        -0.88476E-20         0.00000E+00
    0.58114E-13        -0.74506E-20         0.00000E+00
    0.58114E-13        -0.88476E-20         0.00000E+00
    0.58114E-13        -0.27940E-20         0.00000E+00
    0.58114E-13        -0.46566E-20         0.00000E+00
    0.58114E-13        -0.32596E-20         0.00000E+00
    0.58114E-13        -0.51223E-20         0.00000E+00
    0.58114E-13         0.93132E-21         0.00000E+00
    0.58114E-13        -0.88476E-20         0.00000E+00
    0.58114E-13        -0.27940E-20         0.00000E+00
    0.58114E-13         0.23283E-20         0.00000E+00
    0.58114E-13         0.93132E-21         0.00000E+00
    0.58114E-13         0.19092E-19         0.00000E+00
    0.58114E-13         0.10012E-19         0.00000E+00
    0.58114E-13         0.93132E-21         0.00000E+00
    0.58114E-13        -0.11642E-19         0.00000E+00
    0.58114E-13        -0.83819E-20         0.00000E+00
    0.58114E-13         0.46566E-21         0.00000E+00
    0.58114E-13        -0.27940E-20         0.00000E+00
    0.58114E-13         0.79162E-20         0.00000E+00
    0.58114E-13         0.10012E-19         0.00000E+00
    0.58114E-13         0.88476E-20         0.00000E+00
    0.58114E-13         0.74506E-20         0.00000E+00
    0.58114E-13         0.11176E-19         0.00000E+00
    0.58114E-13         0.74506E-20         0.00000E+00
    0.58114E-13         0.93132E-21         0.00000E+00
    0.58114E-13         0.18626E-20         0.00000E+00
    0.58114E-13        -0.46566E-20         0.00000E+00
    0.58114E-13        -0.65193E-20         0.00000E+00
    0.58114E-13        -0.11642E-19         0.00000E+00
    0.58114E-13        -0.23283E-20         0.00000E+00
    0.58114E-13        -0.23283E-21         0.00000E+00
    0.58114E-13        -0.13970E-20         0.00000E+00
    0.58114E-13        -0.74506E-20         0.00000E+00
    0.58114E-13         0.37253E-20         0.00000E+00
    0.58114E-13         0.13970E-20         0.00000E+00
    0.58114E-13         0.79162E-20         0.00000E+00
    0.58114E-13        -0.23283E-20         0.00000E+00
    0.70432E-13         0.58208E-20         0.00000E+00
    0.70432E-13         0.41910E-20         0.00000E+00
    0.70432E-13         0.10012E-19         0.00000E+00
    0.70432E-13         0.27940E-20         0.00000E+00
    0.70432E-13        -0.69849E-21         0.00000E+00
    0.70432E-13        -0.44238E-20         0.00000E+00
    0.70432E-13        -0.13271E-19         0.00000E+00
    0.70432E-13        -0.16764E-19         0.00000E+00
    0.70432E-13         0.13970E-20         0.00000E+00
    0.70432E-13         0.13970E-20         0.00000E+00
    0.70432E-13        -0.55879E-20         0.00000E+00
    0.70432E-13        -0.13970E-20         0.00000E+00
    0.70432E-13         0.93132E-21         0.00000E+00
    0.70432E-13        -0.14435E-19         0.00000E+00
    0.70432E-13        -0.46566E-20         0.00000E+00
    0.70432E-13         0.13970E-20         0.00000E+00
    0.70432E-13        -0.93132E-21         0.00000E+00
    0.70432E-13        -0.10710E-19         0.00000E+00
    0.70432E-13         0.46566E-20         0.00000E+00
    0.70432E-13         0.51223E-20         0.00000E+00
    0.70432E-13         0.11642E-19         0.00000E+00
    0.70432E-13         0.11642E-19         0.00000E+00
    0.70432E-13         0.15832E-19         0.00000E+00
    0.70432E-13         0.27940E-20         0.00000E+00
    0.70432E-13         0.13970E-19         0.00000E+00
    0.70432E-13         0.93132E-20         0.00000E+00
    0.70432E-13        -0.39581E-20         0.00000E+00
    0.70432E-13        -0.18626E-20         0.00000E+00
    0.70432E-13        -0.93132E-21         0.00000E+00
    0.70432E-13        -0.12573E-19         0.00000E+00
    0.70432E-13        -0.93132E-21         0.00000E+00
    0.70432E-13         0.23283E-21         0.00000E+00
    0.70432E-13         0.41910E-20         0.00000E+00
    0.70432E-13         0.74506E-20         0.00000E+00
    0.70432E-13         0.12107E-19         0.00000E+00
    0.70432E-13         0.14435E-19         0.00000E+00
    0.70432E-13         0.69849E-20         0.00000E+00
    0.70432E-13         0.13970E-20         0.00000E+00
    0.70432E-13         0.46566E-21         0.00000E+00
    0.70432E-13        -0.62864E-20         0.00000E+00
    0.70432E-13        -0.95461E-20         0.00000E+00
    0.70432E-13        -0.69849E-21         0.00000E+00
    0.70432E-13         0.18626E-20         0.00000E+00
    0.70432E-13        -0.39581E-20         0.00000E+00
    0.70432E-13         0.23283E-20         0.00000E+00
    0.70432E-13         0.51223E-20         0.00000E+00
    0.70432E-13         0.81491E-20         0.00000E+00
    0.70432E-13         0.53551E-20         0.00000E+00
    0.70432E-13         0.88476E-20         0.00000E+00
    0.70432E-13         0.27940E-20         0.00000E+00
    0.85629E-13         0.93132E-21         0.00000E+00
    0.85629E-13         0.51223E-20         0.00000E+00
    0.85629E-13         0.10710E-19         0.00000E+00
    0.85629E-13         0.93132E-20         0.00000E+00
    0.85629E-13         0.79162E-20         0.00000E+00
    0.85629E-13        -0.62864E-20         0.00000E+00
    0.85629E-13        -0.32596E-20         0.00000E+00
    0.85629E-13        -0.55879E-20         0.00000E+00
    0.85629E-13         0.74506E-20         0.00000E+00
    0.85629E-13        -0.20955E-20         0.00000E+00
    0.85629E-13        -0.79162E-20         0.00000E+00
    0.85629E-13        -0.65193E-20         0.00000E+00
    0.85629E-13        -0.93132E-21         0.00000E+00
    0.85629E-13        -0.51223E-20         0.00000E+00
    0.85629E-13         0.65193E-20         0.00000E+00
    0.85629E-13        -0.79162E-20         0.00000E+00
    0.85629E-13        -0.60536E-20         0.00000E+00
    0.85629E-13        -0.55879E-20         0.00000E+00
    0.85629E-13         0.48894E-20         0.00000E+00
    0.85629E-13         0.10012E-19         0.00000E+00
    0.85629E-13         0.46566E-20         0.00000E+00
    0.85629E-13         0.51223E-20         0.00000E+00
    0.85629E-13         0.15367E-19         0.00000E+00
    0.85629E-13         0.10710E-19         0.00000E+00
    0.85629E-13         0.32596E-20         0.00000E+00
    0.85629E-13         0.60536E-20         0.00000E+00
    0.85629E-13        -0.32596E-20         0.00000E+00
    0.85629E-13        -0.23283E-20         0.00000E+00
    0.85629E-13         0.13970E-20         0.00000E+00
    0.85629E-13        -0.12573E-19         0.00000E+00
    0.85629E-13         0.11642E-20         0.00000E+00
    0.85629E-13         0.72177E-20         0.00000E+00
    0.85629E-13         0.10710E-19         0.00000E+00
    0.85629E-13         0.14901E-19         0.00000E+00
    0.85629E-13         0.69849E-20         0.00000E+00
    0.85629E-13         0.55879E-20         0.00000E+00
    0.85629E-13         0.11409E-19         0.00000E+00
    0.85629E-13         0.10245E-19         0.00000E+00
    0.85629E-13         0.13504E-19         0.00000E+00
    0.85629E-13        -0.60536E-20         0.00000E+00
    0.85629E-13        -0.10245E-19         0.00000E+00
    0.85629E-13        -0.46566E-20         0.00000E+00
    0.85629E-13         0.69849E-20         0.00000E+00
    0.85629E-13        -0.74506E-20         0.00000E+00
    0.85629E-13        -0.23283E-21         0.00000E+00
    0.85629E-13         0.32596E-20         0.00000E+00
    0.85629E-13         0.11409E-19         0.00000E+00
    0.85629E-13         0.51223E-20         0.00000E+00
    0.85629E-13         0.97789E-20         0.00000E+00
    0.85629E-13        -0.13970E-20         0.00000E+00
    0.10432E-12        -0.93132E-21         0.00000E+00
    0.10432E-12        -0.74506E-20         0.00000E+00
    0.10432E-12         0.51223E-20         0.00000E+00
    0.10432E-12         0.23283E-20         0.00000E+00
    0.10432E-12        -0.51223E-20         0.00000E+00
    0.10432E-12        -0.37253E-20         0.00000E+00
    0.10432E-12         0.65193E-20         0.00000E+00
    0.10432E-12        -0.74506E-20         0.00000E+00
    0.10432E-12        -0.39581E-20         0.00000E+00
    0.10432E-12        -0.55879E-20         0.00000E+00
    0.10432E-12        -0.23283E-20         0.00000E+00
    0.10432E-12         0.60536E-20         0.00000E+00
    0.10432E-12         0.11642E-20         0.00000E+00
    0.10432E-12        -0.69849E-21         0.00000E+00
    0.10432E-12        -0.13970E-20         0.00000E+00
    0.10432E-12        -0.74506E-20         0.00000E+00
    0.10432E-12         0.00000E+00         0.00000E+00
    0.10432E-12         0.65193E-20         0.00000E+00
    0.10432E-12         0.93132E-20         0.00000E+00
    0.10432E-12         0.10477E-19         0.00000E+00
    0.10432E-12        -0.11642E-20         0.00000E+00
    0.10432E-12        -0.10710E-19         0.00000E+00
    0.10432E-12         0.88476E-20         0.00000E+00
    0.10432E-12         0.76834E-20         0.00000E+00
    0.10432E-12         0.79162E-20         0.00000E+00
    0.10432E-12        -0.93132E-21         0.00000E+00
    0.10432E-12        -0.46566E-21         0.00000E+00
    0.10432E-12         0.51223E-20         0.00000E+00
    0.10432E-12         0.16298E-19         0.00000E+00
    0.10432E-12         0.88476E-20         0.00000E+00
    0.10432E-12         0.72177E-20         0.00000E+00
    0.10432E-12         0.12806E-19         0.00000E+00
    0.10432E-12         0.11176E-19         0.00000E+00
    0.10432E-12         0.14901E-19         0.00000E+00
    0.10432E-12         0.60536E-20         0.00000E+00
    0.10432E-12         0.93132E-21         0.00000E+00
    0.10432E-12         0.12573E-19         0.00000E+00
    0.10432E-12         0.22119E-19         0.00000E+00
    0.10432E-12         0.12107E-19         0.00000E+00
    0.10432E-12         0.46566E-21         0.00000E+00
    0.10432E-12         0.93132E-21         0.00000E+00
    0.10432E-12         0.13970E-20         0.00000E+00
    0.10432E-12         0.19092E-19         0.00000E+00
    0.10432E-12        -0.23283E-20         0.00000E+00
    0.10432E-12        -0.12573E-19         0.00000E+00
    0.10432E-12        -0.86147E-20         0.00000E+00
    0.10432E-12        -0.65193E-20         0.00000E+00
    0.10432E-12        -0.46566E-20         0.00000E+00
    0.10432E-12        -0.12107E-19         0.00000E+00
    0.10432E-12        -0.46566E-21         0.00000E+00
    0.12725E-12         0.41910E-20         0.00000E+00
    0.12725E-12        -0.13970E-20         0.00000E+00
    0.12725E-12        -0.46566E-20         0.00000E+00
    0.12725E-12        -0.23283E-20         0.00000E+00
    0.12725E-12        -0.14435E-19         0.00000E+00
    0.12725E-12        -0.69849E-20         0.00000E+00
    0.12725E-12         0.37253E-20         0.00000E+00
    0.12725E-12        -0.55879E-20         0.00000E+00
    0.12725E-12         0.13970E-20         0.00000E+00
    0.12725E-12        -0.23283E-20         0.00000E+00
    0.12725E-12        -0.46566E-21         0.00000E+00
    0.12725E-12         0.10710E-19         0.00000E+00
    0.12725E-12         0.16298E-20         0.00000E+00
    0.12725E-12        -0.46566E-21         0.00000E+00
    0.12725E-12        -0.46566E-21         0.00000E+00
    0.12725E-12        -0.32596E-20         0.00000E+00
    0.12725E-12        -0.23283E-20         0.00000E+00
    0.12725E-12         0.65193E-20         0.00000E+00
    0.12725E-12         0.79162E-20         0.00000E+00
    0.12725E-12         0.93132E-20         0.00000E+00
    0.12725E-12        -0.93132E-21         0.00000E+00
    0.12725E-12        -0.74506E-20         0.00000E+00
    0.12725E-12        -0.60536E-20         0.00000E+00
    0.12725E-12         0.18626E-20         0.00000E+00
    0.12725E-12         0.65193E-20         0.00000E+00
    0.12725E-12         0.83819E-20         0.00000E+00
    0.12725E-12         0.74506E-20         0.00000E+00
    0.12725E-12         0.19092E-19         0.00000E+00
    0.12725E-12         0.18626E-19         0.00000E+00
    0.12725E-12         0.12573E-19         0.00000E+00
    0.12725E-12         0.12107E-19         0.00000E+00
    0.12725E-12        -0.69849E-20         0.00000E+00
    0.12725E-12         0.18626E-20         0.00000E+00
    0.12725E-12         0.74506E-20         0.00000E+00
    0.12725E-12         0.65193E-20         0.00000E+00
    0.12725E-12         0.18626E-20         0.00000E+00
    0.12725E-12         0.12107E-19         0.00000E+00
    0.12725E-12         0.21653E-19         0.00000E+00
    0.12725E-12         0.13039E-19         0.00000E+00
    0.12725E-12         0.88476E-20         0.00000E+00
    0.12725E-12         0.79162E-20         0.00000E+00
    0.12725E-12         0.74506E-20         0.00000E+00
    0.12725E-12         0.65193E-20         0.00000E+00
    0.12725E-12         0.60536E-20         0.00000E+00
    0.12725E-12        -0.51223E-20         0.00000E+00
    0.12725E-12        -0.27940E-20         0.00000E+00
    0.12725E-12        -0.37253E-20         0.00000E+00
    0.12725E-12        -0.37253E-20         0.00000E+00
    0.12725E-12        -0.79162E-20         0.00000E+00
    0.12725E-12        -0.18626E-20         0.00000E+00
    0.15535E-12         0.23283E-21         0.00000E+00
    0.15535E-12         0.60536E-20         0.00000E+00
    0.15535E-12        -0.93132E-21         0.00000E+00
    0.15535E-12        -0.10710E-19         0.00000E+00
    0.15535E-12        -0.14668E-19         0.00000E+00
    0.15535E-12        -0.51223E-20         0.00000E+00
    0.15535E-12        -0.76834E-20         0.00000E+00
    0.15535E-12        -0.46566E-20         0.00000E+00
    0.15535E-12        -0.13970E-20         0.00000E+00
    0.15535E-12         0.00000E+00         0.00000E+00
    0.15535E-12         0.46566E-21         0.00000E+00
    0.15535E-12         0.60536E-20         0.00000E+00
    0.15535E-12         0.11642E-19         0.00000E+00
    0.15535E-12        -0.27940E-20         0.00000E+00
    0.15535E-12         0.46566E-20         0.00000E+00
    0.15535E-12         0.46566E-20         0.00000E+00
    0.15535E-12         0.46566E-20         0.00000E+00
    0.15535E-12         0.13970E-20         0.00000E+00
    0.15535E-12        -0.23283E-20         0.00000E+00
    0.15535E-12         0.13970E-20         0.00000E+00
    0.15535E-12        -0.18626E-20         0.00000E+00
    0.15535E-12        -0.46566E-21         0.00000E+00
    0.15535E-12        -0.69849E-20         0.00000E+00
    0.15535E-12        -0.27940E-20         0.00000E+00
    0.15535E-12         0.13970E-20         0.00000E+00
    0.15535E-12         0.15367E-19         0.00000E+00
    0.15535E-12         0.19092E-19         0.00000E+00
    0.15535E-12         0.20955E-19         0.00000E+00
    0.15535E-12         0.16298E-19         0.00000E+00
    0.15535E-12         0.12107E-19         0.00000E+00
    0.15535E-12         0.32596E-20         0.00000E+00
    0.15535E-12        -0.37253E-20         0.00000E+00
    0.15535E-12         0.00000E+00         0.00000E+00
    0.15535E-12         0.00000E+00         0.00000E+00
    0.15535E-12         0.37253E-20         0.00000E+00
    0.15535E-12        -0.18626E-20         0.00000E+00
    0.15535E-12         0.13970E-20         0.00000E+00
    0.15535E-12         0.15832E-19         0.00000E+00
    0.15535E-12         0.23516E-19         0.00000E+00
    0.15535E-12         0.19325E-19         0.00000E+00
    0.15535E-12         0.12107E-19         0.00000E+00
    0.15535E-12        -0.51223E-20         0.00000E+00
    0.15535E-12         0.12573E-19         0.00000E+00
    0.15535E-12         0.74506E-20         0.00000E+00
    0.15535E-12        -0.32596E-20         0.00000E+00
    0.15535E-12         0.37253E-20         0.00000E+00
    0.15535E-12        -0.46566E-20         0.00000E+00
    0.15535E-12        -0.23283E-20         0.00000E+00
    0.15535E-12         0.27940E-20         0.00000E+00
    0.15535E-12         0.00000E+00         0.00000E+00
    0.18974E-12        -0.18626E-20         0.00000E+00
    0.18974E-12        -0.34925E-20         0.00000E+00
    0.18974E-12        -0.69849E-20         0.00000E+00
    0.18974E-12        -0.13970E-19         0.00000E+00
    0.18974E-12        -0.13737E-19         0.00000E+00
    0.18974E-12        -0.10710E-19         0.00000E+00
    0.18974E-12        -0.10943E-19         0.00000E+00
    0.18974E-12        -0.11176E-19         0.00000E+00
    0.18974E-12        -0.55879E-20         0.00000E+00
    0.18974E-12         0.23283E-20         0.00000E+00
    0.18974E-12         0.37253E-20         0.00000E+00
    0.18974E-12         0.51223E-20         0.00000E+00
    0.18974E-12         0.23283E-20         0.00000E+00
    0.18974E-12         0.97789E-20         0.00000E+00
    0.18974E-12        -0.13970E-20         0.00000E+00
    0.18974E-12        -0.20955E-20         0.00000E+00
    0.18974E-12         0.32596E-20         0.00000E+00
    0.18974E-12        -0.60536E-20         0.00000E+00
    0.18974E-12         0.55879E-20         0.00000E+00
    0.18974E-12         0.74506E-20         0.00000E+00
    0.18974E-12         0.74506E-20         0.00000E+00
    0.18974E-12         0.46566E-21         0.00000E+00
    0.18974E-12        -0.79162E-20         0.00000E+00
    0.18974E-12        -0.37253E-20         0.00000E+00
    0.18974E-12        -0.55879E-20         0.00000E+00
    0.18974E-12         0.12806E-19         0.00000E+00
    0.18974E-12         0.18161E-19         0.00000E+00
    0.18974E-12         0.12107E-19         0.00000E+00
    0.18974E-12         0.97789E-20         0.00000E+00
    0.18974E-12         0.30268E-20         0.00000E+00
    0.18974E-12        -0.16298E-20         0.00000E+00
    0.18974E-12         0.11642E-19         0.00000E+00
    0.18974E-12         0.13970E-20         0.00000E+00
    0.18974E-12        -0.27940E-20         0.00000E+00
    0.18974E-12        -0.46566E-20         0.00000E+00
    0.18974E-12        -0.51223E-20         0.00000E+00
    0.18974E-12        -0.18626E-20         0.00000E+00
    0.18974E-12         0.27940E-20         0.00000E+00
    0.18974E-12         0.51223E-20         0.00000E+00
    0.18974E-12         0.93132E-20         0.00000E+00
    0.18974E-12         0.15367E-19         0.00000E+00
    0.18974E-12         0.11642E-19         0.00000E+00
    0.18974E-12         0.22119E-19         0.00000E+00
    0.18974E-12         0.74506E-20         0.00000E+00
    0.18974E-12         0.20023E-19         0.00000E+00
    0.18974E-12         0.13970E-19         0.00000E+00
    0.18974E-12         0.37253E-20         0.00000E+00
    0.18974E-12        -0.88476E-20         0.00000E+00
    0.18974E-12        -0.60536E-20         0.00000E+00
    0.18974E-12        -0.46566E-20         0.00000E+00
    0.23179E-12        -0.46566E-20         0.00000E+00
    0.23179E-12         0.00000E+00         0.00000E+00
    0.23179E-12        -0.27940E-20         0.00000E+00
    0.23179E-12        -0.13504E-19         0.00000E+00
    0.23179E-12        -0.12107E-19         0.00000E+00
    0.23179E-12        -0.24214E-19         0.00000E+00
    0.23179E-12         0.93132E-21         0.00000E+00
    0.23179E-12        -0.10245E-19         0.00000E+00
    0.23179E-12        -0.53551E-20         0.00000E+00
    0.23179E-12         0.00000E+00         0.00000E+00
    0.23179E-12         0.93132E-21         0.00000E+00
    0.23179E-12         0.41910E-20         0.00000E+00
    0.23179E-12         0.30268E-20         0.00000E+00
    0.23179E-12        -0.62864E-20         0.00000E+00
    0.23179E-12         0.46566E-21         0.00000E+00
    0.23179E-12        -0.46566E-21         0.00000E+00
    0.23179E-12         0.23283E-20         0.00000E+00
    0.23179E-12         0.83819E-20         0.00000E+00
    0.23179E-12         0.11642E-19         0.00000E+00
    0.23179E-12         0.74506E-20         0.00000E+00
    0.23179E-12         0.53551E-20         0.00000E+00
    0.23179E-12        -0.10245E-19         0.00000E+00
    0.23179E-12         0.60536E-20         0.00000E+00
    0.23179E-12         0.83819E-20         0.00000E+00
    0.23179E-12        -0.41910E-20         0.00000E+00
    0.23179E-12         0.10245E-19         0.00000E+00
    0.23179E-12         0.97789E-20         0.00000E+00
    0.23179E-12         0.11176E-19         0.00000E+00
    0.23179E-12        -0.27940E-20         0.00000E+00
    0.23179E-12        -0.16997E-19         0.00000E+00
    0.23179E-12        -0.44238E-20         0.00000E+00
    0.23179E-12         0.11176E-19         0.00000E+00
    0.23179E-12         0.95461E-20         0.00000E+00
    0.23179E-12        -0.13970E-20         0.00000E+00
    0.23179E-12        -0.93132E-21         0.00000E+00
    0.23179E-12         0.37253E-20         0.00000E+00
    0.23179E-12         0.41910E-20         0.00000E+00
    0.23179E-12        -0.69849E-21         0.00000E+00
    0.23179E-12        -0.11176E-19         0.00000E+00
    0.23179E-12        -0.32596E-20         0.00000E+00
    0.23179E-12         0.51223E-20         0.00000E+00
    0.23179E-12         0.72177E-20         0.00000E+00
    0.23179E-12         0.14901E-19         0.00000E+00
    0.23179E-12         0.10245E-19         0.00000E+00
    0.23179E-12         0.23516E-19         0.00000E+00
    0.23179E-12         0.14901E-19         0.00000E+00
    0.23179E-12         0.32596E-20         0.00000E+00
    0.23179E-12        -0.32596E-20         0.00000E+00
    0.23179E-12         0.32596E-20         0.00000E+00
    0.23179E-12        -0.23283E-20         0.00000E+00
    0.28317E-12        -0.37253E-20         0.00000E+00
    0.28317E-12         0.83819E-20         0.00000E+00
    0.28317E-12        -0.16298E-19         0.00000E+00
    0.28317E-12        -0.16298E-19         0.00000E+00
    0.28317E-12        -0.21886E-19         0.00000E+00
    0.28317E-12        -0.14203E-19         0.00000E+00
    0.28317E-12        -0.79162E-20         0.00000E+00
    0.28317E-12        -0.15367E-19         0.00000E+00
    0.28317E-12        -0.20955E-20         0.00000E+00
    0.28317E-12        -0.69849E-21         0.00000E+00
    0.28317E-12         0.51223E-20         0.00000E+00
    0.28317E-12         0.60536E-20         0.00000E+00
    0.28317E-12         0.74506E-20         0.00000E+00
    0.28317E-12        -0.32596E-20         0.00000E+00
    0.28317E-12        -0.18626E-20         0.00000E+00
    0.28317E-12         0.51223E-20         0.00000E+00
    0.28317E-12         0.93132E-21         0.00000E+00
    0.28317E-12         0.44238E-20         0.00000E+00
    0.28317E-12        -0.60536E-20         0.00000E+00
    0.28317E-12        -0.53551E-20         0.00000E+00
    0.28317E-12        -0.79162E-20         0.00000E+00
    0.28317E-12        -0.51223E-20         0.00000E+00
    0.28317E-12        -0.93132E-21         0.00000E+00
    0.28317E-12         0.37253E-20         0.00000E+00
    0.28317E-12        -0.32596E-20         0.00000E+00
    0.28317E-12         0.10710E-19         0.00000E+00
    0.28317E-12         0.14668E-19         0.00000E+00
    0.28317E-12         0.12573E-19         0.00000E+00
    0.28317E-12         0.27940E-20         0.00000E+00
    0.28317E-12        -0.12806E-19         0.00000E+00
    0.28317E-12        -0.69849E-21         0.00000E+00
    0.28317E-12        -0.51223E-20         0.00000E+00
    0.28317E-12         0.32596E-20         0.00000E+00
    0.28317E-12         0.60536E-20         0.00000E+00
    0.28317E-12        -0.93132E-20         0.00000E+00
    0.28317E-12         0.79162E-20         0.00000E+00
    0.28317E-12        -0.32596E-20         0.00000E+00
    0.28317E-12        -0.83819E-20         0.00000E+00
    0.28317E-12        -0.12573E-19         0.00000E+00
    0.28317E-12        -0.97789E-20         0.00000E+00
    0.28317E-12        -0.13271E-19         0.00000E+00
    0.28317E-12        -0.65193E-20         0.00000E+00
    0.28317E-12         0.51223E-20         0.00000E+00
    0.28317E-12        -0.46566E-21         0.00000E+00
    0.28317E-12         0.95461E-20         0.00000E+00
    0.28317E-12         0.16298E-19         0.00000E+00
    0.28317E-12         0.15367E-19         0.00000E+00
    0.28317E-12         0.10710E-19         0.00000E+00
    0.28317E-12         0.23283E-21         0.00000E+00
    0.28317E-12         0.46566E-21         0.00000E+00
    0.34594E-12        -0.53551E-20         0.00000E+00
    0.34594E-12         0.93132E-21         0.00000E+00
    0.34594E-12        -0.76834E-20         0.00000E+00
    0.34594E-12         0.11642E-20         0.00000E+00
    0.34594E-12        -0.10943E-19         0.00000E+00
    0.34594E-12        -0.58208E-20         0.00000E+00
    0.34594E-12        -0.13271E-19         0.00000E+00
    0.34594E-12        -0.88476E-20         0.00000E+00
    0.34594E-12        -0.60536E-20         0.00000E+00
    0.34594E-12        -0.65193E-20         0.00000E+00
    0.34594E-12        -0.13970E-20         0.00000E+00
    0.34594E-12        -0.13970E-20         0.00000E+00
    0.34594E-12         0.32596E-20         0.00000E+00
    0.34594E-12         0.27940E-20         0.00000E+00
    0.34594E-12         0.18626E-20         0.00000E+00
    0.34594E-12         0.69849E-20         0.00000E+00
    0.34594E-12        -0.93132E-21         0.00000E+00
    0.34594E-12         0.51223E-20         0.00000E+00
    0.34594E-12        -0.11176E-19         0.00000E+00
    0.34594E-12        -0.60536E-20         0.00000E+00
    0.34594E-12        -0.88476E-20         0.00000E+00
    0.34594E-12         0.10710E-19         0.00000E+00
    0.34594E-12        -0.97789E-20         0.00000E+00
    0.34594E-12        -0.83819E-20         0.00000E+00
    0.34594E-12         0.00000E+00         0.00000E+00
    0.34594E-12         0.00000E+00         0.00000E+00
    0.34594E-12         0.69849E-20         0.00000E+00
    0.34594E-12         0.13970E-20         0.00000E+00
    0.34594E-12        -0.46566E-21         0.00000E+00
    0.34594E-12         0.18626E-20         0.00000E+00
    0.34594E-12         0.46566E-21         0.00000E+00
    0.34594E-12         0.83819E-20         0.00000E+00
    0.34594E-12         0.58208E-20         0.00000E+00
    0.34594E-12        -0.27940E-20         0.00000E+00
    0.34594E-12        -0.65193E-20         0.00000E+00
    0.34594E-12        -0.51223E-20         0.00000E+00
    0.34594E-12        -0.19092E-19         0.00000E+00
    0.34594E-12        -0.17695E-19         0.00000E+00
    0.34594E-12        -0.18626E-19         0.00000E+00
    0.34594E-12        -0.21886E-19         0.00000E+00
    0.34594E-12        -0.19325E-19         0.00000E+00
    0.34594E-12        -0.83819E-20         0.00000E+00
    0.34594E-12        -0.11642E-19         0.00000E+00
    0.34594E-12         0.46566E-20         0.00000E+00
    0.34594E-12         0.74506E-20         0.00000E+00
    0.34594E-12         0.12107E-19         0.00000E+00
    0.34594E-12         0.18161E-19         0.00000E+00
    0.34594E-12         0.13737E-19         0.00000E+00
    0.34594E-12        -0.69849E-21         0.00000E+00
    0.34594E-12         0.23283E-21         0.00000E+00
    0.42256E-12        -0.60536E-20         0.00000E+00
    0.42256E-12        -0.23283E-20         0.00000E+00
    0.42256E-12         0.12107E-19         0.00000E+00
    0.42256E-12         0.14435E-19         0.00000E+00
    0.42256E-12        -0.93132E-21         0.00000E+00
    0.42256E-12        -0.34925E-20         0.00000E+00
    0.42256E-12        -0.18626E-20         0.00000E+00
    0.42256E-12        -0.79162E-20         0.00000E+00
    0.42256E-12        -0.14435E-19         0.00000E+00
    0.42256E-12        -0.88476E-20         0.00000E+00
    0.42256E-12        -0.12573E-19         0.00000E+00
    0.42256E-12        -0.18161E-19         0.00000E+00
    0.42256E-12        -0.60536E-20         0.00000E+00
    0.42256E-12        -0.10245E-19         0.00000E+00
    0.42256E-12         0.30268E-20         0.00000E+00
    0.42256E-12         0.12573E-19         0.00000E+00
    0.42256E-12         0.83819E-20         0.00000E+00
    0.42256E-12         0.27940E-20         0.00000E+00
    0.42256E-12         0.69849E-20         0.00000E+00
    0.42256E-12         0.51223E-20         0.00000E+00
    0.42256E-12         0.41910E-20         0.00000E+00
    0.42256E-12         0.23283E-20         0.00000E+00
    0.42256E-12         0.32596E-20         0.00000E+00
    0.42256E-12        -0.13039E-19         0.00000E+00
    0.42256E-12        -0.79162E-20         0.00000E+00
    0.42256E-12        -0.55879E-20         0.00000E+00
    0.42256E-12         0.00000E+00         0.00000E+00
    0.42256E-12         0.46566E-21         0.00000E+00
    0.42256E-12        -0.18626E-20         0.00000E+00
    0.42256E-12        -0.23283E-20         0.00000E+00
    0.42256E-12        -0.27940E-20         0.00000E+00
    0.42256E-12         0.14901E-19         0.00000E+00
    0.42256E-12        -0.48894E-20         0.00000E+00
    0.42256E-12         0.18626E-20         0.00000E+00
    0.42256E-12        -0.93132E-21         0.00000E+00
    0.42256E-12        -0.15367E-19         0.00000E+00
    0.42256E-12        -0.19558E-19         0.00000E+00
    0.42256E-12        -0.20489E-19         0.00000E+00
    0.42256E-12        -0.28871E-19         0.00000E+00
    0.42256E-12        -0.13039E-19         0.00000E+00
    0.42256E-12        -0.83819E-20         0.00000E+00
    0.42256E-12        -0.81491E-20         0.00000E+00
    0.42256E-12        -0.46566E-21         0.00000E+00
    0.42256E-12         0.13970E-19         0.00000E+00
    0.42256E-12         0.74506E-20         0.00000E+00
    0.42256E-12        -0.32596E-20         0.00000E+00
    0.42256E-12        -0.37253E-20         0.00000E+00
    0.42256E-12         0.34925E-20         0.00000E+00
    0.42256E-12        -0.32596E-20         0.00000E+00
    0.42256E-12         0.74506E-20         0.00000E+00
    0.51607E-12         0.93132E-21         0.00000E+00
    0.51607E-12         0.41910E-20         0.00000E+00
    0.51607E-12         0.93132E-20         0.00000E+00
    0.51607E-12         0.10245E-19         0.00000E+00
    0.51607E-12         0.46566E-20         0.00000E+00
    0.51607E-12         0.79162E-20         0.00000E+00
    0.51607E-12         0.51223E-20         0.00000E+00
    0.51607E-12        -0.11642E-19         0.00000E+00
    0.51607E-12        -0.14901E-19         0.00000E+00
    0.51607E-12        -0.46566E-20         0.00000E+00
    0.51607E-12         0.37253E-20         0.00000E+00
    0.51607E-12        -0.88476E-20         0.00000E+00
    0.51607E-12        -0.79162E-20         0.00000E+00
    0.51607E-12         0.51223E-20         0.00000E+00
    0.51607E-12        -0.93132E-21         0.00000E+00
    0.51607E-12        -0.88476E-20         0.00000E+00
    0.51607E-12         0.60536E-20         0.00000E+00
    0.51607E-12        -0.13970E-20         0.00000E+00
    0.51607E-12         0.93132E-20         0.00000E+00
    0.51607E-12         0.74506E-20         0.00000E+00
    0.51607E-12         0.46566E-20         0.00000E+00
    0.51607E-12         0.65193E-20         0.00000E+00
    0.51607E-12        -0.41910E-20         0.00000E+00
    0.51607E-12        -0.97789E-20         0.00000E+00
    0.51607E-12        -0.18626E-20         0.00000E+00
    0.51607E-12        -0.65193E-20         0.00000E+00
    0.51607E-12        -0.60536E-20         0.00000E+00
    0.51607E-12        -0.97789E-20         0.00000E+00
    0.51607E-12        -0.23283E-20         0.00000E+00
    0.51607E-12         0.51223E-20         0.00000E+00
    0.51607E-12         0.32596E-20         0.00000E+00
    0.51607E-12        -0.23283E-20         0.00000E+00
    0.51607E-12        -0.17695E-19         0.00000E+00
    0.51607E-12        -0.79162E-20         0.00000E+00
    0.51607E-12        -0.55879E-20         0.00000E+00
    0.51607E-12        -0.13970E-19         0.00000E+00
    0.51607E-12        -0.13970E-19         0.00000E+00
    0.51607E-12        -0.23283E-19         0.00000E+00
    0.51607E-12        -0.20023E-19         0.00000E+00
    0.51607E-12        -0.46566E-20         0.00000E+00
    0.51607E-12         0.23283E-20         0.00000E+00
    0.51607E-12        -0.46566E-21         0.00000E+00
    0.51607E-12         0.69849E-20         0.00000E+00
    0.51607E-12         0.93132E-21         0.00000E+00
    0.51607E-12         0.74506E-20         0.00000E+00
    0.51607E-12        -0.27940E-20         0.00000E+00
    0.51607E-12        -0.11642E-20         0.00000E+00
    0.51607E-12         0.46566E-21         0.00000E+00
    0.51607E-12        -0.12573E-19         0.00000E+00
    0.51607E-12         0.74506E-20         0.00000E+00
    0.63014E-12         0.60536E-20         0.00000E+00
    0.63014E-12         0.41910E-20         0.00000E+00
    0.63014E-12         0.69849E-20         0.00000E+00
    0.63014E-12         0.81491E-20         0.00000E+00
    0.63014E-12         0.10245E-19         0.00000E+00
    0.63014E-12         0.14435E-19         0.00000E+00
    0.63014E-12         0.10245E-19         0.00000E+00
    0.63014E-12         0.46566E-20         0.00000E+00
    0.63014E-12        -0.46566E-20         0.00000E+00
    0.63014E-12         0.55879E-20         0.00000E+00
    0.63014E-12         0.10477E-19         0.00000E+00
    0.63014E-12         0.27940E-20         0.00000E+00
    0.63014E-12         0.93132E-21         0.00000E+00
    0.63014E-12        -0.30268E-20         0.00000E+00
    0.63014E-12         0.34925E-20         0.00000E+00
    0.63014E-12        -0.13970E-20         0.00000E+00
    0.63014E-12         0.37253E-20         0.00000E+00
    0.63014E-12        -0.46566E-21         0.00000E+00
    0.63014E-12        -0.48894E-20         0.00000E+00
    0.63014E-12         0.13970E-20         0.00000E+00
    0.63014E-12         0.27940E-20         0.00000E+00
    0.63014E-12         0.37253E-20         0.00000E+00
    0.63014E-12         0.37253E-20         0.00000E+00
    0.63014E-12        -0.81491E-20         0.00000E+00
    0.63014E-12        -0.51223E-20         0.00000E+00
    0.63014E-12        -0.83819E-20         0.00000E+00
    0.63014E-12        -0.16298E-19         0.00000E+00
    0.63014E-12        -0.13970E-19         0.00000E+00
    0.63014E-12        -0.93132E-20         0.00000E+00
    0.63014E-12        -0.51223E-20         0.00000E+00
    0.63014E-12        -0.37253E-20         0.00000E+00
    0.63014E-12        -0.55879E-20         0.00000E+00
    0.63014E-12        -0.32596E-20         0.00000E+00
    0.63014E-12        -0.46566E-20         0.00000E+00
    0.63014E-12        -0.46566E-20         0.00000E+00
    0.63014E-12         0.93132E-21         0.00000E+00
    0.63014E-12         0.18626E-20         0.00000E+00
    0.63014E-12        -0.13504E-19         0.00000E+00
    0.63014E-12        -0.79162E-20         0.00000E+00
    0.63014E-12        -0.76834E-20         0.00000E+00
    0.63014E-12        -0.46566E-20         0.00000E+00
    0.63014E-12         0.00000E+00         0.00000E+00
    0.63014E-12        -0.65193E-20         0.00000E+00
    0.63014E-12        -0.15367E-19         0.00000E+00
    0.63014E-12        -0.79162E-20         0.00000E+00
    0.63014E-12        -0.55879E-20         0.00000E+00
    0.63014E-12        -0.88476E-20         0.00000E+00
    0.63014E-12         0.46566E-21         0.00000E+00
    0.63014E-12         0.23283E-20         0.00000E+00
    0.63014E-12         0.00000E+00         0.00000E+00
    0.76925E-12         0.18626E-20         0.00000E+00
    0.76925E-12         0.27940E-20         0.00000E+00
    0.76925E-12         0.51223E-20         0.00000E+00
    0.76925E-12         0.46566E-20         0.00000E+00
    0.76925E-12         0.12573E-19         0.00000E+00
    0.76925E-12         0.17695E-19         0.00000E+00
    0.76925E-12         0.13039E-19         0.00000E+00
    0.76925E-12         0.12573E-19         0.00000E+00
    0.76925E-12         0.20489E-19         0.00000E+00
    0.76925E-12         0.15600E-19         0.00000E+00
    0.76925E-12        -0.48894E-20         0.00000E+00
    0.76925E-12         0.23283E-20         0.00000E+00
    0.76925E-12         0.13970E-20         0.00000E+00
    0.76925E-12        -0.46566E-20         0.00000E+00
    0.76925E-12        -0.55879E-20         0.00000E+00
    0.76925E-12         0.18626E-20         0.00000E+00
    0.76925E-12         0.13970E-19         0.00000E+00
    0.76925E-12         0.13970E-19         0.00000E+00
    0.76925E-12         0.27940E-20         0.00000E+00
    0.76925E-12         0.69849E-20         0.00000E+00
    0.76925E-12        -0.93132E-21         0.00000E+00
    0.76925E-12        -0.46566E-20         0.00000E+00
    0.76925E-12         0.32596E-20         0.00000E+00
    0.76925E-12        -0.32596E-20         0.00000E+00
    0.76925E-12        -0.13039E-19         0.00000E+00
    0.76925E-12        -0.17928E-19         0.00000E+00
    0.76925E-12        -0.18161E-19         0.00000E+00
    0.76925E-12        -0.14901E-19         0.00000E+00
    0.76925E-12        -0.18626E-19         0.00000E+00
    0.76925E-12        -0.22585E-19         0.00000E+00
    0.76925E-12        -0.14435E-19         0.00000E+00
    0.76925E-12        -0.46566E-20         0.00000E+00
    0.76925E-12        -0.46566E-21         0.00000E+00
    0.76925E-12        -0.83819E-20         0.00000E+00
    0.76925E-12        -0.17928E-19         0.00000E+00
    0.76925E-12        -0.46566E-21         0.00000E+00
    0.76925E-12         0.69849E-20         0.00000E+00
    0.76925E-12        -0.23283E-20         0.00000E+00
    0.76925E-12        -0.13039E-19         0.00000E+00
    0.76925E-12        -0.15832E-19         0.00000E+00
    0.76925E-12        -0.20955E-20         0.00000E+00
    0.76925E-12        -0.25611E-20         0.00000E+00
    0.76925E-12         0.51223E-20         0.00000E+00
    0.76925E-12        -0.22817E-19         0.00000E+00
    0.76925E-12        -0.67521E-20         0.00000E+00
    0.76925E-12        -0.93132E-20         0.00000E+00
    0.76925E-12         0.00000E+00         0.00000E+00
    0.76925E-12         0.23283E-20         0.00000E+00
    0.76925E-12         0.19092E-19         0.00000E+00
    0.76925E-12        -0.13970E-20         0.00000E+00
    0.93885E-12        -0.11642E-20         0.00000E+00
    0.93885E-12        -0.13970E-20         0.00000E+00
    0.93885E-12         0.18626E-20         0.00000E+00
    0.93885E-12         0.18626E-19         0.00000E+00
    0.93885E-12         0.12340E-19         0.00000E+00
    0.93885E-12         0.19325E-19         0.00000E+00
    0.93885E-12         0.55879E-20         0.00000E+00
    0.93885E-12         0.10012E-19         0.00000E+00
    0.93885E-12         0.74506E-20         0.00000E+00
    0.93885E-12         0.00000E+00         0.00000E+00
    0.93885E-12         0.27940E-20         0.00000E+00
    0.93885E-12         0.65193E-20         0.00000E+00
    0.93885E-12         0.93132E-21         0.00000E+00
    0.93885E-12         0.37253E-20         0.00000E+00
    0.93885E-12        -0.13970E-20         0.00000E+00
    0.93885E-12        -0.32596E-20         0.00000E+00
    0.93885E-12         0.32596E-20         0.00000E+00
    0.93885E-12         0.83819E-20         0.00000E+00
    0.93885E-12         0.18626E-20         0.00000E+00
    0.93885E-12         0.10245E-19         0.00000E+00
    0.93885E-12        -0.79162E-20         0.00000E+00
    0.93885E-12        -0.79162E-20         0.00000E+00
    0.93885E-12        -0.79162E-20         0.00000E+00
    0.93885E-12        -0.76834E-20         0.00000E+00
    0.93885E-12        -0.51223E-20         0.00000E+00
    0.93885E-12        -0.11642E-19         0.00000E+00
    0.93885E-12        -0.26776E-19         0.00000E+00
    0.93885E-12        -0.26310E-19         0.00000E+00
    0.93885E-12        -0.21653E-19         0.00000E+00
    0.93885E-12        -0.20955E-19         0.00000E+00
    0.93885E-12        -0.19092E-19         0.00000E+00
    0.93885E-12        -0.41910E-20         0.00000E+00
    0.93885E-12        -0.37253E-20         0.00000E+00
    0.93885E-12        -0.79162E-20         0.00000E+00
    0.93885E-12        -0.12340E-19         0.00000E+00
    0.93885E-12        -0.10245E-19         0.00000E+00
    0.93885E-12        -0.60536E-20         0.00000E+00
    0.93885E-12        -0.51223E-20         0.00000E+00
    0.93885E-12         0.11642E-20         0.00000E+00
    0.93885E-12        -0.60536E-20         0.00000E+00
    0.93885E-12         0.88476E-20         0.00000E+00
    0.93885E-12         0.51223E-20         0.00000E+00
    0.93885E-12         0.37616E-36         0.00000E+00
    0.93885E-12        -0.67521E-20         0.00000E+00
    0.93885E-12         0.13970E-20         0.00000E+00
    0.93885E-12         0.23283E-20         0.00000E+00
    0.93885E-12         0.46566E-20         0.00000E+00
    0.93885E-12         0.27940E-20         0.00000E+00
    0.93885E-12         0.46566E-20         0.00000E+00
    0.93885E-12        -0.23283E-21         0.00000E+00
    0.11455E-11         0.13970E-20         0.00000E+00
    0.11455E-11         0.65193E-20         0.00000E+00
    0.11455E-11         0.81491E-20         0.00000E+00
    0.11455E-11         0.19092E-19         0.00000E+00
    0.11455E-11         0.74506E-20         0.00000E+00
    0.11455E-11         0.32596E-20         0.00000E+00
    0.11455E-11        -0.46566E-21         0.00000E+00
    0.11455E-11         0.65193E-20         0.00000E+00
    0.11455E-11        -0.37253E-20         0.00000E+00
    0.11455E-11         0.37253E-20         0.00000E+00
    0.11455E-11         0.15600E-19         0.00000E+00
    0.11455E-11        -0.23283E-20         0.00000E+00
    0.11455E-11        -0.60536E-20         0.00000E+00
    0.11455E-11        -0.88476E-20         0.00000E+00
    0.11455E-11         0.23283E-20         0.00000E+00
    0.11455E-11         0.27940E-20         0.00000E+00
    0.11455E-11        -0.27940E-20         0.00000E+00
    0.11455E-11        -0.69849E-20         0.00000E+00
    0.11455E-11        -0.97789E-20         0.00000E+00
    0.11455E-11        -0.55879E-20         0.00000E+00
    0.11455E-11        -0.76834E-20         0.00000E+00
    0.11455E-11        -0.11176E-19         0.00000E+00
    0.11455E-11        -0.20489E-19         0.00000E+00
    0.11455E-11        -0.19558E-19         0.00000E+00
    0.11455E-11        -0.20955E-19         0.00000E+00
    0.11455E-11        -0.10245E-19         0.00000E+00
    0.11455E-11        -0.15367E-19         0.00000E+00
    0.11455E-11        -0.15134E-19         0.00000E+00
    0.11455E-11        -0.88476E-20         0.00000E+00
    0.11455E-11        -0.13737E-19         0.00000E+00
    0.11455E-11        -0.22352E-19         0.00000E+00
    0.11455E-11        -0.11176E-19         0.00000E+00
    0.11455E-11        -0.60536E-20         0.00000E+00
    0.11455E-11         0.79162E-20         0.00000E+00
    0.11455E-11        -0.27940E-20         0.00000E+00
    0.11455E-11        -0.11874E-19         0.00000E+00
    0.11455E-11        -0.44238E-20         0.00000E+00
    0.11455E-11         0.23283E-20         0.00000E+00
    0.11455E-11         0.17229E-19         0.00000E+00
    0.11455E-11         0.55879E-20         0.00000E+00
    0.11455E-11         0.23283E-20         0.00000E+00
    0.11455E-11        -0.60536E-20         0.00000E+00
    0.11455E-11        -0.79162E-20         0.00000E+00
    0.11455E-11         0.93132E-21         0.00000E+00
    0.11455E-11        -0.74506E-20         0.00000E+00
    0.11455E-11         0.60536E-20         0.00000E+00
    0.11455E-11        -0.46566E-21         0.00000E+00
    0.11455E-11        -0.41910E-20         0.00000E+00
    0.11455E-11         0.58208E-20         0.00000E+00
    0.11455E-11        -0.23283E-21         0.00000E+00
    0.13973E-11        -0.46566E-21         0.00000E+00
    0.13973E-11         0.67521E-20         0.00000E+00
    0.13973E-11         0.60536E-20         0.00000E+00
    0.13973E-11         0.60536E-20         0.00000E+00
    0.13973E-11         0.55879E-20         0.00000E+00
    0.13973E-11         0.60536E-20         0.00000E+00
    0.13973E-11         0.79162E-20         0.00000E+00
    0.13973E-11         0.00000E+00         0.00000E+00
    0.13973E-11         0.23283E-20         0.00000E+00
    0.13973E-11         0.37616E-36         0.00000E+00
    0.13973E-11         0.00000E+00         0.00000E+00
    0.13973E-11        -0.60536E-20         0.00000E+00
    0.13973E-11        -0.46566E-20         0.00000E+00
    0.13973E-11        -0.17695E-19         0.00000E+00
    0.13973E-11        -0.97789E-20         0.00000E+00
    0.13973E-11        -0.20023E-19         0.00000E+00
    0.13973E-11        -0.11642E-19         0.00000E+00
    0.13973E-11        -0.20256E-19         0.00000E+00
    0.13973E-11        -0.60536E-20         0.00000E+00
    0.13973E-11        -0.12107E-19         0.00000E+00
    0.13973E-11        -0.14901E-19         0.00000E+00
    0.13973E-11        -0.20489E-19         0.00000E+00
    0.13973E-11        -0.24680E-19         0.00000E+00
    0.13973E-11        -0.25611E-19         0.00000E+00
    0.13973E-11        -0.20489E-19         0.00000E+00
    0.13973E-11        -0.11642E-19         0.00000E+00
    0.13973E-11        -0.44238E-20         0.00000E+00
    0.13973E-11        -0.46566E-20         0.00000E+00
    0.13973E-11        -0.41910E-20         0.00000E+00
    0.13973E-11        -0.41910E-20         0.00000E+00
    0.13973E-11        -0.19092E-19         0.00000E+00
    0.13973E-11        -0.16298E-19         0.00000E+00
    0.13973E-11        -0.12573E-19         0.00000E+00
    0.13973E-11        -0.12573E-19         0.00000E+00
    0.13973E-11        -0.27940E-20         0.00000E+00
    0.13973E-11        -0.41910E-20         0.00000E+00
    0.13973E-11         0.93132E-20         0.00000E+00
    0.13973E-11         0.88476E-20         0.00000E+00
    0.13973E-11         0.37253E-20         0.00000E+00
    0.13973E-11         0.39581E-20         0.00000E+00
    0.13973E-11        -0.11409E-19         0.00000E+00
    0.13973E-11        -0.10245E-19         0.00000E+00
    0.13973E-11        -0.97789E-20         0.00000E+00
    0.13973E-11        -0.65193E-20         0.00000E+00
    0.13973E-11        -0.16764E-19         0.00000E+00
    0.13973E-11        -0.18626E-20         0.00000E+00
    0.13973E-11         0.30268E-20         0.00000E+00
    0.13973E-11         0.46566E-20         0.00000E+00
    0.13973E-11         0.18626E-19         0.00000E+00
    0.13973E-11        -0.32596E-20         0.00000E+00
    0.17040E-11        -0.69849E-20         0.00000E+00
    0.17040E-11         0.27940E-20         0.00000E+00
    0.17040E-11         0.11176E-19         0.00000E+00
    0.17040E-11        -0.32596E-20         0.00000E+00
    0.17040E-11        -0.41910E-20         0.00000E+00
    0.17040E-11        -0.23283E-20         0.00000E+00
    0.17040E-11        -0.74506E-20         0.00000E+00
    0.17040E-11        -0.12107E-19         0.00000E+00
    0.17040E-11        -0.55879E-20         0.00000E+00
    0.17040E-11        -0.18626E-20         0.00000E+00
    0.17040E-11        -0.83819E-20         0.00000E+00
    0.17040E-11        -0.83819E-20         0.00000E+00
    0.17040E-11        -0.10710E-19         0.00000E+00
    0.17040E-11        -0.97789E-20         0.00000E+00
    0.17040E-11        -0.29802E-19         0.00000E+00
    0.17040E-11        -0.28405E-19         0.00000E+00
    0.17040E-11        -0.23749E-19         0.00000E+00
    0.17040E-11        -0.31898E-19         0.00000E+00
    0.17040E-11        -0.86147E-20         0.00000E+00
    0.17040E-11        -0.16065E-19         0.00000E+00
    0.17040E-11        -0.21420E-19         0.00000E+00
    0.17040E-11        -0.17229E-19         0.00000E+00
    0.17040E-11        -0.13039E-19         0.00000E+00
    0.17040E-11        -0.14901E-19         0.00000E+00
    0.17040E-11        -0.18161E-19         0.00000E+00
    0.17040E-11        -0.11176E-19         0.00000E+00
    0.17040E-11        -0.93132E-20         0.00000E+00
    0.17040E-11        -0.26077E-19         0.00000E+00
    0.17040E-11        -0.25146E-19         0.00000E+00
    0.17040E-11        -0.97789E-20         0.00000E+00
    0.17040E-11        -0.16764E-19         0.00000E+00
    0.17040E-11        -0.83819E-20         0.00000E+00
    0.17040E-11        -0.15832E-19         0.00000E+00
    0.17040E-11        -0.21886E-19         0.00000E+00
    0.17040E-11        -0.18859E-19         0.00000E+00
    0.17040E-11        -0.10710E-19         0.00000E+00
    0.17040E-11        -0.27940E-20         0.00000E+00
    0.17040E-11         0.97789E-20         0.00000E+00
    0.17040E-11         0.48894E-20         0.00000E+00
    0.17040E-11         0.27940E-20         0.00000E+00
    0.17040E-11        -0.46566E-21         0.00000E+00
    0.17040E-11         0.55879E-20         0.00000E+00
    0.17040E-11        -0.55879E-20         0.00000E+00
    0.17040E-11        -0.17695E-19         0.00000E+00
    0.17040E-11        -0.26077E-19         0.00000E+00
    0.17040E-11        -0.10710E-19         0.00000E+00
    0.17040E-11        -0.12573E-19         0.00000E+00
    0.17040E-11        -0.83819E-20         0.00000E+00
    0.17040E-11        -0.23283E-20         0.00000E+00
    0.17040E-11         0.23283E-20         0.00000E+00
    0.20773E-11         0.16298E-20         0.00000E+00
    0.20773E-11         0.74506E-20         0.00000E+00
    0.20773E-11        -0.97789E-20         0.00000E+00
    0.20773E-11        -0.46566E-20         0.00000E+00
    0.20773E-11        -0.20955E-19         0.00000E+00
    0.20773E-11        -0.13970E-19         0.00000E+00
    0.20773E-11        -0.12107E-19         0.00000E+00
    0.20773E-11        -0.10943E-19         0.00000E+00
    0.20773E-11        -0.10012E-19         0.00000E+00
    0.20773E-11        -0.11176E-19         0.00000E+00
    0.20773E-11        -0.19558E-19         0.00000E+00
    0.20773E-11        -0.14901E-19         0.00000E+00
    0.20773E-11        -0.32596E-20         0.00000E+00
    0.20773E-11        -0.18626E-19         0.00000E+00
    0.20773E-11        -0.27940E-19         0.00000E+00
    0.20773E-11        -0.27241E-19         0.00000E+00
    0.20773E-11        -0.19558E-19         0.00000E+00
    0.20773E-11        -0.23283E-19         0.00000E+00
    0.20773E-11        -0.15600E-19         0.00000E+00
    0.20773E-11        -0.13504E-19         0.00000E+00
    0.20773E-11        -0.17695E-19         0.00000E+00
    0.20773E-11        -0.24214E-19         0.00000E+00
    0.20773E-11        -0.20955E-19         0.00000E+00
    0.20773E-11        -0.16298E-19         0.00000E+00
    0.20773E-11        -0.23749E-19         0.00000E+00
    0.20773E-11        -0.18626E-19         0.00000E+00
    0.20773E-11        -0.20489E-19         0.00000E+00
    0.20773E-11        -0.23749E-19         0.00000E+00
    0.20773E-11        -0.34459E-19         0.00000E+00
    0.20773E-11        -0.12107E-19         0.00000E+00
    0.20773E-11        -0.32596E-20         0.00000E+00
    0.20773E-11        -0.22352E-19         0.00000E+00
    0.20773E-11        -0.16764E-19         0.00000E+00
    0.20773E-11        -0.19092E-19         0.00000E+00
    0.20773E-11        -0.33062E-19         0.00000E+00
    0.20773E-11        -0.16764E-19         0.00000E+00
    0.20773E-11        -0.15832E-19         0.00000E+00
    0.20773E-11        -0.23283E-20         0.00000E+00
    0.20773E-11        -0.13970E-20         0.00000E+00
    0.20773E-11         0.00000E+00         0.00000E+00
    0.20773E-11        -0.46566E-20         0.00000E+00
    0.20773E-11         0.27940E-20         0.00000E+00
    0.20773E-11         0.13970E-20         0.00000E+00
    0.20773E-11        -0.13039E-19         0.00000E+00
    0.20773E-11        -0.18626E-19         0.00000E+00
    0.20773E-11        -0.14901E-19         0.00000E+00
    0.20773E-11        -0.11642E-19         0.00000E+00
    0.20773E-11        -0.27940E-20         0.00000E+00
    0.20773E-11        -0.12107E-19         0.00000E+00
    0.20773E-11         0.13970E-20         0.00000E+00
    0.25316E-11         0.69849E-21         0.00000E+00
    0.25316E-11         0.30268E-20         0.00000E+00
    0.25316E-11        -0.88476E-20         0.00000E+00
    0.25316E-11        -0.65193E-20         0.00000E+00
    0.25316E-11        -0.15134E-19         0.00000E+00
    0.25316E-11        -0.17695E-19         0.00000E+00
    0.25316E-11        -0.17229E-19         0.00000E+00
    0.25316E-11        -0.25611E-19         0.00000E+00
    0.25316E-11        -0.18626E-19         0.00000E+00
    0.25316E-11        -0.20955E-19         0.00000E+00
    0.25316E-11        -0.15367E-19         0.00000E+00
    0.25316E-11        -0.16298E-19         0.00000E+00
    0.25316E-11        -0.14901E-19         0.00000E+00
    0.25316E-11        -0.10245E-19         0.00000E+00
    0.25316E-11        -0.14435E-19         0.00000E+00
    0.25316E-11        -0.12573E-19         0.00000E+00
    0.25316E-11        -0.14668E-19         0.00000E+00
    0.25316E-11        -0.16764E-19         0.00000E+00
    0.25316E-11        -0.11642E-19         0.00000E+00
    0.25316E-11        -0.15367E-19         0.00000E+00
    0.25316E-11        -0.28871E-19         0.00000E+00
    0.25316E-11        -0.28871E-19         0.00000E+00
    0.25316E-11        -0.37719E-19         0.00000E+00
    0.25316E-11        -0.24214E-19         0.00000E+00
    0.25316E-11        -0.22352E-19         0.00000E+00
    0.25316E-11        -0.13970E-19         0.00000E+00
    0.25316E-11        -0.18161E-19         0.00000E+00
    0.25316E-11        -0.21886E-19         0.00000E+00
    0.25316E-11        -0.25146E-19         0.00000E+00
    0.25316E-11        -0.18161E-19         0.00000E+00
    0.25316E-11        -0.10710E-19         0.00000E+00
    0.25316E-11        -0.21420E-19         0.00000E+00
    0.25316E-11        -0.11642E-19         0.00000E+00
    0.25316E-11        -0.18161E-19         0.00000E+00
    0.25316E-11        -0.18626E-19         0.00000E+00
    0.25316E-11        -0.19092E-19         0.00000E+00
    0.25316E-11        -0.26077E-19         0.00000E+00
    0.25316E-11        -0.22817E-19         0.00000E+00
    0.25316E-11        -0.11176E-19         0.00000E+00
    0.25316E-11        -0.12573E-19         0.00000E+00
    0.25316E-11        -0.22585E-19         0.00000E+00
    0.25316E-11        -0.13970E-19         0.00000E+00
    0.25316E-11        -0.19092E-19         0.00000E+00
    0.25316E-11        -0.12107E-19         0.00000E+00
    0.25316E-11        -0.23283E-20         0.00000E+00
    0.25316E-11        -0.23283E-20         0.00000E+00
    0.25316E-11        -0.81491E-20         0.00000E+00
    0.25316E-11         0.23283E-21         0.00000E+00
    0.25316E-11        -0.32596E-20         0.00000E+00
    0.25316E-11         0.46566E-21         0.00000E+00
    0.30844E-11        -0.93132E-21         0.00000E+00
    0.30844E-11        -0.16298E-20         0.00000E+00
    0.30844E-11        -0.97789E-20         0.00000E+00
    0.30844E-11        -0.34925E-20         0.00000E+00
    0.30844E-11        -0.10012E-19         0.00000E+00
    0.30844E-11        -0.88476E-20         0.00000E+00
    0.30844E-11        -0.21886E-19         0.00000E+00
    0.30844E-11        -0.28871E-19         0.00000E+00
    0.30844E-11        -0.11874E-19         0.00000E+00
    0.30844E-11        -0.17462E-19         0.00000E+00
    0.30844E-11        -0.13970E-19         0.00000E+00
    0.30844E-11        -0.46566E-20         0.00000E+00
    0.30844E-11        -0.14435E-19         0.00000E+00
    0.30844E-11        -0.83819E-20         0.00000E+00
    0.30844E-11        -0.10245E-19         0.00000E+00
    0.30844E-11        -0.90804E-20         0.00000E+00
    0.30844E-11         0.00000E+00         0.00000E+00
    0.30844E-11        -0.88476E-20         0.00000E+00
    0.30844E-11        -0.23283E-19         0.00000E+00
    0.30844E-11        -0.36089E-19         0.00000E+00
    0.30844E-11        -0.31665E-19         0.00000E+00
    0.30844E-11        -0.15367E-19         0.00000E+00
    0.30844E-11        -0.23749E-19         0.00000E+00
    0.30844E-11        -0.23283E-19         0.00000E+00
    0.30844E-11        -0.19558E-19         0.00000E+00
    0.30844E-11        -0.26543E-19         0.00000E+00
    0.30844E-11        -0.12573E-19         0.00000E+00
    0.30844E-11        -0.11642E-19         0.00000E+00
    0.30844E-11        -0.10245E-19         0.00000E+00
    0.30844E-11        -0.16065E-19         0.00000E+00
    0.30844E-11        -0.26077E-19         0.00000E+00
    0.30844E-11        -0.18161E-19         0.00000E+00
    0.30844E-11        -0.23283E-19         0.00000E+00
    0.30844E-11        -0.17229E-19         0.00000E+00
    0.30844E-11        -0.20256E-19         0.00000E+00
    0.30844E-11        -0.22817E-19         0.00000E+00
    0.30844E-11        -0.19325E-19         0.00000E+00
    0.30844E-11        -0.18626E-19         0.00000E+00
    0.30844E-11        -0.20955E-19         0.00000E+00
    0.30844E-11        -0.21420E-19         0.00000E+00
    0.30844E-11        -0.15367E-19         0.00000E+00
    0.30844E-11        -0.29337E-19         0.00000E+00
    0.30844E-11        -0.25146E-19         0.00000E+00
    0.30844E-11        -0.25146E-19         0.00000E+00
    0.30844E-11        -0.13504E-19         0.00000E+00
    0.30844E-11        -0.18626E-19         0.00000E+00
    0.30844E-11        -0.86147E-20         0.00000E+00
    0.30844E-11        -0.11409E-19         0.00000E+00
    0.30844E-11        -0.48894E-20         0.00000E+00
    0.30844E-11         0.93132E-21         0.00000E+00
    0.37566E-11         0.51223E-20         0.00000E+00
    0.37566E-11        -0.48894E-20         0.00000E+00
    0.37566E-11        -0.10245E-19         0.00000E+00
    0.37566E-11         0.30268E-20         0.00000E+00
    0.37566E-11        -0.39581E-20         0.00000E+00
    0.37566E-11         0.81491E-20         0.00000E+00
    0.37566E-11         0.00000E+00         0.00000E+00
    0.37566E-11        -0.60536E-20         0.00000E+00
    0.37566E-11        -0.41910E-20         0.00000E+00
    0.37566E-11        -0.69849E-20         0.00000E+00
    0.37566E-11        -0.21188E-19         0.00000E+00
    0.37566E-11        -0.48894E-20         0.00000E+00
    0.37566E-11        -0.11642E-19         0.00000E+00
    0.37566E-11        -0.16531E-19         0.00000E+00
    0.37566E-11        -0.51223E-20         0.00000E+00
    0.37566E-11        -0.14668E-19         0.00000E+00
    0.37566E-11        -0.12107E-19         0.00000E+00
    0.37566E-11        -0.20722E-19         0.00000E+00
    0.37566E-11        -0.18161E-19         0.00000E+00
    0.37566E-11        -0.25146E-19         0.00000E+00
    0.37566E-11        -0.24214E-19         0.00000E+00
    0.37566E-11        -0.18161E-19         0.00000E+00
    0.37566E-11        -0.23749E-19         0.00000E+00
    0.37566E-11        -0.21886E-19         0.00000E+00
    0.37566E-11        -0.58208E-20         0.00000E+00
    0.37566E-11        -0.27008E-19         0.00000E+00
    0.37566E-11        -0.12573E-19         0.00000E+00
    0.37566E-11         0.46566E-21         0.00000E+00
    0.37566E-11        -0.88476E-20         0.00000E+00
    0.37566E-11        -0.15367E-19         0.00000E+00
    0.37566E-11        -0.18161E-19         0.00000E+00
    0.37566E-11        -0.10245E-19         0.00000E+00
    0.37566E-11        -0.27707E-19         0.00000E+00
    0.37566E-11        -0.32596E-19         0.00000E+00
    0.37566E-11        -0.23283E-19         0.00000E+00
    0.37566E-11        -0.16531E-19         0.00000E+00
    0.37566E-11        -0.41910E-20         0.00000E+00
    0.37566E-11        -0.46566E-20         0.00000E+00
    0.37566E-11        -0.69849E-20         0.00000E+00
    0.37566E-11        -0.81491E-20         0.00000E+00
    0.37566E-11        -0.13970E-19         0.00000E+00
    0.37566E-11        -0.29104E-19         0.00000E+00
    0.37566E-11        -0.23516E-19         0.00000E+00
    0.37566E-11        -0.22352E-19         0.00000E+00
    0.37566E-11        -0.21188E-19         0.00000E+00
    0.37566E-11        -0.21420E-19         0.00000E+00
    0.37566E-11        -0.11176E-19         0.00000E+00
    0.37566E-11        -0.16298E-20         0.00000E+00
    0.37566E-11        -0.18626E-20         0.00000E+00
    0.37566E-11         0.55879E-20         0.00000E+00
    0.45738E-11        -0.60536E-20         0.00000E+00
    0.45738E-11        -0.39581E-20         0.00000E+00
    0.45738E-11        -0.25611E-20         0.00000E+00
    0.45738E-11        -0.27940E-20         0.00000E+00
    0.45738E-11        -0.23283E-20         0.00000E+00
    0.45738E-11         0.83819E-20         0.00000E+00
    0.45738E-11         0.12573E-19         0.00000E+00
    0.45738E-11         0.69849E-21         0.00000E+00
    0.45738E-11        -0.83819E-20         0.00000E+00
    0.45738E-11        -0.23283E-20         0.00000E+00
    0.45738E-11        -0.74506E-20         0.00000E+00
    0.45738E-11        -0.83819E-20         0.00000E+00
    0.45738E-11        -0.20023E-19         0.00000E+00
    0.45738E-11        -0.15134E-19         0.00000E+00
    0.45738E-11        -0.69849E-20         0.00000E+00
    0.45738E-11        -0.14668E-19         0.00000E+00
    0.45738E-11        -0.83819E-20         0.00000E+00
    0.45738E-11        -0.29802E-19         0.00000E+00
    0.45738E-11        -0.74506E-20         0.00000E+00
    0.45738E-11        -0.90804E-20         0.00000E+00
    0.45738E-11        -0.25146E-19         0.00000E+00
    0.45738E-11        -0.25611E-19         0.00000E+00
    0.45738E-11        -0.21420E-19         0.00000E+00
    0.45738E-11        -0.22585E-19         0.00000E+00
    0.45738E-11        -0.12107E-19         0.00000E+00
    0.45738E-11        -0.41910E-20         0.00000E+00
    0.45738E-11        -0.79162E-20         0.00000E+00
    0.45738E-11        -0.65193E-20         0.00000E+00
    0.45738E-11        -0.18626E-20         0.00000E+00
    0.45738E-11        -0.97789E-20         0.00000E+00
    0.45738E-11        -0.74506E-20         0.00000E+00
    0.45738E-11        -0.65193E-20         0.00000E+00
    0.45738E-11        -0.72177E-20         0.00000E+00
    0.45738E-11        -0.17229E-19         0.00000E+00
    0.45738E-11        -0.10245E-19         0.00000E+00
    0.45738E-11        -0.93132E-20         0.00000E+00
    0.45738E-11        -0.10710E-19         0.00000E+00
    0.45738E-11        -0.32596E-20         0.00000E+00
    0.45738E-11         0.74506E-20         0.00000E+00
    0.45738E-11        -0.32596E-20         0.00000E+00
    0.45738E-11        -0.37253E-20         0.00000E+00
    0.45738E-11        -0.17695E-19         0.00000E+00
    0.45738E-11        -0.14435E-19         0.00000E+00
    0.45738E-11        -0.17229E-19         0.00000E+00
    0.45738E-11        -0.16298E-19         0.00000E+00
    0.45738E-11        -0.62864E-20         0.00000E+00
    0.45738E-11        -0.97789E-20         0.00000E+00
    0.45738E-11        -0.62864E-20         0.00000E+00
    0.45738E-11        -0.11642E-19         0.00000E+00
    0.45738E-11        -0.27940E-20         0.00000E+00
    0.55669E-11        -0.13504E-19         0.00000E+00
    0.55669E-11        -0.41910E-20         0.00000E+00
    0.55669E-11         0.27940E-20         0.00000E+00
    0.55669E-11         0.16298E-20         0.00000E+00
    0.55669E-11         0.10710E-19         0.00000E+00
    0.55669E-11         0.81491E-20         0.00000E+00
    0.55669E-11         0.55879E-20         0.00000E+00
    0.55669E-11        -0.58208E-20         0.00000E+00
    0.55669E-11        -0.79162E-20         0.00000E+00
    0.55669E-11        -0.95461E-20         0.00000E+00
    0.55669E-11        -0.13970E-19         0.00000E+00
    0.55669E-11        -0.11642E-19         0.00000E+00
    0.55669E-11        -0.55879E-20         0.00000E+00
    0.55669E-11        -0.83819E-20         0.00000E+00
    0.55669E-11        -0.10710E-19         0.00000E+00
    0.55669E-11        -0.67521E-20         0.00000E+00
    0.55669E-11        -0.93132E-21         0.00000E+00
    0.55669E-11        -0.13737E-19         0.00000E+00
    0.55669E-11        -0.12340E-19         0.00000E+00
    0.55669E-11        -0.23749E-19         0.00000E+00
    0.55669E-11        -0.22817E-19         0.00000E+00
    0.55669E-11        -0.16298E-19         0.00000E+00
    0.55669E-11        -0.14901E-19         0.00000E+00
    0.55669E-11        -0.22817E-19         0.00000E+00
    0.55669E-11        -0.14901E-19         0.00000E+00
    0.55669E-11        -0.69849E-21         0.00000E+00
    0.55669E-11        -0.41910E-20         0.00000E+00
    0.55669E-11        -0.39581E-20         0.00000E+00
    0.55669E-11        -0.46566E-20         0.00000E+00
    0.55669E-11         0.93132E-21         0.00000E+00
    0.55669E-11        -0.51223E-20         0.00000E+00
    0.55669E-11        -0.60536E-20         0.00000E+00
    0.55669E-11        -0.55879E-20         0.00000E+00
    0.55669E-11        -0.23283E-20         0.00000E+00
    0.55669E-11        -0.55879E-20         0.00000E+00
    0.55669E-11        -0.23283E-20         0.00000E+00
    0.55669E-11         0.88476E-20         0.00000E+00
    0.55669E-11         0.13970E-19         0.00000E+00
    0.55669E-11         0.27940E-20         0.00000E+00
    0.55669E-11         0.93132E-21         0.00000E+00
    0.55669E-11        -0.46566E-21         0.00000E+00
    0.55669E-11        -0.60536E-20         0.00000E+00
    0.55669E-11         0.74506E-20         0.00000E+00
    0.55669E-11        -0.79162E-20         0.00000E+00
    0.55669E-11        -0.14901E-19         0.00000E+00
    0.55669E-11        -0.79162E-20         0.00000E+00
    0.55669E-11        -0.79162E-20         0.00000E+00
    0.55669E-11        -0.23283E-20         0.00000E+00
    0.55669E-11        -0.11176E-19         0.00000E+00
    0.55669E-11         0.00000E+00         0.00000E+00
    0.67732E-11        -0.79162E-20         0.00000E+00
    0.67732E-11        -0.27940E-20         0.00000E+00
    0.67732E-11        -0.13970E-20         0.00000E+00
    0.67732E-11         0.16298E-20         0.00000E+00
    0.67732E-11         0.86147E-20         0.00000E+00
    0.67732E-11         0.41910E-20         0.00000E+00
    0.67732E-11         0.55879E-20         0.00000E+00
    0.67732E-11         0.65193E-20         0.00000E+00
    0.67732E-11        -0.12573E-19         0.00000E+00
    0.67732E-11        -0.25611E-19         0.00000E+00
    0.67732E-11        -0.11642E-19         0.00000E+00
    0.67732E-11        -0.69849E-20         0.00000E+00
    0.67732E-11        -0.51223E-20         0.00000E+00
    0.67732E-11        -0.41910E-20         0.00000E+00
    0.67732E-11        -0.79162E-20         0.00000E+00
    0.67732E-11        -0.16298E-19         0.00000E+00
    0.67732E-11        -0.10710E-19         0.00000E+00
    0.67732E-11        -0.93132E-20         0.00000E+00
    0.67732E-11        -0.97789E-20         0.00000E+00
    0.67732E-11        -0.19092E-19         0.00000E+00
    0.67732E-11        -0.20955E-19         0.00000E+00
    0.67732E-11        -0.23749E-19         0.00000E+00
    0.67732E-11        -0.27474E-19         0.00000E+00
    0.67732E-11        -0.12107E-19         0.00000E+00
    0.67732E-11         0.69849E-21         0.00000E+00
    0.67732E-11        -0.74506E-20         0.00000E+00
    0.67732E-11         0.37253E-20         0.00000E+00
    0.67732E-11        -0.93132E-21         0.00000E+00
    0.67732E-11        -0.79162E-20         0.00000E+00
    0.67732E-11        -0.83819E-20         0.00000E+00
    0.67732E-11        -0.93132E-21         0.00000E+00
    0.67732E-11         0.76834E-20         0.00000E+00
    0.67732E-11         0.10012E-19         0.00000E+00
    0.67732E-11        -0.23283E-20         0.00000E+00
    0.67732E-11        -0.46566E-21         0.00000E+00
    0.67732E-11         0.79162E-20         0.00000E+00
    0.67732E-11         0.11642E-19         0.00000E+00
    0.67732E-11         0.37253E-20         0.00000E+00
    0.67732E-11        -0.93132E-21         0.00000E+00
    0.67732E-11         0.18626E-20         0.00000E+00
    0.67732E-11         0.18626E-20         0.00000E+00
    0.67732E-11        -0.55879E-20         0.00000E+00
    0.67732E-11        -0.18626E-20         0.00000E+00
    0.67732E-11        -0.65193E-20         0.00000E+00
    0.67732E-11        -0.79162E-20         0.00000E+00
    0.67732E-11        -0.37253E-20         0.00000E+00
    0.67732E-11        -0.14901E-19         0.00000E+00
    0.67732E-11        -0.46566E-21         0.00000E+00
    0.67732E-11         0.00000E+00         0.00000E+00
    0.67732E-11         0.32596E-20         0.00000E+00
    0.82380E-11         0.13970E-20         0.00000E+00
    0.82380E-11        -0.39581E-20         0.00000E+00
    0.82380E-11         0.27940E-20         0.00000E+00
    0.82380E-11        -0.46566E-21         0.00000E+00
    0.82380E-11         0.27940E-20         0.00000E+00
    0.82380E-11        -0.60536E-20         0.00000E+00
    0.82380E-11         0.39581E-20         0.00000E+00
    0.82380E-11         0.37253E-20         0.00000E+00
    0.82380E-11        -0.46566E-20         0.00000E+00
    0.82380E-11        -0.13504E-19         0.00000E+00
    0.82380E-11        -0.88476E-20         0.00000E+00
    0.82380E-11        -0.15600E-19         0.00000E+00
    0.82380E-11        -0.10710E-19         0.00000E+00
    0.82380E-11        -0.10245E-19         0.00000E+00
    0.82380E-11        -0.97789E-20         0.00000E+00
    0.82380E-11        -0.95461E-20         0.00000E+00
    0.82380E-11        -0.12806E-19         0.00000E+00
    0.82380E-11        -0.13039E-19         0.00000E+00
    0.82380E-11        -0.10245E-19         0.00000E+00
    0.82380E-11        -0.13271E-19         0.00000E+00
    0.82380E-11        -0.24680E-19         0.00000E+00
    0.82380E-11        -0.21420E-19         0.00000E+00
    0.82380E-11        -0.16764E-19         0.00000E+00
    0.82380E-11        -0.53551E-20         0.00000E+00
    0.82380E-11        -0.93132E-21         0.00000E+00
    0.82380E-11        -0.41910E-20         0.00000E+00
    0.82380E-11         0.51223E-20         0.00000E+00
    0.82380E-11         0.10245E-19         0.00000E+00
    0.82380E-11         0.14435E-19         0.00000E+00
    0.82380E-11         0.00000E+00         0.00000E+00
    0.82380E-11        -0.25611E-20         0.00000E+00
    0.82380E-11         0.97789E-20         0.00000E+00
    0.82380E-11         0.25611E-19         0.00000E+00
    0.82380E-11         0.14203E-19         0.00000E+00
    0.82380E-11         0.55879E-20         0.00000E+00
    0.82380E-11        -0.11642E-20         0.00000E+00
    0.82380E-11        -0.60536E-20         0.00000E+00
    0.82380E-11        -0.12107E-19         0.00000E+00
    0.82380E-11        -0.10012E-19         0.00000E+00
    0.82380E-11        -0.37253E-20         0.00000E+00
    0.82380E-11         0.30268E-20         0.00000E+00
    0.82380E-11        -0.23283E-20         0.00000E+00
    0.82380E-11        -0.11176E-19         0.00000E+00
    0.82380E-11        -0.11409E-19         0.00000E+00
    0.82380E-11        -0.19558E-19         0.00000E+00
    0.82380E-11         0.00000E+00         0.00000E+00
    0.82380E-11        -0.48894E-20         0.00000E+00
    0.82380E-11        -0.46566E-20         0.00000E+00
    0.82380E-11        -0.15367E-19         0.00000E+00
    0.82380E-11        -0.95461E-20         0.00000E+00
    0.10016E-10        -0.88476E-20         0.00000E+00
    0.10016E-10         0.46566E-21         0.00000E+00
    0.10016E-10         0.93132E-20         0.00000E+00
    0.10016E-10         0.69849E-20         0.00000E+00
    0.10016E-10         0.16764E-19         0.00000E+00
    0.10016E-10         0.14435E-19         0.00000E+00
    0.10016E-10        -0.58208E-20         0.00000E+00
    0.10016E-10        -0.14435E-19         0.00000E+00
    0.10016E-10        -0.51223E-20         0.00000E+00
    0.10016E-10        -0.32596E-20         0.00000E+00
    0.10016E-10        -0.93132E-20         0.00000E+00
    0.10016E-10        -0.19558E-19         0.00000E+00
    0.10016E-10        -0.16764E-19         0.00000E+00
    0.10016E-10        -0.17695E-19         0.00000E+00
    0.10016E-10        -0.83819E-20         0.00000E+00
    0.10016E-10        -0.46566E-20         0.00000E+00
    0.10016E-10        -0.48894E-20         0.00000E+00
    0.10016E-10        -0.10245E-19         0.00000E+00
    0.10016E-10        -0.41910E-20         0.00000E+00
    0.10016E-10        -0.21886E-19         0.00000E+00
    0.10016E-10        -0.25611E-19         0.00000E+00
    0.10016E-10        -0.20489E-19         0.00000E+00
    0.10016E-10        -0.97789E-20         0.00000E+00
    0.10016E-10         0.93132E-21         0.00000E+00
    0.10016E-10         0.62864E-20         0.00000E+00
    0.10016E-10         0.13504E-19         0.00000E+00
    0.10016E-10         0.90804E-20         0.00000E+00
    0.10016E-10         0.17462E-19         0.00000E+00
    0.10016E-10         0.97789E-20         0.00000E+00
    0.10016E-10        -0.18626E-20         0.00000E+00
    0.10016E-10         0.51223E-20         0.00000E+00
    0.10016E-10         0.30268E-20         0.00000E+00
    0.10016E-10         0.41910E-20         0.00000E+00
    0.10016E-10         0.69849E-21         0.00000E+00
    0.10016E-10         0.14668E-19         0.00000E+00
    0.10016E-10        -0.51223E-20         0.00000E+00
    0.10016E-10        -0.55879E-20         0.00000E+00
    0.10016E-10        -0.41910E-20         0.00000E+00
    0.10016E-10        -0.88476E-20         0.00000E+00
    0.10016E-10        -0.18394E-19         0.00000E+00
    0.10016E-10        -0.22585E-19         0.00000E+00
    0.10016E-10         0.11642E-20         0.00000E+00
    0.10016E-10        -0.15134E-19         0.00000E+00
    0.10016E-10        -0.16764E-19         0.00000E+00
    0.10016E-10        -0.25146E-19         0.00000E+00
    0.10016E-10        -0.11642E-19         0.00000E+00
    0.10016E-10        -0.46566E-20         0.00000E+00
    0.10016E-10        -0.46566E-21         0.00000E+00
    0.10016E-10        -0.13039E-19         0.00000E+00
    0.10016E-10        -0.58208E-20         0.00000E+00
    0.12173E-10        -0.16298E-20         0.00000E+00
    0.12173E-10         0.86147E-20         0.00000E+00
    0.12173E-10         0.60536E-20         0.00000E+00
    0.12173E-10         0.11642E-20         0.00000E+00
    0.12173E-10         0.11176E-19         0.00000E+00
    0.12173E-10         0.21653E-19         0.00000E+00
    0.12173E-10        -0.41910E-20         0.00000E+00
    0.12173E-10        -0.21420E-19         0.00000E+00
    0.12173E-10        -0.15832E-19         0.00000E+00
    0.12173E-10        -0.90804E-20         0.00000E+00
    0.12173E-10        -0.18626E-20         0.00000E+00
    0.12173E-10        -0.74506E-20         0.00000E+00
    0.12173E-10        -0.10245E-19         0.00000E+00
    0.12173E-10        -0.11642E-19         0.00000E+00
    0.12173E-10        -0.97789E-20         0.00000E+00
    0.12173E-10        -0.21420E-19         0.00000E+00
    0.12173E-10        -0.11176E-19         0.00000E+00
    0.12173E-10        -0.14901E-19         0.00000E+00
    0.12173E-10        -0.41910E-20         0.00000E+00
    0.12173E-10        -0.37253E-20         0.00000E+00
    0.12173E-10        -0.97789E-20         0.00000E+00
    0.12173E-10        -0.19558E-19         0.00000E+00
    0.12173E-10        -0.93132E-20         0.00000E+00
    0.12173E-10         0.18626E-20         0.00000E+00
    0.12173E-10         0.00000E+00         0.00000E+00
    0.12173E-10         0.13737E-19         0.00000E+00
    0.12173E-10         0.18161E-19         0.00000E+00
    0.12173E-10         0.11176E-19         0.00000E+00
    0.12173E-10         0.18626E-20         0.00000E+00
    0.12173E-10        -0.46566E-20         0.00000E+00
    0.12173E-10         0.60536E-20         0.00000E+00
    0.12173E-10         0.34925E-20         0.00000E+00
    0.12173E-10         0.23283E-20         0.00000E+00
    0.12173E-10         0.53551E-20         0.00000E+00
    0.12173E-10         0.27940E-20         0.00000E+00
    0.12173E-10         0.00000E+00         0.00000E+00
    0.12173E-10        -0.14435E-19         0.00000E+00
    0.12173E-10        -0.18161E-19         0.00000E+00
    0.12173E-10        -0.11642E-19         0.00000E+00
    0.12173E-10        -0.28405E-19         0.00000E+00
    0.12173E-10        -0.19558E-19         0.00000E+00
    0.12173E-10        -0.11874E-19         0.00000E+00
    0.12173E-10        -0.18394E-19         0.00000E+00
    0.12173E-10        -0.27241E-19         0.00000E+00
    0.12173E-10        -0.12573E-19         0.00000E+00
    0.12173E-10        -0.23283E-19         0.00000E+00
    0.12173E-10        -0.95461E-20         0.00000E+00
    0.12173E-10        -0.93132E-21         0.00000E+00
    0.12173E-10        -0.46566E-20         0.00000E+00
    0.12173E-10         0.44238E-20         0.00000E+00
    0.14788E-10         0.55879E-20         0.00000E+00
    0.14788E-10        -0.11642E-20         0.00000E+00
    0.14788E-10         0.86147E-20         0.00000E+00
    0.14788E-10         0.27940E-20         0.00000E+00
    0.14788E-10         0.18626E-20         0.00000E+00
    0.14788E-10        -0.18626E-20         0.00000E+00
    0.14788E-10        -0.93132E-20         0.00000E+00
    0.14788E-10        -0.23283E-20         0.00000E+00
    0.14788E-10        -0.14435E-19         0.00000E+00
    0.14788E-10        -0.14901E-19         0.00000E+00
    0.14788E-10         0.46566E-21         0.00000E+00
    0.14788E-10        -0.23283E-20         0.00000E+00
    0.14788E-10        -0.13970E-20         0.00000E+00
    0.14788E-10        -0.13970E-20         0.00000E+00
    0.14788E-10        -0.11642E-19         0.00000E+00
    0.14788E-10        -0.88476E-20         0.00000E+00
    0.14788E-10        -0.69849E-20         0.00000E+00
    0.14788E-10        -0.21420E-19         0.00000E+00
    0.14788E-10        -0.20955E-19         0.00000E+00
    0.14788E-10        -0.27940E-20         0.00000E+00
    0.14788E-10        -0.13970E-20         0.00000E+00
    0.14788E-10         0.46566E-21         0.00000E+00
    0.14788E-10         0.46566E-21         0.00000E+00
    0.14788E-10         0.93132E-21         0.00000E+00
    0.14788E-10         0.00000E+00         0.00000E+00
    0.14788E-10         0.44238E-20         0.00000E+00
    0.14788E-10         0.83819E-20         0.00000E+00
    0.14788E-10         0.55879E-20         0.00000E+00
    0.14788E-10         0.51223E-20         0.00000E+00
    0.14788E-10         0.37253E-20         0.00000E+00
    0.14788E-10        -0.74506E-20         0.00000E+00
    0.14788E-10        -0.83819E-20         0.00000E+00
    0.14788E-10         0.39581E-20         0.00000E+00
    0.14788E-10         0.20955E-19         0.00000E+00
    0.14788E-10         0.69849E-20         0.00000E+00
    0.14788E-10        -0.11642E-19         0.00000E+00
    0.14788E-10        -0.20955E-19         0.00000E+00
    0.14788E-10        -0.16298E-19         0.00000E+00
    0.14788E-10        -0.10710E-19         0.00000E+00
    0.14788E-10        -0.86147E-20         0.00000E+00
    0.14788E-10        -0.60536E-20         0.00000E+00
    0.14788E-10        -0.69849E-20         0.00000E+00
    0.14788E-10        -0.90804E-20         0.00000E+00
    0.14788E-10        -0.18859E-19         0.00000E+00
    0.14788E-10        -0.18859E-19         0.00000E+00
    0.14788E-10        -0.22352E-19         0.00000E+00
    0.14788E-10        -0.13970E-19         0.00000E+00
    0.14788E-10        -0.18394E-19         0.00000E+00
    0.14788E-10        -0.10710E-19         0.00000E+00
    0.14788E-10         0.60536E-20         0.00000E+00
    0.17958E-10         0.74506E-20         0.00000E+00
    0.17958E-10         0.10245E-19         0.00000E+00
    0.17958E-10         0.16298E-20         0.00000E+00
    0.17958E-10         0.18626E-20         0.00000E+00
    0.17958E-10        -0.67521E-20         0.00000E+00
    0.17958E-10        -0.41910E-20         0.00000E+00
    0.17958E-10        -0.18626E-20         0.00000E+00
    0.17958E-10         0.00000E+00         0.00000E+00
    0.17958E-10        -0.13970E-20         0.00000E+00
    0.17958E-10         0.18626E-20         0.00000E+00
    0.17958E-10         0.81491E-20         0.00000E+00
    0.17958E-10         0.25611E-20         0.00000E+00
    0.17958E-10        -0.32596E-20         0.00000E+00
    0.17958E-10         0.93132E-21         0.00000E+00
    0.17958E-10        -0.55879E-20         0.00000E+00
    0.17958E-10        -0.97789E-20         0.00000E+00
    0.17958E-10        -0.12573E-19         0.00000E+00
    0.17958E-10        -0.16298E-19         0.00000E+00
    0.17958E-10        -0.17695E-19         0.00000E+00
    0.17958E-10        -0.17695E-19         0.00000E+00
    0.17958E-10        -0.10245E-19         0.00000E+00
    0.17958E-10        -0.51223E-20         0.00000E+00
    0.17958E-10        -0.93132E-21         0.00000E+00
    0.17958E-10         0.30268E-20         0.00000E+00
    0.17958E-10         0.88476E-20         0.00000E+00
    0.17958E-10         0.11642E-20         0.00000E+00
    0.17958E-10         0.16298E-20         0.00000E+00
    0.17958E-10         0.27940E-20         0.00000E+00
    0.17958E-10         0.83819E-20         0.00000E+00
    0.17958E-10         0.16298E-19         0.00000E+00
    0.17958E-10         0.65193E-20         0.00000E+00
    0.17958E-10        -0.69849E-20         0.00000E+00
    0.17958E-10        -0.11176E-19         0.00000E+00
    0.17958E-10         0.51223E-20         0.00000E+00
    0.17958E-10         0.11874E-19         0.00000E+00
    0.17958E-10        -0.23283E-20         0.00000E+00
    0.17958E-10        -0.16298E-20         0.00000E+00
    0.17958E-10         0.46566E-20         0.00000E+00
    0.17958E-10        -0.11642E-19         0.00000E+00
    0.17958E-10         0.18626E-20         0.00000E+00
    0.17958E-10        -0.10245E-19         0.00000E+00
    0.17958E-10         0.30268E-20         0.00000E+00
    0.17958E-10        -0.65193E-20         0.00000E+00
    0.17958E-10        -0.37253E-20         0.00000E+00
    0.17958E-10        -0.16764E-19         0.00000E+00
    0.17958E-10        -0.13970E-19         0.00000E+00
    0.17958E-10        -0.88476E-20         0.00000E+00
    0.17958E-10        -0.51223E-20         0.00000E+00
    0.17958E-10        -0.74506E-20         0.00000E+00
    0.17958E-10        -0.53551E-20         0.00000E+00
    0.21799E-10         0.41910E-20         0.00000E+00
    0.21799E-10         0.11176E-19         0.00000E+00
    0.21799E-10         0.46566E-20         0.00000E+00
    0.21799E-10         0.27940E-20         0.00000E+00
    0.21799E-10        -0.93132E-21         0.00000E+00
    0.21799E-10         0.21188E-19         0.00000E+00
    0.21799E-10         0.19092E-19         0.00000E+00
    0.21799E-10         0.00000E+00         0.00000E+00
    0.21799E-10         0.51223E-20         0.00000E+00
    0.21799E-10         0.79162E-20         0.00000E+00
    0.21799E-10         0.10943E-19         0.00000E+00
    0.21799E-10        -0.37253E-20         0.00000E+00
    0.21799E-10        -0.11409E-19         0.00000E+00
    0.21799E-10        -0.51223E-20         0.00000E+00
    0.21799E-10        -0.86147E-20         0.00000E+00
    0.21799E-10        -0.19791E-19         0.00000E+00
    0.21799E-10        -0.15600E-19         0.00000E+00
    0.21799E-10        -0.88476E-20         0.00000E+00
    0.21799E-10        -0.12107E-19         0.00000E+00
    0.21799E-10        -0.12573E-19         0.00000E+00
    0.21799E-10        -0.88476E-20         0.00000E+00
    0.21799E-10        -0.97789E-20         0.00000E+00
    0.21799E-10        -0.12573E-19         0.00000E+00
    0.21799E-10        -0.55879E-20         0.00000E+00
    0.21799E-10        -0.11176E-19         0.00000E+00
    0.21799E-10         0.00000E+00         0.00000E+00
    0.21799E-10         0.27940E-20         0.00000E+00
    0.21799E-10        -0.13970E-20         0.00000E+00
    0.21799E-10         0.23283E-20         0.00000E+00
    0.21799E-10         0.97789E-20         0.00000E+00
    0.21799E-10         0.74506E-20         0.00000E+00
    0.21799E-10         0.46566E-20         0.00000E+00
    0.21799E-10         0.46566E-20         0.00000E+00
    0.21799E-10         0.10245E-19         0.00000E+00
    0.21799E-10         0.12107E-19         0.00000E+00
    0.21799E-10         0.34925E-20         0.00000E+00
    0.21799E-10         0.53551E-20         0.00000E+00
    0.21799E-10         0.62864E-20         0.00000E+00
    0.21799E-10         0.46566E-20         0.00000E+00
    0.21799E-10         0.00000E+00         0.00000E+00
    0.21799E-10        -0.53551E-20         0.00000E+00
    0.21799E-10         0.53551E-20         0.00000E+00
    0.21799E-10        -0.25611E-20         0.00000E+00
    0.21799E-10        -0.13970E-20         0.00000E+00
    0.21799E-10        -0.18626E-20         0.00000E+00
    0.21799E-10         0.93132E-21         0.00000E+00
    0.21799E-10         0.10245E-19         0.00000E+00
    0.21799E-10         0.81491E-20         0.00000E+00
    0.21799E-10        -0.34925E-20         0.00000E+00
    0.21799E-10        -0.62864E-20         0.00000E+00
    0.26450E-10        -0.13970E-20         0.00000E+00
    0.26450E-10         0.65193E-20         0.00000E+00
    0.26450E-10         0.32596E-20         0.00000E+00
    0.26450E-10         0.37253E-20         0.00000E+00
    0.26450E-10         0.74506E-20         0.00000E+00
    0.26450E-10         0.33062E-19         0.00000E+00
    0.26450E-10         0.16298E-19         0.00000E+00
    0.26450E-10         0.11642E-19         0.00000E+00
    0.26450E-10         0.79162E-20         0.00000E+00
    0.26450E-10         0.10245E-19         0.00000E+00
    0.26450E-10        -0.13970E-20         0.00000E+00
    0.26450E-10        -0.46566E-21         0.00000E+00
    0.26450E-10         0.88476E-20         0.00000E+00
    0.26450E-10        -0.37253E-20         0.00000E+00
    0.26450E-10        -0.16764E-19         0.00000E+00
    0.26450E-10        -0.23283E-20         0.00000E+00
    0.26450E-10        -0.46566E-20         0.00000E+00
    0.26450E-10        -0.19558E-19         0.00000E+00
    0.26450E-10        -0.21420E-19         0.00000E+00
    0.26450E-10        -0.11642E-19         0.00000E+00
    0.26450E-10        -0.83819E-20         0.00000E+00
    0.26450E-10        -0.25611E-19         0.00000E+00
    0.26450E-10        -0.16997E-19         0.00000E+00
    0.26450E-10        -0.14203E-19         0.00000E+00
    0.26450E-10        -0.18626E-19         0.00000E+00
    0.26450E-10        -0.15134E-19         0.00000E+00
    0.26450E-10        -0.69849E-20         0.00000E+00
    0.26450E-10        -0.60536E-20         0.00000E+00
    0.26450E-10         0.30268E-20         0.00000E+00
    0.26450E-10         0.12573E-19         0.00000E+00
    0.26450E-10         0.95461E-20         0.00000E+00
    0.26450E-10         0.19558E-19         0.00000E+00
    0.26450E-10         0.28405E-19         0.00000E+00
    0.26450E-10         0.20023E-19         0.00000E+00
    0.26450E-10         0.51223E-20         0.00000E+00
    0.26450E-10        -0.32596E-20         0.00000E+00
    0.26450E-10        -0.46566E-21         0.00000E+00
    0.26450E-10        -0.27940E-20         0.00000E+00
    0.26450E-10         0.90804E-20         0.00000E+00
    0.26450E-10        -0.46566E-21         0.00000E+00
    0.26450E-10         0.65193E-20         0.00000E+00
    0.26450E-10         0.93132E-21         0.00000E+00
    0.26450E-10         0.93132E-21         0.00000E+00
    0.26450E-10         0.18626E-20         0.00000E+00
    0.26450E-10         0.17695E-19         0.00000E+00
    0.26450E-10         0.60536E-20         0.00000E+00
    0.26450E-10         0.58208E-20         0.00000E+00
    0.26450E-10         0.74506E-20         0.00000E+00
    0.26450E-10         0.79162E-20         0.00000E+00
    0.26450E-10        -0.93132E-21         0.00000E+00
    0.32079E-10        -0.46566E-21         0.00000E+00
    0.32079E-10         0.30268E-20         0.00000E+00
    0.32079E-10         0.41910E-20         0.00000E+00
    0.32079E-10         0.11874E-19         0.00000E+00
    0.32079E-10         0.69849E-20         0.00000E+00
    0.32079E-10         0.10012E-19         0.00000E+00
    0.32079E-10         0.13271E-19         0.00000E+00
    0.32079E-10         0.14668E-19         0.00000E+00
    0.32079E-10         0.16764E-19         0.00000E+00
    0.32079E-10         0.18161E-19         0.00000E+00
    0.32079E-10         0.83819E-20         0.00000E+00
    0.32079E-10         0.27940E-20         0.00000E+00
    0.32079E-10         0.16764E-19         0.00000E+00
    0.32079E-10        -0.23283E-20         0.00000E+00
    0.32079E-10        -0.17462E-19         0.00000E+00
    0.32079E-10        -0.13504E-19         0.00000E+00
    0.32079E-10        -0.65193E-20         0.00000E+00
    0.32079E-10        -0.13970E-19         0.00000E+00
    0.32079E-10        -0.93132E-21         0.00000E+00
    0.32079E-10        -0.13039E-19         0.00000E+00
    0.32079E-10        -0.16764E-19         0.00000E+00
    0.32079E-10        -0.18626E-19         0.00000E+00
    0.32079E-10        -0.16764E-19         0.00000E+00
    0.32079E-10        -0.12573E-19         0.00000E+00
    0.32079E-10        -0.21420E-19         0.00000E+00
    0.32079E-10        -0.13271E-19         0.00000E+00
    0.32079E-10        -0.44238E-20         0.00000E+00
    0.32079E-10        -0.13504E-19         0.00000E+00
    0.32079E-10        -0.27940E-20         0.00000E+00
    0.32079E-10         0.10245E-19         0.00000E+00
    0.32079E-10         0.13039E-19         0.00000E+00
    0.32079E-10         0.11642E-19         0.00000E+00
    0.32079E-10         0.10245E-19         0.00000E+00
    0.32079E-10         0.14901E-19         0.00000E+00
    0.32079E-10         0.11874E-19         0.00000E+00
    0.32079E-10         0.90804E-20         0.00000E+00
    0.32079E-10        -0.41910E-20         0.00000E+00
    0.32079E-10        -0.41910E-20         0.00000E+00
    0.32079E-10         0.48894E-20         0.00000E+00
    0.32079E-10         0.69849E-21         0.00000E+00
    0.32079E-10         0.46566E-20         0.00000E+00
    0.32079E-10         0.20955E-20         0.00000E+00
    0.32079E-10         0.12806E-19         0.00000E+00
    0.32079E-10         0.97789E-20         0.00000E+00
    0.32079E-10         0.65193E-20         0.00000E+00
    0.32079E-10         0.93132E-21         0.00000E+00
    0.32079E-10         0.88476E-20         0.00000E+00
    0.32079E-10         0.12107E-19         0.00000E+00
    0.32079E-10         0.11409E-19         0.00000E+00
    0.32079E-10         0.11642E-20         0.00000E+00
    0.38889E-10        -0.23283E-20         0.00000E+00
    0.38889E-10        -0.93132E-20         0.00000E+00
    0.38889E-10        -0.46566E-21         0.00000E+00
    0.38889E-10         0.27940E-20         0.00000E+00
    0.38889E-10         0.15832E-19         0.00000E+00
    0.38889E-10        -0.41910E-20         0.00000E+00
    0.38889E-10        -0.23283E-21         0.00000E+00
    0.38889E-10         0.65193E-20         0.00000E+00
    0.38889E-10         0.19092E-19         0.00000E+00
    0.38889E-10         0.74506E-20         0.00000E+00
    0.38889E-10         0.69849E-20         0.00000E+00
    0.38889E-10         0.55879E-20         0.00000E+00
    0.38889E-10         0.00000E+00         0.00000E+00
    0.38889E-10        -0.27940E-20         0.00000E+00
    0.38889E-10        -0.32596E-20         0.00000E+00
    0.38889E-10        -0.93132E-21         0.00000E+00
    0.38889E-10         0.11642E-20         0.00000E+00
    0.38889E-10         0.60536E-20         0.00000E+00
    0.38889E-10         0.10710E-19         0.00000E+00
    0.38889E-10         0.13970E-20         0.00000E+00
    0.38889E-10         0.32596E-20         0.00000E+00
    0.38889E-10        -0.69849E-20         0.00000E+00
    0.38889E-10        -0.97789E-20         0.00000E+00
    0.38889E-10        -0.86147E-20         0.00000E+00
    0.38889E-10        -0.13737E-19         0.00000E+00
    0.38889E-10         0.00000E+00         0.00000E+00
    0.38889E-10        -0.51223E-20         0.00000E+00
    0.38889E-10        -0.18626E-20         0.00000E+00
    0.38889E-10        -0.60536E-20         0.00000E+00
    0.38889E-10        -0.12573E-19         0.00000E+00
    0.38889E-10        -0.90804E-20         0.00000E+00
    0.38889E-10        -0.27940E-20         0.00000E+00
    0.38889E-10         0.32596E-20         0.00000E+00
    0.38889E-10         0.14901E-19         0.00000E+00
    0.38889E-10         0.26077E-19         0.00000E+00
    0.38889E-10         0.17928E-19         0.00000E+00
    0.38889E-10         0.23283E-20         0.00000E+00
    0.38889E-10         0.23283E-20         0.00000E+00
    0.38889E-10         0.11409E-19         0.00000E+00
    0.38889E-10        -0.13970E-20         0.00000E+00
    0.38889E-10         0.41910E-20         0.00000E+00
    0.38889E-10         0.10943E-19         0.00000E+00
    0.38889E-10         0.30268E-20         0.00000E+00
    0.38889E-10         0.11642E-19         0.00000E+00
    0.38889E-10         0.48894E-20         0.00000E+00
    0.38889E-10         0.74506E-20         0.00000E+00
    0.38889E-10         0.76834E-20         0.00000E+00
    0.38889E-10         0.32596E-20         0.00000E+00
    0.38889E-10         0.39581E-20         0.00000E+00
    0.38889E-10         0.81491E-20         0.00000E+00
    0.47122E-10         0.00000E+00         0.00000E+00
    0.47122E-10        -0.23283E-20         0.00000E+00
    0.47122E-10        -0.10943E-19         0.00000E+00
    0.47122E-10        -0.18626E-19         0.00000E+00
    0.47122E-10        -0.10012E-19         0.00000E+00
    0.47122E-10        -0.27940E-20         0.00000E+00
    0.47122E-10        -0.97789E-20         0.00000E+00
    0.47122E-10         0.18626E-20         0.00000E+00
    0.47122E-10         0.13970E-20         0.00000E+00
    0.47122E-10         0.00000E+00         0.00000E+00
    0.47122E-10        -0.13970E-20         0.00000E+00
    0.47122E-10         0.93132E-21         0.00000E+00
    0.47122E-10         0.37253E-20         0.00000E+00
    0.47122E-10         0.11642E-20         0.00000E+00
    0.47122E-10         0.11409E-19         0.00000E+00
    0.47122E-10         0.12573E-19         0.00000E+00
    0.47122E-10         0.21886E-19         0.00000E+00
    0.47122E-10         0.25611E-19         0.00000E+00
    0.47122E-10         0.10710E-19         0.00000E+00
    0.47122E-10         0.14901E-19         0.00000E+00
    0.47122E-10        -0.23283E-20         0.00000E+00
    0.47122E-10        -0.74506E-20         0.00000E+00
    0.47122E-10        -0.93132E-21         0.00000E+00
    0.47122E-10        -0.12107E-19         0.00000E+00
    0.47122E-10         0.93132E-21         0.00000E+00
    0.47122E-10        -0.25611E-20         0.00000E+00
    0.47122E-10        -0.65193E-20         0.00000E+00
    0.47122E-10        -0.51223E-20         0.00000E+00
    0.47122E-10        -0.41910E-20         0.00000E+00
    0.47122E-10        -0.11642E-20         0.00000E+00
    0.47122E-10        -0.46566E-20         0.00000E+00
    0.47122E-10         0.37253E-20         0.00000E+00
    0.47122E-10         0.20489E-19         0.00000E+00
    0.47122E-10         0.17928E-19         0.00000E+00
    0.47122E-10         0.97789E-20         0.00000E+00
    0.47122E-10         0.19092E-19         0.00000E+00
    0.47122E-10         0.18161E-19         0.00000E+00
    0.47122E-10         0.93132E-21         0.00000E+00
    0.47122E-10         0.58208E-20         0.00000E+00
    0.47122E-10         0.86147E-20         0.00000E+00
    0.47122E-10         0.17229E-19         0.00000E+00
    0.47122E-10         0.16764E-19         0.00000E+00
    0.47122E-10        -0.25611E-20         0.00000E+00
    0.47122E-10        -0.79162E-20         0.00000E+00
    0.47122E-10         0.23283E-21         0.00000E+00
    0.47122E-10         0.46566E-20         0.00000E+00
    0.47122E-10        -0.65193E-20         0.00000E+00
    0.47122E-10         0.00000E+00         0.00000E+00
    0.47122E-10        -0.30268E-20         0.00000E+00
    0.47122E-10        -0.93132E-21         0.00000E+00
    0.57071E-10         0.46566E-20         0.00000E+00
    0.57071E-10        -0.69849E-20         0.00000E+00
    0.57071E-10        -0.72177E-20         0.00000E+00
    0.57071E-10        -0.13970E-19         0.00000E+00
    0.57071E-10        -0.25844E-19         0.00000E+00
    0.57071E-10        -0.19092E-19         0.00000E+00
    0.57071E-10        -0.13970E-19         0.00000E+00
    0.57071E-10        -0.15134E-19         0.00000E+00
    0.57071E-10        -0.16298E-20         0.00000E+00
    0.57071E-10        -0.27940E-20         0.00000E+00
    0.57071E-10         0.46566E-20         0.00000E+00
    0.57071E-10         0.97789E-20         0.00000E+00
    0.57071E-10         0.23283E-21         0.00000E+00
    0.57071E-10         0.37253E-20         0.00000E+00
    0.57071E-10         0.15367E-19         0.00000E+00
    0.57071E-10         0.74506E-20         0.00000E+00
    0.57071E-10         0.13970E-19         0.00000E+00
    0.57071E-10         0.19092E-19         0.00000E+00
    0.57071E-10         0.22352E-19         0.00000E+00
    0.57071E-10         0.30268E-20         0.00000E+00
    0.57071E-10        -0.20489E-19         0.00000E+00
    0.57071E-10         0.46566E-21         0.00000E+00
    0.57071E-10         0.11642E-19         0.00000E+00
    0.57071E-10        -0.27940E-20         0.00000E+00
    0.57071E-10        -0.18626E-20         0.00000E+00
    0.57071E-10         0.16298E-20         0.00000E+00
    0.57071E-10         0.41910E-20         0.00000E+00
    0.57071E-10        -0.27940E-20         0.00000E+00
    0.57071E-10         0.10710E-19         0.00000E+00
    0.57071E-10         0.69849E-20         0.00000E+00
    0.57071E-10         0.81491E-20         0.00000E+00
    0.57071E-10         0.95461E-20         0.00000E+00
    0.57071E-10         0.21420E-19         0.00000E+00
    0.57071E-10         0.23283E-19         0.00000E+00
    0.57071E-10         0.19325E-19         0.00000E+00
    0.57071E-10         0.16997E-19         0.00000E+00
    0.57071E-10         0.19092E-19         0.00000E+00
    0.57071E-10         0.97789E-20         0.00000E+00
    0.57071E-10         0.60536E-20         0.00000E+00
    0.57071E-10         0.13039E-19         0.00000E+00
    0.57071E-10         0.11409E-19         0.00000E+00
    0.57071E-10         0.74506E-20         0.00000E+00
    0.57071E-10        -0.72177E-20         0.00000E+00
    0.57071E-10        -0.41910E-20         0.00000E+00
    0.57071E-10        -0.16764E-19         0.00000E+00
    0.57071E-10        -0.86147E-20         0.00000E+00
    0.57071E-10        -0.60536E-20         0.00000E+00
    0.57071E-10         0.23283E-20         0.00000E+00
    0.57071E-10        -0.27940E-20         0.00000E+00
    0.57071E-10        -0.41910E-20         0.00000E+00
    0.69086E-10         0.13970E-20         0.00000E+00
    0.69086E-10        -0.65193E-20         0.00000E+00
    0.69086E-10         0.32596E-20         0.00000E+00
    0.69086E-10        -0.41910E-20         0.00000E+00
    0.69086E-10        -0.46566E-20         0.00000E+00
    0.69086E-10        -0.18626E-20         0.00000E+00
    0.69086E-10        -0.74506E-20         0.00000E+00
    0.69086E-10        -0.16764E-19         0.00000E+00
    0.69086E-10        -0.10012E-19         0.00000E+00
    0.69086E-10        -0.16298E-19         0.00000E+00
    0.69086E-10         0.93132E-20         0.00000E+00
    0.69086E-10         0.13970E-20         0.00000E+00
    0.69086E-10        -0.34925E-20         0.00000E+00
    0.69086E-10        -0.39581E-20         0.00000E+00
    0.69086E-10         0.51223E-20         0.00000E+00
    0.69086E-10         0.17462E-19         0.00000E+00
    0.69086E-10        -0.13970E-20         0.00000E+00
    0.69086E-10         0.13970E-20         0.00000E+00
    0.69086E-10         0.12340E-19         0.00000E+00
    0.69086E-10         0.81491E-20         0.00000E+00
    0.69086E-10         0.93132E-20         0.00000E+00
    0.69086E-10        -0.51223E-20         0.00000E+00
    0.69086E-10         0.90804E-20         0.00000E+00
    0.69086E-10        -0.18626E-20         0.00000E+00
    0.69086E-10        -0.76834E-20         0.00000E+00
    0.69086E-10         0.23283E-21         0.00000E+00
    0.69086E-10         0.12573E-19         0.00000E+00
    0.69086E-10         0.76834E-20         0.00000E+00
    0.69086E-10         0.15600E-19         0.00000E+00
    0.69086E-10         0.17462E-19         0.00000E+00
    0.69086E-10         0.13504E-19         0.00000E+00
    0.69086E-10         0.20489E-19         0.00000E+00
    0.69086E-10         0.28871E-19         0.00000E+00
    0.69086E-10         0.22585E-19         0.00000E+00
    0.69086E-10         0.24680E-19         0.00000E+00
    0.69086E-10         0.20489E-19         0.00000E+00
    0.69086E-10         0.14203E-19         0.00000E+00
    0.69086E-10         0.18626E-19         0.00000E+00
    0.69086E-10         0.13039E-19         0.00000E+00
    0.69086E-10         0.46566E-20         0.00000E+00
    0.69086E-10         0.83819E-20         0.00000E+00
    0.69086E-10        -0.41910E-20         0.00000E+00
    0.69086E-10        -0.93132E-21         0.00000E+00
    0.69086E-10        -0.93132E-21         0.00000E+00
    0.69086E-10        -0.11176E-19         0.00000E+00
    0.69086E-10        -0.13970E-19         0.00000E+00
    0.69086E-10        -0.11176E-19         0.00000E+00
    0.69086E-10        -0.32596E-20         0.00000E+00
    0.69086E-10        -0.16298E-20         0.00000E+00
    0.69086E-10         0.30268E-20         0.00000E+00
    0.83588E-10         0.39581E-20         0.00000E+00
    0.83588E-10         0.18626E-19         0.00000E+00
    0.83588E-10         0.53551E-20         0.00000E+00
    0.83588E-10         0.62864E-20         0.00000E+00
    0.83588E-10         0.69849E-21         0.00000E+00
    0.83588E-10         0.53551E-20         0.00000E+00
    0.83588E-10         0.79162E-20         0.00000E+00
    0.83588E-10         0.37253E-20         0.00000E+00
    0.83588E-10        -0.16298E-20         0.00000E+00
    0.83588E-10        -0.69849E-21         0.00000E+00
    0.83588E-10        -0.51223E-20         0.00000E+00
    0.83588E-10        -0.74506E-20         0.00000E+00
    0.83588E-10        -0.93132E-20         0.00000E+00
    0.83588E-10        -0.97789E-20         0.00000E+00
    0.83588E-10         0.18626E-20         0.00000E+00
    0.83588E-10        -0.34925E-20         0.00000E+00
    0.83588E-10        -0.34925E-20         0.00000E+00
    0.83588E-10        -0.27940E-20         0.00000E+00
    0.83588E-10         0.00000E+00         0.00000E+00
    0.83588E-10         0.46566E-20         0.00000E+00
    0.83588E-10         0.13970E-20         0.00000E+00
    0.83588E-10        -0.46566E-20         0.00000E+00
    0.83588E-10         0.51223E-20         0.00000E+00
    0.83588E-10        -0.79162E-20         0.00000E+00
    0.83588E-10        -0.30268E-20         0.00000E+00
    0.83588E-10        -0.37253E-20         0.00000E+00
    0.83588E-10         0.79162E-20         0.00000E+00
    0.83588E-10         0.15367E-19         0.00000E+00
    0.83588E-10         0.18626E-19         0.00000E+00
    0.83588E-10         0.27241E-19         0.00000E+00
    0.83588E-10         0.34226E-19         0.00000E+00
    0.83588E-10         0.28405E-19         0.00000E+00
    0.83588E-10         0.24913E-19         0.00000E+00
    0.83588E-10         0.23516E-19         0.00000E+00
    0.83588E-10         0.19325E-19         0.00000E+00
    0.83588E-10         0.20489E-19         0.00000E+00
    0.83588E-10         0.20955E-19         0.00000E+00
    0.83588E-10         0.30501E-19         0.00000E+00
    0.83588E-10         0.17229E-19         0.00000E+00
    0.83588E-10         0.11409E-19         0.00000E+00
    0.83588E-10         0.79162E-20         0.00000E+00
    0.83588E-10         0.25611E-20         0.00000E+00
    0.83588E-10         0.83819E-20         0.00000E+00
    0.83588E-10        -0.18626E-20         0.00000E+00
    0.83588E-10         0.10245E-19         0.00000E+00
    0.83588E-10        -0.16298E-20         0.00000E+00
    0.83588E-10        -0.95461E-20         0.00000E+00
    0.83588E-10        -0.13504E-19         0.00000E+00
    0.83588E-10        -0.46566E-20         0.00000E+00
    0.83588E-10        -0.55879E-20         0.00000E+00
    0.10108E-09         0.51223E-20         0.00000E+00
    0.10108E-09         0.60536E-20         0.00000E+00
    0.10108E-09         0.65193E-20         0.00000E+00
    0.10108E-09         0.14435E-19         0.00000E+00
    0.10108E-09         0.69849E-20         0.00000E+00
    0.10108E-09         0.20955E-20         0.00000E+00
    0.10108E-09         0.10710E-19         0.00000E+00
    0.10108E-09         0.69849E-20         0.00000E+00
    0.10108E-09         0.14668E-19         0.00000E+00
    0.10108E-09         0.11409E-19         0.00000E+00
    0.10108E-09        -0.11642E-19         0.00000E+00
    0.10108E-09        -0.11642E-19         0.00000E+00
    0.10108E-09        -0.22352E-19         0.00000E+00
    0.10108E-09        -0.23283E-20         0.00000E+00
    0.10108E-09         0.44238E-20         0.00000E+00
    0.10108E-09        -0.83819E-20         0.00000E+00
    0.10108E-09        -0.97789E-20         0.00000E+00
    0.10108E-09        -0.65193E-20         0.00000E+00
    0.10108E-09        -0.18626E-20         0.00000E+00
    0.10108E-09        -0.32596E-20         0.00000E+00
    0.10108E-09        -0.13737E-19         0.00000E+00
    0.10108E-09        -0.11176E-19         0.00000E+00
    0.10108E-09        -0.51223E-20         0.00000E+00
    0.10108E-09        -0.46566E-20         0.00000E+00
    0.10108E-09        -0.83819E-20         0.00000E+00
    0.10108E-09         0.30268E-20         0.00000E+00
    0.10108E-09         0.62864E-20         0.00000E+00
    0.10108E-09         0.24214E-19         0.00000E+00
    0.10108E-09         0.18161E-19         0.00000E+00
    0.10108E-09         0.27474E-19         0.00000E+00
    0.10108E-09         0.33062E-19         0.00000E+00
    0.10108E-09         0.35856E-19         0.00000E+00
    0.10108E-09         0.26776E-19         0.00000E+00
    0.10108E-09         0.29802E-19         0.00000E+00
    0.10108E-09         0.19558E-19         0.00000E+00
    0.10108E-09         0.76834E-20         0.00000E+00
    0.10108E-09         0.97789E-20         0.00000E+00
    0.10108E-09         0.13737E-19         0.00000E+00
    0.10108E-09         0.14668E-19         0.00000E+00
    0.10108E-09         0.16997E-19         0.00000E+00
    0.10108E-09         0.81491E-20         0.00000E+00
    0.10108E-09         0.11642E-20         0.00000E+00
    0.10108E-09        -0.34925E-20         0.00000E+00
    0.10108E-09         0.69849E-20         0.00000E+00
    0.10108E-09         0.95461E-20         0.00000E+00
    0.10108E-09         0.10943E-19         0.00000E+00
    0.10108E-09         0.69849E-20         0.00000E+00
    0.10108E-09         0.37253E-20         0.00000E+00
    0.10108E-09         0.12107E-19         0.00000E+00
    0.10108E-09         0.32596E-20         0.00000E+00
    0.12217E-09        -0.13970E-20         0.00000E+00
    0.12217E-09         0.30268E-20         0.00000E+00
    0.12217E-09         0.11642E-20         0.00000E+00
    0.12217E-09         0.32596E-20         0.00000E+00
    0.12217E-09         0.10012E-19         0.00000E+00
    0.12217E-09         0.15367E-19         0.00000E+00
    0.12217E-09         0.88476E-20         0.00000E+00
    0.12217E-09        -0.34925E-20         0.00000E+00
    0.12217E-09        -0.13970E-20         0.00000E+00
    0.12217E-09         0.46566E-21         0.00000E+00
    0.12217E-09         0.00000E+00         0.00000E+00
    0.12217E-09        -0.83819E-20         0.00000E+00
    0.12217E-09        -0.21886E-19         0.00000E+00
    0.12217E-09        -0.90804E-20         0.00000E+00
    0.12217E-09         0.27940E-20         0.00000E+00
    0.12217E-09        -0.32596E-20         0.00000E+00
    0.12217E-09        -0.10245E-19         0.00000E+00
    0.12217E-09        -0.17229E-19         0.00000E+00
    0.12217E-09        -0.25611E-19         0.00000E+00
    0.12217E-09        -0.55879E-20         0.00000E+00
    0.12217E-09        -0.58208E-20         0.00000E+00
    0.12217E-09        -0.17229E-19         0.00000E+00
    0.12217E-09        -0.15134E-19         0.00000E+00
    0.12217E-09        -0.14901E-19         0.00000E+00
    0.12217E-09        -0.37253E-20         0.00000E+00
    0.12217E-09         0.69849E-21         0.00000E+00
    0.12217E-09         0.10245E-19         0.00000E+00
    0.12217E-09         0.19325E-19         0.00000E+00
    0.12217E-09         0.21886E-19         0.00000E+00
    0.12217E-09         0.25611E-19         0.00000E+00
    0.12217E-09         0.23982E-19         0.00000E+00
    0.12217E-09         0.31665E-19         0.00000E+00
    0.12217E-09         0.24214E-19         0.00000E+00
    0.12217E-09         0.14901E-19         0.00000E+00
    0.12217E-09         0.74506E-20         0.00000E+00
    0.12217E-09         0.44238E-20         0.00000E+00
    0.12217E-09         0.27940E-20         0.00000E+00
    0.12217E-09         0.13504E-19         0.00000E+00
    0.12217E-09         0.19092E-19         0.00000E+00
    0.12217E-09         0.19092E-19         0.00000E+00
    0.12217E-09         0.19558E-19         0.00000E+00
    0.12217E-09         0.39581E-20         0.00000E+00
    0.12217E-09         0.41910E-20         0.00000E+00
    0.12217E-09         0.69849E-20         0.00000E+00
    0.12217E-09        -0.53551E-20         0.00000E+00
    0.12217E-09        -0.69849E-21         0.00000E+00
    0.12217E-09         0.74506E-20         0.00000E+00
    0.12217E-09         0.15600E-19         0.00000E+00
    0.12217E-09         0.13970E-19         0.00000E+00
    0.12217E-09         0.46566E-20         0.00000E+00
    0.14757E-09        -0.23283E-20         0.00000E+00
    0.14757E-09         0.34925E-20         0.00000E+00
    0.14757E-09        -0.13970E-20         0.00000E+00
    0.14757E-09        -0.65193E-20         0.00000E+00
    0.14757E-09         0.46566E-21         0.00000E+00
    0.14757E-09        -0.25611E-20         0.00000E+00
    0.14757E-09         0.16298E-20         0.00000E+00
    0.14757E-09        -0.11409E-19         0.00000E+00
    0.14757E-09        -0.69849E-20         0.00000E+00
    0.14757E-09        -0.79162E-20         0.00000E+00
    0.14757E-09        -0.83819E-20         0.00000E+00
    0.14757E-09        -0.46566E-20         0.00000E+00
    0.14757E-09        -0.14435E-19         0.00000E+00
    0.14757E-09        -0.16298E-20         0.00000E+00
    0.14757E-09         0.93132E-20         0.00000E+00
    0.14757E-09         0.10710E-19         0.00000E+00
    0.14757E-09         0.23283E-20         0.00000E+00
    0.14757E-09        -0.16764E-19         0.00000E+00
    0.14757E-09        -0.14435E-19         0.00000E+00
    0.14757E-09        -0.16764E-19         0.00000E+00
    0.14757E-09        -0.13271E-19         0.00000E+00
    0.14757E-09        -0.18626E-19         0.00000E+00
    0.14757E-09        -0.11642E-19         0.00000E+00
    0.14757E-09        -0.17928E-19         0.00000E+00
    0.14757E-09        -0.65193E-20         0.00000E+00
    0.14757E-09        -0.79162E-20         0.00000E+00
    0.14757E-09         0.55879E-20         0.00000E+00
    0.14757E-09         0.14435E-19         0.00000E+00
    0.14757E-09         0.21188E-19         0.00000E+00
    0.14757E-09         0.11176E-19         0.00000E+00
    0.14757E-09         0.93132E-20         0.00000E+00
    0.14757E-09         0.55879E-20         0.00000E+00
    0.14757E-09         0.16065E-19         0.00000E+00
    0.14757E-09         0.12573E-19         0.00000E+00
    0.14757E-09         0.79162E-20         0.00000E+00
    0.14757E-09         0.46566E-21         0.00000E+00
    0.14757E-09         0.13970E-20         0.00000E+00
    0.14757E-09         0.22119E-19         0.00000E+00
    0.14757E-09         0.13271E-19         0.00000E+00
    0.14757E-09         0.18859E-19         0.00000E+00
    0.14757E-09         0.15832E-19         0.00000E+00
    0.14757E-09         0.17462E-19         0.00000E+00
    0.14757E-09         0.14435E-19         0.00000E+00
    0.14757E-09         0.00000E+00         0.00000E+00
    0.14757E-09        -0.10710E-19         0.00000E+00
    0.14757E-09         0.69849E-21         0.00000E+00
    0.14757E-09         0.12573E-19         0.00000E+00
    0.14757E-09         0.17229E-19         0.00000E+00
    0.14757E-09         0.41910E-20         0.00000E+00
    0.14757E-09        -0.13970E-20         0.00000E+00
    0.17815E-09         0.11642E-20         0.00000E+00
    0.17815E-09        -0.81491E-20         0.00000E+00
    0.17815E-09        -0.11642E-19         0.00000E+00
    0.17815E-09         0.20955E-20         0.00000E+00
    0.17815E-09         0.55879E-20         0.00000E+00
    0.17815E-09        -0.11642E-20         0.00000E+00
    0.17815E-09        -0.11642E-19         0.00000E+00
    0.17815E-09        -0.12107E-19         0.00000E+00
    0.17815E-09         0.23283E-20         0.00000E+00
    0.17815E-09        -0.93132E-20         0.00000E+00
    0.17815E-09        -0.13039E-19         0.00000E+00
    0.17815E-09        -0.88476E-20         0.00000E+00
    0.17815E-09        -0.32596E-20         0.00000E+00
    0.17815E-09         0.14435E-19         0.00000E+00
    0.17815E-09         0.15832E-19         0.00000E+00
    0.17815E-09         0.55879E-20         0.00000E+00
    0.17815E-09        -0.60536E-20         0.00000E+00
    0.17815E-09        -0.32596E-20         0.00000E+00
    0.17815E-09        -0.39581E-20         0.00000E+00
    0.17815E-09        -0.93132E-20         0.00000E+00
    0.17815E-09        -0.51223E-20         0.00000E+00
    0.17815E-09        -0.23283E-20         0.00000E+00
    0.17815E-09        -0.83819E-20         0.00000E+00
    0.17815E-09        -0.97789E-20         0.00000E+00
    0.17815E-09        -0.51223E-20         0.00000E+00
    0.17815E-09        -0.18626E-20         0.00000E+00
    0.17815E-09        -0.74506E-20         0.00000E+00
    0.17815E-09        -0.18626E-20         0.00000E+00
    0.17815E-09         0.97789E-20         0.00000E+00
    0.17815E-09         0.69849E-20         0.00000E+00
    0.17815E-09         0.93132E-20         0.00000E+00
    0.17815E-09         0.16997E-19         0.00000E+00
    0.17815E-09         0.11642E-19         0.00000E+00
    0.17815E-09         0.23283E-19         0.00000E+00
    0.17815E-09         0.12573E-19         0.00000E+00
    0.17815E-09         0.00000E+00         0.00000E+00
    0.17815E-09        -0.88476E-20         0.00000E+00
    0.17815E-09        -0.44238E-20         0.00000E+00
    0.17815E-09         0.16298E-20         0.00000E+00
    0.17815E-09         0.23283E-20         0.00000E+00
    0.17815E-09        -0.23283E-20         0.00000E+00
    0.17815E-09         0.32596E-20         0.00000E+00
    0.17815E-09         0.46566E-21         0.00000E+00
    0.17815E-09         0.32596E-20         0.00000E+00
    0.17815E-09        -0.46566E-20         0.00000E+00
    0.17815E-09         0.13039E-19         0.00000E+00
    0.17815E-09         0.13039E-19         0.00000E+00
    0.17815E-09         0.27008E-19         0.00000E+00
    0.17815E-09         0.15367E-19         0.00000E+00
    0.17815E-09         0.37253E-20         0.00000E+00
    0.21493E-09        -0.23283E-20         0.00000E+00
    0.21493E-09         0.93132E-21         0.00000E+00
    0.21493E-09        -0.23283E-20         0.00000E+00
    0.21493E-09         0.13504E-19         0.00000E+00
    0.21493E-09         0.74506E-20         0.00000E+00
    0.21493E-09         0.11409E-19         0.00000E+00
    0.21493E-09        -0.13970E-20         0.00000E+00
    0.21493E-09        -0.55879E-20         0.00000E+00
    0.21493E-09         0.62864E-20         0.00000E+00
    0.21493E-09        -0.69849E-21         0.00000E+00
    0.21493E-09         0.11642E-19         0.00000E+00
    0.21493E-09         0.76834E-20         0.00000E+00
    0.21493E-09         0.81491E-20         0.00000E+00
    0.21493E-09         0.97789E-20         0.00000E+00
    0.21493E-09         0.13970E-20         0.00000E+00
    0.21493E-09         0.93132E-21         0.00000E+00
    0.21493E-09        -0.37253E-20         0.00000E+00
    0.21493E-09         0.81491E-20         0.00000E+00
    0.21493E-09        -0.46566E-21         0.00000E+00
    0.21493E-09         0.69849E-21         0.00000E+00
    0.21493E-09        -0.27940E-20         0.00000E+00
    0.21493E-09        -0.69849E-20         0.00000E+00
    0.21493E-09        -0.18626E-20         0.00000E+00
    0.21493E-09         0.39581E-20         0.00000E+00
    0.21493E-09         0.10477E-19         0.00000E+00
    0.21493E-09         0.93132E-20         0.00000E+00
    0.21493E-09        -0.93132E-20         0.00000E+00
    0.21493E-09        -0.93132E-20         0.00000E+00
    0.21493E-09         0.18626E-20         0.00000E+00
    0.21493E-09         0.11642E-19         0.00000E+00
    0.21493E-09         0.13970E-19         0.00000E+00
    0.21493E-09         0.12107E-19         0.00000E+00
    0.21493E-09         0.41910E-20         0.00000E+00
    0.21493E-09         0.14668E-19         0.00000E+00
    0.21493E-09         0.13504E-19         0.00000E+00
    0.21493E-09        -0.93132E-21         0.00000E+00
    0.21493E-09        -0.74506E-20         0.00000E+00
    0.21493E-09        -0.41910E-20         0.00000E+00
    0.21493E-09        -0.23283E-20         0.00000E+00
    0.21493E-09        -0.55879E-20         0.00000E+00
    0.21493E-09        -0.65193E-20         0.00000E+00
    0.21493E-09        -0.14901E-19         0.00000E+00
    0.21493E-09        -0.97789E-20         0.00000E+00
    0.21493E-09        -0.18626E-20         0.00000E+00
    0.21493E-09         0.55879E-20         0.00000E+00
    0.21493E-09         0.79162E-20         0.00000E+00
    0.21493E-09        -0.25611E-20         0.00000E+00
    0.21493E-09         0.58208E-20         0.00000E+00
    0.21493E-09         0.93132E-20         0.00000E+00
    0.21493E-09         0.41910E-20         0.00000E+00
    0.25915E-09        -0.13970E-20         0.00000E+00
    0.25915E-09         0.23283E-20         0.00000E+00
    0.25915E-09         0.14435E-19         0.00000E+00
    0.25915E-09         0.15367E-19         0.00000E+00
    0.25915E-09        -0.62864E-20         0.00000E+00
    0.25915E-09         0.60536E-20         0.00000E+00
    0.25915E-09         0.13970E-19         0.00000E+00
    0.25915E-09         0.69849E-20         0.00000E+00
    0.25915E-09         0.21653E-19         0.00000E+00
    0.25915E-09         0.20955E-19         0.00000E+00
    0.25915E-09         0.18161E-19         0.00000E+00
    0.25915E-09         0.10943E-19         0.00000E+00
    0.25915E-09         0.11409E-19         0.00000E+00
    0.25915E-09         0.88476E-20         0.00000E+00
    0.25915E-09         0.46566E-21         0.00000E+00
    0.25915E-09         0.88476E-20         0.00000E+00
    0.25915E-09         0.27940E-20         0.00000E+00
    0.25915E-09         0.88476E-20         0.00000E+00
    0.25915E-09         0.93132E-21         0.00000E+00
    0.25915E-09        -0.32596E-20         0.00000E+00
    0.25915E-09        -0.83819E-20         0.00000E+00
    0.25915E-09        -0.14435E-19         0.00000E+00
    0.25915E-09        -0.10245E-19         0.00000E+00
    0.25915E-09        -0.48894E-20         0.00000E+00
    0.25915E-09         0.10710E-19         0.00000E+00
    0.25915E-09         0.00000E+00         0.00000E+00
    0.25915E-09         0.27940E-20         0.00000E+00
    0.25915E-09         0.93132E-21         0.00000E+00
    0.25915E-09         0.13970E-19         0.00000E+00
    0.25915E-09         0.83819E-20         0.00000E+00
    0.25915E-09         0.74506E-20         0.00000E+00
    0.25915E-09         0.27940E-20         0.00000E+00
    0.25915E-09         0.37253E-20         0.00000E+00
    0.25915E-09         0.65193E-20         0.00000E+00
    0.25915E-09         0.69849E-21         0.00000E+00
    0.25915E-09         0.46566E-21         0.00000E+00
    0.25915E-09         0.60536E-20         0.00000E+00
    0.25915E-09         0.97789E-20         0.00000E+00
    0.25915E-09         0.51223E-20         0.00000E+00
    0.25915E-09        -0.51223E-20         0.00000E+00
    0.25915E-09        -0.13970E-20         0.00000E+00
    0.25915E-09        -0.69849E-20         0.00000E+00
    0.25915E-09        -0.10012E-19         0.00000E+00
    0.25915E-09        -0.13970E-19         0.00000E+00
    0.25915E-09        -0.11642E-20         0.00000E+00
    0.25915E-09        -0.79162E-20         0.00000E+00
    0.25915E-09        -0.46566E-20         0.00000E+00
    0.25915E-09        -0.10943E-19         0.00000E+00
    0.25915E-09        -0.23283E-20         0.00000E+00
    0.25915E-09        -0.25611E-20         0.00000E+00
    0.31227E-09         0.00000E+00         0.00000E+00
    0.31227E-09         0.18626E-20         0.00000E+00
    0.31227E-09        -0.93132E-21         0.00000E+00
    0.31227E-09         0.83819E-20         0.00000E+00
    0.31227E-09         0.18626E-20         0.00000E+00
    0.31227E-09         0.88476E-20         0.00000E+00
    0.31227E-09         0.88476E-20         0.00000E+00
    0.31227E-09         0.12573E-19         0.00000E+00
    0.31227E-09         0.14435E-19         0.00000E+00
    0.31227E-09         0.60536E-20         0.00000E+00
    0.31227E-09         0.97789E-20         0.00000E+00
    0.31227E-09        -0.51223E-20         0.00000E+00
    0.31227E-09        -0.37253E-20         0.00000E+00
    0.31227E-09        -0.86147E-20         0.00000E+00
    0.31227E-09        -0.51223E-20         0.00000E+00
    0.31227E-09         0.69849E-20         0.00000E+00
    0.31227E-09         0.10245E-19         0.00000E+00
    0.31227E-09         0.13970E-20         0.00000E+00
    0.31227E-09        -0.83819E-20         0.00000E+00
    0.31227E-09        -0.32596E-20         0.00000E+00
    0.31227E-09         0.13970E-20         0.00000E+00
    0.31227E-09        -0.27940E-20         0.00000E+00
    0.31227E-09        -0.60536E-20         0.00000E+00
    0.31227E-09        -0.15832E-19         0.00000E+00
    0.31227E-09         0.18626E-20         0.00000E+00
    0.31227E-09         0.46566E-20         0.00000E+00
    0.31227E-09         0.37253E-20         0.00000E+00
    0.31227E-09         0.10710E-19         0.00000E+00
    0.31227E-09         0.23749E-19         0.00000E+00
    0.31227E-09         0.95461E-20         0.00000E+00
    0.31227E-09        -0.23283E-20         0.00000E+00
    0.31227E-09        -0.37253E-20         0.00000E+00
    0.31227E-09         0.46566E-20         0.00000E+00
    0.31227E-09         0.69849E-20         0.00000E+00
    0.31227E-09        -0.76834E-20         0.00000E+00
    0.31227E-09        -0.37253E-20         0.00000E+00
    0.31227E-09         0.46566E-21         0.00000E+00
    0.31227E-09         0.14435E-19         0.00000E+00
    0.31227E-09         0.13039E-19         0.00000E+00
    0.31227E-09         0.37253E-20         0.00000E+00
    0.31227E-09        -0.27940E-20         0.00000E+00
    0.31227E-09        -0.65193E-20         0.00000E+00
    0.31227E-09        -0.51223E-20         0.00000E+00
    0.31227E-09        -0.20955E-20         0.00000E+00
    0.31227E-09        -0.30268E-20         0.00000E+00
    0.31227E-09        -0.93132E-20         0.00000E+00
    0.31227E-09        -0.41910E-20         0.00000E+00
    0.31227E-09        -0.18626E-20         0.00000E+00
    0.31227E-09         0.32596E-20         0.00000E+00
    0.31227E-09        -0.55879E-20         0.00000E+00
    0.37602E-09        -0.93132E-20         0.00000E+00
    0.37602E-09        -0.32596E-20         0.00000E+00
    0.37602E-09         0.55879E-20         0.00000E+00
    0.37602E-09         0.19558E-19         0.00000E+00
    0.37602E-09         0.29337E-19         0.00000E+00
    0.37602E-09         0.72177E-20         0.00000E+00
    0.37602E-09         0.55879E-20         0.00000E+00
    0.37602E-09         0.93132E-21         0.00000E+00
    0.37602E-09         0.13970E-20         0.00000E+00
    0.37602E-09        -0.46566E-21         0.00000E+00
    0.37602E-09         0.23283E-21         0.00000E+00
    0.37602E-09        -0.93132E-20         0.00000E+00
    0.37602E-09        -0.15832E-19         0.00000E+00
    0.37602E-09        -0.16065E-19         0.00000E+00
    0.37602E-09        -0.15600E-19         0.00000E+00
    0.37602E-09         0.74506E-20         0.00000E+00
    0.37602E-09         0.12573E-19         0.00000E+00
    0.37602E-09        -0.11176E-19         0.00000E+00
    0.37602E-09         0.18626E-20         0.00000E+00
    0.37602E-09         0.11176E-19         0.00000E+00
    0.37602E-09         0.25611E-20         0.00000E+00
    0.37602E-09        -0.93132E-21         0.00000E+00
    0.37602E-09         0.97789E-20         0.00000E+00
    0.37602E-09        -0.37253E-20         0.00000E+00
    0.37602E-09        -0.65193E-20         0.00000E+00
    0.37602E-09        -0.27940E-20         0.00000E+00
    0.37602E-09        -0.46566E-20         0.00000E+00
    0.37602E-09         0.74506E-20         0.00000E+00
    0.37602E-09        -0.23283E-20         0.00000E+00
    0.37602E-09         0.74506E-20         0.00000E+00
    0.37602E-09         0.46566E-21         0.00000E+00
    0.37602E-09        -0.93132E-21         0.00000E+00
    0.37602E-09         0.41910E-20         0.00000E+00
    0.37602E-09         0.13970E-20         0.00000E+00
    0.37602E-09        -0.93132E-21         0.00000E+00
    0.37602E-09        -0.39581E-20         0.00000E+00
    0.37602E-09        -0.12573E-19         0.00000E+00
    0.37602E-09         0.37253E-20         0.00000E+00
    0.37602E-09         0.74506E-20         0.00000E+00
    0.37602E-09         0.12107E-19         0.00000E+00
    0.37602E-09         0.18626E-20         0.00000E+00
    0.37602E-09        -0.27940E-20         0.00000E+00
    0.37602E-09         0.10245E-19         0.00000E+00
    0.37602E-09         0.23283E-20         0.00000E+00
    0.37602E-09         0.23283E-20         0.00000E+00
    0.37602E-09         0.23283E-20         0.00000E+00
    0.37602E-09        -0.79162E-20         0.00000E+00
    0.37602E-09        -0.46566E-20         0.00000E+00
    0.37602E-09        -0.51223E-20         0.00000E+00
    0.37602E-09         0.00000E+00         0.00000E+00
    0.45247E-09        -0.37253E-20         0.00000E+00
    0.45247E-09        -0.46566E-20         0.00000E+00
    0.45247E-09         0.11642E-19         0.00000E+00
    0.45247E-09         0.12573E-19         0.00000E+00
    0.45247E-09         0.12806E-19         0.00000E+00
    0.45247E-09         0.76834E-20         0.00000E+00
    0.45247E-09        -0.46566E-20         0.00000E+00
    0.45247E-09         0.60536E-20         0.00000E+00
    0.45247E-09         0.97789E-20         0.00000E+00
    0.45247E-09         0.13970E-20         0.00000E+00
    0.45247E-09        -0.93132E-20         0.00000E+00
    0.45247E-09        -0.93132E-20         0.00000E+00
    0.45247E-09        -0.17229E-19         0.00000E+00
    0.45247E-09        -0.12107E-19         0.00000E+00
    0.45247E-09        -0.13970E-19         0.00000E+00
    0.45247E-09         0.00000E+00         0.00000E+00
    0.45247E-09         0.93132E-20         0.00000E+00
    0.45247E-09         0.69849E-21         0.00000E+00
    0.45247E-09         0.10245E-19         0.00000E+00
    0.45247E-09         0.12573E-19         0.00000E+00
    0.45247E-09        -0.13970E-20         0.00000E+00
    0.45247E-09         0.13039E-19         0.00000E+00
    0.45247E-09         0.41910E-20         0.00000E+00
    0.45247E-09        -0.23283E-20         0.00000E+00
    0.45247E-09        -0.12107E-19         0.00000E+00
    0.45247E-09        -0.32596E-20         0.00000E+00
    0.45247E-09        -0.12573E-19         0.00000E+00
    0.45247E-09        -0.46566E-20         0.00000E+00
    0.45247E-09        -0.13970E-19         0.00000E+00
    0.45247E-09         0.37253E-20         0.00000E+00
    0.45247E-09         0.69849E-20         0.00000E+00
    0.45247E-09         0.13970E-19         0.00000E+00
    0.45247E-09        -0.41910E-20         0.00000E+00
    0.45247E-09        -0.60536E-20         0.00000E+00
    0.45247E-09        -0.10245E-19         0.00000E+00
    0.45247E-09        -0.13504E-19         0.00000E+00
    0.45247E-09        -0.60536E-20         0.00000E+00
    0.45247E-09        -0.12107E-19         0.00000E+00
    0.45247E-09        -0.48894E-20         0.00000E+00
    0.45247E-09        -0.32596E-20         0.00000E+00
    0.45247E-09         0.51223E-20         0.00000E+00
    0.45247E-09         0.90804E-20         0.00000E+00
    0.45247E-09         0.81491E-20         0.00000E+00
    0.45247E-09         0.74506E-20         0.00000E+00
    0.45247E-09         0.34925E-20         0.00000E+00
    0.45247E-09         0.60536E-20         0.00000E+00
    0.45247E-09        -0.41910E-20         0.00000E+00
    0.45247E-09        -0.41910E-20         0.00000E+00
    0.45247E-09        -0.20955E-20         0.00000E+00
    0.45247E-09        -0.23283E-20         0.00000E+00
    0.54407E-09        -0.46566E-21         0.00000E+00
    0.54407E-09        -0.16298E-20         0.00000E+00
    0.54407E-09        -0.11642E-19         0.00000E+00
    0.54407E-09        -0.46566E-20         0.00000E+00
    0.54407E-09        -0.93132E-21         0.00000E+00
    0.54407E-09         0.69849E-21         0.00000E+00
    0.54407E-09        -0.18626E-20         0.00000E+00
    0.54407E-09         0.11409E-19         0.00000E+00
    0.54407E-09         0.46566E-20         0.00000E+00
    0.54407E-09         0.11642E-20         0.00000E+00
    0.54407E-09        -0.15600E-19         0.00000E+00
    0.54407E-09        -0.16531E-19         0.00000E+00
    0.54407E-09        -0.13970E-19         0.00000E+00
    0.54407E-09        -0.28871E-19         0.00000E+00
    0.54407E-09        -0.12107E-19         0.00000E+00
    0.54407E-09         0.00000E+00         0.00000E+00
    0.54407E-09         0.65193E-20         0.00000E+00
    0.54407E-09        -0.41910E-20         0.00000E+00
    0.54407E-09         0.60536E-20         0.00000E+00
    0.54407E-09         0.39581E-20         0.00000E+00
    0.54407E-09        -0.27940E-20         0.00000E+00
    0.54407E-09         0.46566E-20         0.00000E+00
    0.54407E-09         0.13970E-20         0.00000E+00
    0.54407E-09         0.32596E-20         0.00000E+00
    0.54407E-09         0.83819E-20         0.00000E+00
    0.54407E-09         0.18626E-20         0.00000E+00
    0.54407E-09        -0.51223E-20         0.00000E+00
    0.54407E-09        -0.10710E-19         0.00000E+00
    0.54407E-09        -0.88476E-20         0.00000E+00
    0.54407E-09         0.46566E-20         0.00000E+00
    0.54407E-09         0.74506E-20         0.00000E+00
    0.54407E-09         0.88476E-20         0.00000E+00
    0.54407E-09         0.46566E-21         0.00000E+00
    0.54407E-09         0.32596E-20         0.00000E+00
    0.54407E-09         0.46566E-20         0.00000E+00
    0.54407E-09        -0.13970E-19         0.00000E+00
    0.54407E-09        -0.13970E-20         0.00000E+00
    0.54407E-09        -0.37253E-20         0.00000E+00
    0.54407E-09        -0.16065E-19         0.00000E+00
    0.54407E-09        -0.11642E-19         0.00000E+00
    0.54407E-09        -0.46566E-20         0.00000E+00
    0.54407E-09        -0.46566E-20         0.00000E+00
    0.54407E-09        -0.25611E-20         0.00000E+00
    0.54407E-09         0.00000E+00         0.00000E+00
    0.54407E-09         0.74506E-20         0.00000E+00
    0.54407E-09         0.12107E-19         0.00000E+00
    0.54407E-09         0.11176E-19         0.00000E+00
    0.54407E-09         0.44238E-20         0.00000E+00
    0.54407E-09         0.32596E-20         0.00000E+00
    0.54407E-09         0.23283E-21         0.00000E+00
    0.65372E-09        -0.32596E-20         0.00000E+00
    0.65372E-09        -0.67521E-20         0.00000E+00
    0.65372E-09        -0.22352E-19         0.00000E+00
    0.65372E-09        -0.86147E-20         0.00000E+00
    0.65372E-09         0.13970E-19         0.00000E+00
    0.65372E-09         0.18626E-20         0.00000E+00
    0.65372E-09        -0.23283E-20         0.00000E+00
    0.65372E-09         0.62864E-20         0.00000E+00
    0.65372E-09         0.23283E-20         0.00000E+00
    0.65372E-09         0.93132E-20         0.00000E+00
    0.65372E-09        -0.76834E-20         0.00000E+00
    0.65372E-09        -0.14203E-19         0.00000E+00
    0.65372E-09        -0.25611E-20         0.00000E+00
    0.65372E-09        -0.10710E-19         0.00000E+00
    0.65372E-09        -0.12107E-19         0.00000E+00
    0.65372E-09        -0.27940E-20         0.00000E+00
    0.65372E-09        -0.74506E-20         0.00000E+00
    0.65372E-09        -0.12806E-19         0.00000E+00
    0.65372E-09        -0.10012E-19         0.00000E+00
    0.65372E-09        -0.86147E-20         0.00000E+00
    0.65372E-09        -0.65193E-20         0.00000E+00
    0.65372E-09        -0.79162E-20         0.00000E+00
    0.65372E-09         0.46566E-21         0.00000E+00
    0.65372E-09        -0.37253E-20         0.00000E+00
    0.65372E-09         0.10245E-19         0.00000E+00
    0.65372E-09        -0.46566E-20         0.00000E+00
    0.65372E-09         0.18626E-20         0.00000E+00
    0.65372E-09        -0.23283E-20         0.00000E+00
    0.65372E-09         0.74506E-20         0.00000E+00
    0.65372E-09         0.11409E-19         0.00000E+00
    0.65372E-09        -0.23283E-21         0.00000E+00
    0.65372E-09        -0.13970E-20         0.00000E+00
    0.65372E-09         0.69849E-21         0.00000E+00
    0.65372E-09         0.14901E-19         0.00000E+00
    0.65372E-09         0.22817E-19         0.00000E+00
    0.65372E-09         0.23283E-21         0.00000E+00
    0.65372E-09         0.69849E-20         0.00000E+00
    0.65372E-09         0.27940E-20         0.00000E+00
    0.65372E-09        -0.95461E-20         0.00000E+00
    0.65372E-09        -0.17695E-19         0.00000E+00
    0.65372E-09        -0.76834E-20         0.00000E+00
    0.65372E-09        -0.88476E-20         0.00000E+00
    0.65372E-09         0.37253E-20         0.00000E+00
    0.65372E-09         0.72177E-20         0.00000E+00
    0.65372E-09         0.14435E-19         0.00000E+00
    0.65372E-09         0.51223E-20         0.00000E+00
    0.65372E-09         0.13039E-19         0.00000E+00
    0.65372E-09         0.14435E-19         0.00000E+00
    0.65372E-09         0.32596E-20         0.00000E+00
    0.65372E-09         0.46566E-20         0.00000E+00
    0.78485E-09         0.46566E-21         0.00000E+00
    0.78485E-09        -0.37253E-20         0.00000E+00
    0.78485E-09        -0.93132E-20         0.00000E+00
    0.78485E-09        -0.74506E-20         0.00000E+00
    0.78485E-09         0.13737E-19         0.00000E+00
    0.78485E-09         0.15134E-19         0.00000E+00
    0.78485E-09         0.10710E-19         0.00000E+00
    0.78485E-09         0.11642E-19         0.00000E+00
    0.78485E-09         0.67521E-20         0.00000E+00
    0.78485E-09         0.16764E-19         0.00000E+00
    0.78485E-09        -0.83819E-20         0.00000E+00
    0.78485E-09         0.93132E-21         0.00000E+00
    0.78485E-09        -0.55879E-20         0.00000E+00
    0.78485E-09        -0.65193E-20         0.00000E+00
    0.78485E-09         0.13970E-20         0.00000E+00
    0.78485E-09        -0.95461E-20         0.00000E+00
    0.78485E-09        -0.27940E-20         0.00000E+00
    0.78485E-09        -0.53551E-20         0.00000E+00
    0.78485E-09        -0.11176E-19         0.00000E+00
    0.78485E-09        -0.14668E-19         0.00000E+00
    0.78485E-09        -0.16298E-20         0.00000E+00
    0.78485E-09         0.46566E-20         0.00000E+00
    0.78485E-09        -0.27940E-20         0.00000E+00
    0.78485E-09        -0.12107E-19         0.00000E+00
    0.78485E-09        -0.14203E-19         0.00000E+00
    0.78485E-09        -0.37253E-20         0.00000E+00
    0.78485E-09        -0.69849E-20         0.00000E+00
    0.78485E-09         0.83819E-20         0.00000E+00
    0.78485E-09         0.11176E-19         0.00000E+00
    0.78485E-09         0.15600E-19         0.00000E+00
    0.78485E-09         0.62864E-20         0.00000E+00
    0.78485E-09        -0.67521E-20         0.00000E+00
    0.78485E-09        -0.93132E-21         0.00000E+00
    0.78485E-09         0.23283E-20         0.00000E+00
    0.78485E-09         0.11409E-19         0.00000E+00
    0.78485E-09         0.12340E-19         0.00000E+00
    0.78485E-09         0.79162E-20         0.00000E+00
    0.78485E-09         0.10245E-19         0.00000E+00
    0.78485E-09        -0.18626E-20         0.00000E+00
    0.78485E-09        -0.17229E-19         0.00000E+00
    0.78485E-09        -0.74506E-20         0.00000E+00
    0.78485E-09        -0.37253E-20         0.00000E+00
    0.78485E-09         0.27940E-20         0.00000E+00
    0.78485E-09         0.55879E-20         0.00000E+00
    0.78485E-09         0.12573E-19         0.00000E+00
    0.78485E-09         0.90804E-20         0.00000E+00
    0.78485E-09         0.97789E-20         0.00000E+00
    0.78485E-09         0.20955E-19         0.00000E+00
    0.78485E-09         0.13039E-19         0.00000E+00
    0.78485E-09         0.32596E-20         0.00000E+00
    0.94152E-09        -0.13970E-20         0.00000E+00
    0.94152E-09         0.65193E-20         0.00000E+00
    0.94152E-09         0.60536E-20         0.00000E+00
    0.94152E-09         0.60536E-20         0.00000E+00
    0.94152E-09         0.14203E-19         0.00000E+00
    0.94152E-09         0.23749E-19         0.00000E+00
    0.94152E-09         0.21420E-19         0.00000E+00
    0.94152E-09         0.22817E-19         0.00000E+00
    0.94152E-09         0.20023E-19         0.00000E+00
    0.94152E-09         0.18626E-19         0.00000E+00
    0.94152E-09        -0.79162E-20         0.00000E+00
    0.94152E-09         0.51223E-20         0.00000E+00
    0.94152E-09        -0.18626E-20         0.00000E+00
    0.94152E-09        -0.27940E-20         0.00000E+00
    0.94152E-09         0.93132E-21         0.00000E+00
    0.94152E-09        -0.17229E-19         0.00000E+00
    0.94152E-09        -0.83819E-20         0.00000E+00
    0.94152E-09        -0.90804E-20         0.00000E+00
    0.94152E-09        -0.69849E-20         0.00000E+00
    0.94152E-09        -0.88476E-20         0.00000E+00
    0.94152E-09         0.65193E-20         0.00000E+00
    0.94152E-09         0.97789E-20         0.00000E+00
    0.94152E-09        -0.60536E-20         0.00000E+00
    0.94152E-09        -0.37253E-20         0.00000E+00
    0.94152E-09        -0.13970E-20         0.00000E+00
    0.94152E-09         0.25611E-20         0.00000E+00
    0.94152E-09         0.13970E-20         0.00000E+00
    0.94152E-09         0.32596E-20         0.00000E+00
    0.94152E-09         0.46566E-20         0.00000E+00
    0.94152E-09         0.21420E-19         0.00000E+00
    0.94152E-09         0.15832E-19         0.00000E+00
    0.94152E-09         0.00000E+00         0.00000E+00
    0.94152E-09        -0.13039E-19         0.00000E+00
    0.94152E-09        -0.10012E-19         0.00000E+00
    0.94152E-09         0.32596E-20         0.00000E+00
    0.94152E-09         0.41910E-20         0.00000E+00
    0.94152E-09         0.10710E-19         0.00000E+00
    0.94152E-09         0.41910E-20         0.00000E+00
    0.94152E-09        -0.27940E-20         0.00000E+00
    0.94152E-09        -0.37253E-20         0.00000E+00
    0.94152E-09        -0.46566E-20         0.00000E+00
    0.94152E-09         0.00000E+00         0.00000E+00
    0.94152E-09         0.32596E-20         0.00000E+00
    0.94152E-09         0.58208E-20         0.00000E+00
    0.94152E-09         0.95461E-20         0.00000E+00
    0.94152E-09         0.79162E-20         0.00000E+00
    0.94152E-09         0.10245E-19         0.00000E+00
    0.94152E-09         0.20955E-19         0.00000E+00
    0.94152E-09         0.41910E-20         0.00000E+00
    0.94152E-09         0.11642E-20         0.00000E+00
    0.11285E-08         0.00000E+00         0.00000E+00
    0.11285E-08         0.60536E-20         0.00000E+00
    0.11285E-08         0.10710E-19         0.00000E+00
    0.11285E-08         0.12806E-19         0.00000E+00
    0.11285E-08         0.14435E-19         0.00000E+00
    0.11285E-08         0.24214E-19         0.00000E+00
    0.11285E-08         0.25146E-19         0.00000E+00
    0.11285E-08         0.27008E-19         0.00000E+00
    0.11285E-08         0.25611E-19         0.00000E+00
    0.11285E-08         0.14203E-19         0.00000E+00
    0.11285E-08         0.37253E-20         0.00000E+00
    0.11285E-08         0.67521E-20         0.00000E+00
    0.11285E-08         0.27940E-20         0.00000E+00
    0.11285E-08         0.18626E-20         0.00000E+00
    0.11285E-08        -0.14435E-19         0.00000E+00
    0.11285E-08        -0.17462E-19         0.00000E+00
    0.11285E-08        -0.17695E-19         0.00000E+00
    0.11285E-08        -0.17695E-19         0.00000E+00
    0.11285E-08        -0.23283E-20         0.00000E+00
    0.11285E-08        -0.79162E-20         0.00000E+00
    0.11285E-08         0.10710E-19         0.00000E+00
    0.11285E-08         0.11409E-19         0.00000E+00
    0.11285E-08         0.27940E-20         0.00000E+00
    0.11285E-08         0.00000E+00         0.00000E+00
    0.11285E-08         0.32596E-20         0.00000E+00
    0.11285E-08         0.65193E-20         0.00000E+00
    0.11285E-08         0.93132E-20         0.00000E+00
    0.11285E-08         0.53551E-20         0.00000E+00
    0.11285E-08         0.46566E-21         0.00000E+00
    0.11285E-08         0.17928E-19         0.00000E+00
    0.11285E-08         0.10943E-19         0.00000E+00
    0.11285E-08         0.55879E-20         0.00000E+00
    0.11285E-08        -0.13504E-19         0.00000E+00
    0.11285E-08        -0.17928E-19         0.00000E+00
    0.11285E-08         0.32596E-20         0.00000E+00
    0.11285E-08        -0.27940E-20         0.00000E+00
    0.11285E-08         0.79162E-20         0.00000E+00
    0.11285E-08         0.39581E-20         0.00000E+00
    0.11285E-08         0.51223E-20         0.00000E+00
    0.11285E-08         0.18626E-20         0.00000E+00
    0.11285E-08        -0.13970E-20         0.00000E+00
    0.11285E-08         0.00000E+00         0.00000E+00
    0.11285E-08         0.17229E-19         0.00000E+00
    0.11285E-08         0.30268E-19         0.00000E+00
    0.11285E-08         0.19092E-19         0.00000E+00
    0.11285E-08         0.93132E-20         0.00000E+00
    0.11285E-08         0.12806E-19         0.00000E+00
    0.11285E-08         0.10245E-19         0.00000E+00
    0.11285E-08        -0.51223E-20         0.00000E+00
    0.11285E-08         0.46566E-20         0.00000E+00
    0.13515E-08         0.46566E-20         0.00000E+00
    0.13515E-08         0.88476E-20         0.00000E+00
    0.13515E-08         0.97789E-20         0.00000E+00
    0.13515E-08         0.11642E-20         0.00000E+00
    0.13515E-08         0.17229E-19         0.00000E+00
    0.13515E-08         0.20955E-19         0.00000E+00
    0.13515E-08         0.17695E-19         0.00000E+00
    0.13515E-08         0.11642E-19         0.00000E+00
    0.13515E-08         0.11642E-19         0.00000E+00
    0.13515E-08         0.46566E-21         0.00000E+00
    0.13515E-08         0.30268E-20         0.00000E+00
    0.13515E-08         0.23283E-21         0.00000E+00
    0.13515E-08        -0.32596E-20         0.00000E+00
    0.13515E-08        -0.11642E-19         0.00000E+00
    0.13515E-08        -0.15134E-19         0.00000E+00
    0.13515E-08        -0.19558E-19         0.00000E+00
    0.13515E-08        -0.27940E-19         0.00000E+00
    0.13515E-08        -0.11176E-19         0.00000E+00
    0.13515E-08         0.79162E-20         0.00000E+00
    0.13515E-08         0.51223E-20         0.00000E+00
    0.13515E-08         0.13504E-19         0.00000E+00
    0.13515E-08         0.14901E-19         0.00000E+00
    0.13515E-08         0.15832E-19         0.00000E+00
    0.13515E-08         0.12107E-19         0.00000E+00
    0.13515E-08        -0.23283E-21         0.00000E+00
    0.13515E-08        -0.34925E-20         0.00000E+00
    0.13515E-08         0.00000E+00         0.00000E+00
    0.13515E-08         0.32596E-20         0.00000E+00
    0.13515E-08        -0.46566E-20         0.00000E+00
    0.13515E-08         0.23283E-21         0.00000E+00
    0.13515E-08         0.93132E-21         0.00000E+00
    0.13515E-08         0.23283E-21         0.00000E+00
    0.13515E-08        -0.93132E-20         0.00000E+00
    0.13515E-08        -0.10245E-19         0.00000E+00
    0.13515E-08        -0.23283E-21         0.00000E+00
    0.13515E-08        -0.93132E-21         0.00000E+00
    0.13515E-08         0.81491E-20         0.00000E+00
    0.13515E-08         0.93132E-20         0.00000E+00
    0.13515E-08         0.16764E-19         0.00000E+00
    0.13515E-08         0.65193E-20         0.00000E+00
    0.13515E-08         0.10477E-19         0.00000E+00
    0.13515E-08         0.41910E-20         0.00000E+00
    0.13515E-08         0.18626E-19         0.00000E+00
    0.13515E-08         0.34459E-19         0.00000E+00
    0.13515E-08         0.21188E-19         0.00000E+00
    0.13515E-08         0.97789E-20         0.00000E+00
    0.13515E-08         0.83819E-20         0.00000E+00
    0.13515E-08         0.88476E-20         0.00000E+00
    0.13515E-08        -0.32596E-20         0.00000E+00
    0.13515E-08         0.60536E-20         0.00000E+00
    0.16170E-08         0.41910E-20         0.00000E+00
    0.16170E-08         0.13970E-19         0.00000E+00
    0.16170E-08         0.12107E-19         0.00000E+00
    0.16170E-08         0.93132E-20         0.00000E+00
    0.16170E-08         0.19558E-19         0.00000E+00
    0.16170E-08         0.21653E-19         0.00000E+00
    0.16170E-08         0.14901E-19         0.00000E+00
    0.16170E-08         0.55879E-20         0.00000E+00
    0.16170E-08         0.88476E-20         0.00000E+00
    0.16170E-08        -0.74506E-20         0.00000E+00
    0.16170E-08        -0.74506E-20         0.00000E+00
    0.16170E-08        -0.13970E-19         0.00000E+00
    0.16170E-08        -0.93132E-20         0.00000E+00
    0.16170E-08        -0.53551E-20         0.00000E+00
    0.16170E-08        -0.19325E-19         0.00000E+00
    0.16170E-08        -0.37719E-19         0.00000E+00
    0.16170E-08        -0.28405E-19         0.00000E+00
    0.16170E-08        -0.83819E-20         0.00000E+00
    0.16170E-08         0.32596E-20         0.00000E+00
    0.16170E-08         0.00000E+00         0.00000E+00
    0.16170E-08         0.18626E-19         0.00000E+00
    0.16170E-08         0.23749E-19         0.00000E+00
    0.16170E-08         0.22352E-19         0.00000E+00
    0.16170E-08         0.26543E-19         0.00000E+00
    0.16170E-08         0.15134E-19         0.00000E+00
    0.16170E-08         0.23283E-20         0.00000E+00
    0.16170E-08         0.00000E+00         0.00000E+00
    0.16170E-08        -0.88476E-20         0.00000E+00
    0.16170E-08        -0.12573E-19         0.00000E+00
    0.16170E-08        -0.18626E-20         0.00000E+00
    0.16170E-08        -0.60536E-20         0.00000E+00
    0.16170E-08         0.00000E+00         0.00000E+00
    0.16170E-08        -0.83819E-20         0.00000E+00
    0.16170E-08        -0.15832E-19         0.00000E+00
    0.16170E-08        -0.51223E-20         0.00000E+00
    0.16170E-08        -0.58208E-20         0.00000E+00
    0.16170E-08         0.11642E-20         0.00000E+00
    0.16170E-08         0.74506E-20         0.00000E+00
    0.16170E-08         0.12107E-19         0.00000E+00
    0.16170E-08         0.97789E-20         0.00000E+00
    0.16170E-08         0.13039E-19         0.00000E+00
    0.16170E-08         0.15600E-19         0.00000E+00
    0.16170E-08         0.23749E-19         0.00000E+00
    0.16170E-08         0.25146E-19         0.00000E+00
    0.16170E-08         0.13039E-19         0.00000E+00
    0.16170E-08         0.11176E-19         0.00000E+00
    0.16170E-08         0.51223E-20         0.00000E+00
    0.16170E-08         0.13039E-19         0.00000E+00
    0.16170E-08         0.65193E-20         0.00000E+00
    0.16170E-08         0.41910E-20         0.00000E+00
    0.19328E-08         0.18626E-20         0.00000E+00
    0.19328E-08         0.18626E-20         0.00000E+00
    0.19328E-08         0.12573E-19         0.00000E+00
    0.19328E-08         0.97789E-20         0.00000E+00
    0.19328E-08         0.23283E-19         0.00000E+00
    0.19328E-08         0.28405E-19         0.00000E+00
    0.19328E-08         0.24447E-19         0.00000E+00
    0.19328E-08         0.15600E-19         0.00000E+00
    0.19328E-08         0.17229E-19         0.00000E+00
    0.19328E-08         0.20955E-20         0.00000E+00
    0.19328E-08        -0.55879E-20         0.00000E+00
    0.19328E-08        -0.10012E-19         0.00000E+00
    0.19328E-08         0.51223E-20         0.00000E+00
    0.19328E-08        -0.53551E-20         0.00000E+00
    0.19328E-08        -0.22352E-19         0.00000E+00
    0.19328E-08        -0.25611E-19         0.00000E+00
    0.19328E-08        -0.29802E-19         0.00000E+00
    0.19328E-08        -0.10245E-19         0.00000E+00
    0.19328E-08         0.23283E-20         0.00000E+00
    0.19328E-08         0.51223E-20         0.00000E+00
    0.19328E-08         0.11642E-19         0.00000E+00
    0.19328E-08         0.22119E-19         0.00000E+00
    0.19328E-08         0.20023E-19         0.00000E+00
    0.19328E-08         0.19791E-19         0.00000E+00
    0.19328E-08         0.19092E-19         0.00000E+00
    0.19328E-08         0.97789E-20         0.00000E+00
    0.19328E-08         0.46566E-21         0.00000E+00
    0.19328E-08        -0.13970E-20         0.00000E+00
    0.19328E-08        -0.97789E-20         0.00000E+00
    0.19328E-08         0.41910E-20         0.00000E+00
    0.19328E-08        -0.65193E-20         0.00000E+00
    0.19328E-08        -0.23283E-20         0.00000E+00
    0.19328E-08        -0.26077E-19         0.00000E+00
    0.19328E-08        -0.29104E-19         0.00000E+00
    0.19328E-08        -0.25379E-19         0.00000E+00
    0.19328E-08        -0.16764E-19         0.00000E+00
    0.19328E-08        -0.55879E-20         0.00000E+00
    0.19328E-08         0.00000E+00         0.00000E+00
    0.19328E-08         0.46566E-21         0.00000E+00
    0.19328E-08        -0.46566E-21         0.00000E+00
    0.19328E-08         0.60536E-20         0.00000E+00
    0.19328E-08         0.16298E-19         0.00000E+00
    0.19328E-08         0.21886E-19         0.00000E+00
    0.19328E-08         0.20955E-19         0.00000E+00
    0.19328E-08         0.15600E-19         0.00000E+00
    0.19328E-08         0.10477E-19         0.00000E+00
    0.19328E-08         0.76834E-20         0.00000E+00
    0.19328E-08         0.97789E-20         0.00000E+00
    0.19328E-08         0.60536E-20         0.00000E+00
    0.19328E-08         0.41910E-20         0.00000E+00
    0.23079E-08         0.46566E-20         0.00000E+00
    0.23079E-08         0.41910E-20         0.00000E+00
    0.23079E-08         0.55879E-20         0.00000E+00
    0.23079E-08        -0.41910E-20         0.00000E+00
    0.23079E-08         0.20722E-19         0.00000E+00
    0.23079E-08         0.36089E-19         0.00000E+00
    0.23079E-08         0.30734E-19         0.00000E+00
    0.23079E-08         0.20023E-19         0.00000E+00
    0.23079E-08         0.20955E-19         0.00000E+00
    0.23079E-08         0.37253E-20         0.00000E+00
    0.23079E-08         0.88476E-20         0.00000E+00
    0.23079E-08         0.37253E-20         0.00000E+00
    0.23079E-08         0.15367E-19         0.00000E+00
    0.23079E-08         0.46566E-20         0.00000E+00
    0.23079E-08        -0.74506E-20         0.00000E+00
    0.23079E-08        -0.15134E-19         0.00000E+00
    0.23079E-08        -0.14901E-19         0.00000E+00
    0.23079E-08        -0.13970E-19         0.00000E+00
    0.23079E-08         0.41910E-20         0.00000E+00
    0.23079E-08         0.46566E-20         0.00000E+00
    0.23079E-08         0.83819E-20         0.00000E+00
    0.23079E-08         0.12573E-19         0.00000E+00
    0.23079E-08         0.16764E-19         0.00000E+00
    0.23079E-08         0.88476E-20         0.00000E+00
    0.23079E-08         0.12107E-19         0.00000E+00
    0.23079E-08         0.51223E-20         0.00000E+00
    0.23079E-08        -0.65193E-20         0.00000E+00
    0.23079E-08         0.55879E-20         0.00000E+00
    0.23079E-08        -0.88476E-20         0.00000E+00
    0.23079E-08        -0.46566E-21         0.00000E+00
    0.23079E-08        -0.79162E-20         0.00000E+00
    0.23079E-08        -0.12107E-19         0.00000E+00
    0.23079E-08        -0.29802E-19         0.00000E+00
    0.23079E-08        -0.27474E-19         0.00000E+00
    0.23079E-08        -0.31665E-19         0.00000E+00
    0.23079E-08        -0.23749E-19         0.00000E+00
    0.23079E-08        -0.12107E-19         0.00000E+00
    0.23079E-08        -0.93132E-20         0.00000E+00
    0.23079E-08        -0.15367E-19         0.00000E+00
    0.23079E-08        -0.11176E-19         0.00000E+00
    0.23079E-08         0.32596E-20         0.00000E+00
    0.23079E-08         0.11642E-19         0.00000E+00
    0.23079E-08         0.14901E-19         0.00000E+00
    0.23079E-08         0.11409E-19         0.00000E+00
    0.23079E-08         0.72177E-20         0.00000E+00
    0.23079E-08         0.74506E-20         0.00000E+00
    0.23079E-08         0.13970E-20         0.00000E+00
    0.23079E-08         0.32596E-20         0.00000E+00
    0.23079E-08        -0.46566E-21         0.00000E+00
    0.23079E-08         0.44238E-20         0.00000E+00
    0.27530E-08         0.41910E-20         0.00000E+00
    0.27530E-08         0.83819E-20         0.00000E+00
    0.27530E-08         0.25611E-20         0.00000E+00
    0.27530E-08         0.51223E-20         0.00000E+00
    0.27530E-08         0.27008E-19         0.00000E+00
    0.27530E-08         0.30734E-19         0.00000E+00
    0.27530E-08         0.28405E-19         0.00000E+00
    0.27530E-08         0.24913E-19         0.00000E+00
    0.27530E-08         0.25379E-19         0.00000E+00
    0.27530E-08         0.11874E-19         0.00000E+00
    0.27530E-08         0.14668E-19         0.00000E+00
    0.27530E-08         0.17229E-19         0.00000E+00
    0.27530E-08         0.20955E-19         0.00000E+00
    0.27530E-08         0.10710E-19         0.00000E+00
    0.27530E-08        -0.23283E-20         0.00000E+00
    0.27530E-08        -0.10012E-19         0.00000E+00
    0.27530E-08        -0.88476E-20         0.00000E+00
    0.27530E-08        -0.74506E-20         0.00000E+00
    0.27530E-08         0.41910E-20         0.00000E+00
    0.27530E-08        -0.60536E-20         0.00000E+00
    0.27530E-08         0.27940E-20         0.00000E+00
    0.27530E-08         0.93132E-20         0.00000E+00
    0.27530E-08         0.12573E-19         0.00000E+00
    0.27530E-08         0.11409E-19         0.00000E+00
    0.27530E-08         0.16298E-19         0.00000E+00
    0.27530E-08         0.48894E-20         0.00000E+00
    0.27530E-08        -0.27940E-20         0.00000E+00
    0.27530E-08        -0.93132E-21         0.00000E+00
    0.27530E-08        -0.18859E-19         0.00000E+00
    0.27530E-08        -0.18626E-20         0.00000E+00
    0.27530E-08        -0.41910E-20         0.00000E+00
    0.27530E-08        -0.12107E-19         0.00000E+00
    0.27530E-08        -0.27474E-19         0.00000E+00
    0.27530E-08        -0.29104E-19         0.00000E+00
    0.27530E-08        -0.35623E-19         0.00000E+00
    0.27530E-08        -0.28871E-19         0.00000E+00
    0.27530E-08        -0.22352E-19         0.00000E+00
    0.27530E-08        -0.21420E-19         0.00000E+00
    0.27530E-08        -0.22817E-19         0.00000E+00
    0.27530E-08        -0.20955E-19         0.00000E+00
    0.27530E-08        -0.55879E-20         0.00000E+00
    0.27530E-08         0.65193E-20         0.00000E+00
    0.27530E-08         0.15832E-19         0.00000E+00
    0.27530E-08         0.16298E-19         0.00000E+00
    0.27530E-08         0.86147E-20         0.00000E+00
    0.27530E-08         0.53551E-20         0.00000E+00
    0.27530E-08        -0.18626E-20         0.00000E+00
    0.27530E-08         0.11642E-20         0.00000E+00
    0.27530E-08         0.46566E-21         0.00000E+00
    0.27530E-08         0.13970E-20         0.00000E+00
    0.32803E-08         0.18626E-20         0.00000E+00
    0.32803E-08         0.12340E-19         0.00000E+00
    0.32803E-08         0.88476E-20         0.00000E+00
    0.32803E-08         0.97789E-20         0.00000E+00
    0.32803E-08         0.24214E-19         0.00000E+00
    0.32803E-08         0.44005E-19         0.00000E+00
    0.32803E-08         0.37253E-19         0.00000E+00
    0.32803E-08         0.27940E-19         0.00000E+00
    0.32803E-08         0.29104E-19         0.00000E+00
    0.32803E-08         0.22352E-19         0.00000E+00
    0.32803E-08         0.16531E-19         0.00000E+00
    0.32803E-08         0.18626E-19         0.00000E+00
    0.32803E-08         0.20955E-19         0.00000E+00
    0.32803E-08         0.74506E-20         0.00000E+00
    0.32803E-08        -0.10245E-19         0.00000E+00
    0.32803E-08        -0.37253E-20         0.00000E+00
    0.32803E-08        -0.97789E-20         0.00000E+00
    0.32803E-08        -0.51223E-20         0.00000E+00
    0.32803E-08         0.11642E-20         0.00000E+00
    0.32803E-08        -0.51223E-20         0.00000E+00
    0.32803E-08        -0.27940E-20         0.00000E+00
    0.32803E-08         0.18626E-20         0.00000E+00
    0.32803E-08         0.55879E-20         0.00000E+00
    0.32803E-08         0.83819E-20         0.00000E+00
    0.32803E-08         0.10012E-19         0.00000E+00
    0.32803E-08         0.79162E-20         0.00000E+00
    0.32803E-08         0.79162E-20         0.00000E+00
    0.32803E-08         0.00000E+00         0.00000E+00
    0.32803E-08        -0.16298E-19         0.00000E+00
    0.32803E-08         0.00000E+00         0.00000E+00
    0.32803E-08        -0.65193E-20         0.00000E+00
    0.32803E-08        -0.13504E-19         0.00000E+00
    0.32803E-08        -0.33062E-19         0.00000E+00
    0.32803E-08        -0.34925E-19         0.00000E+00
    0.32803E-08        -0.34925E-19         0.00000E+00
    0.32803E-08        -0.24447E-19         0.00000E+00
    0.32803E-08        -0.19092E-19         0.00000E+00
    0.32803E-08        -0.20955E-19         0.00000E+00
    0.32803E-08        -0.28173E-19         0.00000E+00
    0.32803E-08        -0.19791E-19         0.00000E+00
    0.32803E-08        -0.32596E-20         0.00000E+00
    0.32803E-08         0.67521E-20         0.00000E+00
    0.32803E-08         0.18626E-19         0.00000E+00
    0.32803E-08         0.14901E-19         0.00000E+00
    0.32803E-08         0.10245E-19         0.00000E+00
    0.32803E-08         0.41910E-20         0.00000E+00
    0.32803E-08        -0.46566E-20         0.00000E+00
    0.32803E-08         0.18626E-20         0.00000E+00
    0.32803E-08        -0.93132E-21         0.00000E+00
    0.32803E-08         0.27940E-20         0.00000E+00
    0.39042E-08         0.18626E-20         0.00000E+00
    0.39042E-08         0.18626E-20         0.00000E+00
    0.39042E-08         0.11642E-19         0.00000E+00
    0.39042E-08         0.65193E-20         0.00000E+00
    0.39042E-08         0.23749E-19         0.00000E+00
    0.39042E-08         0.52853E-19         0.00000E+00
    0.39042E-08         0.48662E-19         0.00000E+00
    0.39042E-08         0.34226E-19         0.00000E+00
    0.39042E-08         0.30734E-19         0.00000E+00
    0.39042E-08         0.13504E-19         0.00000E+00
    0.39042E-08         0.16298E-19         0.00000E+00
    0.39042E-08         0.19092E-19         0.00000E+00
    0.39042E-08         0.22817E-19         0.00000E+00
    0.39042E-08         0.65193E-20         0.00000E+00
    0.39042E-08        -0.11176E-19         0.00000E+00
    0.39042E-08         0.46566E-21         0.00000E+00
    0.39042E-08        -0.83819E-20         0.00000E+00
    0.39042E-08        -0.13504E-19         0.00000E+00
    0.39042E-08        -0.60536E-20         0.00000E+00
    0.39042E-08        -0.97789E-20         0.00000E+00
    0.39042E-08         0.11642E-20         0.00000E+00
    0.39042E-08         0.23283E-20         0.00000E+00
    0.39042E-08         0.41910E-20         0.00000E+00
    0.39042E-08         0.32596E-20         0.00000E+00
    0.39042E-08         0.41910E-20         0.00000E+00
    0.39042E-08         0.62864E-20         0.00000E+00
    0.39042E-08         0.13970E-20         0.00000E+00
    0.39042E-08         0.46566E-20         0.00000E+00
    0.39042E-08        -0.10245E-19         0.00000E+00
    0.39042E-08         0.23283E-20         0.00000E+00
    0.39042E-08        -0.65193E-20         0.00000E+00
    0.39042E-08        -0.14435E-19         0.00000E+00
    0.39042E-08        -0.33528E-19         0.00000E+00
    0.39042E-08        -0.35856E-19         0.00000E+00
    0.39042E-08        -0.27008E-19         0.00000E+00
    0.39042E-08        -0.24214E-19         0.00000E+00
    0.39042E-08        -0.13970E-19         0.00000E+00
    0.39042E-08        -0.13970E-19         0.00000E+00
    0.39042E-08        -0.20023E-19         0.00000E+00
    0.39042E-08        -0.20489E-19         0.00000E+00
    0.39042E-08        -0.13970E-20         0.00000E+00
    0.39042E-08         0.97789E-20         0.00000E+00
    0.39042E-08         0.14435E-19         0.00000E+00
    0.39042E-08         0.17462E-19         0.00000E+00
    0.39042E-08         0.32596E-20         0.00000E+00
    0.39042E-08        -0.27940E-20         0.00000E+00
    0.39042E-08        -0.60536E-20         0.00000E+00
    0.39042E-08         0.23283E-20         0.00000E+00
    0.39042E-08        -0.65193E-20         0.00000E+00
    0.39042E-08         0.18626E-20         0.00000E+00
    0.46410E-08         0.46566E-20         0.00000E+00
    0.46410E-08         0.18626E-20         0.00000E+00
    0.46410E-08         0.12107E-19         0.00000E+00
    0.46410E-08         0.17229E-19         0.00000E+00
    0.46410E-08         0.26543E-19         0.00000E+00
    0.46410E-08         0.42841E-19         0.00000E+00
    0.46410E-08         0.44238E-19         0.00000E+00
    0.46410E-08         0.33528E-19         0.00000E+00
    0.46410E-08         0.31665E-19         0.00000E+00
    0.46410E-08         0.16065E-19         0.00000E+00
    0.46410E-08         0.76834E-20         0.00000E+00
    0.46410E-08         0.15832E-19         0.00000E+00
    0.46410E-08         0.21420E-19         0.00000E+00
    0.46410E-08         0.13039E-19         0.00000E+00
    0.46410E-08         0.51223E-20         0.00000E+00
    0.46410E-08         0.30268E-20         0.00000E+00
    0.46410E-08        -0.13970E-20         0.00000E+00
    0.46410E-08        -0.79162E-20         0.00000E+00
    0.46410E-08         0.93132E-21         0.00000E+00
    0.46410E-08        -0.90804E-20         0.00000E+00
    0.46410E-08         0.00000E+00         0.00000E+00
    0.46410E-08        -0.16298E-20         0.00000E+00
    0.46410E-08        -0.46566E-21         0.00000E+00
    0.46410E-08         0.27940E-20         0.00000E+00
    0.46410E-08         0.93132E-21         0.00000E+00
    0.46410E-08         0.62864E-20         0.00000E+00
    0.46410E-08         0.18626E-20         0.00000E+00
    0.46410E-08        -0.27940E-20         0.00000E+00
    0.46410E-08        -0.13504E-19         0.00000E+00
    0.46410E-08        -0.13970E-20         0.00000E+00
    0.46410E-08        -0.14668E-19         0.00000E+00
    0.46410E-08        -0.13039E-19         0.00000E+00
    0.46410E-08        -0.28871E-19         0.00000E+00
    0.46410E-08        -0.32131E-19         0.00000E+00
    0.46410E-08        -0.26310E-19         0.00000E+00
    0.46410E-08        -0.27940E-19         0.00000E+00
    0.46410E-08        -0.12806E-19         0.00000E+00
    0.46410E-08        -0.12573E-19         0.00000E+00
    0.46410E-08        -0.11642E-19         0.00000E+00
    0.46410E-08        -0.15832E-19         0.00000E+00
    0.46410E-08        -0.23283E-20         0.00000E+00
    0.46410E-08         0.83819E-20         0.00000E+00
    0.46410E-08         0.11409E-19         0.00000E+00
    0.46410E-08         0.11642E-19         0.00000E+00
    0.46410E-08        -0.13970E-20         0.00000E+00
    0.46410E-08        -0.44238E-20         0.00000E+00
    0.46410E-08        -0.18626E-20         0.00000E+00
    0.46410E-08         0.18626E-20         0.00000E+00
    0.46410E-08        -0.48894E-20         0.00000E+00
    0.46410E-08         0.39581E-20         0.00000E+00
    0.55100E-08         0.83819E-20         0.00000E+00
    0.55100E-08         0.15367E-19         0.00000E+00
    0.55100E-08         0.10710E-19         0.00000E+00
    0.55100E-08         0.14668E-19         0.00000E+00
    0.55100E-08         0.23283E-19         0.00000E+00
    0.55100E-08         0.35390E-19         0.00000E+00
    0.55100E-08         0.31199E-19         0.00000E+00
    0.55100E-08         0.34925E-19         0.00000E+00
    0.55100E-08         0.27940E-19         0.00000E+00
    0.55100E-08         0.17229E-19         0.00000E+00
    0.55100E-08         0.95461E-20         0.00000E+00
    0.55100E-08         0.13970E-19         0.00000E+00
    0.55100E-08         0.26077E-19         0.00000E+00
    0.55100E-08         0.20023E-19         0.00000E+00
    0.55100E-08         0.12573E-19         0.00000E+00
    0.55100E-08         0.60536E-20         0.00000E+00
    0.55100E-08         0.65193E-20         0.00000E+00
    0.55100E-08        -0.18626E-20         0.00000E+00
    0.55100E-08         0.13039E-19         0.00000E+00
    0.55100E-08         0.51223E-20         0.00000E+00
    0.55100E-08         0.20955E-20         0.00000E+00
    0.55100E-08         0.58208E-20         0.00000E+00
    0.55100E-08         0.51223E-20         0.00000E+00
    0.55100E-08         0.55879E-20         0.00000E+00
    0.55100E-08        -0.11642E-20         0.00000E+00
    0.55100E-08         0.37253E-20         0.00000E+00
    0.55100E-08        -0.10012E-19         0.00000E+00
    0.55100E-08        -0.10245E-19         0.00000E+00
    0.55100E-08        -0.23749E-19         0.00000E+00
    0.55100E-08        -0.11642E-19         0.00000E+00
    0.55100E-08        -0.22817E-19         0.00000E+00
    0.55100E-08        -0.16298E-19         0.00000E+00
    0.55100E-08        -0.20489E-19         0.00000E+00
    0.55100E-08        -0.30268E-19         0.00000E+00
    0.55100E-08        -0.28405E-19         0.00000E+00
    0.55100E-08        -0.21886E-19         0.00000E+00
    0.55100E-08        -0.95461E-20         0.00000E+00
    0.55100E-08        -0.93132E-20         0.00000E+00
    0.55100E-08        -0.97789E-20         0.00000E+00
    0.55100E-08        -0.17695E-19         0.00000E+00
    0.55100E-08         0.34925E-20         0.00000E+00
    0.55100E-08         0.10012E-19         0.00000E+00
    0.55100E-08         0.10710E-19         0.00000E+00
    0.55100E-08         0.88476E-20         0.00000E+00
    0.55100E-08         0.41910E-20         0.00000E+00
    0.55100E-08         0.60536E-20         0.00000E+00
    0.55100E-08         0.25611E-20         0.00000E+00
    0.55100E-08         0.81491E-20         0.00000E+00
    0.55100E-08        -0.37253E-20         0.00000E+00
    0.55100E-08         0.65193E-20         0.00000E+00
    0.65330E-08         0.11642E-19         0.00000E+00
    0.65330E-08         0.20023E-19         0.00000E+00
    0.65330E-08         0.15832E-19         0.00000E+00
    0.65330E-08         0.11874E-19         0.00000E+00
    0.65330E-08         0.27474E-19         0.00000E+00
    0.65330E-08         0.42375E-19         0.00000E+00
    0.65330E-08         0.29104E-19         0.00000E+00
    0.65330E-08         0.32596E-19         0.00000E+00
    0.65330E-08         0.23283E-19         0.00000E+00
    0.65330E-08         0.15367E-19         0.00000E+00
    0.65330E-08         0.16298E-19         0.00000E+00
    0.65330E-08         0.25146E-19         0.00000E+00
    0.65330E-08         0.29337E-19         0.00000E+00
    0.65330E-08         0.20955E-19         0.00000E+00
    0.65330E-08         0.97789E-20         0.00000E+00
    0.65330E-08         0.11409E-19         0.00000E+00
    0.65330E-08         0.10710E-19         0.00000E+00
    0.65330E-08         0.46566E-20         0.00000E+00
    0.65330E-08         0.10245E-19         0.00000E+00
    0.65330E-08         0.97789E-20         0.00000E+00
    0.65330E-08         0.46566E-20         0.00000E+00
    0.65330E-08         0.13504E-19         0.00000E+00
    0.65330E-08         0.10710E-19         0.00000E+00
    0.65330E-08         0.46566E-20         0.00000E+00
    0.65330E-08         0.55879E-20         0.00000E+00
    0.65330E-08        -0.20955E-20         0.00000E+00
    0.65330E-08        -0.69849E-20         0.00000E+00
    0.65330E-08        -0.10245E-19         0.00000E+00
    0.65330E-08        -0.24214E-19         0.00000E+00
    0.65330E-08        -0.15600E-19         0.00000E+00
    0.65330E-08        -0.23749E-19         0.00000E+00
    0.65330E-08        -0.21420E-19         0.00000E+00
    0.65330E-08        -0.26776E-19         0.00000E+00
    0.65330E-08        -0.29337E-19         0.00000E+00
    0.65330E-08        -0.35390E-19         0.00000E+00
    0.65330E-08        -0.26077E-19         0.00000E+00
    0.65330E-08        -0.13039E-19         0.00000E+00
    0.65330E-08        -0.10710E-19         0.00000E+00
    0.65330E-08        -0.10943E-19         0.00000E+00
    0.65330E-08        -0.19092E-19         0.00000E+00
    0.65330E-08         0.93132E-21         0.00000E+00
    0.65330E-08         0.15832E-19         0.00000E+00
    0.65330E-08         0.16764E-19         0.00000E+00
    0.65330E-08         0.14435E-19         0.00000E+00
    0.65330E-08         0.69849E-20         0.00000E+00
    0.65330E-08         0.79162E-20         0.00000E+00
    0.65330E-08        -0.93132E-21         0.00000E+00
    0.65330E-08         0.41910E-20         0.00000E+00
    0.65330E-08        -0.46566E-21         0.00000E+00
    0.65330E-08         0.51223E-20         0.00000E+00
    0.77350E-08         0.51223E-20         0.00000E+00
    0.77350E-08         0.20023E-19         0.00000E+00
    0.77350E-08         0.18161E-19         0.00000E+00
    0.77350E-08         0.60536E-20         0.00000E+00
    0.77350E-08         0.26077E-19         0.00000E+00
    0.77350E-08         0.43306E-19         0.00000E+00
    0.77350E-08         0.34925E-19         0.00000E+00
    0.77350E-08         0.26077E-19         0.00000E+00
    0.77350E-08         0.26543E-19         0.00000E+00
    0.77350E-08         0.21886E-19         0.00000E+00
    0.77350E-08         0.28405E-19         0.00000E+00
    0.77350E-08         0.31898E-19         0.00000E+00
    0.77350E-08         0.27008E-19         0.00000E+00
    0.77350E-08         0.14901E-19         0.00000E+00
    0.77350E-08         0.11642E-20         0.00000E+00
    0.77350E-08         0.46566E-20         0.00000E+00
    0.77350E-08         0.37253E-20         0.00000E+00
    0.77350E-08         0.13970E-19         0.00000E+00
    0.77350E-08         0.20023E-19         0.00000E+00
    0.77350E-08         0.23283E-20         0.00000E+00
    0.77350E-08         0.79162E-20         0.00000E+00
    0.77350E-08         0.41910E-20         0.00000E+00
    0.77350E-08         0.14435E-19         0.00000E+00
    0.77350E-08         0.13970E-19         0.00000E+00
    0.77350E-08         0.74506E-20         0.00000E+00
    0.77350E-08         0.74506E-20         0.00000E+00
    0.77350E-08         0.00000E+00         0.00000E+00
    0.77350E-08        -0.10710E-19         0.00000E+00
    0.77350E-08        -0.24214E-19         0.00000E+00
    0.77350E-08        -0.14435E-19         0.00000E+00
    0.77350E-08        -0.16298E-19         0.00000E+00
    0.77350E-08        -0.19325E-19         0.00000E+00
    0.77350E-08        -0.26543E-19         0.00000E+00
    0.77350E-08        -0.30966E-19         0.00000E+00
    0.77350E-08        -0.32829E-19         0.00000E+00
    0.77350E-08        -0.27940E-19         0.00000E+00
    0.77350E-08        -0.12340E-19         0.00000E+00
    0.77350E-08        -0.79162E-20         0.00000E+00
    0.77350E-08        -0.65193E-20         0.00000E+00
    0.77350E-08        -0.93132E-20         0.00000E+00
    0.77350E-08         0.00000E+00         0.00000E+00
    0.77350E-08         0.15134E-19         0.00000E+00
    0.77350E-08         0.16298E-19         0.00000E+00
    0.77350E-08         0.97789E-20         0.00000E+00
    0.77350E-08         0.34925E-20         0.00000E+00
    0.77350E-08         0.00000E+00         0.00000E+00
    0.77350E-08        -0.34925E-20         0.00000E+00
    0.77350E-08         0.27940E-20         0.00000E+00
    0.77350E-08         0.00000E+00         0.00000E+00
    0.77350E-08         0.41910E-20         0.00000E+00
    0.91447E-08         0.51223E-20         0.00000E+00
    0.91447E-08         0.14435E-19         0.00000E+00
    0.91447E-08         0.12573E-19         0.00000E+00
    0.91447E-08         0.97789E-20         0.00000E+00
    0.91447E-08         0.23749E-19         0.00000E+00
    0.91447E-08         0.44471E-19         0.00000E+00
    0.91447E-08         0.40047E-19         0.00000E+00
    0.91447E-08         0.26310E-19         0.00000E+00
    0.91447E-08         0.16531E-19         0.00000E+00
    0.91447E-08         0.13504E-19         0.00000E+00
    0.91447E-08         0.22352E-19         0.00000E+00
    0.91447E-08         0.26543E-19         0.00000E+00
    0.91447E-08         0.31199E-19         0.00000E+00
    0.91447E-08         0.16531E-19         0.00000E+00
    0.91447E-08         0.37253E-20         0.00000E+00
    0.91447E-08         0.18626E-20         0.00000E+00
    0.91447E-08         0.69849E-20         0.00000E+00
    0.91447E-08         0.16298E-20         0.00000E+00
    0.91447E-08         0.12107E-19         0.00000E+00
    0.91447E-08         0.23283E-20         0.00000E+00
    0.91447E-08        -0.46566E-21         0.00000E+00
    0.91447E-08         0.18626E-20         0.00000E+00
    0.91447E-08         0.97789E-20         0.00000E+00
    0.91447E-08         0.12107E-19         0.00000E+00
    0.91447E-08         0.10710E-19         0.00000E+00
    0.91447E-08         0.53551E-20         0.00000E+00
    0.91447E-08        -0.18626E-20         0.00000E+00
    0.91447E-08        -0.69849E-20         0.00000E+00
    0.91447E-08        -0.26077E-19         0.00000E+00
    0.91447E-08        -0.18626E-19         0.00000E+00
    0.91447E-08        -0.19558E-19         0.00000E+00
    0.91447E-08        -0.13271E-19         0.00000E+00
    0.91447E-08        -0.27241E-19         0.00000E+00
    0.91447E-08        -0.30734E-19         0.00000E+00
    0.91447E-08        -0.25844E-19         0.00000E+00
    0.91447E-08        -0.23283E-19         0.00000E+00
    0.91447E-08        -0.11642E-19         0.00000E+00
    0.91447E-08        -0.10012E-19         0.00000E+00
    0.91447E-08        -0.10943E-19         0.00000E+00
    0.91447E-08        -0.53551E-20         0.00000E+00
    0.91447E-08         0.37253E-20         0.00000E+00
    0.91447E-08         0.12573E-19         0.00000E+00
    0.91447E-08         0.10943E-19         0.00000E+00
    0.91447E-08         0.15134E-19         0.00000E+00
    0.91447E-08         0.23283E-20         0.00000E+00
    0.91447E-08        -0.37253E-20         0.00000E+00
    0.91447E-08        -0.23283E-20         0.00000E+00
    0.91447E-08         0.13039E-19         0.00000E+00
    0.91447E-08         0.18626E-20         0.00000E+00
    0.91447E-08         0.23283E-20         0.00000E+00
    0.10794E-07         0.86147E-20         0.00000E+00
    0.10794E-07         0.11642E-19         0.00000E+00
    0.10794E-07         0.10245E-19         0.00000E+00
    0.10794E-07         0.10245E-19         0.00000E+00
    0.10794E-07         0.25146E-19         0.00000E+00
    0.10794E-07         0.35856E-19         0.00000E+00
    0.10794E-07         0.35623E-19         0.00000E+00
    0.10794E-07         0.26310E-19         0.00000E+00
    0.10794E-07         0.20722E-19         0.00000E+00
    0.10794E-07         0.93132E-20         0.00000E+00
    0.10794E-07         0.11642E-19         0.00000E+00
    0.10794E-07         0.20955E-19         0.00000E+00
    0.10794E-07         0.24214E-19         0.00000E+00
    0.10794E-07         0.17928E-19         0.00000E+00
    0.10794E-07         0.10943E-19         0.00000E+00
    0.10794E-07         0.51223E-20         0.00000E+00
    0.10794E-07         0.48894E-20         0.00000E+00
    0.10794E-07        -0.32596E-20         0.00000E+00
    0.10794E-07         0.93132E-21         0.00000E+00
    0.10794E-07         0.13970E-20         0.00000E+00
    0.10794E-07         0.32596E-20         0.00000E+00
    0.10794E-07         0.46566E-20         0.00000E+00
    0.10794E-07         0.14901E-19         0.00000E+00
    0.10794E-07         0.15832E-19         0.00000E+00
    0.10794E-07         0.39581E-20         0.00000E+00
    0.10794E-07         0.30268E-20         0.00000E+00
    0.10794E-07        -0.32596E-20         0.00000E+00
    0.10794E-07         0.27940E-20         0.00000E+00
    0.10794E-07        -0.18626E-19         0.00000E+00
    0.10794E-07        -0.12107E-19         0.00000E+00
    0.10794E-07        -0.19558E-19         0.00000E+00
    0.10794E-07        -0.12573E-19         0.00000E+00
    0.10794E-07        -0.30734E-19         0.00000E+00
    0.10794E-07        -0.27474E-19         0.00000E+00
    0.10794E-07        -0.29337E-19         0.00000E+00
    0.10794E-07        -0.26543E-19         0.00000E+00
    0.10794E-07        -0.16298E-19         0.00000E+00
    0.10794E-07        -0.12340E-19         0.00000E+00
    0.10794E-07        -0.15832E-19         0.00000E+00
    0.10794E-07        -0.11176E-19         0.00000E+00
    0.10794E-07        -0.34925E-20         0.00000E+00
    0.10794E-07         0.16764E-19         0.00000E+00
    0.10794E-07         0.17695E-19         0.00000E+00
    0.10794E-07         0.12573E-19         0.00000E+00
    0.10794E-07         0.25611E-20         0.00000E+00
    0.10794E-07        -0.23283E-20         0.00000E+00
    0.10794E-07        -0.93132E-21         0.00000E+00
    0.10794E-07         0.18626E-20         0.00000E+00
    0.10794E-07         0.46566E-20         0.00000E+00
    0.10794E-07         0.23283E-20         0.00000E+00
    0.12721E-07         0.27940E-20         0.00000E+00
    0.12721E-07         0.14435E-19         0.00000E+00
    0.12721E-07         0.11642E-19         0.00000E+00
    0.12721E-07         0.83819E-20         0.00000E+00
    0.12721E-07         0.19092E-19         0.00000E+00
    0.12721E-07         0.33528E-19         0.00000E+00
    0.12721E-07         0.27940E-19         0.00000E+00
    0.12721E-07         0.25611E-19         0.00000E+00
    0.12721E-07         0.31199E-19         0.00000E+00
    0.12721E-07         0.19092E-19         0.00000E+00
    0.12721E-07         0.24680E-19         0.00000E+00
    0.12721E-07         0.24447E-19         0.00000E+00
    0.12721E-07         0.26310E-19         0.00000E+00
    0.12721E-07         0.21188E-19         0.00000E+00
    0.12721E-07        -0.32596E-20         0.00000E+00
    0.12721E-07        -0.18626E-20         0.00000E+00
    0.12721E-07        -0.41910E-20         0.00000E+00
    0.12721E-07        -0.37253E-20         0.00000E+00
    0.12721E-07         0.14901E-19         0.00000E+00
    0.12721E-07         0.79162E-20         0.00000E+00
    0.12721E-07         0.74506E-20         0.00000E+00
    0.12721E-07         0.18626E-20         0.00000E+00
    0.12721E-07         0.93132E-20         0.00000E+00
    0.12721E-07         0.81491E-20         0.00000E+00
    0.12721E-07         0.74506E-20         0.00000E+00
    0.12721E-07         0.32596E-20         0.00000E+00
    0.12721E-07         0.13970E-20         0.00000E+00
    0.12721E-07         0.93132E-21         0.00000E+00
    0.12721E-07        -0.23283E-19         0.00000E+00
    0.12721E-07        -0.88476E-20         0.00000E+00
    0.12721E-07        -0.10245E-19         0.00000E+00
    0.12721E-07        -0.14901E-19         0.00000E+00
    0.12721E-07        -0.30734E-19         0.00000E+00
    0.12721E-07        -0.33528E-19         0.00000E+00
    0.12721E-07        -0.32131E-19         0.00000E+00
    0.12721E-07        -0.24913E-19         0.00000E+00
    0.12721E-07        -0.13737E-19         0.00000E+00
    0.12721E-07        -0.10710E-19         0.00000E+00
    0.12721E-07        -0.19558E-19         0.00000E+00
    0.12721E-07        -0.16298E-19         0.00000E+00
    0.12721E-07         0.23283E-20         0.00000E+00
    0.12721E-07         0.12340E-19         0.00000E+00
    0.12721E-07         0.12573E-19         0.00000E+00
    0.12721E-07         0.76834E-20         0.00000E+00
    0.12721E-07        -0.67521E-20         0.00000E+00
    0.12721E-07        -0.46566E-20         0.00000E+00
    0.12721E-07        -0.60536E-20         0.00000E+00
    0.12721E-07         0.16298E-20         0.00000E+00
    0.12721E-07         0.13970E-20         0.00000E+00
    0.12721E-07         0.25611E-20         0.00000E+00
    0.14965E-07         0.51223E-20         0.00000E+00
    0.14965E-07         0.12107E-19         0.00000E+00
    0.14965E-07         0.10710E-19         0.00000E+00
    0.14965E-07         0.17695E-19         0.00000E+00
    0.14965E-07         0.23283E-19         0.00000E+00
    0.14965E-07         0.37719E-19         0.00000E+00
    0.14965E-07         0.41910E-19         0.00000E+00
    0.14965E-07         0.37719E-19         0.00000E+00
    0.14965E-07         0.31665E-19         0.00000E+00
    0.14965E-07         0.23283E-19         0.00000E+00
    0.14965E-07         0.25611E-19         0.00000E+00
    0.14965E-07         0.32131E-19         0.00000E+00
    0.14965E-07         0.29569E-19         0.00000E+00
    0.14965E-07         0.21653E-19         0.00000E+00
    0.14965E-07        -0.93132E-21         0.00000E+00
    0.14965E-07         0.41910E-20         0.00000E+00
    0.14965E-07         0.23283E-20         0.00000E+00
    0.14965E-07        -0.46566E-20         0.00000E+00
    0.14965E-07         0.14435E-19         0.00000E+00
    0.14965E-07         0.69849E-20         0.00000E+00
    0.14965E-07         0.18626E-20         0.00000E+00
    0.14965E-07         0.27940E-20         0.00000E+00
    0.14965E-07         0.93132E-20         0.00000E+00
    0.14965E-07         0.93132E-20         0.00000E+00
    0.14965E-07         0.11642E-19         0.00000E+00
    0.14965E-07         0.41910E-20         0.00000E+00
    0.14965E-07         0.13970E-20         0.00000E+00
    0.14965E-07        -0.13504E-19         0.00000E+00
    0.14965E-07        -0.28871E-19         0.00000E+00
    0.14965E-07        -0.12573E-19         0.00000E+00
    0.14965E-07        -0.10245E-19         0.00000E+00
    0.14965E-07        -0.13039E-19         0.00000E+00
    0.14965E-07        -0.32596E-19         0.00000E+00
    0.14965E-07        -0.28871E-19         0.00000E+00
    0.14965E-07        -0.23283E-19         0.00000E+00
    0.14965E-07        -0.19791E-19         0.00000E+00
    0.14965E-07        -0.14435E-19         0.00000E+00
    0.14965E-07        -0.14901E-19         0.00000E+00
    0.14965E-07        -0.17229E-19         0.00000E+00
    0.14965E-07        -0.19092E-19         0.00000E+00
    0.14965E-07        -0.20955E-20         0.00000E+00
    0.14965E-07         0.11176E-19         0.00000E+00
    0.14965E-07         0.21420E-19         0.00000E+00
    0.14965E-07         0.18626E-20         0.00000E+00
    0.14965E-07        -0.13970E-19         0.00000E+00
    0.14965E-07        -0.10710E-19         0.00000E+00
    0.14965E-07        -0.97789E-20         0.00000E+00
    0.14965E-07         0.53551E-20         0.00000E+00
    0.14965E-07        -0.18626E-20         0.00000E+00
    0.14965E-07         0.34925E-20         0.00000E+00
    0.17572E-07         0.79162E-20         0.00000E+00
    0.17572E-07         0.60536E-20         0.00000E+00
    0.17572E-07         0.51223E-20         0.00000E+00
    0.17572E-07         0.11642E-19         0.00000E+00
    0.17572E-07         0.27008E-19         0.00000E+00
    0.17572E-07         0.39581E-19         0.00000E+00
    0.17572E-07         0.40047E-19         0.00000E+00
    0.17572E-07         0.29802E-19         0.00000E+00
    0.17572E-07         0.39116E-19         0.00000E+00
    0.17572E-07         0.31665E-19         0.00000E+00
    0.17572E-07         0.38184E-19         0.00000E+00
    0.17572E-07         0.32596E-19         0.00000E+00
    0.17572E-07         0.31199E-19         0.00000E+00
    0.17572E-07         0.26543E-19         0.00000E+00
    0.17572E-07         0.13039E-19         0.00000E+00
    0.17572E-07         0.65193E-20         0.00000E+00
    0.17572E-07         0.79162E-20         0.00000E+00
    0.17572E-07        -0.18626E-20         0.00000E+00
    0.17572E-07         0.16764E-19         0.00000E+00
    0.17572E-07         0.27940E-20         0.00000E+00
    0.17572E-07        -0.46566E-21         0.00000E+00
    0.17572E-07         0.88476E-20         0.00000E+00
    0.17572E-07         0.12107E-19         0.00000E+00
    0.17572E-07         0.16298E-19         0.00000E+00
    0.17572E-07         0.13039E-19         0.00000E+00
    0.17572E-07         0.46566E-20         0.00000E+00
    0.17572E-07        -0.65193E-20         0.00000E+00
    0.17572E-07        -0.13970E-19         0.00000E+00
    0.17572E-07        -0.24214E-19         0.00000E+00
    0.17572E-07        -0.14435E-19         0.00000E+00
    0.17572E-07        -0.17229E-19         0.00000E+00
    0.17572E-07        -0.13970E-19         0.00000E+00
    0.17572E-07        -0.27008E-19         0.00000E+00
    0.17572E-07        -0.28871E-19         0.00000E+00
    0.17572E-07        -0.28405E-19         0.00000E+00
    0.17572E-07        -0.24214E-19         0.00000E+00
    0.17572E-07        -0.16764E-19         0.00000E+00
    0.17572E-07        -0.14435E-19         0.00000E+00
    0.17572E-07        -0.15832E-19         0.00000E+00
    0.17572E-07        -0.17695E-19         0.00000E+00
    0.17572E-07        -0.32596E-20         0.00000E+00
    0.17572E-07         0.11642E-19         0.00000E+00
    0.17572E-07         0.15832E-19         0.00000E+00
    0.17572E-07         0.79162E-20         0.00000E+00
    0.17572E-07        -0.93132E-21         0.00000E+00
    0.17572E-07        -0.74506E-20         0.00000E+00
    0.17572E-07        -0.12573E-19         0.00000E+00
    0.17572E-07        -0.46566E-20         0.00000E+00
    0.17572E-07        -0.46566E-20         0.00000E+00
    0.17572E-07         0.65193E-20         0.00000E+00
    0.20593E-07         0.23283E-20         0.00000E+00
    0.20593E-07         0.69849E-20         0.00000E+00
    0.20593E-07         0.18626E-20         0.00000E+00
    0.20593E-07         0.55879E-20         0.00000E+00
    0.20593E-07         0.27940E-19         0.00000E+00
    0.20593E-07         0.48894E-19         0.00000E+00
    0.20593E-07         0.44936E-19         0.00000E+00
    0.20593E-07         0.33062E-19         0.00000E+00
    0.20593E-07         0.33993E-19         0.00000E+00
    0.20593E-07         0.31199E-19         0.00000E+00
    0.20593E-07         0.34925E-19         0.00000E+00
    0.20593E-07         0.27940E-19         0.00000E+00
    0.20593E-07         0.28871E-19         0.00000E+00
    0.20593E-07         0.21420E-19         0.00000E+00
    0.20593E-07         0.12806E-19         0.00000E+00
    0.20593E-07         0.41910E-20         0.00000E+00
    0.20593E-07         0.69849E-20         0.00000E+00
    0.20593E-07         0.00000E+00         0.00000E+00
    0.20593E-07         0.16764E-19         0.00000E+00
    0.20593E-07         0.10710E-19         0.00000E+00
    0.20593E-07         0.46566E-20         0.00000E+00
    0.20593E-07         0.41910E-20         0.00000E+00
    0.20593E-07         0.13504E-19         0.00000E+00
    0.20593E-07         0.14435E-19         0.00000E+00
    0.20593E-07         0.97789E-20         0.00000E+00
    0.20593E-07         0.60536E-20         0.00000E+00
    0.20593E-07        -0.41910E-20         0.00000E+00
    0.20593E-07        -0.10245E-19         0.00000E+00
    0.20593E-07        -0.23283E-19         0.00000E+00
    0.20593E-07        -0.16764E-19         0.00000E+00
    0.20593E-07        -0.20489E-19         0.00000E+00
    0.20593E-07        -0.15832E-19         0.00000E+00
    0.20593E-07        -0.30268E-19         0.00000E+00
    0.20593E-07        -0.34925E-19         0.00000E+00
    0.20593E-07        -0.34692E-19         0.00000E+00
    0.20593E-07        -0.26077E-19         0.00000E+00
    0.20593E-07        -0.14435E-19         0.00000E+00
    0.20593E-07        -0.14435E-19         0.00000E+00
    0.20593E-07        -0.10710E-19         0.00000E+00
    0.20593E-07        -0.14435E-19         0.00000E+00
    0.20593E-07        -0.18626E-20         0.00000E+00
    0.20593E-07         0.97789E-20         0.00000E+00
    0.20593E-07         0.97789E-20         0.00000E+00
    0.20593E-07         0.15832E-19         0.00000E+00
    0.20593E-07         0.65193E-20         0.00000E+00
    0.20593E-07         0.58208E-20         0.00000E+00
    0.20593E-07         0.93132E-21         0.00000E+00
    0.20593E-07         0.32596E-20         0.00000E+00
    0.20593E-07        -0.55879E-20         0.00000E+00
    0.20593E-07         0.93132E-21         0.00000E+00
    0.24082E-07         0.65193E-20         0.00000E+00
    0.24082E-07         0.12573E-19         0.00000E+00
    0.24082E-07         0.13504E-19         0.00000E+00
    0.24082E-07         0.13504E-19         0.00000E+00
    0.24082E-07         0.35390E-19         0.00000E+00
    0.24082E-07         0.51456E-19         0.00000E+00
    0.24082E-07         0.50059E-19         0.00000E+00
    0.24082E-07         0.39581E-19         0.00000E+00
    0.24082E-07         0.32131E-19         0.00000E+00
    0.24082E-07         0.22817E-19         0.00000E+00
    0.24082E-07         0.26077E-19         0.00000E+00
    0.24082E-07         0.27474E-19         0.00000E+00
    0.24082E-07         0.23283E-19         0.00000E+00
    0.24082E-07         0.21420E-19         0.00000E+00
    0.24082E-07         0.14203E-19         0.00000E+00
    0.24082E-07         0.13039E-19         0.00000E+00
    0.24082E-07         0.83819E-20         0.00000E+00
    0.24082E-07         0.23283E-20         0.00000E+00
    0.24082E-07         0.17229E-19         0.00000E+00
    0.24082E-07         0.10710E-19         0.00000E+00
    0.24082E-07         0.12573E-19         0.00000E+00
    0.24082E-07         0.65193E-20         0.00000E+00
    0.24082E-07         0.11642E-19         0.00000E+00
    0.24082E-07         0.10710E-19         0.00000E+00
    0.24082E-07         0.18626E-20         0.00000E+00
    0.24082E-07         0.41910E-20         0.00000E+00
    0.24082E-07        -0.65193E-20         0.00000E+00
    0.24082E-07        -0.12573E-19         0.00000E+00
    0.24082E-07        -0.27474E-19         0.00000E+00
    0.24082E-07        -0.16298E-19         0.00000E+00
    0.24082E-07        -0.25611E-19         0.00000E+00
    0.24082E-07        -0.27008E-19         0.00000E+00
    0.24082E-07        -0.36322E-19         0.00000E+00
    0.24082E-07        -0.26077E-19         0.00000E+00
    0.24082E-07        -0.33062E-19         0.00000E+00
    0.24082E-07        -0.21188E-19         0.00000E+00
    0.24082E-07        -0.10012E-19         0.00000E+00
    0.24082E-07        -0.11642E-19         0.00000E+00
    0.24082E-07        -0.97789E-20         0.00000E+00
    0.24082E-07        -0.97789E-20         0.00000E+00
    0.24082E-07        -0.18626E-20         0.00000E+00
    0.24082E-07         0.72177E-20         0.00000E+00
    0.24082E-07         0.13504E-19         0.00000E+00
    0.24082E-07         0.13970E-19         0.00000E+00
    0.24082E-07         0.88476E-20         0.00000E+00
    0.24082E-07         0.55879E-20         0.00000E+00
    0.24082E-07         0.37253E-20         0.00000E+00
    0.24082E-07         0.97789E-20         0.00000E+00
    0.24082E-07        -0.93132E-20         0.00000E+00
    0.24082E-07         0.27940E-20         0.00000E+00
    0.28101E-07         0.55879E-20         0.00000E+00
    0.28101E-07         0.16531E-19         0.00000E+00
    0.28101E-07         0.16298E-19         0.00000E+00
    0.28101E-07         0.21420E-19         0.00000E+00
    0.28101E-07         0.37253E-19         0.00000E+00
    0.28101E-07         0.45635E-19         0.00000E+00
    0.28101E-07         0.47497E-19         0.00000E+00
    0.28101E-07         0.41910E-19         0.00000E+00
    0.28101E-07         0.32829E-19         0.00000E+00
    0.28101E-07         0.23283E-19         0.00000E+00
    0.28101E-07         0.23283E-19         0.00000E+00
    0.28101E-07         0.31199E-19         0.00000E+00
    0.28101E-07         0.29337E-19         0.00000E+00
    0.28101E-07         0.28871E-19         0.00000E+00
    0.28101E-07         0.14668E-19         0.00000E+00
    0.28101E-07         0.14203E-19         0.00000E+00
    0.28101E-07         0.60536E-20         0.00000E+00
    0.28101E-07         0.18626E-20         0.00000E+00
    0.28101E-07         0.18161E-19         0.00000E+00
    0.28101E-07         0.60536E-20         0.00000E+00
    0.28101E-07         0.10245E-19         0.00000E+00
    0.28101E-07         0.32596E-20         0.00000E+00
    0.28101E-07         0.65193E-20         0.00000E+00
    0.28101E-07         0.79162E-20         0.00000E+00
    0.28101E-07         0.46566E-20         0.00000E+00
    0.28101E-07         0.00000E+00         0.00000E+00
    0.28101E-07        -0.88476E-20         0.00000E+00
    0.28101E-07        -0.13970E-19         0.00000E+00
    0.28101E-07        -0.33528E-19         0.00000E+00
    0.28101E-07        -0.14901E-19         0.00000E+00
    0.28101E-07        -0.24214E-19         0.00000E+00
    0.28101E-07        -0.17695E-19         0.00000E+00
    0.28101E-07        -0.28871E-19         0.00000E+00
    0.28101E-07        -0.26077E-19         0.00000E+00
    0.28101E-07        -0.26543E-19         0.00000E+00
    0.28101E-07        -0.18394E-19         0.00000E+00
    0.28101E-07        -0.13737E-19         0.00000E+00
    0.28101E-07        -0.11642E-19         0.00000E+00
    0.28101E-07        -0.32596E-20         0.00000E+00
    0.28101E-07        -0.15832E-19         0.00000E+00
    0.28101E-07        -0.27940E-20         0.00000E+00
    0.28101E-07        -0.23283E-21         0.00000E+00
    0.28101E-07         0.41910E-20         0.00000E+00
    0.28101E-07         0.95461E-20         0.00000E+00
    0.28101E-07        -0.46566E-21         0.00000E+00
    0.28101E-07        -0.25611E-20         0.00000E+00
    0.28101E-07        -0.37253E-20         0.00000E+00
    0.28101E-07        -0.41910E-20         0.00000E+00
    0.28101E-07        -0.88476E-20         0.00000E+00
    0.28101E-07        -0.30268E-20         0.00000E+00
    0.32711E-07         0.58208E-20         0.00000E+00
    0.32711E-07         0.12573E-19         0.00000E+00
    0.32711E-07         0.13504E-19         0.00000E+00
    0.32711E-07         0.16764E-19         0.00000E+00
    0.32711E-07         0.33062E-19         0.00000E+00
    0.32711E-07         0.43306E-19         0.00000E+00
    0.32711E-07         0.44703E-19         0.00000E+00
    0.32711E-07         0.41444E-19         0.00000E+00
    0.32711E-07         0.40047E-19         0.00000E+00
    0.32711E-07         0.27474E-19         0.00000E+00
    0.32711E-07         0.23283E-19         0.00000E+00
    0.32711E-07         0.34459E-19         0.00000E+00
    0.32711E-07         0.29802E-19         0.00000E+00
    0.32711E-07         0.30268E-19         0.00000E+00
    0.32711E-07         0.15367E-19         0.00000E+00
    0.32711E-07         0.46566E-20         0.00000E+00
    0.32711E-07         0.46566E-20         0.00000E+00
    0.32711E-07         0.41910E-20         0.00000E+00
    0.32711E-07         0.27940E-20         0.00000E+00
    0.32711E-07        -0.37253E-20         0.00000E+00
    0.32711E-07         0.93132E-21         0.00000E+00
    0.32711E-07        -0.23283E-20         0.00000E+00
    0.32711E-07         0.18626E-20         0.00000E+00
    0.32711E-07         0.13039E-19         0.00000E+00
    0.32711E-07         0.10710E-19         0.00000E+00
    0.32711E-07         0.27940E-20         0.00000E+00
    0.32711E-07        -0.74506E-20         0.00000E+00
    0.32711E-07        -0.65193E-20         0.00000E+00
    0.32711E-07        -0.30734E-19         0.00000E+00
    0.32711E-07        -0.21886E-19         0.00000E+00
    0.32711E-07        -0.14435E-19         0.00000E+00
    0.32711E-07        -0.13039E-19         0.00000E+00
    0.32711E-07        -0.30268E-19         0.00000E+00
    0.32711E-07        -0.32596E-19         0.00000E+00
    0.32711E-07        -0.23050E-19         0.00000E+00
    0.32711E-07        -0.20256E-19         0.00000E+00
    0.32711E-07        -0.19092E-19         0.00000E+00
    0.32711E-07        -0.14435E-19         0.00000E+00
    0.32711E-07        -0.18859E-19         0.00000E+00
    0.32711E-07        -0.18161E-19         0.00000E+00
    0.32711E-07        -0.60536E-20         0.00000E+00
    0.32711E-07         0.46566E-21         0.00000E+00
    0.32711E-07         0.60536E-20         0.00000E+00
    0.32711E-07         0.46566E-21         0.00000E+00
    0.32711E-07        -0.55879E-20         0.00000E+00
    0.32711E-07        -0.11176E-19         0.00000E+00
    0.32711E-07        -0.23283E-21         0.00000E+00
    0.32711E-07        -0.60536E-20         0.00000E+00
    0.32711E-07        -0.46566E-20         0.00000E+00
    0.32711E-07        -0.93132E-21         0.00000E+00
    0.37981E-07         0.60536E-20         0.00000E+00
    0.37981E-07         0.12340E-19         0.00000E+00
    0.37981E-07         0.10710E-19         0.00000E+00
    0.37981E-07         0.16764E-19         0.00000E+00
    0.37981E-07         0.24913E-19         0.00000E+00
    0.37981E-07         0.39348E-19         0.00000E+00
    0.37981E-07         0.45402E-19         0.00000E+00
    0.37981E-07         0.35390E-19         0.00000E+00
    0.37981E-07         0.33528E-19         0.00000E+00
    0.37981E-07         0.26077E-19         0.00000E+00
    0.37981E-07         0.27008E-19         0.00000E+00
    0.37981E-07         0.32131E-19         0.00000E+00
    0.37981E-07         0.34925E-19         0.00000E+00
    0.37981E-07         0.18394E-19         0.00000E+00
    0.37981E-07         0.88476E-20         0.00000E+00
    0.37981E-07         0.58208E-20         0.00000E+00
    0.37981E-07         0.37253E-20         0.00000E+00
    0.37981E-07         0.60536E-20         0.00000E+00
    0.37981E-07         0.27940E-20         0.00000E+00
    0.37981E-07        -0.39581E-20         0.00000E+00
    0.37981E-07        -0.37253E-20         0.00000E+00
    0.37981E-07        -0.41910E-20         0.00000E+00
    0.37981E-07         0.65193E-20         0.00000E+00
    0.37981E-07         0.16298E-19         0.00000E+00
    0.37981E-07         0.12573E-19         0.00000E+00
    0.37981E-07         0.83819E-20         0.00000E+00
    0.37981E-07         0.00000E+00         0.00000E+00
    0.37981E-07        -0.10710E-19         0.00000E+00
    0.37981E-07        -0.31665E-19         0.00000E+00
    0.37981E-07        -0.17229E-19         0.00000E+00
    0.37981E-07        -0.19325E-19         0.00000E+00
    0.37981E-07        -0.17462E-19         0.00000E+00
    0.37981E-07        -0.35390E-19         0.00000E+00
    0.37981E-07        -0.31432E-19         0.00000E+00
    0.37981E-07        -0.27008E-19         0.00000E+00
    0.37981E-07        -0.30734E-19         0.00000E+00
    0.37981E-07        -0.23749E-19         0.00000E+00
    0.37981E-07        -0.20955E-19         0.00000E+00
    0.37981E-07        -0.26077E-19         0.00000E+00
    0.37981E-07        -0.18626E-19         0.00000E+00
    0.37981E-07        -0.93132E-20         0.00000E+00
    0.37981E-07         0.23283E-20         0.00000E+00
    0.37981E-07         0.37253E-20         0.00000E+00
    0.37981E-07         0.23283E-20         0.00000E+00
    0.37981E-07        -0.48894E-20         0.00000E+00
    0.37981E-07        -0.53551E-20         0.00000E+00
    0.37981E-07         0.23283E-21         0.00000E+00
    0.37981E-07         0.27940E-20         0.00000E+00
    0.37981E-07         0.46566E-21         0.00000E+00
    0.37981E-07         0.16298E-20         0.00000E+00
    0.43980E-07         0.32596E-20         0.00000E+00
    0.43980E-07         0.13271E-19         0.00000E+00
    0.43980E-07         0.46566E-20         0.00000E+00
    0.43980E-07         0.74506E-20         0.00000E+00
    0.43980E-07         0.18161E-19         0.00000E+00
    0.43980E-07         0.36089E-19         0.00000E+00
    0.43980E-07         0.35157E-19         0.00000E+00
    0.43980E-07         0.24680E-19         0.00000E+00
    0.43980E-07         0.22352E-19         0.00000E+00
    0.43980E-07         0.11874E-19         0.00000E+00
    0.43980E-07         0.24680E-19         0.00000E+00
    0.43980E-07         0.25611E-19         0.00000E+00
    0.43980E-07         0.26543E-19         0.00000E+00
    0.43980E-07         0.17695E-19         0.00000E+00
    0.43980E-07         0.69849E-20         0.00000E+00
    0.43980E-07         0.10245E-19         0.00000E+00
    0.43980E-07         0.65193E-20         0.00000E+00
    0.43980E-07         0.30268E-20         0.00000E+00
    0.43980E-07         0.41910E-20         0.00000E+00
    0.43980E-07         0.23283E-20         0.00000E+00
    0.43980E-07         0.46566E-20         0.00000E+00
    0.43980E-07         0.65193E-20         0.00000E+00
    0.43980E-07         0.74506E-20         0.00000E+00
    0.43980E-07         0.12107E-19         0.00000E+00
    0.43980E-07         0.13970E-19         0.00000E+00
    0.43980E-07         0.60536E-20         0.00000E+00
    0.43980E-07        -0.93132E-20         0.00000E+00
    0.43980E-07        -0.17229E-19         0.00000E+00
    0.43980E-07        -0.33062E-19         0.00000E+00
    0.43980E-07        -0.13504E-19         0.00000E+00
    0.43980E-07        -0.20489E-19         0.00000E+00
    0.43980E-07        -0.17928E-19         0.00000E+00
    0.43980E-07        -0.34692E-19         0.00000E+00
    0.43980E-07        -0.39348E-19         0.00000E+00
    0.43980E-07        -0.38184E-19         0.00000E+00
    0.43980E-07        -0.27474E-19         0.00000E+00
    0.43980E-07        -0.23749E-19         0.00000E+00
    0.43980E-07        -0.18161E-19         0.00000E+00
    0.43980E-07        -0.21420E-19         0.00000E+00
    0.43980E-07        -0.19325E-19         0.00000E+00
    0.43980E-07        -0.27940E-20         0.00000E+00
    0.43980E-07         0.10012E-19         0.00000E+00
    0.43980E-07         0.13271E-19         0.00000E+00
    0.43980E-07         0.79162E-20         0.00000E+00
    0.43980E-07         0.23283E-20         0.00000E+00
    0.43980E-07        -0.37253E-20         0.00000E+00
    0.43980E-07         0.90804E-20         0.00000E+00
    0.43980E-07         0.60536E-20         0.00000E+00
    0.43980E-07         0.18626E-20         0.00000E+00
    0.43980E-07         0.30268E-20         0.00000E+00
    0.50777E-07         0.34925E-20         0.00000E+00
    0.50777E-07         0.95461E-20         0.00000E+00
    0.50777E-07         0.83819E-20         0.00000E+00
    0.50777E-07         0.32596E-20         0.00000E+00
    0.50777E-07         0.13737E-19         0.00000E+00
    0.50777E-07         0.37719E-19         0.00000E+00
    0.50777E-07         0.27008E-19         0.00000E+00
    0.50777E-07         0.20955E-19         0.00000E+00
    0.50777E-07         0.26077E-19         0.00000E+00
    0.50777E-07         0.12107E-19         0.00000E+00
    0.50777E-07         0.16764E-19         0.00000E+00
    0.50777E-07         0.21886E-19         0.00000E+00
    0.50777E-07         0.22352E-19         0.00000E+00
    0.50777E-07         0.24680E-19         0.00000E+00
    0.50777E-07         0.55879E-20         0.00000E+00
    0.50777E-07         0.37253E-20         0.00000E+00
    0.50777E-07         0.55879E-20         0.00000E+00
    0.50777E-07         0.32596E-20         0.00000E+00
    0.50777E-07         0.12573E-19         0.00000E+00
    0.50777E-07         0.18626E-20         0.00000E+00
    0.50777E-07         0.79162E-20         0.00000E+00
    0.50777E-07         0.27940E-20         0.00000E+00
    0.50777E-07         0.18626E-20         0.00000E+00
    0.50777E-07        -0.13970E-20         0.00000E+00
    0.50777E-07         0.46566E-21         0.00000E+00
    0.50777E-07        -0.46566E-20         0.00000E+00
    0.50777E-07        -0.16764E-19         0.00000E+00
    0.50777E-07        -0.16298E-19         0.00000E+00
    0.50777E-07        -0.29337E-19         0.00000E+00
    0.50777E-07        -0.18626E-19         0.00000E+00
    0.50777E-07        -0.18161E-19         0.00000E+00
    0.50777E-07        -0.17229E-19         0.00000E+00
    0.50777E-07        -0.30268E-19         0.00000E+00
    0.50777E-07        -0.38184E-19         0.00000E+00
    0.50777E-07        -0.35390E-19         0.00000E+00
    0.50777E-07        -0.27474E-19         0.00000E+00
    0.50777E-07        -0.21420E-19         0.00000E+00
    0.50777E-07        -0.13504E-19         0.00000E+00
    0.50777E-07        -0.18161E-19         0.00000E+00
    0.50777E-07        -0.18161E-19         0.00000E+00
    0.50777E-07         0.79162E-20         0.00000E+00
    0.50777E-07         0.20955E-19         0.00000E+00
    0.50777E-07         0.21420E-19         0.00000E+00
    0.50777E-07         0.16764E-19         0.00000E+00
    0.50777E-07         0.10710E-19         0.00000E+00
    0.50777E-07         0.46566E-20         0.00000E+00
    0.50777E-07         0.23283E-20         0.00000E+00
    0.50777E-07         0.18626E-20         0.00000E+00
    0.50777E-07        -0.23283E-20         0.00000E+00
    0.50777E-07         0.46566E-20         0.00000E+00
    0.58438E-07         0.65193E-20         0.00000E+00
    0.58438E-07         0.74506E-20         0.00000E+00
    0.58438E-07         0.37253E-20         0.00000E+00
    0.58438E-07         0.41910E-20         0.00000E+00
    0.58438E-07         0.16997E-19         0.00000E+00
    0.58438E-07         0.34459E-19         0.00000E+00
    0.58438E-07         0.30734E-19         0.00000E+00
    0.58438E-07         0.23982E-19         0.00000E+00
    0.58438E-07         0.22352E-19         0.00000E+00
    0.58438E-07         0.14435E-19         0.00000E+00
    0.58438E-07         0.13504E-19         0.00000E+00
    0.58438E-07         0.20955E-19         0.00000E+00
    0.58438E-07         0.14435E-19         0.00000E+00
    0.58438E-07         0.16298E-19         0.00000E+00
    0.58438E-07        -0.46566E-21         0.00000E+00
    0.58438E-07        -0.93132E-21         0.00000E+00
    0.58438E-07        -0.46566E-21         0.00000E+00
    0.58438E-07         0.41910E-20         0.00000E+00
    0.58438E-07         0.79162E-20         0.00000E+00
    0.58438E-07        -0.30268E-20         0.00000E+00
    0.58438E-07        -0.41910E-20         0.00000E+00
    0.58438E-07        -0.76834E-20         0.00000E+00
    0.58438E-07        -0.51223E-20         0.00000E+00
    0.58438E-07        -0.11642E-19         0.00000E+00
    0.58438E-07        -0.65193E-20         0.00000E+00
    0.58438E-07        -0.81491E-20         0.00000E+00
    0.58438E-07        -0.14435E-19         0.00000E+00
    0.58438E-07        -0.18626E-19         0.00000E+00
    0.58438E-07        -0.28871E-19         0.00000E+00
    0.58438E-07        -0.16764E-19         0.00000E+00
    0.58438E-07        -0.21886E-19         0.00000E+00
    0.58438E-07        -0.20489E-19         0.00000E+00
    0.58438E-07        -0.27940E-19         0.00000E+00
    0.58438E-07        -0.30734E-19         0.00000E+00
    0.58438E-07        -0.31665E-19         0.00000E+00
    0.58438E-07        -0.22119E-19         0.00000E+00
    0.58438E-07        -0.16298E-19         0.00000E+00
    0.58438E-07        -0.16764E-19         0.00000E+00
    0.58438E-07        -0.13039E-19         0.00000E+00
    0.58438E-07        -0.97789E-20         0.00000E+00
    0.58438E-07         0.12573E-19         0.00000E+00
    0.58438E-07         0.14203E-19         0.00000E+00
    0.58438E-07         0.25379E-19         0.00000E+00
    0.58438E-07         0.18626E-19         0.00000E+00
    0.58438E-07         0.12806E-19         0.00000E+00
    0.58438E-07         0.60536E-20         0.00000E+00
    0.58438E-07        -0.23283E-21         0.00000E+00
    0.58438E-07         0.69849E-21         0.00000E+00
    0.58438E-07        -0.41910E-20         0.00000E+00
    0.58438E-07         0.00000E+00         0.00000E+00
    0.67025E-07         0.12107E-19         0.00000E+00
    0.67025E-07         0.11874E-19         0.00000E+00
    0.67025E-07         0.65193E-20         0.00000E+00
    0.67025E-07         0.69849E-20         0.00000E+00
    0.67025E-07         0.22817E-19         0.00000E+00
    0.67025E-07         0.30734E-19         0.00000E+00
    0.67025E-07         0.31432E-19         0.00000E+00
    0.67025E-07         0.27940E-19         0.00000E+00
    0.67025E-07         0.16764E-19         0.00000E+00
    0.67025E-07         0.11642E-19         0.00000E+00
    0.67025E-07         0.79162E-20         0.00000E+00
    0.67025E-07         0.93132E-20         0.00000E+00
    0.67025E-07         0.14435E-19         0.00000E+00
    0.67025E-07         0.14901E-19         0.00000E+00
    0.67025E-07         0.93132E-21         0.00000E+00
    0.67025E-07         0.23283E-21         0.00000E+00
    0.67025E-07        -0.27940E-20         0.00000E+00
    0.67025E-07        -0.79162E-20         0.00000E+00
    0.67025E-07        -0.18626E-20         0.00000E+00
    0.67025E-07        -0.95461E-20         0.00000E+00
    0.67025E-07        -0.11176E-19         0.00000E+00
    0.67025E-07        -0.86147E-20         0.00000E+00
    0.67025E-07        -0.37253E-20         0.00000E+00
    0.67025E-07        -0.23283E-20         0.00000E+00
    0.67025E-07         0.27940E-20         0.00000E+00
    0.67025E-07        -0.46566E-20         0.00000E+00
    0.67025E-07        -0.79162E-20         0.00000E+00
    0.67025E-07        -0.15832E-19         0.00000E+00
    0.67025E-07        -0.18626E-19         0.00000E+00
    0.67025E-07        -0.16298E-19         0.00000E+00
    0.67025E-07        -0.24680E-19         0.00000E+00
    0.67025E-07        -0.16065E-19         0.00000E+00
    0.67025E-07        -0.32596E-19         0.00000E+00
    0.67025E-07        -0.32131E-19         0.00000E+00
    0.67025E-07        -0.27940E-19         0.00000E+00
    0.67025E-07        -0.19092E-19         0.00000E+00
    0.67025E-07        -0.10477E-19         0.00000E+00
    0.67025E-07        -0.97789E-20         0.00000E+00
    0.67025E-07        -0.55879E-20         0.00000E+00
    0.67025E-07        -0.15832E-19         0.00000E+00
    0.67025E-07         0.69849E-20         0.00000E+00
    0.67025E-07         0.74506E-20         0.00000E+00
    0.67025E-07         0.93132E-20         0.00000E+00
    0.67025E-07         0.12107E-19         0.00000E+00
    0.67025E-07         0.55879E-20         0.00000E+00
    0.67025E-07         0.12573E-19         0.00000E+00
    0.67025E-07         0.51223E-20         0.00000E+00
    0.67025E-07         0.65193E-20         0.00000E+00
    0.67025E-07        -0.23283E-20         0.00000E+00
    0.67025E-07         0.46566E-21         0.00000E+00
    0.76588E-07         0.60536E-20         0.00000E+00
    0.76588E-07         0.14435E-19         0.00000E+00
    0.76588E-07         0.16531E-19         0.00000E+00
    0.76588E-07         0.97789E-20         0.00000E+00
    0.76588E-07         0.21420E-19         0.00000E+00
    0.76588E-07         0.38650E-19         0.00000E+00
    0.76588E-07         0.37719E-19         0.00000E+00
    0.76588E-07         0.25379E-19         0.00000E+00
    0.76588E-07         0.27707E-19         0.00000E+00
    0.76588E-07         0.12806E-19         0.00000E+00
    0.76588E-07         0.46566E-20         0.00000E+00
    0.76588E-07         0.79162E-20         0.00000E+00
    0.76588E-07         0.79162E-20         0.00000E+00
    0.76588E-07         0.88476E-20         0.00000E+00
    0.76588E-07        -0.60536E-20         0.00000E+00
    0.76588E-07        -0.65193E-20         0.00000E+00
    0.76588E-07        -0.83819E-20         0.00000E+00
    0.76588E-07        -0.97789E-20         0.00000E+00
    0.76588E-07        -0.16298E-20         0.00000E+00
    0.76588E-07        -0.55879E-20         0.00000E+00
    0.76588E-07        -0.51223E-20         0.00000E+00
    0.76588E-07        -0.51223E-20         0.00000E+00
    0.76588E-07        -0.11642E-19         0.00000E+00
    0.76588E-07         0.18626E-20         0.00000E+00
    0.76588E-07         0.46566E-20         0.00000E+00
    0.76588E-07        -0.13970E-20         0.00000E+00
    0.76588E-07         0.23283E-20         0.00000E+00
    0.76588E-07        -0.74506E-20         0.00000E+00
    0.76588E-07        -0.11874E-19         0.00000E+00
    0.76588E-07        -0.51223E-20         0.00000E+00
    0.76588E-07        -0.18161E-19         0.00000E+00
    0.76588E-07        -0.17695E-19         0.00000E+00
    0.76588E-07        -0.26543E-19         0.00000E+00
    0.76588E-07        -0.29337E-19         0.00000E+00
    0.76588E-07        -0.25146E-19         0.00000E+00
    0.76588E-07        -0.17695E-19         0.00000E+00
    0.76588E-07        -0.12107E-19         0.00000E+00
    0.76588E-07        -0.10710E-19         0.00000E+00
    0.76588E-07        -0.12573E-19         0.00000E+00
    0.76588E-07        -0.20489E-19         0.00000E+00
    0.76588E-07        -0.25611E-20         0.00000E+00
    0.76588E-07         0.60536E-20         0.00000E+00
    0.76588E-07         0.93132E-20         0.00000E+00
    0.76588E-07         0.55879E-20         0.00000E+00
    0.76588E-07         0.32596E-20         0.00000E+00
    0.76588E-07         0.11874E-19         0.00000E+00
    0.76588E-07         0.46566E-20         0.00000E+00
    0.76588E-07         0.55879E-20         0.00000E+00
    0.76588E-07         0.69849E-21         0.00000E+00
    0.76588E-07         0.13970E-20         0.00000E+00
    0.87163E-07         0.65193E-20         0.00000E+00
    0.87163E-07         0.13504E-19         0.00000E+00
    0.87163E-07         0.90804E-20         0.00000E+00
    0.87163E-07         0.15832E-19         0.00000E+00
    0.87163E-07         0.27008E-19         0.00000E+00
    0.87163E-07         0.45635E-19         0.00000E+00
    0.87163E-07         0.44238E-19         0.00000E+00
    0.87163E-07         0.33993E-19         0.00000E+00
    0.87163E-07         0.21420E-19         0.00000E+00
    0.87163E-07         0.13970E-19         0.00000E+00
    0.87163E-07         0.55879E-20         0.00000E+00
    0.87163E-07         0.15134E-19         0.00000E+00
    0.87163E-07         0.88476E-20         0.00000E+00
    0.87163E-07         0.11642E-20         0.00000E+00
    0.87163E-07        -0.74506E-20         0.00000E+00
    0.87163E-07        -0.83819E-20         0.00000E+00
    0.87163E-07        -0.69849E-20         0.00000E+00
    0.87163E-07        -0.11409E-19         0.00000E+00
    0.87163E-07        -0.32596E-20         0.00000E+00
    0.87163E-07        -0.97789E-20         0.00000E+00
    0.87163E-07        -0.27940E-20         0.00000E+00
    0.87163E-07         0.27940E-20         0.00000E+00
    0.87163E-07        -0.67521E-20         0.00000E+00
    0.87163E-07        -0.62864E-20         0.00000E+00
    0.87163E-07         0.25611E-20         0.00000E+00
    0.87163E-07        -0.34925E-20         0.00000E+00
    0.87163E-07        -0.41910E-20         0.00000E+00
    0.87163E-07         0.93132E-21         0.00000E+00
    0.87163E-07        -0.14901E-19         0.00000E+00
    0.87163E-07         0.93132E-21         0.00000E+00
    0.87163E-07        -0.30268E-20         0.00000E+00
    0.87163E-07        -0.13970E-19         0.00000E+00
    0.87163E-07        -0.17695E-19         0.00000E+00
    0.87163E-07        -0.28405E-19         0.00000E+00
    0.87163E-07        -0.29104E-19         0.00000E+00
    0.87163E-07        -0.19558E-19         0.00000E+00
    0.87163E-07        -0.10710E-19         0.00000E+00
    0.87163E-07        -0.13504E-19         0.00000E+00
    0.87163E-07        -0.14901E-19         0.00000E+00
    0.87163E-07        -0.16298E-19         0.00000E+00
    0.87163E-07         0.13970E-20         0.00000E+00
    0.87163E-07         0.10943E-19         0.00000E+00
    0.87163E-07         0.18626E-19         0.00000E+00
    0.87163E-07         0.10710E-19         0.00000E+00
    0.87163E-07         0.74506E-20         0.00000E+00
    0.87163E-07         0.37253E-20         0.00000E+00
    0.87163E-07         0.27940E-20         0.00000E+00
    0.87163E-07         0.00000E+00         0.00000E+00
    0.87163E-07         0.18626E-20         0.00000E+00
    0.87163E-07        -0.69849E-21         0.00000E+00
    0.98763E-07         0.41910E-20         0.00000E+00
    0.98763E-07         0.41910E-20         0.00000E+00
    0.98763E-07         0.11176E-19         0.00000E+00
    0.98763E-07         0.16298E-19         0.00000E+00
    0.98763E-07         0.27474E-19         0.00000E+00
    0.98763E-07         0.41444E-19         0.00000E+00
    0.98763E-07         0.42841E-19         0.00000E+00
    0.98763E-07         0.32829E-19         0.00000E+00
    0.98763E-07         0.14901E-19         0.00000E+00
    0.98763E-07         0.55879E-20         0.00000E+00
    0.98763E-07         0.18626E-20         0.00000E+00
    0.98763E-07         0.10477E-19         0.00000E+00
    0.98763E-07         0.17229E-19         0.00000E+00
    0.98763E-07         0.95461E-20         0.00000E+00
    0.98763E-07         0.23283E-20         0.00000E+00
    0.98763E-07        -0.13039E-19         0.00000E+00
    0.98763E-07        -0.90804E-20         0.00000E+00
    0.98763E-07        -0.18859E-19         0.00000E+00
    0.98763E-07        -0.10710E-19         0.00000E+00
    0.98763E-07        -0.10477E-19         0.00000E+00
    0.98763E-07        -0.13039E-19         0.00000E+00
    0.98763E-07        -0.18626E-20         0.00000E+00
    0.98763E-07         0.93132E-21         0.00000E+00
    0.98763E-07         0.46566E-20         0.00000E+00
    0.98763E-07         0.41910E-20         0.00000E+00
    0.98763E-07        -0.95461E-20         0.00000E+00
    0.98763E-07        -0.12107E-19         0.00000E+00
    0.98763E-07        -0.88476E-20         0.00000E+00
    0.98763E-07        -0.20489E-19         0.00000E+00
    0.98763E-07        -0.37253E-20         0.00000E+00
    0.98763E-07        -0.60536E-20         0.00000E+00
    0.98763E-07        -0.16298E-20         0.00000E+00
    0.98763E-07        -0.13737E-19         0.00000E+00
    0.98763E-07        -0.25146E-19         0.00000E+00
    0.98763E-07        -0.24680E-19         0.00000E+00
    0.98763E-07        -0.22585E-19         0.00000E+00
    0.98763E-07        -0.13039E-19         0.00000E+00
    0.98763E-07        -0.93132E-20         0.00000E+00
    0.98763E-07        -0.44238E-20         0.00000E+00
    0.98763E-07        -0.79162E-20         0.00000E+00
    0.98763E-07         0.46566E-20         0.00000E+00
    0.98763E-07         0.12573E-19         0.00000E+00
    0.98763E-07         0.13271E-19         0.00000E+00
    0.98763E-07         0.13504E-19         0.00000E+00
    0.98763E-07         0.13970E-20         0.00000E+00
    0.98763E-07        -0.46566E-21         0.00000E+00
    0.98763E-07         0.55879E-20         0.00000E+00
    0.98763E-07         0.53551E-20         0.00000E+00
    0.98763E-07         0.93132E-21         0.00000E+00
    0.98763E-07         0.27940E-20         0.00000E+00
    0.11137E-06         0.41910E-20         0.00000E+00
    0.11137E-06         0.74506E-20         0.00000E+00
    0.11137E-06         0.10710E-19         0.00000E+00
    0.11137E-06         0.13970E-19         0.00000E+00
    0.11137E-06         0.24680E-19         0.00000E+00
    0.11137E-06         0.35390E-19         0.00000E+00
    0.11137E-06         0.27474E-19         0.00000E+00
    0.11137E-06         0.19092E-19         0.00000E+00
    0.11137E-06         0.12573E-19         0.00000E+00
    0.11137E-06         0.74506E-20         0.00000E+00
    0.11137E-06         0.58208E-20         0.00000E+00
    0.11137E-06         0.79162E-20         0.00000E+00
    0.11137E-06         0.10245E-19         0.00000E+00
    0.11137E-06         0.93132E-21         0.00000E+00
    0.11137E-06        -0.18626E-20         0.00000E+00
    0.11137E-06        -0.44238E-20         0.00000E+00
    0.11137E-06        -0.13504E-19         0.00000E+00
    0.11137E-06        -0.19558E-19         0.00000E+00
    0.11137E-06        -0.15832E-19         0.00000E+00
    0.11137E-06        -0.13271E-19         0.00000E+00
    0.11137E-06        -0.37253E-20         0.00000E+00
    0.11137E-06        -0.51223E-20         0.00000E+00
    0.11137E-06         0.93132E-21         0.00000E+00
    0.11137E-06         0.11176E-19         0.00000E+00
    0.11137E-06         0.10710E-19         0.00000E+00
    0.11137E-06        -0.44238E-20         0.00000E+00
    0.11137E-06        -0.79162E-20         0.00000E+00
    0.11137E-06        -0.10245E-19         0.00000E+00
    0.11137E-06        -0.20023E-19         0.00000E+00
    0.11137E-06        -0.83819E-20         0.00000E+00
    0.11137E-06        -0.14435E-19         0.00000E+00
    0.11137E-06        -0.60536E-20         0.00000E+00
    0.11137E-06        -0.16997E-19         0.00000E+00
    0.11137E-06        -0.29337E-19         0.00000E+00
    0.11137E-06        -0.20955E-19         0.00000E+00
    0.11137E-06        -0.16764E-19         0.00000E+00
    0.11137E-06        -0.11176E-19         0.00000E+00
    0.11137E-06        -0.81491E-20         0.00000E+00
    0.11137E-06        -0.15367E-19         0.00000E+00
    0.11137E-06        -0.69849E-20         0.00000E+00
    0.11137E-06         0.27940E-20         0.00000E+00
    0.11137E-06         0.14203E-19         0.00000E+00
    0.11137E-06         0.18161E-19         0.00000E+00
    0.11137E-06         0.11176E-19         0.00000E+00
    0.11137E-06         0.60536E-20         0.00000E+00
    0.11137E-06         0.81491E-20         0.00000E+00
    0.11137E-06         0.37253E-20         0.00000E+00
    0.11137E-06         0.13970E-20         0.00000E+00
    0.11137E-06        -0.37253E-20         0.00000E+00
    0.11137E-06        -0.18808E-36         0.00000E+00
    0.12492E-06         0.41910E-20         0.00000E+00
    0.12492E-06         0.11176E-19         0.00000E+00
    0.12492E-06         0.65193E-20         0.00000E+00
    0.12492E-06         0.97789E-20         0.00000E+00
    0.12492E-06         0.16764E-19         0.00000E+00
    0.12492E-06         0.27241E-19         0.00000E+00
    0.12492E-06         0.22817E-19         0.00000E+00
    0.12492E-06         0.11409E-19         0.00000E+00
    0.12492E-06         0.11642E-19         0.00000E+00
    0.12492E-06         0.39581E-20         0.00000E+00
    0.12492E-06         0.37253E-20         0.00000E+00
    0.12492E-06         0.10477E-19         0.00000E+00
    0.12492E-06         0.10710E-19         0.00000E+00
    0.12492E-06         0.18626E-20         0.00000E+00
    0.12492E-06        -0.51223E-20         0.00000E+00
    0.12492E-06        -0.51223E-20         0.00000E+00
    0.12492E-06        -0.69849E-20         0.00000E+00
    0.12492E-06        -0.11409E-19         0.00000E+00
    0.12492E-06        -0.23283E-20         0.00000E+00
    0.12492E-06        -0.93132E-21         0.00000E+00
    0.12492E-06         0.13970E-20         0.00000E+00
    0.12492E-06        -0.23283E-21         0.00000E+00
    0.12492E-06        -0.13970E-20         0.00000E+00
    0.12492E-06         0.44238E-20         0.00000E+00
    0.12492E-06         0.23283E-20         0.00000E+00
    0.12492E-06         0.94040E-37         0.00000E+00
    0.12492E-06        -0.62864E-20         0.00000E+00
    0.12492E-06        -0.51223E-20         0.00000E+00
    0.12492E-06        -0.17229E-19         0.00000E+00
    0.12492E-06        -0.13504E-19         0.00000E+00
    0.12492E-06        -0.17695E-19         0.00000E+00
    0.12492E-06        -0.15367E-19         0.00000E+00
    0.12492E-06        -0.25379E-19         0.00000E+00
    0.12492E-06        -0.29104E-19         0.00000E+00
    0.12492E-06        -0.24214E-19         0.00000E+00
    0.12492E-06        -0.18626E-19         0.00000E+00
    0.12492E-06        -0.93132E-20         0.00000E+00
    0.12492E-06        -0.93132E-20         0.00000E+00
    0.12492E-06        -0.12806E-19         0.00000E+00
    0.12492E-06        -0.15832E-19         0.00000E+00
    0.12492E-06        -0.55879E-20         0.00000E+00
    0.12492E-06         0.16531E-19         0.00000E+00
    0.12492E-06         0.17462E-19         0.00000E+00
    0.12492E-06         0.12107E-19         0.00000E+00
    0.12492E-06         0.83819E-20         0.00000E+00
    0.12492E-06         0.97789E-20         0.00000E+00
    0.12492E-06         0.46566E-20         0.00000E+00
    0.12492E-06         0.37253E-20         0.00000E+00
    0.12492E-06        -0.11642E-20         0.00000E+00
    0.12492E-06         0.18626E-20         0.00000E+00
    0.13931E-06         0.65193E-20         0.00000E+00
    0.13931E-06         0.89640E-20         0.00000E+00
    0.13931E-06         0.47730E-20         0.00000E+00
    0.13931E-06         0.39581E-20         0.00000E+00
    0.13931E-06         0.15949E-19         0.00000E+00
    0.13931E-06         0.26426E-19         0.00000E+00
    0.13931E-06         0.25029E-19         0.00000E+00
    0.13931E-06         0.11642E-19         0.00000E+00
    0.13931E-06         0.11991E-19         0.00000E+00
    0.13931E-06         0.73342E-20         0.00000E+00
    0.13931E-06         0.68685E-20         0.00000E+00
    0.13931E-06         0.15600E-19         0.00000E+00
    0.13931E-06         0.13737E-19         0.00000E+00
    0.13931E-06         0.12922E-19         0.00000E+00
    0.13931E-06         0.25611E-20         0.00000E+00
    0.13931E-06        -0.84983E-20         0.00000E+00
    0.13931E-06        -0.65193E-20         0.00000E+00
    0.13931E-06        -0.10012E-19         0.00000E+00
    0.13931E-06         0.20955E-20         0.00000E+00
    0.13931E-06         0.46566E-21         0.00000E+00
    0.13931E-06        -0.19791E-20         0.00000E+00
    0.13931E-06        -0.76834E-20         0.00000E+00
    0.13931E-06        -0.13970E-20         0.00000E+00
    0.13931E-06         0.93132E-21         0.00000E+00
    0.13931E-06        -0.62864E-20         0.00000E+00
    0.13931E-06        -0.69849E-20         0.00000E+00
    0.13931E-06        -0.16182E-19         0.00000E+00
    0.13931E-06        -0.86147E-20         0.00000E+00
    0.13931E-06        -0.16065E-19         0.00000E+00
    0.13931E-06        -0.10012E-19         0.00000E+00
    0.13931E-06        -0.13737E-19         0.00000E+00
    0.13931E-06        -0.16298E-19         0.00000E+00
    0.13931E-06        -0.24564E-19         0.00000E+00
    0.13931E-06        -0.25844E-19         0.00000E+00
    0.13931E-06        -0.26659E-19         0.00000E+00
    0.13931E-06        -0.20373E-19         0.00000E+00
    0.13931E-06        -0.13970E-19         0.00000E+00
    0.13931E-06        -0.12689E-19         0.00000E+00
    0.13931E-06        -0.74506E-20         0.00000E+00
    0.13931E-06        -0.11409E-19         0.00000E+00
    0.13931E-06         0.19791E-20         0.00000E+00
    0.13931E-06         0.17695E-19         0.00000E+00
    0.13931E-06         0.13737E-19         0.00000E+00
    0.13931E-06         0.83819E-20         0.00000E+00
    0.13931E-06         0.65193E-20         0.00000E+00
    0.13931E-06         0.73342E-20         0.00000E+00
    0.13931E-06        -0.69849E-21         0.00000E+00
    0.13931E-06         0.37253E-20         0.00000E+00
    0.13931E-06        -0.25611E-20         0.00000E+00
    0.13931E-06         0.61700E-20         0.00000E+00
    0.15435E-06         0.38417E-20         0.00000E+00
    0.15435E-06         0.89640E-20         0.00000E+00
    0.15435E-06         0.32596E-20         0.00000E+00
    0.15435E-06         0.53551E-20         0.00000E+00
    0.15435E-06         0.11874E-19         0.00000E+00
    0.15435E-06         0.22817E-19         0.00000E+00
    0.15435E-06         0.18394E-19         0.00000E+00
    0.15435E-06         0.19092E-19         0.00000E+00
    0.15435E-06         0.22352E-19         0.00000E+00
    0.15435E-06         0.15716E-19         0.00000E+00
    0.15435E-06         0.15600E-19         0.00000E+00
    0.15435E-06         0.14203E-19         0.00000E+00
    0.15435E-06         0.10943E-19         0.00000E+00
    0.15435E-06         0.13388E-19         0.00000E+00
    0.15435E-06         0.64028E-20         0.00000E+00
    0.15435E-06         0.15134E-20         0.00000E+00
    0.15435E-06        -0.44238E-20         0.00000E+00
    0.15435E-06        -0.94296E-20         0.00000E+00
    0.15435E-06        -0.10710E-19         0.00000E+00
    0.15435E-06        -0.14668E-19         0.00000E+00
    0.15435E-06        -0.77998E-20         0.00000E+00
    0.15435E-06        -0.12573E-19         0.00000E+00
    0.15435E-06        -0.44238E-20         0.00000E+00
    0.15435E-06        -0.12340E-19         0.00000E+00
    0.15435E-06        -0.25611E-20         0.00000E+00
    0.15435E-06        -0.71013E-20         0.00000E+00
    0.15435E-06        -0.13853E-19         0.00000E+00
    0.15435E-06        -0.90804E-20         0.00000E+00
    0.15435E-06        -0.17113E-19         0.00000E+00
    0.15435E-06        -0.74506E-20         0.00000E+00
    0.15435E-06        -0.11176E-19         0.00000E+00
    0.15435E-06        -0.10594E-19         0.00000E+00
    0.15435E-06        -0.24214E-19         0.00000E+00
    0.15435E-06        -0.29569E-19         0.00000E+00
    0.15435E-06        -0.26426E-19         0.00000E+00
    0.15435E-06        -0.27590E-19         0.00000E+00
    0.15435E-06        -0.14668E-19         0.00000E+00
    0.15435E-06        -0.11059E-19         0.00000E+00
    0.15435E-06        -0.11642E-19         0.00000E+00
    0.15435E-06        -0.90804E-20         0.00000E+00
    0.15435E-06         0.77998E-20         0.00000E+00
    0.15435E-06         0.93132E-20         0.00000E+00
    0.15435E-06         0.14435E-19         0.00000E+00
    0.15435E-06         0.16531E-19         0.00000E+00
    0.15435E-06         0.69849E-20         0.00000E+00
    0.15435E-06         0.37253E-20         0.00000E+00
    0.15435E-06        -0.69849E-21         0.00000E+00
    0.15435E-06         0.34925E-20         0.00000E+00
    0.15435E-06        -0.74506E-20         0.00000E+00
    0.15435E-06         0.46566E-21         0.00000E+00
    0.16981E-06         0.34925E-20         0.00000E+00
    0.16981E-06         0.98953E-20         0.00000E+00
    0.16981E-06         0.47730E-20         0.00000E+00
    0.16981E-06         0.51223E-20         0.00000E+00
    0.16981E-06         0.12573E-19         0.00000E+00
    0.16981E-06         0.21188E-19         0.00000E+00
    0.16981E-06         0.21886E-19         0.00000E+00
    0.16981E-06         0.20023E-19         0.00000E+00
    0.16981E-06         0.21071E-19         0.00000E+00
    0.16981E-06         0.82655E-20         0.00000E+00
    0.16981E-06         0.75670E-20         0.00000E+00
    0.16981E-06         0.13271E-19         0.00000E+00
    0.16981E-06         0.14435E-19         0.00000E+00
    0.16981E-06         0.11409E-19         0.00000E+00
    0.16981E-06         0.30268E-20         0.00000E+00
    0.16981E-06         0.10477E-20         0.00000E+00
    0.16981E-06         0.46566E-20         0.00000E+00
    0.16981E-06        -0.48894E-20         0.00000E+00
    0.16981E-06        -0.74506E-20         0.00000E+00
    0.16981E-06        -0.10943E-19         0.00000E+00
    0.16981E-06        -0.81491E-20         0.00000E+00
    0.16981E-06        -0.86147E-20         0.00000E+00
    0.16981E-06        -0.13039E-19         0.00000E+00
    0.16981E-06        -0.16065E-19         0.00000E+00
    0.16981E-06        -0.10477E-19         0.00000E+00
    0.16981E-06        -0.10361E-19         0.00000E+00
    0.16981E-06        -0.64028E-20         0.00000E+00
    0.16981E-06        -0.13039E-19         0.00000E+00
    0.16981E-06        -0.21886E-19         0.00000E+00
    0.16981E-06        -0.17928E-19         0.00000E+00
    0.16981E-06        -0.12456E-19         0.00000E+00
    0.16981E-06        -0.10012E-19         0.00000E+00
    0.16981E-06        -0.23516E-19         0.00000E+00
    0.16981E-06        -0.26776E-19         0.00000E+00
    0.16981E-06        -0.25379E-19         0.00000E+00
    0.16981E-06        -0.24913E-19         0.00000E+00
    0.16981E-06        -0.16764E-19         0.00000E+00
    0.16981E-06        -0.83819E-20         0.00000E+00
    0.16981E-06        -0.88476E-20         0.00000E+00
    0.16981E-06        -0.13737E-19         0.00000E+00
    0.16981E-06         0.27940E-20         0.00000E+00
    0.16981E-06         0.30268E-20         0.00000E+00
    0.16981E-06         0.11176E-19         0.00000E+00
    0.16981E-06         0.11642E-19         0.00000E+00
    0.16981E-06         0.33760E-20         0.00000E+00
    0.16981E-06        -0.11642E-20         0.00000E+00
    0.16981E-06         0.29104E-20         0.00000E+00
    0.16981E-06         0.81491E-20         0.00000E+00
    0.16981E-06        -0.37253E-20         0.00000E+00
    0.16981E-06         0.11642E-20         0.00000E+00
    0.18533E-06         0.36089E-20         0.00000E+00
    0.18533E-06         0.10012E-19         0.00000E+00
    0.18533E-06        -0.81491E-21         0.00000E+00
    0.18533E-06         0.48894E-20         0.00000E+00
    0.18533E-06         0.12107E-19         0.00000E+00
    0.18533E-06         0.19907E-19         0.00000E+00
    0.18533E-06         0.24680E-19         0.00000E+00
    0.18533E-06         0.19209E-19         0.00000E+00
    0.18533E-06         0.76834E-20         0.00000E+00
    0.18533E-06         0.11874E-19         0.00000E+00
    0.18533E-06         0.11991E-19         0.00000E+00
    0.18533E-06         0.14319E-19         0.00000E+00
    0.18533E-06         0.10710E-19         0.00000E+00
    0.18533E-06         0.62864E-20         0.00000E+00
    0.18533E-06        -0.55879E-20         0.00000E+00
    0.18533E-06        -0.62864E-20         0.00000E+00
    0.18533E-06        -0.25611E-20         0.00000E+00
    0.18533E-06        -0.13271E-19         0.00000E+00
    0.18533E-06        -0.23283E-20         0.00000E+00
    0.18533E-06        -0.74506E-20         0.00000E+00
    0.18533E-06        -0.90804E-20         0.00000E+00
    0.18533E-06        -0.67521E-20         0.00000E+00
    0.18533E-06        -0.60536E-20         0.00000E+00
    0.18533E-06        -0.95461E-20         0.00000E+00
    0.18533E-06        -0.11176E-19         0.00000E+00
    0.18533E-06        -0.13621E-19         0.00000E+00
    0.18533E-06        -0.13271E-19         0.00000E+00
    0.18533E-06        -0.11525E-19         0.00000E+00
    0.18533E-06        -0.23050E-19         0.00000E+00
    0.18533E-06        -0.18044E-19         0.00000E+00
    0.18533E-06        -0.15018E-19         0.00000E+00
    0.18533E-06        -0.13155E-19         0.00000E+00
    0.18533E-06        -0.21420E-19         0.00000E+00
    0.18533E-06        -0.25379E-19         0.00000E+00
    0.18533E-06        -0.20489E-19         0.00000E+00
    0.18533E-06        -0.18626E-19         0.00000E+00
    0.18533E-06        -0.15600E-19         0.00000E+00
    0.18533E-06        -0.11874E-19         0.00000E+00
    0.18533E-06        -0.14668E-19         0.00000E+00
    0.18533E-06        -0.14785E-19         0.00000E+00
    0.18533E-06        -0.47730E-20         0.00000E+00
    0.18533E-06         0.22119E-20         0.00000E+00
    0.18533E-06         0.97789E-20         0.00000E+00
    0.18533E-06         0.48894E-20         0.00000E+00
    0.18533E-06        -0.46566E-21         0.00000E+00
    0.18533E-06        -0.12806E-20         0.00000E+00
    0.18533E-06         0.13970E-20         0.00000E+00
    0.18533E-06         0.27940E-20         0.00000E+00
    0.18533E-06        -0.23283E-20         0.00000E+00
    0.18533E-06         0.40745E-20         0.00000E+00
    0.20048E-06         0.44238E-20         0.00000E+00
    0.20048E-06         0.53551E-20         0.00000E+00
    0.20048E-06         0.00000E+00         0.00000E+00
    0.20048E-06         0.18626E-20         0.00000E+00
    0.20048E-06         0.97789E-20         0.00000E+00
    0.20048E-06         0.20256E-19         0.00000E+00
    0.20048E-06         0.18161E-19         0.00000E+00
    0.20048E-06         0.15949E-19         0.00000E+00
    0.20048E-06         0.10710E-19         0.00000E+00
    0.20048E-06         0.51223E-20         0.00000E+00
    0.20048E-06         0.87311E-20         0.00000E+00
    0.20048E-06         0.69849E-20         0.00000E+00
    0.20048E-06         0.45402E-20         0.00000E+00
    0.20048E-06        -0.13970E-20         0.00000E+00
    0.20048E-06        -0.64028E-20         0.00000E+00
    0.20048E-06        -0.12573E-19         0.00000E+00
    0.20048E-06        -0.11758E-19         0.00000E+00
    0.20048E-06        -0.13737E-19         0.00000E+00
    0.20048E-06        -0.76834E-20         0.00000E+00
    0.20048E-06        -0.10943E-19         0.00000E+00
    0.20048E-06        -0.11409E-19         0.00000E+00
    0.20048E-06        -0.41910E-20         0.00000E+00
    0.20048E-06        -0.25611E-20         0.00000E+00
    0.20048E-06        -0.93132E-21         0.00000E+00
    0.20048E-06         0.58208E-21         0.00000E+00
    0.20048E-06        -0.50059E-20         0.00000E+00
    0.20048E-06        -0.10477E-19         0.00000E+00
    0.20048E-06        -0.48894E-20         0.00000E+00
    0.20048E-06        -0.15949E-19         0.00000E+00
    0.20048E-06        -0.14086E-19         0.00000E+00
    0.20048E-06        -0.15134E-19         0.00000E+00
    0.20048E-06        -0.18859E-19         0.00000E+00
    0.20048E-06        -0.27474E-19         0.00000E+00
    0.20048E-06        -0.34692E-19         0.00000E+00
    0.20048E-06        -0.27241E-19         0.00000E+00
    0.20048E-06        -0.20023E-19         0.00000E+00
    0.20048E-06        -0.20489E-19         0.00000E+00
    0.20048E-06        -0.10710E-19         0.00000E+00
    0.20048E-06        -0.18743E-19         0.00000E+00
    0.20048E-06        -0.10943E-19         0.00000E+00
    0.20048E-06        -0.41910E-20         0.00000E+00
    0.20048E-06         0.48894E-20         0.00000E+00
    0.20048E-06         0.80327E-20         0.00000E+00
    0.20048E-06         0.90804E-20         0.00000E+00
    0.20048E-06        -0.25611E-20         0.00000E+00
    0.20048E-06        -0.13970E-20         0.00000E+00
    0.20048E-06        -0.20955E-20         0.00000E+00
    0.20048E-06        -0.30268E-20         0.00000E+00
    0.20048E-06        -0.25611E-20         0.00000E+00
    0.20048E-06         0.32596E-20         0.00000E+00
    0.21472E-06         0.37253E-20         0.00000E+00
    0.21472E-06         0.67521E-20         0.00000E+00
    0.21472E-06         0.32596E-20         0.00000E+00
    0.21472E-06         0.32596E-20         0.00000E+00
    0.21472E-06         0.90804E-20         0.00000E+00
    0.21472E-06         0.24796E-19         0.00000E+00
    0.21472E-06         0.20722E-19         0.00000E+00
    0.21472E-06         0.16531E-19         0.00000E+00
    0.21472E-06         0.11874E-19         0.00000E+00
    0.21472E-06         0.48894E-20         0.00000E+00
    0.21472E-06         0.69849E-21         0.00000E+00
    0.21472E-06         0.81491E-20         0.00000E+00
    0.21472E-06         0.60536E-20         0.00000E+00
    0.21472E-06         0.20955E-20         0.00000E+00
    0.21472E-06        -0.97789E-20         0.00000E+00
    0.21472E-06        -0.16997E-19         0.00000E+00
    0.21472E-06        -0.13970E-19         0.00000E+00
    0.21472E-06        -0.16531E-19         0.00000E+00
    0.21472E-06        -0.67521E-20         0.00000E+00
    0.21472E-06        -0.97789E-20         0.00000E+00
    0.21472E-06        -0.65193E-20         0.00000E+00
    0.21472E-06         0.34925E-21         0.00000E+00
    0.21472E-06        -0.25611E-20         0.00000E+00
    0.21472E-06         0.37253E-20         0.00000E+00
    0.21472E-06         0.18626E-20         0.00000E+00
    0.21472E-06        -0.46566E-21         0.00000E+00
    0.21472E-06        -0.33760E-20         0.00000E+00
    0.21472E-06        -0.74506E-20         0.00000E+00
    0.21472E-06        -0.18394E-19         0.00000E+00
    0.21472E-06        -0.16764E-19         0.00000E+00
    0.21472E-06        -0.15134E-19         0.00000E+00
    0.21472E-06        -0.20023E-19         0.00000E+00
    0.21472E-06        -0.29104E-19         0.00000E+00
    0.21472E-06        -0.33760E-19         0.00000E+00
    0.21472E-06        -0.30501E-19         0.00000E+00
    0.21472E-06        -0.20256E-19         0.00000E+00
    0.21472E-06        -0.18859E-19         0.00000E+00
    0.21472E-06        -0.12922E-19         0.00000E+00
    0.21472E-06        -0.12107E-19         0.00000E+00
    0.21472E-06        -0.12573E-19         0.00000E+00
    0.21472E-06        -0.69849E-21         0.00000E+00
    0.21472E-06         0.47730E-20         0.00000E+00
    0.21472E-06         0.48894E-20         0.00000E+00
    0.21472E-06         0.74506E-20         0.00000E+00
    0.21472E-06         0.69849E-21         0.00000E+00
    0.21472E-06         0.19791E-20         0.00000E+00
    0.21472E-06        -0.27940E-20         0.00000E+00
    0.21472E-06         0.22119E-20         0.00000E+00
    0.21472E-06        -0.20955E-20         0.00000E+00
    0.21472E-06         0.19791E-20         0.00000E+00
    0.22742E-06         0.52387E-20         0.00000E+00
    0.22742E-06         0.74506E-20         0.00000E+00
    0.22742E-06         0.46566E-20         0.00000E+00
    0.22742E-06         0.25611E-20         0.00000E+00
    0.22742E-06         0.10943E-19         0.00000E+00
    0.22742E-06         0.21886E-19         0.00000E+00
    0.22742E-06         0.20140E-19         0.00000E+00
    0.22742E-06         0.15134E-19         0.00000E+00
    0.22742E-06         0.10710E-19         0.00000E+00
    0.22742E-06         0.34925E-20         0.00000E+00
    0.22742E-06         0.00000E+00         0.00000E+00
    0.22742E-06         0.10012E-19         0.00000E+00
    0.22742E-06         0.10943E-19         0.00000E+00
    0.22742E-06         0.68685E-20         0.00000E+00
    0.22742E-06         0.23283E-21         0.00000E+00
    0.22742E-06        -0.51223E-20         0.00000E+00
    0.22742E-06        -0.95461E-20         0.00000E+00
    0.22742E-06        -0.13039E-19         0.00000E+00
    0.22742E-06        -0.44238E-20         0.00000E+00
    0.22742E-06        -0.51223E-20         0.00000E+00
    0.22742E-06        -0.83819E-20         0.00000E+00
    0.22742E-06        -0.58208E-20         0.00000E+00
    0.22742E-06        -0.61700E-20         0.00000E+00
    0.22742E-06        -0.13970E-20         0.00000E+00
    0.22742E-06        -0.12806E-20         0.00000E+00
    0.22742E-06        -0.20955E-20         0.00000E+00
    0.22742E-06        -0.67521E-20         0.00000E+00
    0.22742E-06        -0.87311E-20         0.00000E+00
    0.22742E-06        -0.19209E-19         0.00000E+00
    0.22742E-06        -0.13737E-19         0.00000E+00
    0.22742E-06        -0.14668E-19         0.00000E+00
    0.22742E-06        -0.14203E-19         0.00000E+00
    0.22742E-06        -0.23749E-19         0.00000E+00
    0.22742E-06        -0.27008E-19         0.00000E+00
    0.22742E-06        -0.26077E-19         0.00000E+00
    0.22742E-06        -0.21653E-19         0.00000E+00
    0.22742E-06        -0.15600E-19         0.00000E+00
    0.22742E-06        -0.95461E-20         0.00000E+00
    0.22742E-06        -0.72177E-20         0.00000E+00
    0.22742E-06        -0.10245E-19         0.00000E+00
    0.22742E-06        -0.12806E-20         0.00000E+00
    0.22742E-06         0.23283E-21         0.00000E+00
    0.22742E-06         0.44238E-20         0.00000E+00
    0.22742E-06         0.12806E-20         0.00000E+00
    0.22742E-06        -0.93132E-21         0.00000E+00
    0.22742E-06        -0.93132E-21         0.00000E+00
    0.22742E-06         0.11642E-20         0.00000E+00
    0.22742E-06         0.23283E-20         0.00000E+00
    0.22742E-06        -0.36089E-20         0.00000E+00
    0.22742E-06         0.37253E-20         0.00000E+00
    0.23788E-06         0.36089E-20         0.00000E+00
    0.23788E-06         0.44238E-20         0.00000E+00
    0.23788E-06        -0.15134E-20         0.00000E+00
    0.23788E-06         0.20955E-20         0.00000E+00
    0.23788E-06         0.12689E-19         0.00000E+00
    0.23788E-06         0.17462E-19         0.00000E+00
    0.23788E-06         0.15483E-19         0.00000E+00
    0.23788E-06         0.11874E-19         0.00000E+00
    0.23788E-06         0.11642E-19         0.00000E+00
    0.23788E-06         0.52387E-20         0.00000E+00
    0.23788E-06         0.43074E-20         0.00000E+00
    0.23788E-06         0.71013E-20         0.00000E+00
    0.23788E-06         0.95461E-20         0.00000E+00
    0.23788E-06         0.60536E-20         0.00000E+00
    0.23788E-06        -0.69849E-21         0.00000E+00
    0.23788E-06        -0.55879E-20         0.00000E+00
    0.23788E-06        -0.33760E-20         0.00000E+00
    0.23788E-06        -0.46566E-20         0.00000E+00
    0.23788E-06        -0.25611E-20         0.00000E+00
    0.23788E-06        -0.62864E-20         0.00000E+00
    0.23788E-06        -0.53551E-20         0.00000E+00
    0.23788E-06        -0.55879E-20         0.00000E+00
    0.23788E-06        -0.60536E-20         0.00000E+00
    0.23788E-06         0.00000E+00         0.00000E+00
    0.23788E-06         0.11642E-20         0.00000E+00
    0.23788E-06        -0.34925E-20         0.00000E+00
    0.23788E-06        -0.59372E-20         0.00000E+00
    0.23788E-06        -0.74506E-20         0.00000E+00
    0.23788E-06        -0.14435E-19         0.00000E+00
    0.23788E-06        -0.10477E-19         0.00000E+00
    0.23788E-06        -0.98953E-20         0.00000E+00
    0.23788E-06        -0.13970E-19         0.00000E+00
    0.23788E-06        -0.24214E-19         0.00000E+00
    0.23788E-06        -0.20722E-19         0.00000E+00
    0.23788E-06        -0.22585E-19         0.00000E+00
    0.23788E-06        -0.16298E-19         0.00000E+00
    0.23788E-06        -0.12806E-19         0.00000E+00
    0.23788E-06        -0.67521E-20         0.00000E+00
    0.23788E-06        -0.13039E-19         0.00000E+00
    0.23788E-06        -0.12107E-19         0.00000E+00
    0.23788E-06        -0.25611E-20         0.00000E+00
    0.23788E-06        -0.23283E-21         0.00000E+00
    0.23788E-06         0.41910E-20         0.00000E+00
    0.23788E-06         0.13970E-20         0.00000E+00
    0.23788E-06        -0.32596E-20         0.00000E+00
    0.23788E-06        -0.16298E-20         0.00000E+00
    0.23788E-06         0.23283E-20         0.00000E+00
    0.23788E-06         0.46566E-20         0.00000E+00
    0.23788E-06        -0.27940E-20         0.00000E+00
    0.23788E-06         0.19791E-20         0.00000E+00
    0.24540E-06        -0.46566E-21         0.00000E+00
    0.24540E-06         0.16298E-20         0.00000E+00
    0.24540E-06        -0.52387E-20         0.00000E+00
    0.24540E-06         0.00000E+00         0.00000E+00
    0.24540E-06         0.38417E-20         0.00000E+00
    0.24540E-06         0.15832E-19         0.00000E+00
    0.24540E-06         0.14552E-19         0.00000E+00
    0.24540E-06         0.11409E-19         0.00000E+00
    0.24540E-06         0.58208E-20         0.00000E+00
    0.24540E-06         0.46566E-20         0.00000E+00
    0.24540E-06         0.69849E-21         0.00000E+00
    0.24540E-06         0.62864E-20         0.00000E+00
    0.24540E-06         0.23283E-20         0.00000E+00
    0.24540E-06         0.36089E-20         0.00000E+00
    0.24540E-06        -0.37253E-20         0.00000E+00
    0.24540E-06        -0.25611E-20         0.00000E+00
    0.24540E-06        -0.46566E-20         0.00000E+00
    0.24540E-06        -0.25611E-20         0.00000E+00
    0.24540E-06         0.32596E-20         0.00000E+00
    0.24540E-06        -0.27940E-20         0.00000E+00
    0.24540E-06        -0.23283E-21         0.00000E+00
    0.24540E-06        -0.23283E-20         0.00000E+00
    0.24540E-06         0.69849E-21         0.00000E+00
    0.24540E-06         0.34925E-20         0.00000E+00
    0.24540E-06         0.20955E-20         0.00000E+00
    0.24540E-06        -0.25611E-20         0.00000E+00
    0.24540E-06        -0.20955E-20         0.00000E+00
    0.24540E-06        -0.69849E-20         0.00000E+00
    0.24540E-06        -0.11409E-19         0.00000E+00
    0.24540E-06        -0.41910E-20         0.00000E+00
    0.24540E-06        -0.48894E-20         0.00000E+00
    0.24540E-06        -0.86147E-20         0.00000E+00
    0.24540E-06        -0.18394E-19         0.00000E+00
    0.24540E-06        -0.15832E-19         0.00000E+00
    0.24540E-06        -0.18161E-19         0.00000E+00
    0.24540E-06        -0.13970E-19         0.00000E+00
    0.24540E-06        -0.83819E-20         0.00000E+00
    0.24540E-06        -0.10943E-19         0.00000E+00
    0.24540E-06        -0.12573E-19         0.00000E+00
    0.24540E-06        -0.10012E-19         0.00000E+00
    0.24540E-06        -0.34925E-20         0.00000E+00
    0.24540E-06         0.16298E-20         0.00000E+00
    0.24540E-06         0.69849E-20         0.00000E+00
    0.24540E-06         0.47730E-20         0.00000E+00
    0.24540E-06        -0.11642E-20         0.00000E+00
    0.24540E-06         0.16298E-20         0.00000E+00
    0.24540E-06         0.00000E+00         0.00000E+00
    0.24540E-06         0.25611E-20         0.00000E+00
    0.24540E-06         0.38417E-20         0.00000E+00
    0.24540E-06        -0.58208E-21         0.00000E+00
    0.24936E-06        -0.93132E-21         0.00000E+00
    0.24936E-06         0.93132E-21         0.00000E+00
    0.24936E-06        -0.93132E-21         0.00000E+00
    0.24936E-06        -0.37253E-20         0.00000E+00
    0.24936E-06        -0.93132E-21         0.00000E+00
    0.24936E-06         0.69849E-20         0.00000E+00
    0.24936E-06         0.12456E-19         0.00000E+00
    0.24936E-06         0.37253E-20         0.00000E+00
    0.24936E-06         0.93132E-21         0.00000E+00
    0.24936E-06        -0.88476E-20         0.00000E+00
    0.24936E-06         0.73342E-20         0.00000E+00
    0.24936E-06         0.23283E-20         0.00000E+00
    0.24936E-06         0.13970E-20         0.00000E+00
    0.24936E-06         0.23283E-20         0.00000E+00
    0.24936E-06        -0.93132E-21         0.00000E+00
    0.24936E-06         0.93132E-21         0.00000E+00
    0.24936E-06        -0.93132E-21         0.00000E+00
    0.24936E-06         0.37253E-20         0.00000E+00
    0.24936E-06        -0.62864E-20         0.00000E+00
    0.24936E-06         0.00000E+00         0.00000E+00
    0.24936E-06        -0.13970E-20         0.00000E+00
    0.24936E-06        -0.13970E-20         0.00000E+00
    0.24936E-06         0.37253E-20         0.00000E+00
    0.24936E-06         0.37253E-20         0.00000E+00
    0.24936E-06         0.23283E-20         0.00000E+00
    0.24936E-06         0.23283E-20         0.00000E+00
    0.24936E-06        -0.93132E-21         0.00000E+00
    0.24936E-06        -0.23283E-20         0.00000E+00
    0.24936E-06        -0.55879E-20         0.00000E+00
    0.24936E-06        -0.13970E-20         0.00000E+00
    0.24936E-06         0.00000E+00         0.00000E+00
    0.24936E-06        -0.59372E-20         0.00000E+00
    0.24936E-06         0.58208E-21         0.00000E+00
    0.24936E-06        -0.83819E-20         0.00000E+00
    0.24936E-06        -0.74506E-20         0.00000E+00
    0.24936E-06        -0.83819E-20         0.00000E+00
    0.24936E-06        -0.46566E-20         0.00000E+00
    0.24936E-06        -0.60536E-20         0.00000E+00
    0.24936E-06        -0.37253E-20         0.00000E+00
    0.24936E-06        -0.11758E-19         0.00000E+00
    0.24936E-06        -0.23283E-20         0.00000E+00
    0.24936E-06         0.11642E-19         0.00000E+00
    0.24936E-06         0.55879E-20         0.00000E+00
    0.24936E-06         0.32596E-20         0.00000E+00
    0.24936E-06         0.00000E+00         0.00000E+00
    0.24936E-06         0.00000E+00         0.00000E+00
    0.24936E-06         0.00000E+00         0.00000E+00
    0.24936E-06         0.72177E-20         0.00000E+00
    0.24936E-06        -0.48894E-20         0.00000E+00
    0.24936E-06         0.72177E-20         0.00000E+00
POINT_DATA       5151
VECTORS vDarcyNodal double 
    0.20118E-13         0.00000E+00         0.00000E+00
    0.20118E-13         0.00000E+00         0.00000E+00
    0.20118E-13         0.00000E+00         0.00000E+00
    0.20118E-13         0.00000E+00         0.00000E+00
    0.20118E-13         0.00000E+00         0.00000E+00
    0.20118E-13         0.00000E+00         0.00000E+00
    0.20118E-13         0.00000E+00         0.00000E+00
    0.20118E-13         0.00000E+00         0.00000E+00
    0.20118E-13         0.00000E+00         0.00000E+00
    0.20118E-13         0.00000E+00         0.00000E+00
    0.20118E-13         0.00000E+00         0.00000E+00
    0.20118E-13         0.00000E+00         0.00000E+00
    0.20118E-13         0.00000E+00         0.00000E+00
    0.20118E-13        -0.18626E-20         0.00000E+00
    0.20118E-13         0.00000E+00         0.00000E+00
    0.20118E-13         0.18626E-20         0.00000E+00
    0.20118E-13         0.00000E+00         0.00000E+00
    0.20118E-13         0.00000E+00         0.00000E+00
    0.20118E-13         0.00000E+00         0.00000E+00
    0.20118E-13         0.00000E+00         0.00000E+00
    0.20118E-13         0.00000E+00         0.00000E+00
    0.20118E-13         0.00000E+00         0.00000E+00
    0.20118E-13         0.00000E+00         0.00000E+00
    0.20118E-13         0.00000E+00         0.00000E+00
    0.20118E-13         0.00000E+00         0.00000E+00
    0.20118E-13         0.00000E+00         0.00000E+00
    0.20118E-13         0.00000E+00         0.00000E+00
    0.20118E-13         0.00000E+00         0.00000E+00
    0.20118E-13         0.00000E+00         0.00000E+00
    0.20118E-13         0.00000E+00         0.00000E+00
    0.20118E-13         0.00000E+00         0.00000E+00
    0.20118E-13         0.00000E+00         0.00000E+00
    0.20118E-13         0.00000E+00         0.00000E+00
    0.20118E-13         0.00000E+00         0.00000E+00
    0.20118E-13         0.00000E+00         0.00000E+00
    0.20118E-13         0.00000E+00         0.00000E+00
    0.20118E-13         0.00000E+00         0.00000E+00
    0.20118E-13         0.00000E+00         0.00000E+00
    0.20118E-13         0.00000E+00         0.00000E+00
    0.20118E-13         0.00000E+00         0.00000E+00
    0.20118E-13         0.00000E+00         0.00000E+00
    0.20118E-13         0.00000E+00         0.00000E+00
    0.20118E-13         0.00000E+00         0.00000E+00
    0.20118E-13         0.00000E+00         0.00000E+00
    0.20118E-13         0.00000E+00         0.00000E+00
    0.20118E-13         0.00000E+00         0.00000E+00
    0.20118E-13         0.00000E+00         0.00000E+00
    0.20118E-13         0.00000E+00         0.00000E+00
    0.20118E-13         0.00000E+00         0.00000E+00
    0.20118E-13         0.18626E-20         0.00000E+00
    0.20118E-13         0.37253E-20         0.00000E+00
    0.20537E-13         0.00000E+00         0.00000E+00
    0.20537E-13         0.18626E-20         0.00000E+00
    0.20537E-13         0.55879E-20         0.00000E+00
    0.20537E-13         0.57668E-20         0.00000E+00
    0.20537E-13         0.55879E-20         0.00000E+00
    0.20537E-13         0.98867E-20         0.00000E+00
    0.20537E-13         0.13970E-19         0.00000E+00
    0.20537E-13         0.76295E-20         0.00000E+00
    0.20537E-13         0.55879E-20         0.00000E+00
    0.20537E-13         0.55879E-20         0.00000E+00
    0.20537E-13         0.00000E+00         0.00000E+00
    0.20537E-13        -0.75242E-21         0.00000E+00
    0.20537E-13        -0.55879E-20         0.00000E+00
    0.20537E-13         0.46566E-20         0.00000E+00
    0.20537E-13         0.83819E-20         0.00000E+00
    0.20537E-13        -0.29729E-20         0.00000E+00
    0.20537E-13         0.00000E+00         0.00000E+00
    0.20537E-13         0.55879E-20         0.00000E+00
    0.20537E-13         0.55879E-20         0.00000E+00
    0.20537E-13         0.00000E+00         0.00000E+00
    0.20537E-13        -0.18626E-20         0.00000E+00
    0.20537E-13        -0.37253E-20         0.00000E+00
    0.20537E-13        -0.37253E-20         0.00000E+00
    0.20537E-13         0.39042E-20         0.00000E+00
    0.20537E-13         0.26151E-20         0.00000E+00
    0.20537E-13         0.93132E-21         0.00000E+00
    0.20537E-13         0.11102E-20         0.00000E+00
    0.20537E-13         0.75242E-21         0.00000E+00
    0.20537E-13         0.18626E-20         0.00000E+00
    0.20537E-13         0.18626E-20         0.00000E+00
    0.20537E-13         0.18626E-20         0.00000E+00
    0.20537E-13         0.37253E-20         0.00000E+00
    0.20537E-13         0.37253E-20         0.00000E+00
    0.20537E-13        -0.18626E-20         0.00000E+00
    0.20537E-13         0.00000E+00         0.00000E+00
    0.20537E-13         0.18626E-20         0.00000E+00
    0.20537E-13        -0.18626E-20         0.00000E+00
    0.20537E-13         0.18626E-20         0.00000E+00
    0.20537E-13         0.37253E-20         0.00000E+00
    0.20537E-13         0.18626E-20         0.00000E+00
    0.20537E-13         0.72717E-20         0.00000E+00
    0.20537E-13         0.55879E-20         0.00000E+00
    0.20537E-13         0.20415E-20         0.00000E+00
    0.20537E-13         0.44777E-20         0.00000E+00
    0.20537E-13         0.48355E-20         0.00000E+00
    0.20537E-13         0.22204E-20         0.00000E+00
    0.20537E-13         0.26151E-20         0.00000E+00
    0.20537E-13         0.10066E-19         0.00000E+00
    0.20537E-13         0.93132E-20         0.00000E+00
    0.20537E-13         0.26151E-20         0.00000E+00
    0.20537E-13         0.52301E-20         0.00000E+00
    0.21811E-13         0.00000E+00         0.00000E+00
    0.21811E-13         0.93132E-20         0.00000E+00
    0.21811E-13         0.24214E-19         0.00000E+00
    0.21811E-13         0.32023E-19         0.00000E+00
    0.21811E-13         0.25146E-19         0.00000E+00
    0.21811E-13         0.12323E-19         0.00000E+00
    0.21811E-13         0.18626E-20         0.00000E+00
    0.21811E-13        -0.57352E-21         0.00000E+00
    0.21811E-13         0.18626E-20         0.00000E+00
    0.21811E-13         0.18626E-20         0.00000E+00
    0.21811E-13         0.18626E-20         0.00000E+00
    0.21811E-13        -0.24362E-20         0.00000E+00
    0.21811E-13         0.00000E+00         0.00000E+00
    0.21811E-13         0.37253E-20         0.00000E+00
    0.21811E-13         0.10245E-19         0.00000E+00
    0.21811E-13         0.18269E-19         0.00000E+00
    0.21811E-13         0.74506E-20         0.00000E+00
    0.21811E-13        -0.55879E-20         0.00000E+00
    0.21811E-13         0.00000E+00         0.00000E+00
    0.21811E-13         0.93132E-20         0.00000E+00
    0.21811E-13         0.24214E-19         0.00000E+00
    0.21811E-13         0.33528E-19         0.00000E+00
    0.21811E-13         0.14901E-19         0.00000E+00
    0.21811E-13        -0.42988E-20         0.00000E+00
    0.21811E-13         0.57352E-21         0.00000E+00
    0.21811E-13         0.27940E-20         0.00000E+00
    0.21811E-13         0.22204E-20         0.00000E+00
    0.21811E-13        -0.50144E-20         0.00000E+00
    0.21811E-13        -0.14901E-19         0.00000E+00
    0.21811E-13        -0.14901E-19         0.00000E+00
    0.21811E-13        -0.18626E-20         0.00000E+00
    0.21811E-13         0.37253E-20         0.00000E+00
    0.21811E-13         0.18626E-20         0.00000E+00
    0.21811E-13         0.37253E-20         0.00000E+00
    0.21811E-13         0.00000E+00         0.00000E+00
    0.21811E-13         0.00000E+00         0.00000E+00
    0.21811E-13         0.93132E-20         0.00000E+00
    0.21811E-13         0.74506E-20         0.00000E+00
    0.21811E-13        -0.18626E-20         0.00000E+00
    0.21811E-13        -0.18626E-20         0.00000E+00
    0.21811E-13        -0.87397E-20         0.00000E+00
    0.21811E-13        -0.93132E-21         0.00000E+00
    0.21811E-13        -0.15048E-20         0.00000E+00
    0.21811E-13        -0.13396E-19         0.00000E+00
    0.21811E-13        -0.70928E-20         0.00000E+00
    0.21811E-13         0.63035E-20         0.00000E+00
    0.21811E-13         0.13612E-19         0.00000E+00
    0.21811E-13         0.15475E-19         0.00000E+00
    0.21811E-13         0.11176E-19         0.00000E+00
    0.21811E-13         0.70928E-20         0.00000E+00
    0.21811E-13        -0.71560E-21         0.00000E+00
    0.23991E-13         0.37253E-20         0.00000E+00
    0.23991E-13         0.87397E-20         0.00000E+00
    0.23991E-13         0.14901E-19         0.00000E+00
    0.23991E-13         0.15475E-19         0.00000E+00
    0.23991E-13         0.22352E-19         0.00000E+00
    0.23991E-13         0.27366E-19         0.00000E+00
    0.23991E-13         0.18626E-19         0.00000E+00
    0.23991E-13         0.37253E-20         0.00000E+00
    0.23991E-13        -0.37253E-20         0.00000E+00
    0.23991E-13         0.37253E-20         0.00000E+00
    0.23991E-13         0.10602E-19         0.00000E+00
    0.23991E-13        -0.31518E-20         0.00000E+00
    0.23991E-13        -0.16406E-19         0.00000E+00
    0.23991E-13        -0.10818E-19         0.00000E+00
    0.23991E-13        -0.71560E-21         0.00000E+00
    0.23991E-13        -0.12465E-19         0.00000E+00
    0.23991E-13        -0.55879E-20         0.00000E+00
    0.23991E-13         0.20131E-19         0.00000E+00
    0.23991E-13         0.23283E-19         0.00000E+00
    0.23991E-13         0.10602E-19         0.00000E+00
    0.23991E-13        -0.24362E-20         0.00000E+00
    0.23991E-13        -0.11749E-19         0.00000E+00
    0.23991E-13        -0.13396E-19         0.00000E+00
    0.23991E-13        -0.18626E-20         0.00000E+00
    0.23991E-13        -0.93132E-21         0.00000E+00
    0.23991E-13         0.37253E-20         0.00000E+00
    0.23991E-13         0.93132E-21         0.00000E+00
    0.23991E-13         0.27940E-20         0.00000E+00
    0.23991E-13         0.14328E-19         0.00000E+00
    0.23991E-13         0.24362E-20         0.00000E+00
    0.23991E-13        -0.31518E-20         0.00000E+00
    0.23991E-13         0.31518E-20         0.00000E+00
    0.23991E-13         0.83819E-20         0.00000E+00
    0.23991E-13         0.70928E-20         0.00000E+00
    0.23991E-13         0.16764E-19         0.00000E+00
    0.23991E-13         0.93132E-20         0.00000E+00
    0.23991E-13        -0.10818E-19         0.00000E+00
    0.23991E-13        -0.93132E-20         0.00000E+00
    0.23991E-13         0.93132E-21         0.00000E+00
    0.23991E-13        -0.24362E-20         0.00000E+00
    0.23991E-13        -0.22204E-20         0.00000E+00
    0.23991E-13        -0.22204E-20         0.00000E+00
    0.23991E-13         0.55879E-20         0.00000E+00
    0.23991E-13         0.37253E-20         0.00000E+00
    0.23991E-13        -0.11176E-19         0.00000E+00
    0.23991E-13        -0.52301E-20         0.00000E+00
    0.23991E-13        -0.83819E-20         0.00000E+00
    0.23991E-13        -0.93132E-20         0.00000E+00
    0.23991E-13        -0.17695E-19         0.00000E+00
    0.23991E-13        -0.78084E-20         0.00000E+00
    0.23991E-13         0.74506E-20         0.00000E+00
    0.27167E-13        -0.11176E-19         0.00000E+00
    0.27167E-13        -0.13039E-19         0.00000E+00
    0.27167E-13        -0.37253E-20         0.00000E+00
    0.27167E-13         0.71560E-21         0.00000E+00
    0.27167E-13        -0.83819E-20         0.00000E+00
    0.27167E-13        -0.32938E-20         0.00000E+00
    0.27167E-13         0.93132E-21         0.00000E+00
    0.27167E-13         0.44409E-20         0.00000E+00
    0.27167E-13         0.00000E+00         0.00000E+00
    0.27167E-13        -0.18626E-20         0.00000E+00
    0.27167E-13        -0.74506E-20         0.00000E+00
    0.27167E-13        -0.95289E-20         0.00000E+00
    0.27167E-13         0.93132E-21         0.00000E+00
    0.27167E-13         0.46566E-20         0.00000E+00
    0.27167E-13         0.46566E-20         0.00000E+00
    0.27167E-13         0.17911E-19         0.00000E+00
    0.27167E-13         0.14901E-19         0.00000E+00
    0.27167E-13        -0.55879E-20         0.00000E+00
    0.27167E-13         0.00000E+00         0.00000E+00
    0.27167E-13         0.24214E-19         0.00000E+00
    0.27167E-13         0.22352E-19         0.00000E+00
    0.27167E-13         0.74506E-20         0.00000E+00
    0.27167E-13         0.00000E+00         0.00000E+00
    0.27167E-13        -0.58037E-20         0.00000E+00
    0.27167E-13        -0.25782E-20         0.00000E+00
    0.27167E-13        -0.83819E-20         0.00000E+00
    0.27167E-13        -0.58037E-20         0.00000E+00
    0.27167E-13        -0.16469E-20         0.00000E+00
    0.27167E-13         0.18626E-20         0.00000E+00
    0.27167E-13         0.16764E-19         0.00000E+00
    0.27167E-13         0.18626E-19         0.00000E+00
    0.27167E-13         0.11176E-19         0.00000E+00
    0.27167E-13         0.74506E-20         0.00000E+00
    0.27167E-13        -0.55879E-20         0.00000E+00
    0.27167E-13        -0.14901E-19         0.00000E+00
    0.27167E-13        -0.13039E-19         0.00000E+00
    0.27167E-13        -0.18626E-20         0.00000E+00
    0.27167E-13         0.93132E-20         0.00000E+00
    0.27167E-13         0.74506E-20         0.00000E+00
    0.27167E-13         0.74506E-20         0.00000E+00
    0.27167E-13         0.48723E-20         0.00000E+00
    0.27167E-13         0.11176E-19         0.00000E+00
    0.27167E-13         0.63035E-20         0.00000E+00
    0.27167E-13         0.21572E-21         0.00000E+00
    0.27167E-13         0.14685E-19         0.00000E+00
    0.27167E-13         0.14470E-19         0.00000E+00
    0.27167E-13         0.11470E-20         0.00000E+00
    0.27167E-13         0.67350E-20         0.00000E+00
    0.27167E-13         0.55879E-20         0.00000E+00
    0.27167E-13        -0.71560E-21         0.00000E+00
    0.27167E-13         0.22941E-20         0.00000E+00
    0.31468E-13        -0.37253E-20         0.00000E+00
    0.31468E-13        -0.11176E-19         0.00000E+00
    0.31468E-13        -0.18411E-19         0.00000E+00
    0.31468E-13        -0.20489E-19         0.00000E+00
    0.31468E-13        -0.95289E-20         0.00000E+00
    0.31468E-13         0.74506E-20         0.00000E+00
    0.31468E-13         0.93132E-20         0.00000E+00
    0.31468E-13         0.18626E-20         0.00000E+00
    0.31468E-13         0.00000E+00         0.00000E+00
    0.31468E-13        -0.55879E-20         0.00000E+00
    0.31468E-13        -0.13754E-19         0.00000E+00
    0.31468E-13        -0.22352E-19         0.00000E+00
    0.31468E-13        -0.23499E-19         0.00000E+00
    0.31468E-13        -0.11176E-19         0.00000E+00
    0.31468E-13         0.55879E-20         0.00000E+00
    0.31468E-13         0.55879E-20         0.00000E+00
    0.31468E-13         0.55879E-20         0.00000E+00
    0.31468E-13         0.14901E-19         0.00000E+00
    0.31468E-13         0.22352E-19         0.00000E+00
    0.31468E-13         0.13039E-19         0.00000E+00
    0.31468E-13        -0.18626E-20         0.00000E+00
    0.31468E-13         0.55879E-20         0.00000E+00
    0.31468E-13         0.11176E-19         0.00000E+00
    0.31468E-13         0.13039E-19         0.00000E+00
    0.31468E-13         0.22352E-19         0.00000E+00
    0.31468E-13         0.16764E-19         0.00000E+00
    0.31468E-13         0.55879E-20         0.00000E+00
    0.31468E-13        -0.37253E-20         0.00000E+00
    0.31468E-13        -0.18626E-20         0.00000E+00
    0.31468E-13        -0.18626E-20         0.00000E+00
    0.31468E-13        -0.37253E-20         0.00000E+00
    0.31468E-13        -0.37253E-20         0.00000E+00
    0.31468E-13        -0.14901E-19         0.00000E+00
    0.31468E-13        -0.18626E-20         0.00000E+00
    0.31468E-13         0.74506E-20         0.00000E+00
    0.31468E-13        -0.55879E-20         0.00000E+00
    0.31468E-13        -0.10029E-19         0.00000E+00
    0.31468E-13         0.48723E-20         0.00000E+00
    0.31468E-13         0.22136E-19         0.00000E+00
    0.31468E-13         0.18411E-19         0.00000E+00
    0.31468E-13         0.22352E-19         0.00000E+00
    0.31468E-13         0.18626E-19         0.00000E+00
    0.31468E-13         0.20489E-19         0.00000E+00
    0.31468E-13         0.27940E-19         0.00000E+00
    0.31468E-13         0.67350E-20         0.00000E+00
    0.31468E-13        -0.71560E-21         0.00000E+00
    0.31468E-13         0.63035E-20         0.00000E+00
    0.31468E-13         0.63035E-20         0.00000E+00
    0.31468E-13         0.00000E+00         0.00000E+00
    0.31468E-13        -0.44409E-20         0.00000E+00
    0.31468E-13        -0.51565E-20         0.00000E+00
    0.37069E-13        -0.37253E-20         0.00000E+00
    0.37069E-13         0.81662E-20         0.00000E+00
    0.37069E-13         0.20489E-19         0.00000E+00
    0.37069E-13         0.17911E-19         0.00000E+00
    0.37069E-13         0.14901E-19         0.00000E+00
    0.37069E-13        -0.76663E-20         0.00000E+00
    0.37069E-13        -0.16764E-19         0.00000E+00
    0.37069E-13        -0.93132E-20         0.00000E+00
    0.37069E-13        -0.16764E-19         0.00000E+00
    0.37069E-13        -0.32596E-19         0.00000E+00
    0.37069E-13        -0.19773E-19         0.00000E+00
    0.37069E-13         0.21572E-21         0.00000E+00
    0.37069E-13        -0.30097E-20         0.00000E+00
    0.37069E-13        -0.95289E-20         0.00000E+00
    0.37069E-13        -0.20989E-19         0.00000E+00
    0.37069E-13        -0.23999E-19         0.00000E+00
    0.37069E-13        -0.20489E-19         0.00000E+00
    0.37069E-13        -0.15617E-19         0.00000E+00
    0.37069E-13        -0.16764E-19         0.00000E+00
    0.37069E-13        -0.67350E-20         0.00000E+00
    0.37069E-13        -0.39410E-20         0.00000E+00
    0.37069E-13        -0.58037E-20         0.00000E+00
    0.37069E-13         0.48723E-20         0.00000E+00
    0.37069E-13        -0.46566E-20         0.00000E+00
    0.37069E-13        -0.13970E-19         0.00000E+00
    0.37069E-13         0.74506E-20         0.00000E+00
    0.37069E-13         0.17695E-19         0.00000E+00
    0.37069E-13         0.10245E-19         0.00000E+00
    0.37069E-13         0.25782E-20         0.00000E+00
    0.37069E-13         0.85976E-20         0.00000E+00
    0.37069E-13         0.10460E-19         0.00000E+00
    0.37069E-13         0.10029E-19         0.00000E+00
    0.37069E-13         0.12107E-19         0.00000E+00
    0.37069E-13         0.21572E-21         0.00000E+00
    0.37069E-13        -0.74506E-20         0.00000E+00
    0.37069E-13         0.37253E-20         0.00000E+00
    0.37069E-13         0.19342E-19         0.00000E+00
    0.37069E-13         0.93132E-20         0.00000E+00
    0.37069E-13        -0.37253E-20         0.00000E+00
    0.37069E-13         0.71560E-21         0.00000E+00
    0.37069E-13         0.95289E-20         0.00000E+00
    0.37069E-13         0.16980E-19         0.00000E+00
    0.37069E-13         0.16764E-19         0.00000E+00
    0.37069E-13         0.11176E-19         0.00000E+00
    0.37069E-13         0.24214E-19         0.00000E+00
    0.37069E-13         0.23067E-19         0.00000E+00
    0.37069E-13         0.18626E-20         0.00000E+00
    0.37069E-13         0.37253E-20         0.00000E+00
    0.37069E-13        -0.18626E-20         0.00000E+00
    0.37069E-13        -0.44409E-20         0.00000E+00
    0.37069E-13         0.00000E+00         0.00000E+00
    0.44198E-13         0.13901E-19         0.00000E+00
    0.44198E-13         0.18626E-20         0.00000E+00
    0.44198E-13         0.42252E-20         0.00000E+00
    0.44198E-13        -0.74506E-20         0.00000E+00
    0.44198E-13        -0.32165E-19         0.00000E+00
    0.44198E-13        -0.24714E-19         0.00000E+00
    0.44198E-13        -0.60194E-20         0.00000E+00
    0.44198E-13        -0.13470E-19         0.00000E+00
    0.44198E-13        -0.33528E-19         0.00000E+00
    0.44198E-13        -0.33528E-19         0.00000E+00
    0.44198E-13        -0.26077E-19         0.00000E+00
    0.44198E-13        -0.24214E-19         0.00000E+00
    0.44198E-13        -0.14901E-19         0.00000E+00
    0.44198E-13        -0.93132E-20         0.00000E+00
    0.44198E-13        -0.93132E-20         0.00000E+00
    0.44198E-13        -0.13039E-19         0.00000E+00
    0.44198E-13        -0.14901E-19         0.00000E+00
    0.44198E-13        -0.20489E-19         0.00000E+00
    0.44198E-13        -0.24214E-19         0.00000E+00
    0.44198E-13        -0.33528E-19         0.00000E+00
    0.44198E-13        -0.29802E-19         0.00000E+00
    0.44198E-13        -0.55879E-20         0.00000E+00
    0.44198E-13         0.37253E-20         0.00000E+00
    0.44198E-13         0.55879E-20         0.00000E+00
    0.44198E-13         0.55879E-20         0.00000E+00
    0.44198E-13        -0.74506E-20         0.00000E+00
    0.44198E-13        -0.55879E-20         0.00000E+00
    0.44198E-13         0.14901E-19         0.00000E+00
    0.44198E-13         0.18626E-19         0.00000E+00
    0.44198E-13         0.55879E-20         0.00000E+00
    0.44198E-13        -0.18626E-20         0.00000E+00
    0.44198E-13         0.18626E-20         0.00000E+00
    0.44198E-13         0.18626E-20         0.00000E+00
    0.44198E-13        -0.74506E-20         0.00000E+00
    0.44198E-13        -0.37253E-20         0.00000E+00
    0.44198E-13         0.93132E-20         0.00000E+00
    0.44198E-13         0.55879E-20         0.00000E+00
    0.44198E-13         0.93132E-20         0.00000E+00
    0.44198E-13         0.16764E-19         0.00000E+00
    0.44198E-13         0.24646E-19         0.00000E+00
    0.44198E-13         0.26077E-19         0.00000E+00
    0.44198E-13         0.12607E-19         0.00000E+00
    0.44198E-13         0.74506E-20         0.00000E+00
    0.44198E-13         0.13039E-19         0.00000E+00
    0.44198E-13         0.18626E-20         0.00000E+00
    0.44198E-13        -0.93132E-20         0.00000E+00
    0.44198E-13        -0.23625E-20         0.00000E+00
    0.44198E-13         0.37253E-20         0.00000E+00
    0.44198E-13        -0.13628E-20         0.00000E+00
    0.44198E-13        -0.13039E-19         0.00000E+00
    0.44198E-13        -0.22352E-19         0.00000E+00
    0.53145E-13        -0.37253E-20         0.00000E+00
    0.53145E-13        -0.14901E-19         0.00000E+00
    0.53145E-13        -0.27940E-19         0.00000E+00
    0.53145E-13        -0.25577E-19         0.00000E+00
    0.53145E-13        -0.11176E-19         0.00000E+00
    0.53145E-13        -0.11244E-19         0.00000E+00
    0.53145E-13        -0.19558E-19         0.00000E+00
    0.53145E-13        -0.18127E-19         0.00000E+00
    0.53145E-13        -0.13039E-19         0.00000E+00
    0.53145E-13        -0.14901E-19         0.00000E+00
    0.53145E-13        -0.13039E-19         0.00000E+00
    0.53145E-13        -0.16264E-19         0.00000E+00
    0.53145E-13        -0.16764E-19         0.00000E+00
    0.53145E-13        -0.93132E-21         0.00000E+00
    0.53145E-13         0.65193E-20         0.00000E+00
    0.53145E-13        -0.98131E-20         0.00000E+00
    0.53145E-13        -0.16764E-19         0.00000E+00
    0.53145E-13        -0.55879E-20         0.00000E+00
    0.53145E-13        -0.18626E-20         0.00000E+00
    0.53145E-13        -0.18626E-20         0.00000E+00
    0.53145E-13        -0.55879E-20         0.00000E+00
    0.53145E-13        -0.16764E-19         0.00000E+00
    0.53145E-13        -0.14901E-19         0.00000E+00
    0.53145E-13        -0.50881E-20         0.00000E+00
    0.53145E-13         0.41567E-20         0.00000E+00
    0.53145E-13         0.18626E-19         0.00000E+00
    0.53145E-13         0.13538E-19         0.00000E+00
    0.53145E-13        -0.88818E-20         0.00000E+00
    0.53145E-13        -0.20489E-19         0.00000E+00
    0.53145E-13        -0.14901E-19         0.00000E+00
    0.53145E-13         0.00000E+00         0.00000E+00
    0.53145E-13         0.74506E-20         0.00000E+00
    0.53145E-13         0.16764E-19         0.00000E+00
    0.53145E-13         0.22352E-19         0.00000E+00
    0.53145E-13         0.11176E-19         0.00000E+00
    0.53145E-13         0.37253E-20         0.00000E+00
    0.53145E-13         0.11176E-19         0.00000E+00
    0.53145E-13         0.55879E-20         0.00000E+00
    0.53145E-13         0.00000E+00         0.00000E+00
    0.53145E-13         0.18626E-20         0.00000E+00
    0.53145E-13        -0.23625E-20         0.00000E+00
    0.53145E-13        -0.83819E-20         0.00000E+00
    0.53145E-13        -0.13470E-19         0.00000E+00
    0.53145E-13        -0.13538E-19         0.00000E+00
    0.53145E-13        -0.60194E-20         0.00000E+00
    0.53145E-13        -0.73821E-20         0.00000E+00
    0.53145E-13        -0.49988E-21         0.00000E+00
    0.53145E-13         0.88133E-20         0.00000E+00
    0.53145E-13         0.93132E-20         0.00000E+00
    0.53145E-13         0.13628E-20         0.00000E+00
    0.53145E-13        -0.12176E-19         0.00000E+00
    0.64273E-13         0.47251E-20         0.00000E+00
    0.64273E-13         0.00000E+00         0.00000E+00
    0.64273E-13         0.93132E-20         0.00000E+00
    0.64273E-13         0.74506E-20         0.00000E+00
    0.64273E-13        -0.13039E-19         0.00000E+00
    0.64273E-13        -0.74506E-20         0.00000E+00
    0.64273E-13        -0.10245E-19         0.00000E+00
    0.64273E-13        -0.24646E-19         0.00000E+00
    0.64273E-13        -0.20489E-19         0.00000E+00
    0.64273E-13         0.13628E-20         0.00000E+00
    0.64273E-13        -0.49988E-21         0.00000E+00
    0.64273E-13         0.00000E+00         0.00000E+00
    0.64273E-13         0.18626E-20         0.00000E+00
    0.64273E-13        -0.14901E-19         0.00000E+00
    0.64273E-13        -0.20489E-19         0.00000E+00
    0.64273E-13        -0.37253E-20         0.00000E+00
    0.64273E-13         0.74506E-20         0.00000E+00
    0.64273E-13        -0.18626E-20         0.00000E+00
    0.64273E-13        -0.37253E-20         0.00000E+00
    0.64273E-13        -0.18626E-20         0.00000E+00
    0.64273E-13        -0.18626E-20         0.00000E+00
    0.64273E-13         0.55879E-20         0.00000E+00
    0.64273E-13         0.13039E-19         0.00000E+00
    0.64273E-13         0.93132E-20         0.00000E+00
    0.64273E-13         0.14901E-19         0.00000E+00
    0.64273E-13         0.11676E-19         0.00000E+00
    0.64273E-13         0.00000E+00         0.00000E+00
    0.64273E-13         0.13628E-20         0.00000E+00
    0.64273E-13         0.18626E-20         0.00000E+00
    0.64273E-13         0.55879E-20         0.00000E+00
    0.64273E-13        -0.18626E-20         0.00000E+00
    0.64273E-13         0.49988E-21         0.00000E+00
    0.64273E-13         0.93132E-21         0.00000E+00
    0.64273E-13        -0.32938E-20         0.00000E+00
    0.64273E-13         0.55879E-20         0.00000E+00
    0.64273E-13         0.14901E-19         0.00000E+00
    0.64273E-13         0.74506E-20         0.00000E+00
    0.64273E-13         0.37253E-20         0.00000E+00
    0.64273E-13         0.37253E-20         0.00000E+00
    0.64273E-13        -0.32254E-20         0.00000E+00
    0.64273E-13        -0.74506E-20         0.00000E+00
    0.64273E-13        -0.12107E-19         0.00000E+00
    0.64273E-13        -0.93132E-21         0.00000E+00
    0.64273E-13         0.74506E-20         0.00000E+00
    0.64273E-13        -0.82755E-35         0.00000E+00
    0.64273E-13        -0.23625E-20         0.00000E+00
    0.64273E-13        -0.37253E-20         0.00000E+00
    0.64273E-13        -0.55879E-20         0.00000E+00
    0.64273E-13         0.00000E+00         0.00000E+00
    0.64273E-13         0.69507E-20         0.00000E+00
    0.64273E-13         0.64508E-20         0.00000E+00
    0.78031E-13         0.11176E-19         0.00000E+00
    0.78031E-13         0.11176E-19         0.00000E+00
    0.78031E-13         0.32254E-20         0.00000E+00
    0.78031E-13         0.93132E-20         0.00000E+00
    0.78031E-13         0.13538E-19         0.00000E+00
    0.78031E-13         0.18626E-20         0.00000E+00
    0.78031E-13        -0.93132E-20         0.00000E+00
    0.78031E-13        -0.55879E-20         0.00000E+00
    0.78031E-13         0.55879E-20         0.00000E+00
    0.78031E-13         0.37253E-20         0.00000E+00
    0.78031E-13        -0.32938E-20         0.00000E+00
    0.78031E-13        -0.65193E-20         0.00000E+00
    0.78031E-13        -0.32254E-20         0.00000E+00
    0.78031E-13         0.55879E-20         0.00000E+00
    0.78031E-13         0.55879E-20         0.00000E+00
    0.78031E-13         0.00000E+00         0.00000E+00
    0.78031E-13        -0.74506E-20         0.00000E+00
    0.78031E-13        -0.11176E-19         0.00000E+00
    0.78031E-13        -0.37253E-20         0.00000E+00
    0.78031E-13         0.11176E-19         0.00000E+00
    0.78031E-13         0.16764E-19         0.00000E+00
    0.78031E-13         0.18626E-19         0.00000E+00
    0.78031E-13         0.14901E-19         0.00000E+00
    0.78031E-13         0.93132E-20         0.00000E+00
    0.78031E-13         0.00000E+00         0.00000E+00
    0.78031E-13         0.93132E-20         0.00000E+00
    0.78031E-13         0.74506E-20         0.00000E+00
    0.78031E-13        -0.55879E-20         0.00000E+00
    0.78031E-13        -0.55879E-20         0.00000E+00
    0.78031E-13        -0.20489E-19         0.00000E+00
    0.78031E-13        -0.11176E-19         0.00000E+00
    0.78031E-13         0.00000E+00         0.00000E+00
    0.78031E-13         0.18626E-20         0.00000E+00
    0.78031E-13         0.13039E-19         0.00000E+00
    0.78031E-13         0.11176E-19         0.00000E+00
    0.78031E-13         0.11176E-19         0.00000E+00
    0.78031E-13         0.13470E-19         0.00000E+00
    0.78031E-13         0.41567E-20         0.00000E+00
    0.78031E-13        -0.43144E-21         0.00000E+00
    0.78031E-13        -0.22941E-20         0.00000E+00
    0.78031E-13        -0.93132E-20         0.00000E+00
    0.78031E-13         0.37253E-20         0.00000E+00
    0.78031E-13         0.55879E-20         0.00000E+00
    0.78031E-13        -0.93132E-20         0.00000E+00
    0.78031E-13         0.43144E-21         0.00000E+00
    0.78031E-13         0.11607E-19         0.00000E+00
    0.78031E-13         0.19126E-19         0.00000E+00
    0.78031E-13         0.19126E-19         0.00000E+00
    0.78031E-13         0.13039E-19         0.00000E+00
    0.78031E-13         0.50881E-20         0.00000E+00
    0.78031E-13        -0.47251E-20         0.00000E+00
    0.94974E-13        -0.74506E-20         0.00000E+00
    0.94974E-13        -0.55879E-20         0.00000E+00
    0.94974E-13         0.93132E-20         0.00000E+00
    0.94974E-13         0.11176E-19         0.00000E+00
    0.94974E-13         0.42252E-20         0.00000E+00
    0.94974E-13        -0.14312E-20         0.00000E+00
    0.94974E-13        -0.19311E-20         0.00000E+00
    0.94974E-13        -0.32254E-20         0.00000E+00
    0.94974E-13        -0.32254E-20         0.00000E+00
    0.94974E-13        -0.49988E-21         0.00000E+00
    0.94974E-13        -0.93132E-20         0.00000E+00
    0.94974E-13        -0.50881E-20         0.00000E+00
    0.94974E-13        -0.37253E-20         0.00000E+00
    0.94974E-13        -0.93132E-20         0.00000E+00
    0.94974E-13        -0.18626E-20         0.00000E+00
    0.94974E-13         0.13628E-20         0.00000E+00
    0.94974E-13        -0.41567E-20         0.00000E+00
    0.94974E-13         0.23625E-20         0.00000E+00
    0.94974E-13         0.36569E-20         0.00000E+00
    0.94974E-13         0.23625E-20         0.00000E+00
    0.94974E-13         0.23625E-20         0.00000E+00
    0.94974E-13        -0.79505E-20         0.00000E+00
    0.94974E-13         0.79505E-20         0.00000E+00
    0.94974E-13         0.15401E-19         0.00000E+00
    0.94974E-13         0.10176E-19         0.00000E+00
    0.94974E-13         0.93132E-21         0.00000E+00
    0.94974E-13        -0.32254E-20         0.00000E+00
    0.94974E-13         0.43144E-21         0.00000E+00
    0.94974E-13         0.55879E-20         0.00000E+00
    0.94974E-13         0.88133E-20         0.00000E+00
    0.94974E-13         0.23625E-20         0.00000E+00
    0.94974E-13         0.10313E-19         0.00000E+00
    0.94974E-13         0.21852E-19         0.00000E+00
    0.94974E-13         0.14401E-19         0.00000E+00
    0.94974E-13         0.12607E-19         0.00000E+00
    0.94974E-13         0.37253E-20         0.00000E+00
    0.94974E-13         0.37253E-20         0.00000E+00
    0.94974E-13         0.18626E-19         0.00000E+00
    0.94974E-13         0.25146E-19         0.00000E+00
    0.94974E-13         0.79505E-20         0.00000E+00
    0.94974E-13        -0.51565E-20         0.00000E+00
    0.94974E-13        -0.16332E-19         0.00000E+00
    0.94974E-13        -0.50881E-20         0.00000E+00
    0.94974E-13         0.74506E-20         0.00000E+00
    0.94974E-13        -0.60878E-20         0.00000E+00
    0.94974E-13        -0.74506E-20         0.00000E+00
    0.94974E-13        -0.55879E-20         0.00000E+00
    0.94974E-13        -0.55879E-20         0.00000E+00
    0.94974E-13         0.14312E-20         0.00000E+00
    0.94974E-13         0.13628E-20         0.00000E+00
    0.94974E-13         0.35884E-20         0.00000E+00
    0.11579E-12         0.74506E-20         0.00000E+00
    0.11579E-12        -0.43144E-21         0.00000E+00
    0.11579E-12        -0.10245E-19         0.00000E+00
    0.11579E-12        -0.60878E-20         0.00000E+00
    0.11579E-12        -0.37253E-20         0.00000E+00
    0.11579E-12        -0.69507E-20         0.00000E+00
    0.11579E-12         0.55879E-20         0.00000E+00
    0.11579E-12         0.00000E+00         0.00000E+00
    0.11579E-12        -0.93132E-20         0.00000E+00
    0.11579E-12        -0.93132E-20         0.00000E+00
    0.11579E-12        -0.32254E-20         0.00000E+00
    0.11579E-12         0.88133E-20         0.00000E+00
    0.11579E-12         0.88818E-20         0.00000E+00
    0.11579E-12         0.88818E-20         0.00000E+00
    0.11579E-12        -0.37937E-20         0.00000E+00
    0.11579E-12        -0.10744E-19         0.00000E+00
    0.11579E-12        -0.37253E-20         0.00000E+00
    0.11579E-12         0.50881E-20         0.00000E+00
    0.11579E-12         0.12107E-19         0.00000E+00
    0.11579E-12         0.14470E-19         0.00000E+00
    0.11579E-12         0.98131E-20         0.00000E+00
    0.11579E-12        -0.50881E-20         0.00000E+00
    0.11579E-12        -0.98131E-20         0.00000E+00
    0.11579E-12        -0.27940E-20         0.00000E+00
    0.11579E-12         0.37253E-20         0.00000E+00
    0.11579E-12         0.65193E-20         0.00000E+00
    0.11579E-12         0.18626E-20         0.00000E+00
    0.11579E-12         0.55879E-20         0.00000E+00
    0.11579E-12         0.13538E-19         0.00000E+00
    0.11579E-12         0.16264E-19         0.00000E+00
    0.11579E-12         0.14401E-19         0.00000E+00
    0.11579E-12         0.70191E-20         0.00000E+00
    0.11579E-12         0.46566E-20         0.00000E+00
    0.11579E-12         0.10676E-19         0.00000E+00
    0.11579E-12         0.93132E-20         0.00000E+00
    0.11579E-12         0.55879E-20         0.00000E+00
    0.11579E-12         0.10744E-19         0.00000E+00
    0.11579E-12         0.14901E-19         0.00000E+00
    0.11579E-12         0.10245E-19         0.00000E+00
    0.11579E-12         0.23625E-20         0.00000E+00
    0.11579E-12         0.60194E-20         0.00000E+00
    0.11579E-12         0.19058E-19         0.00000E+00
    0.11579E-12         0.26077E-19         0.00000E+00
    0.11579E-12         0.93132E-20         0.00000E+00
    0.11579E-12        -0.93132E-20         0.00000E+00
    0.11579E-12        -0.14401E-19         0.00000E+00
    0.11579E-12        -0.74506E-20         0.00000E+00
    0.11579E-12        -0.93132E-20         0.00000E+00
    0.11579E-12        -0.13970E-19         0.00000E+00
    0.11579E-12        -0.16332E-19         0.00000E+00
    0.11579E-12        -0.37253E-20         0.00000E+00
    0.14130E-12         0.37253E-20         0.00000E+00
    0.14130E-12         0.37253E-20         0.00000E+00
    0.14130E-12         0.55879E-20         0.00000E+00
    0.14130E-12         0.00000E+00         0.00000E+00
    0.14130E-12        -0.11176E-19         0.00000E+00
    0.14130E-12        -0.14901E-19         0.00000E+00
    0.14130E-12        -0.74506E-20         0.00000E+00
    0.14130E-12         0.00000E+00         0.00000E+00
    0.14130E-12         0.55879E-20         0.00000E+00
    0.14130E-12         0.37253E-20         0.00000E+00
    0.14130E-12        -0.37253E-20         0.00000E+00
    0.14130E-12         0.37253E-20         0.00000E+00
    0.14130E-12         0.37253E-20         0.00000E+00
    0.14130E-12        -0.74506E-20         0.00000E+00
    0.14130E-12         0.18626E-20         0.00000E+00
    0.14130E-12         0.93132E-20         0.00000E+00
    0.14130E-12         0.00000E+00         0.00000E+00
    0.14130E-12         0.18626E-20         0.00000E+00
    0.14130E-12         0.45882E-20         0.00000E+00
    0.14130E-12         0.18626E-20         0.00000E+00
    0.14130E-12         0.99976E-21         0.00000E+00
    0.14130E-12        -0.37253E-20         0.00000E+00
    0.14130E-12        -0.18626E-20         0.00000E+00
    0.14130E-12        -0.18626E-20         0.00000E+00
    0.14130E-12         0.37253E-20         0.00000E+00
    0.14130E-12         0.74506E-20         0.00000E+00
    0.14130E-12         0.13039E-19         0.00000E+00
    0.14130E-12         0.20489E-19         0.00000E+00
    0.14130E-12         0.20489E-19         0.00000E+00
    0.14130E-12         0.14901E-19         0.00000E+00
    0.14130E-12         0.11176E-19         0.00000E+00
    0.14130E-12         0.00000E+00         0.00000E+00
    0.14130E-12        -0.74506E-20         0.00000E+00
    0.14130E-12        -0.18626E-20         0.00000E+00
    0.14130E-12         0.37253E-20         0.00000E+00
    0.14130E-12         0.18626E-20         0.00000E+00
    0.14130E-12         0.18626E-20         0.00000E+00
    0.14130E-12         0.18626E-19         0.00000E+00
    0.14130E-12         0.27940E-19         0.00000E+00
    0.14130E-12         0.20489E-19         0.00000E+00
    0.14130E-12         0.93132E-20         0.00000E+00
    0.14130E-12        -0.55879E-20         0.00000E+00
    0.14130E-12        -0.11176E-19         0.00000E+00
    0.14130E-12         0.55879E-20         0.00000E+00
    0.14130E-12         0.11176E-19         0.00000E+00
    0.14130E-12         0.55879E-20         0.00000E+00
    0.14130E-12         0.37253E-20         0.00000E+00
    0.14130E-12         0.00000E+00         0.00000E+00
    0.14130E-12         0.74506E-20         0.00000E+00
    0.14130E-12         0.74506E-20         0.00000E+00
    0.14130E-12         0.00000E+00         0.00000E+00
    0.17254E-12        -0.38622E-20         0.00000E+00
    0.17254E-12         0.00000E+00         0.00000E+00
    0.17254E-12        -0.36569E-20         0.00000E+00
    0.17254E-12        -0.13039E-19         0.00000E+00
    0.17254E-12        -0.13107E-19         0.00000E+00
    0.17254E-12        -0.37937E-20         0.00000E+00
    0.17254E-12        -0.55195E-20         0.00000E+00
    0.17254E-12        -0.11107E-19         0.00000E+00
    0.17254E-12        -0.11176E-19         0.00000E+00
    0.17254E-12        -0.74506E-20         0.00000E+00
    0.17254E-12         0.18626E-20         0.00000E+00
    0.17254E-12         0.37253E-20         0.00000E+00
    0.17254E-12         0.13039E-19         0.00000E+00
    0.17254E-12         0.14901E-19         0.00000E+00
    0.17254E-12         0.00000E+00         0.00000E+00
    0.17254E-12         0.00000E+00         0.00000E+00
    0.17254E-12         0.93132E-20         0.00000E+00
    0.17254E-12         0.18626E-20         0.00000E+00
    0.17254E-12        -0.55879E-20         0.00000E+00
    0.17254E-12        -0.37253E-20         0.00000E+00
    0.17254E-12        -0.18626E-20         0.00000E+00
    0.17254E-12        -0.18626E-20         0.00000E+00
    0.17254E-12        -0.74506E-20         0.00000E+00
    0.17254E-12        -0.93132E-20         0.00000E+00
    0.17254E-12        -0.55879E-20         0.00000E+00
    0.17254E-12         0.93132E-20         0.00000E+00
    0.17254E-12         0.22352E-19         0.00000E+00
    0.17254E-12         0.20489E-19         0.00000E+00
    0.17254E-12         0.16764E-19         0.00000E+00
    0.17254E-12         0.13039E-19         0.00000E+00
    0.17254E-12         0.37253E-20         0.00000E+00
    0.17254E-12        -0.18626E-20         0.00000E+00
    0.17254E-12         0.00000E+00         0.00000E+00
    0.17254E-12         0.00000E+00         0.00000E+00
    0.17254E-12         0.00000E+00         0.00000E+00
    0.17254E-12         0.00000E+00         0.00000E+00
    0.17254E-12        -0.18626E-20         0.00000E+00
    0.17254E-12        -0.18626E-20         0.00000E+00
    0.17254E-12         0.93132E-20         0.00000E+00
    0.17254E-12         0.22283E-19         0.00000E+00
    0.17254E-12         0.20489E-19         0.00000E+00
    0.17254E-12         0.93817E-20         0.00000E+00
    0.17254E-12         0.18626E-19         0.00000E+00
    0.17254E-12         0.14901E-19         0.00000E+00
    0.17254E-12        -0.74506E-20         0.00000E+00
    0.17254E-12        -0.55879E-20         0.00000E+00
    0.17254E-12        -0.37937E-20         0.00000E+00
    0.17254E-12        -0.65193E-20         0.00000E+00
    0.17254E-12        -0.83135E-20         0.00000E+00
    0.17254E-12        -0.37253E-20         0.00000E+00
    0.17254E-12         0.00000E+00         0.00000E+00
    0.21076E-12         0.00000E+00         0.00000E+00
    0.21076E-12        -0.55195E-20         0.00000E+00
    0.21076E-12        -0.65193E-20         0.00000E+00
    0.21076E-12        -0.28624E-20         0.00000E+00
    0.21076E-12        -0.11176E-19         0.00000E+00
    0.21076E-12        -0.21352E-19         0.00000E+00
    0.21076E-12        -0.15764E-19         0.00000E+00
    0.21076E-12        -0.11176E-19         0.00000E+00
    0.21076E-12        -0.75190E-20         0.00000E+00
    0.21076E-12         0.17942E-20         0.00000E+00
    0.21076E-12         0.19311E-20         0.00000E+00
    0.21076E-12         0.37253E-20         0.00000E+00
    0.21076E-12        -0.19311E-20         0.00000E+00
    0.21076E-12         0.68435E-22         0.00000E+00
    0.21076E-12         0.93132E-20         0.00000E+00
    0.21076E-12        -0.27940E-20         0.00000E+00
    0.21076E-12        -0.10176E-19         0.00000E+00
    0.21076E-12        -0.28624E-20         0.00000E+00
    0.21076E-12         0.45882E-20         0.00000E+00
    0.21076E-12         0.14901E-19         0.00000E+00
    0.21076E-12         0.14038E-19         0.00000E+00
    0.21076E-12         0.10313E-19         0.00000E+00
    0.21076E-12         0.00000E+00         0.00000E+00
    0.21076E-12        -0.18626E-20         0.00000E+00
    0.21076E-12        -0.37937E-20         0.00000E+00
    0.21076E-12        -0.27940E-20         0.00000E+00
    0.21076E-12         0.84503E-20         0.00000E+00
    0.21076E-12         0.93132E-20         0.00000E+00
    0.21076E-12         0.55879E-20         0.00000E+00
    0.21076E-12        -0.68435E-22         0.00000E+00
    0.21076E-12        -0.18626E-20         0.00000E+00
    0.21076E-12         0.11244E-19         0.00000E+00
    0.21076E-12         0.15764E-19         0.00000E+00
    0.21076E-12        -0.99976E-21         0.00000E+00
    0.21076E-12        -0.93132E-20         0.00000E+00
    0.21076E-12        -0.11176E-19         0.00000E+00
    0.21076E-12        -0.55879E-20         0.00000E+00
    0.21076E-12         0.37937E-20         0.00000E+00
    0.21076E-12         0.68435E-22         0.00000E+00
    0.21076E-12        -0.93817E-20         0.00000E+00
    0.21076E-12         0.17942E-20         0.00000E+00
    0.21076E-12         0.16764E-19         0.00000E+00
    0.21076E-12         0.14970E-19         0.00000E+00
    0.21076E-12         0.14970E-19         0.00000E+00
    0.21076E-12         0.33528E-19         0.00000E+00
    0.21076E-12         0.37253E-19         0.00000E+00
    0.21076E-12         0.22283E-19         0.00000E+00
    0.21076E-12         0.17942E-20         0.00000E+00
    0.21076E-12        -0.55879E-20         0.00000E+00
    0.21076E-12        -0.74506E-20         0.00000E+00
    0.21076E-12        -0.11176E-19         0.00000E+00
    0.25748E-12        -0.74506E-20         0.00000E+00
    0.25748E-12         0.18626E-20         0.00000E+00
    0.25748E-12         0.18626E-20         0.00000E+00
    0.25748E-12        -0.10176E-19         0.00000E+00
    0.25748E-12        -0.13039E-19         0.00000E+00
    0.25748E-12        -0.14107E-19         0.00000E+00
    0.25748E-12        -0.74506E-20         0.00000E+00
    0.25748E-12         0.68434E-22         0.00000E+00
    0.25748E-12        -0.11176E-19         0.00000E+00
    0.25748E-12        -0.74506E-20         0.00000E+00
    0.25748E-12         0.00000E+00         0.00000E+00
    0.25748E-12         0.99976E-21         0.00000E+00
    0.25748E-12         0.55879E-20         0.00000E+00
    0.25748E-12        -0.27940E-20         0.00000E+00
    0.25748E-12        -0.13970E-19         0.00000E+00
    0.25748E-12         0.27255E-20         0.00000E+00
    0.25748E-12         0.11176E-19         0.00000E+00
    0.25748E-12         0.13039E-19         0.00000E+00
    0.25748E-12         0.13039E-19         0.00000E+00
    0.25748E-12         0.37253E-20         0.00000E+00
    0.25748E-12        -0.18626E-20         0.00000E+00
    0.25748E-12        -0.14901E-19         0.00000E+00
    0.25748E-12        -0.37253E-20         0.00000E+00
    0.25748E-12         0.15901E-19         0.00000E+00
    0.25748E-12         0.92448E-20         0.00000E+00
    0.25748E-12         0.55879E-20         0.00000E+00
    0.25748E-12         0.12176E-19         0.00000E+00
    0.25748E-12         0.11107E-19         0.00000E+00
    0.25748E-12         0.37253E-20         0.00000E+00
    0.25748E-12        -0.18626E-19         0.00000E+00
    0.25748E-12        -0.18626E-19         0.00000E+00
    0.25748E-12        -0.37253E-20         0.00000E+00
    0.25748E-12         0.55879E-20         0.00000E+00
    0.25748E-12         0.74506E-20         0.00000E+00
    0.25748E-12         0.55879E-20         0.00000E+00
    0.25748E-12         0.11176E-19         0.00000E+00
    0.25748E-12         0.11176E-19         0.00000E+00
    0.25748E-12         0.00000E+00         0.00000E+00
    0.25748E-12        -0.11176E-19         0.00000E+00
    0.25748E-12        -0.55879E-20         0.00000E+00
    0.25748E-12        -0.68434E-22         0.00000E+00
    0.25748E-12        -0.37253E-20         0.00000E+00
    0.25748E-12         0.75190E-20         0.00000E+00
    0.25748E-12         0.11107E-19         0.00000E+00
    0.25748E-12         0.28624E-20         0.00000E+00
    0.25748E-12         0.29308E-20         0.00000E+00
    0.25748E-12        -0.37937E-20         0.00000E+00
    0.25748E-12        -0.19311E-20         0.00000E+00
    0.25748E-12         0.74506E-20         0.00000E+00
    0.25748E-12         0.92448E-20         0.00000E+00
    0.25748E-12         0.73137E-20         0.00000E+00
    0.31455E-12         0.00000E+00         0.00000E+00
    0.31455E-12         0.27255E-20         0.00000E+00
    0.31455E-12        -0.10245E-19         0.00000E+00
    0.31455E-12        -0.20421E-19         0.00000E+00
    0.31455E-12        -0.24214E-19         0.00000E+00
    0.31455E-12        -0.16764E-19         0.00000E+00
    0.31455E-12        -0.13039E-19         0.00000E+00
    0.31455E-12        -0.22352E-19         0.00000E+00
    0.31455E-12        -0.56564E-20         0.00000E+00
    0.31455E-12         0.55879E-20         0.00000E+00
    0.31455E-12         0.56564E-20         0.00000E+00
    0.31455E-12         0.11176E-19         0.00000E+00
    0.31455E-12         0.64508E-20         0.00000E+00
    0.31455E-12         0.74506E-20         0.00000E+00
    0.31455E-12         0.12176E-19         0.00000E+00
    0.31455E-12        -0.68433E-22         0.00000E+00
    0.31455E-12        -0.46566E-20         0.00000E+00
    0.31455E-12        -0.37253E-20         0.00000E+00
    0.31455E-12        -0.15901E-19         0.00000E+00
    0.31455E-12        -0.17627E-19         0.00000E+00
    0.31455E-12        -0.10245E-19         0.00000E+00
    0.31455E-12         0.37253E-20         0.00000E+00
    0.31455E-12        -0.18626E-20         0.00000E+00
    0.31455E-12        -0.16832E-19         0.00000E+00
    0.31455E-12        -0.74506E-20         0.00000E+00
    0.31455E-12         0.00000E+00         0.00000E+00
    0.31455E-12         0.14038E-19         0.00000E+00
    0.31455E-12         0.13970E-19         0.00000E+00
    0.31455E-12         0.73821E-20         0.00000E+00
    0.31455E-12         0.84503E-20         0.00000E+00
    0.31455E-12         0.37253E-20         0.00000E+00
    0.31455E-12        -0.93132E-21         0.00000E+00
    0.31455E-12        -0.55195E-20         0.00000E+00
    0.31455E-12         0.17942E-20         0.00000E+00
    0.31455E-12        -0.74506E-20         0.00000E+00
    0.31455E-12        -0.11176E-19         0.00000E+00
    0.31455E-12        -0.75190E-20         0.00000E+00
    0.31455E-12        -0.11176E-19         0.00000E+00
    0.31455E-12        -0.73821E-20         0.00000E+00
    0.31455E-12        -0.14833E-19         0.00000E+00
    0.31455E-12        -0.22420E-19         0.00000E+00
    0.31455E-12        -0.14901E-19         0.00000E+00
    0.31455E-12        -0.55195E-20         0.00000E+00
    0.31455E-12        -0.37253E-20         0.00000E+00
    0.31455E-12         0.74506E-20         0.00000E+00
    0.31455E-12         0.26077E-19         0.00000E+00
    0.31455E-12         0.37253E-19         0.00000E+00
    0.31455E-12         0.29734E-19         0.00000E+00
    0.31455E-12         0.46566E-20         0.00000E+00
    0.31455E-12        -0.10245E-19         0.00000E+00
    0.31455E-12        -0.75874E-20         0.00000E+00
    0.38425E-12        -0.11039E-19         0.00000E+00
    0.38425E-12        -0.74506E-20         0.00000E+00
    0.38425E-12         0.37253E-20         0.00000E+00
    0.38425E-12         0.16764E-19         0.00000E+00
    0.38425E-12         0.14901E-19         0.00000E+00
    0.38425E-12         0.00000E+00         0.00000E+00
    0.38425E-12        -0.46566E-20         0.00000E+00
    0.38425E-12        -0.86289E-21         0.00000E+00
    0.38425E-12        -0.74506E-20         0.00000E+00
    0.38425E-12        -0.17764E-19         0.00000E+00
    0.38425E-12        -0.14038E-19         0.00000E+00
    0.38425E-12        -0.14901E-19         0.00000E+00
    0.38425E-12        -0.37253E-20         0.00000E+00
    0.38425E-12        -0.37253E-20         0.00000E+00
    0.38425E-12        -0.74506E-20         0.00000E+00
    0.38425E-12         0.11176E-19         0.00000E+00
    0.38425E-12         0.11176E-19         0.00000E+00
    0.38425E-12         0.74506E-20         0.00000E+00
    0.38425E-12         0.74506E-20         0.00000E+00
    0.38425E-12        -0.37253E-20         0.00000E+00
    0.38425E-12        -0.74506E-20         0.00000E+00
    0.38425E-12        -0.37253E-20         0.00000E+00
    0.38425E-12         0.37253E-20         0.00000E+00
    0.38425E-12        -0.18626E-20         0.00000E+00
    0.38425E-12        -0.37253E-20         0.00000E+00
    0.38425E-12         0.19311E-20         0.00000E+00
    0.38425E-12        -0.55879E-20         0.00000E+00
    0.38425E-12        -0.56564E-20         0.00000E+00
    0.38425E-12        -0.18626E-20         0.00000E+00
    0.38425E-12        -0.37253E-20         0.00000E+00
    0.38425E-12        -0.18626E-20         0.00000E+00
    0.38425E-12         0.13107E-19         0.00000E+00
    0.38425E-12         0.21420E-19         0.00000E+00
    0.38425E-12         0.27255E-20         0.00000E+00
    0.38425E-12         0.00000E+00         0.00000E+00
    0.38425E-12        -0.18626E-20         0.00000E+00
    0.38425E-12        -0.16764E-19         0.00000E+00
    0.38425E-12        -0.24214E-19         0.00000E+00
    0.38425E-12        -0.27940E-19         0.00000E+00
    0.38425E-12        -0.22283E-19         0.00000E+00
    0.38425E-12        -0.16764E-19         0.00000E+00
    0.38425E-12        -0.13039E-19         0.00000E+00
    0.38425E-12        -0.13039E-19         0.00000E+00
    0.38425E-12        -0.18626E-20         0.00000E+00
    0.38425E-12         0.37253E-20         0.00000E+00
    0.38425E-12        -0.75190E-20         0.00000E+00
    0.38425E-12        -0.55879E-20         0.00000E+00
    0.38425E-12         0.37253E-20         0.00000E+00
    0.38425E-12         0.93132E-20         0.00000E+00
    0.38425E-12         0.73821E-20         0.00000E+00
    0.38425E-12         0.73137E-20         0.00000E+00
    0.46931E-12        -0.74506E-20         0.00000E+00
    0.46931E-12        -0.37253E-20         0.00000E+00
    0.46931E-12         0.55879E-20         0.00000E+00
    0.46931E-12         0.93132E-20         0.00000E+00
    0.46931E-12         0.99975E-21         0.00000E+00
    0.46931E-12        -0.93132E-21         0.00000E+00
    0.46931E-12        -0.19311E-20         0.00000E+00
    0.46931E-12        -0.11176E-19         0.00000E+00
    0.46931E-12        -0.14901E-19         0.00000E+00
    0.46931E-12        -0.55879E-20         0.00000E+00
    0.46931E-12        -0.36569E-20         0.00000E+00
    0.46931E-12        -0.12107E-19         0.00000E+00
    0.46931E-12        -0.21489E-19         0.00000E+00
    0.46931E-12        -0.12970E-19         0.00000E+00
    0.46931E-12         0.93132E-21         0.00000E+00
    0.46931E-12         0.17258E-20         0.00000E+00
    0.46931E-12         0.12107E-19         0.00000E+00
    0.46931E-12         0.56564E-20         0.00000E+00
    0.46931E-12         0.37253E-20         0.00000E+00
    0.46931E-12         0.14901E-19         0.00000E+00
    0.46931E-12         0.18626E-19         0.00000E+00
    0.46931E-12         0.13039E-19         0.00000E+00
    0.46931E-12         0.00000E+00         0.00000E+00
    0.46931E-12        -0.93132E-20         0.00000E+00
    0.46931E-12        -0.16764E-19         0.00000E+00
    0.46931E-12        -0.14901E-19         0.00000E+00
    0.46931E-12         0.00000E+00         0.00000E+00
    0.46931E-12         0.74506E-20         0.00000E+00
    0.46931E-12         0.18626E-20         0.00000E+00
    0.46931E-12        -0.37253E-20         0.00000E+00
    0.46931E-12        -0.74506E-20         0.00000E+00
    0.46931E-12        -0.37253E-20         0.00000E+00
    0.46931E-12        -0.13039E-19         0.00000E+00
    0.46931E-12        -0.93132E-20         0.00000E+00
    0.46931E-12        -0.18626E-20         0.00000E+00
    0.46931E-12        -0.16832E-19         0.00000E+00
    0.46931E-12        -0.17695E-19         0.00000E+00
    0.46931E-12        -0.15764E-19         0.00000E+00
    0.46931E-12        -0.20489E-19         0.00000E+00
    0.46931E-12        -0.22352E-19         0.00000E+00
    0.46931E-12        -0.73822E-20         0.00000E+00
    0.46931E-12        -0.37253E-20         0.00000E+00
    0.46931E-12         0.36569E-20         0.00000E+00
    0.46931E-12         0.13039E-19         0.00000E+00
    0.46931E-12         0.14901E-19         0.00000E+00
    0.46931E-12         0.13039E-19         0.00000E+00
    0.46931E-12         0.68429E-22         0.00000E+00
    0.46931E-12        -0.46566E-20         0.00000E+00
    0.46931E-12        -0.10313E-19         0.00000E+00
    0.46931E-12        -0.68429E-22         0.00000E+00
    0.46931E-12         0.11039E-19         0.00000E+00
    0.57310E-12         0.74506E-20         0.00000E+00
    0.57310E-12         0.74506E-20         0.00000E+00
    0.57310E-12         0.55195E-20         0.00000E+00
    0.57310E-12         0.93132E-20         0.00000E+00
    0.57310E-12         0.11244E-19         0.00000E+00
    0.57310E-12         0.13039E-19         0.00000E+00
    0.57310E-12         0.14901E-19         0.00000E+00
    0.57310E-12         0.37253E-20         0.00000E+00
    0.57310E-12        -0.11176E-19         0.00000E+00
    0.57310E-12        -0.14901E-19         0.00000E+00
    0.57310E-12        -0.99975E-21         0.00000E+00
    0.57310E-12         0.83819E-20         0.00000E+00
    0.57310E-12         0.75190E-20         0.00000E+00
    0.57310E-12         0.11176E-19         0.00000E+00
    0.57310E-12         0.37253E-20         0.00000E+00
    0.57310E-12        -0.11176E-19         0.00000E+00
    0.57310E-12        -0.13039E-19         0.00000E+00
    0.57310E-12        -0.18626E-20         0.00000E+00
    0.57310E-12         0.18626E-20         0.00000E+00
    0.57310E-12         0.00000E+00         0.00000E+00
    0.57310E-12        -0.37253E-20         0.00000E+00
    0.57310E-12         0.00000E+00         0.00000E+00
    0.57310E-12         0.18626E-20         0.00000E+00
    0.57310E-12        -0.37253E-20         0.00000E+00
    0.57310E-12         0.55879E-20         0.00000E+00
    0.57310E-12         0.37253E-20         0.00000E+00
    0.57310E-12        -0.14901E-19         0.00000E+00
    0.57310E-12        -0.22352E-19         0.00000E+00
    0.57310E-12        -0.13039E-19         0.00000E+00
    0.57310E-12         0.55879E-20         0.00000E+00
    0.57310E-12         0.13039E-19         0.00000E+00
    0.57310E-12         0.18626E-20         0.00000E+00
    0.57310E-12        -0.74506E-20         0.00000E+00
    0.57310E-12        -0.14901E-19         0.00000E+00
    0.57310E-12        -0.11176E-19         0.00000E+00
    0.57310E-12        -0.18626E-20         0.00000E+00
    0.57310E-12        -0.93817E-20         0.00000E+00
    0.57310E-12        -0.20558E-19         0.00000E+00
    0.57310E-12        -0.20421E-19         0.00000E+00
    0.57310E-12        -0.36569E-20         0.00000E+00
    0.57310E-12         0.55879E-20         0.00000E+00
    0.57310E-12         0.11176E-19         0.00000E+00
    0.57310E-12         0.55879E-20         0.00000E+00
    0.57310E-12        -0.74506E-20         0.00000E+00
    0.57310E-12        -0.75190E-20         0.00000E+00
    0.57310E-12        -0.75190E-20         0.00000E+00
    0.57310E-12        -0.36569E-20         0.00000E+00
    0.57310E-12         0.37937E-20         0.00000E+00
    0.57310E-12        -0.37253E-20         0.00000E+00
    0.57310E-12        -0.75190E-20         0.00000E+00
    0.57310E-12        -0.13685E-21         0.00000E+00
    0.69970E-12         0.37253E-20         0.00000E+00
    0.69970E-12         0.47250E-20         0.00000E+00
    0.69970E-12         0.84503E-20         0.00000E+00
    0.69970E-12         0.73822E-20         0.00000E+00
    0.69970E-12         0.74506E-20         0.00000E+00
    0.69970E-12         0.13107E-19         0.00000E+00
    0.69970E-12         0.93132E-20         0.00000E+00
    0.69970E-12         0.83135E-20         0.00000E+00
    0.69970E-12         0.10176E-19         0.00000E+00
    0.69970E-12         0.15901E-19         0.00000E+00
    0.69970E-12         0.18626E-19         0.00000E+00
    0.69970E-12         0.86290E-21         0.00000E+00
    0.69970E-12        -0.55879E-20         0.00000E+00
    0.69970E-12        -0.11107E-19         0.00000E+00
    0.69970E-12        -0.37253E-20         0.00000E+00
    0.69970E-12         0.13970E-19         0.00000E+00
    0.69970E-12         0.15901E-19         0.00000E+00
    0.69970E-12         0.55879E-20         0.00000E+00
    0.69970E-12        -0.85188E-20         0.00000E+00
    0.69970E-12        -0.37253E-20         0.00000E+00
    0.69970E-12         0.66561E-20         0.00000E+00
    0.69970E-12         0.37253E-20         0.00000E+00
    0.69970E-12         0.55195E-20         0.00000E+00
    0.69970E-12        -0.93132E-21         0.00000E+00
    0.69970E-12        -0.19489E-19         0.00000E+00
    0.69970E-12        -0.20489E-19         0.00000E+00
    0.69970E-12        -0.11176E-19         0.00000E+00
    0.69970E-12        -0.93132E-20         0.00000E+00
    0.69970E-12        -0.11176E-19         0.00000E+00
    0.69970E-12        -0.21489E-19         0.00000E+00
    0.69970E-12        -0.21420E-19         0.00000E+00
    0.69970E-12        -0.11107E-19         0.00000E+00
    0.69970E-12         0.00000E+00         0.00000E+00
    0.69970E-12         0.55879E-20         0.00000E+00
    0.69970E-12         0.00000E+00         0.00000E+00
    0.69970E-12         0.00000E+00         0.00000E+00
    0.69970E-12         0.13039E-19         0.00000E+00
    0.69970E-12         0.74506E-20         0.00000E+00
    0.69970E-12        -0.19311E-20         0.00000E+00
    0.69970E-12        -0.11176E-19         0.00000E+00
    0.69970E-12        -0.16695E-19         0.00000E+00
    0.69970E-12        -0.16832E-19         0.00000E+00
    0.69970E-12        -0.13039E-19         0.00000E+00
    0.69970E-12        -0.12970E-19         0.00000E+00
    0.69970E-12        -0.14970E-19         0.00000E+00
    0.69970E-12        -0.37937E-20         0.00000E+00
    0.69970E-12        -0.93132E-20         0.00000E+00
    0.69970E-12        -0.14901E-19         0.00000E+00
    0.69970E-12         0.55879E-20         0.00000E+00
    0.69970E-12         0.13039E-19         0.00000E+00
    0.69970E-12         0.37253E-20         0.00000E+00
    0.85405E-12         0.00000E+00         0.00000E+00
    0.85405E-12         0.00000E+00         0.00000E+00
    0.85405E-12        -0.37253E-20         0.00000E+00
    0.85405E-12         0.18626E-20         0.00000E+00
    0.85405E-12         0.84503E-20         0.00000E+00
    0.85405E-12         0.14833E-19         0.00000E+00
    0.85405E-12         0.21284E-19         0.00000E+00
    0.85405E-12         0.18695E-19         0.00000E+00
    0.85405E-12         0.26145E-19         0.00000E+00
    0.85405E-12         0.15764E-19         0.00000E+00
    0.85405E-12        -0.55879E-20         0.00000E+00
    0.85405E-12        -0.64508E-20         0.00000E+00
    0.85405E-12         0.74506E-20         0.00000E+00
    0.85405E-12         0.93132E-20         0.00000E+00
    0.85405E-12        -0.18626E-20         0.00000E+00
    0.85405E-12        -0.13107E-19         0.00000E+00
    0.85405E-12         0.68421E-22         0.00000E+00
    0.85405E-12         0.23351E-19         0.00000E+00
    0.85405E-12         0.23146E-19         0.00000E+00
    0.85405E-12         0.14038E-19         0.00000E+00
    0.85405E-12         0.68421E-22         0.00000E+00
    0.85405E-12        -0.10313E-19         0.00000E+00
    0.85405E-12        -0.64508E-20         0.00000E+00
    0.85405E-12        -0.27255E-20         0.00000E+00
    0.85405E-12         0.79448E-21         0.00000E+00
    0.85405E-12        -0.93132E-20         0.00000E+00
    0.85405E-12        -0.25077E-19         0.00000E+00
    0.85405E-12        -0.24283E-19         0.00000E+00
    0.85405E-12        -0.18626E-19         0.00000E+00
    0.85405E-12        -0.19626E-19         0.00000E+00
    0.85405E-12        -0.16695E-19         0.00000E+00
    0.85405E-12        -0.63824E-20         0.00000E+00
    0.85405E-12        -0.47250E-20         0.00000E+00
    0.85405E-12        -0.15901E-19         0.00000E+00
    0.85405E-12        -0.27871E-19         0.00000E+00
    0.85405E-12        -0.16764E-19         0.00000E+00
    0.85405E-12        -0.55879E-20         0.00000E+00
    0.85405E-12        -0.55879E-20         0.00000E+00
    0.85405E-12        -0.13039E-19         0.00000E+00
    0.85405E-12        -0.16695E-19         0.00000E+00
    0.85405E-12        -0.19311E-20         0.00000E+00
    0.85405E-12         0.11107E-19         0.00000E+00
    0.85405E-12         0.13107E-19         0.00000E+00
    0.85405E-12        -0.55879E-20         0.00000E+00
    0.85405E-12        -0.14970E-19         0.00000E+00
    0.85405E-12        -0.11176E-19         0.00000E+00
    0.85405E-12         0.18626E-20         0.00000E+00
    0.85405E-12         0.16764E-19         0.00000E+00
    0.85405E-12         0.18695E-19         0.00000E+00
    0.85405E-12         0.64508E-20         0.00000E+00
    0.85405E-12        -0.58616E-20         0.00000E+00
    0.10422E-11        -0.35885E-20         0.00000E+00
    0.10422E-11        -0.37253E-20         0.00000E+00
    0.10422E-11         0.55879E-20         0.00000E+00
    0.10422E-11         0.18626E-19         0.00000E+00
    0.10422E-11         0.19558E-19         0.00000E+00
    0.10422E-11         0.18558E-19         0.00000E+00
    0.10422E-11        -0.68417E-22         0.00000E+00
    0.10422E-11        -0.55879E-20         0.00000E+00
    0.10422E-11        -0.84503E-20         0.00000E+00
    0.10422E-11        -0.74506E-20         0.00000E+00
    0.10422E-11         0.13107E-19         0.00000E+00
    0.10422E-11         0.14970E-19         0.00000E+00
    0.10422E-11         0.00000E+00         0.00000E+00
    0.10422E-11        -0.17942E-20         0.00000E+00
    0.10422E-11         0.45882E-20         0.00000E+00
    0.10422E-11         0.64508E-20         0.00000E+00
    0.10422E-11         0.00000E+00         0.00000E+00
    0.10422E-11        -0.11244E-19         0.00000E+00
    0.10422E-11        -0.12039E-19         0.00000E+00
    0.10422E-11        -0.86291E-21         0.00000E+00
    0.10422E-11         0.28624E-20         0.00000E+00
    0.10422E-11        -0.86291E-21         0.00000E+00
    0.10422E-11        -0.84503E-20         0.00000E+00
    0.10422E-11        -0.11176E-19         0.00000E+00
    0.10422E-11        -0.16832E-19         0.00000E+00
    0.10422E-11        -0.93132E-20         0.00000E+00
    0.10422E-11        -0.12039E-19         0.00000E+00
    0.10422E-11        -0.29008E-19         0.00000E+00
    0.10422E-11        -0.26077E-19         0.00000E+00
    0.10422E-11        -0.24214E-19         0.00000E+00
    0.10422E-11        -0.23283E-19         0.00000E+00
    0.10422E-11        -0.12902E-19         0.00000E+00
    0.10422E-11        -0.17942E-20         0.00000E+00
    0.10422E-11         0.17942E-20         0.00000E+00
    0.10422E-11         0.55879E-20         0.00000E+00
    0.10422E-11        -0.84503E-20         0.00000E+00
    0.10422E-11        -0.12244E-19         0.00000E+00
    0.10422E-11        -0.73822E-20         0.00000E+00
    0.10422E-11         0.74506E-20         0.00000E+00
    0.10422E-11         0.10245E-19         0.00000E+00
    0.10422E-11         0.46566E-20         0.00000E+00
    0.10422E-11         0.37253E-20         0.00000E+00
    0.10422E-11        -0.74506E-20         0.00000E+00
    0.10422E-11        -0.45882E-20         0.00000E+00
    0.10422E-11         0.84503E-20         0.00000E+00
    0.10422E-11         0.14833E-19         0.00000E+00
    0.10422E-11         0.74506E-20         0.00000E+00
    0.10422E-11        -0.93132E-20         0.00000E+00
    0.10422E-11        -0.93132E-20         0.00000E+00
    0.10422E-11        -0.19311E-20         0.00000E+00
    0.10422E-11         0.35885E-20         0.00000E+00
    0.12714E-11         0.37253E-20         0.00000E+00
    0.12714E-11         0.93816E-20         0.00000E+00
    0.12714E-11         0.74506E-20         0.00000E+00
    0.12714E-11         0.92448E-20         0.00000E+00
    0.12714E-11         0.74506E-20         0.00000E+00
    0.12714E-11        -0.64508E-20         0.00000E+00
    0.12714E-11         0.93132E-21         0.00000E+00
    0.12714E-11         0.11176E-19         0.00000E+00
    0.12714E-11         0.15832E-19         0.00000E+00
    0.12714E-11         0.93132E-20         0.00000E+00
    0.12714E-11         0.28624E-20         0.00000E+00
    0.12714E-11        -0.99973E-21         0.00000E+00
    0.12714E-11        -0.64508E-20         0.00000E+00
    0.12714E-11        -0.14833E-19         0.00000E+00
    0.12714E-11        -0.11313E-19         0.00000E+00
    0.12714E-11        -0.37937E-20         0.00000E+00
    0.12714E-11         0.00000E+00         0.00000E+00
    0.12714E-11         0.45882E-20         0.00000E+00
    0.12714E-11        -0.74506E-20         0.00000E+00
    0.12714E-11        -0.12039E-19         0.00000E+00
    0.12714E-11        -0.16695E-19         0.00000E+00
    0.12714E-11        -0.16695E-19         0.00000E+00
    0.12714E-11        -0.24283E-19         0.00000E+00
    0.12714E-11        -0.27008E-19         0.00000E+00
    0.12714E-11        -0.20489E-19         0.00000E+00
    0.12714E-11        -0.22352E-19         0.00000E+00
    0.12714E-11        -0.11176E-19         0.00000E+00
    0.12714E-11        -0.27940E-20         0.00000E+00
    0.12714E-11         0.19311E-20         0.00000E+00
    0.12714E-11        -0.28624E-20         0.00000E+00
    0.12714E-11        -0.15901E-19         0.00000E+00
    0.12714E-11        -0.21352E-19         0.00000E+00
    0.12714E-11        -0.15832E-19         0.00000E+00
    0.12714E-11        -0.68412E-22         0.00000E+00
    0.12714E-11        -0.18626E-20         0.00000E+00
    0.12714E-11        -0.74506E-20         0.00000E+00
    0.12714E-11        -0.17942E-20         0.00000E+00
    0.12714E-11         0.37253E-20         0.00000E+00
    0.12714E-11         0.93132E-20         0.00000E+00
    0.12714E-11         0.11244E-19         0.00000E+00
    0.12714E-11         0.17942E-20         0.00000E+00
    0.12714E-11        -0.11244E-19         0.00000E+00
    0.12714E-11        -0.74506E-20         0.00000E+00
    0.12714E-11        -0.18626E-20         0.00000E+00
    0.12714E-11        -0.93132E-20         0.00000E+00
    0.12714E-11        -0.10176E-19         0.00000E+00
    0.12714E-11        -0.18626E-20         0.00000E+00
    0.12714E-11         0.65193E-20         0.00000E+00
    0.12714E-11         0.83819E-20         0.00000E+00
    0.12714E-11         0.73822E-20         0.00000E+00
    0.12714E-11         0.00000E+00         0.00000E+00
    0.15506E-11        -0.37253E-20         0.00000E+00
    0.15506E-11        -0.37937E-20         0.00000E+00
    0.15506E-11         0.37253E-20         0.00000E+00
    0.15506E-11         0.10681E-20         0.00000E+00
    0.15506E-11         0.27940E-20         0.00000E+00
    0.15506E-11         0.14833E-19         0.00000E+00
    0.15506E-11         0.13039E-19         0.00000E+00
    0.15506E-11        -0.37253E-20         0.00000E+00
    0.15506E-11        -0.13039E-19         0.00000E+00
    0.15506E-11        -0.73822E-20         0.00000E+00
    0.15506E-11        -0.55879E-20         0.00000E+00
    0.15506E-11        -0.56563E-20         0.00000E+00
    0.15506E-11        -0.74506E-20         0.00000E+00
    0.15506E-11        -0.74506E-20         0.00000E+00
    0.15506E-11        -0.13039E-19         0.00000E+00
    0.15506E-11        -0.25077E-19         0.00000E+00
    0.15506E-11        -0.30665E-19         0.00000E+00
    0.15506E-11        -0.37321E-19         0.00000E+00
    0.15506E-11        -0.24283E-19         0.00000E+00
    0.15506E-11        -0.11176E-19         0.00000E+00
    0.15506E-11        -0.13039E-19         0.00000E+00
    0.15506E-11        -0.18558E-19         0.00000E+00
    0.15506E-11        -0.22283E-19         0.00000E+00
    0.15506E-11        -0.26077E-19         0.00000E+00
    0.15506E-11        -0.25214E-19         0.00000E+00
    0.15506E-11        -0.14038E-19         0.00000E+00
    0.15506E-11        -0.17942E-20         0.00000E+00
    0.15506E-11        -0.55195E-20         0.00000E+00
    0.15506E-11        -0.93816E-20         0.00000E+00
    0.15506E-11        -0.56563E-20         0.00000E+00
    0.15506E-11        -0.11176E-19         0.00000E+00
    0.15506E-11        -0.14901E-19         0.00000E+00
    0.15506E-11        -0.14833E-19         0.00000E+00
    0.15506E-11        -0.24146E-19         0.00000E+00
    0.15506E-11        -0.14970E-19         0.00000E+00
    0.15506E-11        -0.19311E-20         0.00000E+00
    0.15506E-11         0.74506E-20         0.00000E+00
    0.15506E-11         0.14901E-19         0.00000E+00
    0.15506E-11         0.55879E-20         0.00000E+00
    0.15506E-11         0.68406E-22         0.00000E+00
    0.15506E-11        -0.93132E-20         0.00000E+00
    0.15506E-11        -0.13107E-19         0.00000E+00
    0.15506E-11        -0.14901E-19         0.00000E+00
    0.15506E-11        -0.14901E-19         0.00000E+00
    0.15506E-11        -0.11176E-19         0.00000E+00
    0.15506E-11        -0.36569E-20         0.00000E+00
    0.15506E-11         0.27940E-20         0.00000E+00
    0.15506E-11         0.17942E-20         0.00000E+00
    0.15506E-11         0.14901E-19         0.00000E+00
    0.15506E-11         0.73822E-20         0.00000E+00
    0.15506E-11        -0.38621E-20         0.00000E+00
    0.18906E-11        -0.11176E-19         0.00000E+00
    0.18906E-11         0.00000E+00         0.00000E+00
    0.18906E-11         0.93132E-20         0.00000E+00
    0.18906E-11         0.37253E-20         0.00000E+00
    0.18906E-11        -0.93132E-20         0.00000E+00
    0.18906E-11        -0.18626E-19         0.00000E+00
    0.18906E-11        -0.18626E-19         0.00000E+00
    0.18906E-11        -0.13039E-19         0.00000E+00
    0.18906E-11        -0.55879E-20         0.00000E+00
    0.18906E-11        -0.37253E-20         0.00000E+00
    0.18906E-11        -0.55879E-20         0.00000E+00
    0.18906E-11        -0.93132E-20         0.00000E+00
    0.18906E-11        -0.11176E-19         0.00000E+00
    0.18906E-11        -0.16764E-19         0.00000E+00
    0.18906E-11        -0.29802E-19         0.00000E+00
    0.18906E-11        -0.35390E-19         0.00000E+00
    0.18906E-11        -0.22352E-19         0.00000E+00
    0.18906E-11        -0.18626E-19         0.00000E+00
    0.18906E-11        -0.19695E-19         0.00000E+00
    0.18906E-11        -0.14901E-19         0.00000E+00
    0.18906E-11        -0.21284E-19         0.00000E+00
    0.18906E-11        -0.20489E-19         0.00000E+00
    0.18906E-11        -0.93132E-20         0.00000E+00
    0.18906E-11        -0.37253E-20         0.00000E+00
    0.18906E-11        -0.74506E-20         0.00000E+00
    0.18906E-11        -0.14901E-19         0.00000E+00
    0.18906E-11        -0.20489E-19         0.00000E+00
    0.18906E-11        -0.29802E-19         0.00000E+00
    0.18906E-11        -0.39116E-19         0.00000E+00
    0.18906E-11        -0.29802E-19         0.00000E+00
    0.18906E-11        -0.16764E-19         0.00000E+00
    0.18906E-11        -0.11176E-19         0.00000E+00
    0.18906E-11        -0.11176E-19         0.00000E+00
    0.18906E-11        -0.14901E-19         0.00000E+00
    0.18906E-11        -0.24214E-19         0.00000E+00
    0.18906E-11        -0.24214E-19         0.00000E+00
    0.18906E-11        -0.20489E-19         0.00000E+00
    0.18906E-11        -0.11176E-19         0.00000E+00
    0.18906E-11         0.74506E-20         0.00000E+00
    0.18906E-11         0.74506E-20         0.00000E+00
    0.18906E-11         0.93132E-20         0.00000E+00
    0.18906E-11         0.14901E-19         0.00000E+00
    0.18906E-11         0.11176E-19         0.00000E+00
    0.18906E-11        -0.93132E-20         0.00000E+00
    0.18906E-11        -0.31665E-19         0.00000E+00
    0.18906E-11        -0.31665E-19         0.00000E+00
    0.18906E-11        -0.22352E-19         0.00000E+00
    0.18906E-11        -0.22352E-19         0.00000E+00
    0.18906E-11        -0.24214E-19         0.00000E+00
    0.18906E-11        -0.74506E-20         0.00000E+00
    0.18906E-11         0.74506E-20         0.00000E+00
    0.23045E-11         0.14628E-19         0.00000E+00
    0.23045E-11         0.10245E-19         0.00000E+00
    0.23045E-11        -0.63825E-20         0.00000E+00
    0.23045E-11        -0.16764E-19         0.00000E+00
    0.23045E-11        -0.16764E-19         0.00000E+00
    0.23045E-11        -0.16764E-19         0.00000E+00
    0.23045E-11        -0.93132E-20         0.00000E+00
    0.23045E-11        -0.11313E-19         0.00000E+00
    0.23045E-11        -0.15832E-19         0.00000E+00
    0.23045E-11        -0.15696E-19         0.00000E+00
    0.23045E-11        -0.22352E-19         0.00000E+00
    0.23045E-11        -0.22352E-19         0.00000E+00
    0.23045E-11        -0.74506E-20         0.00000E+00
    0.23045E-11        -0.55879E-20         0.00000E+00
    0.23045E-11        -0.16764E-19         0.00000E+00
    0.23045E-11        -0.17832E-19         0.00000E+00
    0.23045E-11        -0.24214E-19         0.00000E+00
    0.23045E-11        -0.25009E-19         0.00000E+00
    0.23045E-11        -0.24214E-19         0.00000E+00
    0.23045E-11        -0.14901E-19         0.00000E+00
    0.23045E-11        -0.93132E-20         0.00000E+00
    0.23045E-11        -0.22352E-19         0.00000E+00
    0.23045E-11        -0.35390E-19         0.00000E+00
    0.23045E-11        -0.33528E-19         0.00000E+00
    0.23045E-11        -0.29802E-19         0.00000E+00
    0.23045E-11        -0.24214E-19         0.00000E+00
    0.23045E-11        -0.18626E-19         0.00000E+00
    0.23045E-11        -0.14901E-19         0.00000E+00
    0.23045E-11        -0.18626E-19         0.00000E+00
    0.23045E-11        -0.16764E-19         0.00000E+00
    0.23045E-11         0.00000E+00         0.00000E+00
    0.23045E-11        -0.14901E-19         0.00000E+00
    0.23045E-11        -0.26077E-19         0.00000E+00
    0.23045E-11        -0.18626E-19         0.00000E+00
    0.23045E-11        -0.26077E-19         0.00000E+00
    0.23045E-11        -0.24214E-19         0.00000E+00
    0.23045E-11        -0.14901E-19         0.00000E+00
    0.23045E-11        -0.93132E-20         0.00000E+00
    0.23045E-11        -0.93132E-20         0.00000E+00
    0.23045E-11        -0.10381E-19         0.00000E+00
    0.23045E-11        -0.16764E-19         0.00000E+00
    0.23045E-11        -0.15696E-19         0.00000E+00
    0.23045E-11        -0.55879E-20         0.00000E+00
    0.23045E-11        -0.37253E-20         0.00000E+00
    0.23045E-11        -0.18626E-20         0.00000E+00
    0.23045E-11         0.00000E+00         0.00000E+00
    0.23045E-11        -0.18626E-20         0.00000E+00
    0.23045E-11         0.73138E-20         0.00000E+00
    0.23045E-11         0.83819E-20         0.00000E+00
    0.23045E-11        -0.26572E-20         0.00000E+00
    0.23045E-11        -0.74506E-20         0.00000E+00
    0.28080E-11        -0.17037E-19         0.00000E+00
    0.28080E-11        -0.74506E-20         0.00000E+00
    0.28080E-11         0.29307E-20         0.00000E+00
    0.28080E-11        -0.18626E-20         0.00000E+00
    0.28080E-11        -0.10381E-19         0.00000E+00
    0.28080E-11        -0.15969E-19         0.00000E+00
    0.28080E-11        -0.23146E-19         0.00000E+00
    0.28080E-11        -0.28734E-19         0.00000E+00
    0.28080E-11        -0.29802E-19         0.00000E+00
    0.28080E-11        -0.22352E-19         0.00000E+00
    0.28080E-11        -0.13039E-19         0.00000E+00
    0.28080E-11        -0.93132E-20         0.00000E+00
    0.28080E-11        -0.24214E-19         0.00000E+00
    0.28080E-11        -0.20489E-19         0.00000E+00
    0.28080E-11        -0.93132E-20         0.00000E+00
    0.28080E-11        -0.93132E-20         0.00000E+00
    0.28080E-11        -0.37253E-20         0.00000E+00
    0.28080E-11        -0.18626E-20         0.00000E+00
    0.28080E-11        -0.37253E-20         0.00000E+00
    0.28080E-11        -0.14901E-19         0.00000E+00
    0.28080E-11        -0.35390E-19         0.00000E+00
    0.28080E-11        -0.35390E-19         0.00000E+00
    0.28080E-11        -0.31665E-19         0.00000E+00
    0.28080E-11        -0.27940E-19         0.00000E+00
    0.28080E-11        -0.18626E-19         0.00000E+00
    0.28080E-11        -0.14901E-19         0.00000E+00
    0.28080E-11        -0.13039E-19         0.00000E+00
    0.28080E-11        -0.24214E-19         0.00000E+00
    0.28080E-11        -0.29802E-19         0.00000E+00
    0.28080E-11        -0.27940E-19         0.00000E+00
    0.28080E-11        -0.29802E-19         0.00000E+00
    0.28080E-11        -0.18626E-19         0.00000E+00
    0.28080E-11        -0.55879E-20         0.00000E+00
    0.28080E-11        -0.74506E-20         0.00000E+00
    0.28080E-11        -0.93132E-20         0.00000E+00
    0.28080E-11        -0.14901E-19         0.00000E+00
    0.28080E-11        -0.29802E-19         0.00000E+00
    0.28080E-11        -0.37253E-19         0.00000E+00
    0.28080E-11        -0.24214E-19         0.00000E+00
    0.28080E-11        -0.15969E-19         0.00000E+00
    0.28080E-11        -0.16764E-19         0.00000E+00
    0.28080E-11        -0.19421E-19         0.00000E+00
    0.28080E-11        -0.31665E-19         0.00000E+00
    0.28080E-11        -0.31665E-19         0.00000E+00
    0.28080E-11        -0.14901E-19         0.00000E+00
    0.28080E-11        -0.37253E-20         0.00000E+00
    0.28080E-11        -0.94500E-20         0.00000E+00
    0.28080E-11        -0.14901E-19         0.00000E+00
    0.28080E-11        -0.11039E-19         0.00000E+00
    0.28080E-11         0.00000E+00         0.00000E+00
    0.28080E-11         0.74506E-20         0.00000E+00
    0.34205E-11         0.13312E-19         0.00000E+00
    0.34205E-11         0.55879E-20         0.00000E+00
    0.34205E-11        -0.12244E-19         0.00000E+00
    0.34205E-11        -0.11039E-19         0.00000E+00
    0.34205E-11        -0.27940E-20         0.00000E+00
    0.34205E-11        -0.29307E-20         0.00000E+00
    0.34205E-11        -0.82452E-20         0.00000E+00
    0.34205E-11        -0.21284E-19         0.00000E+00
    0.34205E-11        -0.15969E-19         0.00000E+00
    0.34205E-11        -0.65193E-20         0.00000E+00
    0.34205E-11        -0.19558E-19         0.00000E+00
    0.34205E-11        -0.93132E-20         0.00000E+00
    0.34205E-11         0.74506E-20         0.00000E+00
    0.34205E-11        -0.18626E-20         0.00000E+00
    0.34205E-11        -0.82452E-20         0.00000E+00
    0.34205E-11        -0.10381E-19         0.00000E+00
    0.34205E-11        -0.47933E-20         0.00000E+00
    0.34205E-11        -0.74506E-20         0.00000E+00
    0.34205E-11        -0.29802E-19         0.00000E+00
    0.34205E-11        -0.45498E-19         0.00000E+00
    0.34205E-11        -0.30597E-19         0.00000E+00
    0.34205E-11        -0.11176E-19         0.00000E+00
    0.34205E-11        -0.93132E-20         0.00000E+00
    0.34205E-11        -0.22352E-19         0.00000E+00
    0.34205E-11        -0.26077E-19         0.00000E+00
    0.34205E-11        -0.31665E-19         0.00000E+00
    0.34205E-11        -0.26077E-19         0.00000E+00
    0.34205E-11         0.00000E+00         0.00000E+00
    0.34205E-11         0.63825E-20         0.00000E+00
    0.34205E-11        -0.13241E-33         0.00000E+00
    0.34205E-11        -0.10108E-19         0.00000E+00
    0.34205E-11        -0.24214E-19         0.00000E+00
    0.34205E-11        -0.37253E-19         0.00000E+00
    0.34205E-11        -0.33528E-19         0.00000E+00
    0.34205E-11        -0.27940E-19         0.00000E+00
    0.34205E-11        -0.30870E-19         0.00000E+00
    0.34205E-11        -0.13039E-19         0.00000E+00
    0.34205E-11         0.10681E-20         0.00000E+00
    0.34205E-11        -0.15969E-19         0.00000E+00
    0.34205E-11        -0.25282E-19         0.00000E+00
    0.34205E-11        -0.20489E-19         0.00000E+00
    0.34205E-11        -0.26872E-19         0.00000E+00
    0.34205E-11        -0.24214E-19         0.00000E+00
    0.34205E-11        -0.19695E-19         0.00000E+00
    0.34205E-11        -0.26872E-19         0.00000E+00
    0.34205E-11        -0.28734E-19         0.00000E+00
    0.34205E-11        -0.19695E-19         0.00000E+00
    0.34205E-11        -0.46566E-20         0.00000E+00
    0.34205E-11        -0.54512E-20         0.00000E+00
    0.34205E-11        -0.55879E-20         0.00000E+00
    0.34205E-11        -0.74506E-20         0.00000E+00
    0.41652E-11        -0.74506E-20         0.00000E+00
    0.41652E-11        -0.63826E-20         0.00000E+00
    0.41652E-11        -0.18626E-20         0.00000E+00
    0.41652E-11         0.45199E-20         0.00000E+00
    0.41652E-11         0.37253E-20         0.00000E+00
    0.41652E-11         0.66560E-20         0.00000E+00
    0.41652E-11         0.15969E-19         0.00000E+00
    0.41652E-11         0.14901E-19         0.00000E+00
    0.41652E-11         0.26573E-20         0.00000E+00
    0.41652E-11        -0.66560E-20         0.00000E+00
    0.41652E-11        -0.10108E-19         0.00000E+00
    0.41652E-11        -0.18626E-19         0.00000E+00
    0.41652E-11        -0.21557E-19         0.00000E+00
    0.41652E-11        -0.23146E-19         0.00000E+00
    0.41652E-11        -0.11176E-19         0.00000E+00
    0.41652E-11        -0.93132E-20         0.00000E+00
    0.41652E-11        -0.17558E-19         0.00000E+00
    0.41652E-11        -0.25282E-19         0.00000E+00
    0.41652E-11        -0.14107E-19         0.00000E+00
    0.41652E-11         0.00000E+00         0.00000E+00
    0.41652E-11        -0.15696E-19         0.00000E+00
    0.41652E-11        -0.28734E-19         0.00000E+00
    0.41652E-11        -0.31665E-19         0.00000E+00
    0.41652E-11        -0.22352E-19         0.00000E+00
    0.41652E-11        -0.47933E-20         0.00000E+00
    0.41652E-11        -0.25127E-33         0.00000E+00
    0.41652E-11        -0.82452E-20         0.00000E+00
    0.41652E-11        -0.13039E-19         0.00000E+00
    0.41652E-11        -0.16764E-19         0.00000E+00
    0.41652E-11        -0.25282E-19         0.00000E+00
    0.41652E-11        -0.22352E-19         0.00000E+00
    0.41652E-11        -0.26573E-20         0.00000E+00
    0.41652E-11        -0.47933E-20         0.00000E+00
    0.41652E-11        -0.29008E-19         0.00000E+00
    0.41652E-11        -0.27940E-19         0.00000E+00
    0.41652E-11        -0.74506E-20         0.00000E+00
    0.41652E-11        -0.55879E-20         0.00000E+00
    0.41652E-11        -0.82452E-20         0.00000E+00
    0.41652E-11         0.66560E-20         0.00000E+00
    0.41652E-11         0.10108E-19         0.00000E+00
    0.41652E-11        -0.10680E-20         0.00000E+00
    0.41652E-11        -0.14901E-19         0.00000E+00
    0.41652E-11        -0.26872E-19         0.00000E+00
    0.41652E-11        -0.23146E-19         0.00000E+00
    0.41652E-11        -0.18626E-19         0.00000E+00
    0.41652E-11        -0.13039E-19         0.00000E+00
    0.41652E-11        -0.15969E-19         0.00000E+00
    0.41652E-11        -0.10381E-19         0.00000E+00
    0.41652E-11         0.00000E+00         0.00000E+00
    0.41652E-11         0.74506E-20         0.00000E+00
    0.41652E-11         0.14901E-19         0.00000E+00
    0.50703E-11        -0.37253E-20         0.00000E+00
    0.50703E-11        -0.55879E-20         0.00000E+00
    0.50703E-11        -0.55879E-20         0.00000E+00
    0.50703E-11        -0.74506E-20         0.00000E+00
    0.50703E-11        -0.74506E-20         0.00000E+00
    0.50703E-11        -0.26573E-20         0.00000E+00
    0.50703E-11         0.82452E-20         0.00000E+00
    0.50703E-11         0.79466E-21         0.00000E+00
    0.50703E-11        -0.93132E-20         0.00000E+00
    0.50703E-11        -0.93132E-21         0.00000E+00
    0.50703E-11         0.19993E-20         0.00000E+00
    0.50703E-11         0.00000E+00         0.00000E+00
    0.50703E-11        -0.55879E-20         0.00000E+00
    0.50703E-11        -0.13039E-19         0.00000E+00
    0.50703E-11        -0.13039E-19         0.00000E+00
    0.50703E-11        -0.12902E-19         0.00000E+00
    0.50703E-11        -0.35886E-20         0.00000E+00
    0.50703E-11        -0.10381E-19         0.00000E+00
    0.50703E-11        -0.22625E-19         0.00000E+00
    0.50703E-11        -0.16764E-19         0.00000E+00
    0.50703E-11        -0.17558E-19         0.00000E+00
    0.50703E-11        -0.19421E-19         0.00000E+00
    0.50703E-11        -0.11971E-19         0.00000E+00
    0.50703E-11        -0.21557E-19         0.00000E+00
    0.50703E-11        -0.29008E-19         0.00000E+00
    0.50703E-11        -0.17558E-19         0.00000E+00
    0.50703E-11        -0.45200E-20         0.00000E+00
    0.50703E-11        -0.47933E-20         0.00000E+00
    0.50703E-11         0.82452E-20         0.00000E+00
    0.50703E-11         0.13039E-19         0.00000E+00
    0.50703E-11         0.55879E-20         0.00000E+00
    0.50703E-11        -0.10108E-19         0.00000E+00
    0.50703E-11        -0.74506E-20         0.00000E+00
    0.50703E-11         0.82452E-20         0.00000E+00
    0.50703E-11         0.00000E+00         0.00000E+00
    0.50703E-11        -0.13039E-19         0.00000E+00
    0.50703E-11        -0.13039E-19         0.00000E+00
    0.50703E-11        -0.55879E-20         0.00000E+00
    0.50703E-11        -0.18626E-20         0.00000E+00
    0.50703E-11        -0.55879E-20         0.00000E+00
    0.50703E-11        -0.37253E-20         0.00000E+00
    0.50703E-11        -0.55879E-20         0.00000E+00
    0.50703E-11        -0.55879E-20         0.00000E+00
    0.50703E-11        -0.82452E-20         0.00000E+00
    0.50703E-11        -0.11971E-19         0.00000E+00
    0.50703E-11        -0.94499E-20         0.00000E+00
    0.50703E-11        -0.27940E-20         0.00000E+00
    0.50703E-11        -0.46566E-20         0.00000E+00
    0.50703E-11        -0.18763E-19         0.00000E+00
    0.50703E-11        -0.24214E-19         0.00000E+00
    0.50703E-11        -0.26077E-19         0.00000E+00
    0.61700E-11        -0.22352E-19         0.00000E+00
    0.61700E-11        -0.14901E-19         0.00000E+00
    0.61700E-11         0.00000E+00         0.00000E+00
    0.61700E-11         0.12244E-19         0.00000E+00
    0.61700E-11         0.17695E-19         0.00000E+00
    0.61700E-11         0.19285E-19         0.00000E+00
    0.61700E-11         0.46566E-20         0.00000E+00
    0.61700E-11         0.13661E-21         0.00000E+00
    0.61700E-11        -0.37253E-20         0.00000E+00
    0.61700E-11        -0.16764E-19         0.00000E+00
    0.61700E-11        -0.24214E-19         0.00000E+00
    0.61700E-11        -0.25009E-19         0.00000E+00
    0.61700E-11        -0.11176E-19         0.00000E+00
    0.61700E-11         0.00000E+00         0.00000E+00
    0.61700E-11        -0.55879E-20         0.00000E+00
    0.61700E-11        -0.66559E-20         0.00000E+00
    0.61700E-11        -0.18626E-20         0.00000E+00
    0.61700E-11        -0.55879E-20         0.00000E+00
    0.61700E-11        -0.55879E-20         0.00000E+00
    0.61700E-11        -0.20489E-19         0.00000E+00
    0.61700E-11        -0.27940E-19         0.00000E+00
    0.61700E-11        -0.20489E-19         0.00000E+00
    0.61700E-11        -0.18626E-19         0.00000E+00
    0.61700E-11        -0.15696E-19         0.00000E+00
    0.61700E-11        -0.47932E-20         0.00000E+00
    0.61700E-11         0.00000E+00         0.00000E+00
    0.61700E-11        -0.26574E-20         0.00000E+00
    0.61700E-11        -0.47932E-20         0.00000E+00
    0.61700E-11        -0.16764E-19         0.00000E+00
    0.61700E-11        -0.18626E-19         0.00000E+00
    0.61700E-11        -0.11176E-19         0.00000E+00
    0.61700E-11        -0.18626E-20         0.00000E+00
    0.61700E-11        -0.37253E-20         0.00000E+00
    0.61700E-11        -0.18626E-19         0.00000E+00
    0.61700E-11        -0.11176E-19         0.00000E+00
    0.61700E-11         0.55879E-20         0.00000E+00
    0.61700E-11         0.20489E-19         0.00000E+00
    0.61700E-11         0.27940E-19         0.00000E+00
    0.61700E-11         0.16764E-19         0.00000E+00
    0.61700E-11         0.74506E-20         0.00000E+00
    0.61700E-11         0.79471E-21         0.00000E+00
    0.61700E-11         0.66157E-34         0.00000E+00
    0.61700E-11         0.10381E-19         0.00000E+00
    0.61700E-11         0.45200E-20         0.00000E+00
    0.61700E-11        -0.11971E-19         0.00000E+00
    0.61700E-11        -0.16491E-19         0.00000E+00
    0.61700E-11        -0.16900E-19         0.00000E+00
    0.61700E-11        -0.75872E-20         0.00000E+00
    0.61700E-11         0.37253E-20         0.00000E+00
    0.61700E-11         0.11971E-19         0.00000E+00
    0.61700E-11         0.27666E-19         0.00000E+00
    0.75056E-11         0.53148E-20         0.00000E+00
    0.75056E-11         0.46566E-20         0.00000E+00
    0.75056E-11        -0.54514E-20         0.00000E+00
    0.75056E-11        -0.13039E-19         0.00000E+00
    0.75056E-11        -0.93132E-20         0.00000E+00
    0.75056E-11        -0.55879E-20         0.00000E+00
    0.75056E-11         0.79477E-21         0.00000E+00
    0.75056E-11         0.10108E-19         0.00000E+00
    0.75056E-11        -0.45201E-20         0.00000E+00
    0.75056E-11        -0.21284E-19         0.00000E+00
    0.75056E-11        -0.14106E-19         0.00000E+00
    0.75056E-11         0.83819E-20         0.00000E+00
    0.75056E-11         0.19992E-20         0.00000E+00
    0.75056E-11        -0.82454E-20         0.00000E+00
    0.75056E-11        -0.18626E-20         0.00000E+00
    0.75056E-11        -0.15969E-19         0.00000E+00
    0.75056E-11        -0.22352E-19         0.00000E+00
    0.75056E-11        -0.17832E-19         0.00000E+00
    0.75056E-11        -0.12244E-19         0.00000E+00
    0.75056E-11        -0.63827E-20         0.00000E+00
    0.75056E-11        -0.11971E-19         0.00000E+00
    0.75056E-11        -0.26077E-19         0.00000E+00
    0.75056E-11        -0.31665E-19         0.00000E+00
    0.75056E-11        -0.22215E-19         0.00000E+00
    0.75056E-11        -0.38618E-20         0.00000E+00
    0.75056E-11        -0.55879E-20         0.00000E+00
    0.75056E-11        -0.26574E-20         0.00000E+00
    0.75056E-11         0.10108E-19         0.00000E+00
    0.75056E-11         0.11176E-19         0.00000E+00
    0.75056E-11         0.37253E-20         0.00000E+00
    0.75056E-11         0.00000E+00         0.00000E+00
    0.75056E-11         0.85185E-20         0.00000E+00
    0.75056E-11         0.22352E-19         0.00000E+00
    0.75056E-11         0.25009E-19         0.00000E+00
    0.75056E-11         0.55879E-20         0.00000E+00
    0.75056E-11        -0.10679E-20         0.00000E+00
    0.75056E-11         0.00000E+00         0.00000E+00
    0.75056E-11        -0.10108E-19         0.00000E+00
    0.75056E-11        -0.15969E-19         0.00000E+00
    0.75056E-11        -0.74506E-20         0.00000E+00
    0.75056E-11         0.47932E-20         0.00000E+00
    0.75056E-11        -0.47932E-20         0.00000E+00
    0.75056E-11        -0.17832E-19         0.00000E+00
    0.75056E-11        -0.13833E-19         0.00000E+00
    0.75056E-11         0.10679E-20         0.00000E+00
    0.75056E-11         0.37253E-20         0.00000E+00
    0.75056E-11        -0.38618E-20         0.00000E+00
    0.75056E-11        -0.55879E-20         0.00000E+00
    0.75056E-11        -0.27940E-20         0.00000E+00
    0.75056E-11        -0.85185E-20         0.00000E+00
    0.75056E-11        -0.18626E-19         0.00000E+00
    0.91269E-11        -0.74506E-20         0.00000E+00
    0.91269E-11        -0.10381E-19         0.00000E+00
    0.91269E-11         0.37253E-20         0.00000E+00
    0.91269E-11         0.15969E-19         0.00000E+00
    0.91269E-11         0.93132E-20         0.00000E+00
    0.91269E-11         0.18626E-20         0.00000E+00
    0.91269E-11        -0.37253E-20         0.00000E+00
    0.91269E-11        -0.18626E-20         0.00000E+00
    0.91269E-11         0.26575E-20         0.00000E+00
    0.91269E-11         0.55879E-20         0.00000E+00
    0.91269E-11        -0.63828E-20         0.00000E+00
    0.91269E-11        -0.31665E-19         0.00000E+00
    0.91269E-11        -0.30870E-19         0.00000E+00
    0.91269E-11        -0.13039E-19         0.00000E+00
    0.91269E-11        -0.13833E-19         0.00000E+00
    0.91269E-11        -0.66557E-20         0.00000E+00
    0.91269E-11         0.93132E-21         0.00000E+00
    0.91269E-11        -0.65193E-20         0.00000E+00
    0.91269E-11        -0.85184E-20         0.00000E+00
    0.91269E-11        -0.15696E-19         0.00000E+00
    0.91269E-11        -0.26077E-19         0.00000E+00
    0.91269E-11        -0.20489E-19         0.00000E+00
    0.91269E-11        -0.55879E-20         0.00000E+00
    0.91269E-11         0.79484E-21         0.00000E+00
    0.91269E-11        -0.18626E-20         0.00000E+00
    0.91269E-11         0.18626E-20         0.00000E+00
    0.91269E-11         0.47931E-20         0.00000E+00
    0.91269E-11         0.55879E-20         0.00000E+00
    0.91269E-11         0.10108E-19         0.00000E+00
    0.91269E-11         0.85184E-20         0.00000E+00
    0.91269E-11        -0.37253E-20         0.00000E+00
    0.91269E-11        -0.37253E-20         0.00000E+00
    0.91269E-11         0.12244E-19         0.00000E+00
    0.91269E-11         0.11971E-19         0.00000E+00
    0.91269E-11         0.14901E-19         0.00000E+00
    0.91269E-11         0.55879E-20         0.00000E+00
    0.91269E-11        -0.66557E-20         0.00000E+00
    0.91269E-11        -0.74506E-20         0.00000E+00
    0.91269E-11        -0.82454E-20         0.00000E+00
    0.91269E-11        -0.45201E-20         0.00000E+00
    0.91269E-11        -0.66557E-20         0.00000E+00
    0.91269E-11         0.37253E-20         0.00000E+00
    0.91269E-11         0.66557E-20         0.00000E+00
    0.91269E-11        -0.93132E-20         0.00000E+00
    0.91269E-11        -0.29802E-19         0.00000E+00
    0.91269E-11        -0.22352E-19         0.00000E+00
    0.91269E-11         0.00000E+00         0.00000E+00
    0.91269E-11        -0.38618E-20         0.00000E+00
    0.91269E-11        -0.19558E-19         0.00000E+00
    0.91269E-11        -0.16764E-19         0.00000E+00
    0.91269E-11        -0.21356E-20         0.00000E+00
    0.11094E-10        -0.11176E-19         0.00000E+00
    0.11094E-10         0.18626E-20         0.00000E+00
    0.11094E-10         0.63829E-20         0.00000E+00
    0.11094E-10        -0.10677E-20         0.00000E+00
    0.11094E-10         0.11312E-19         0.00000E+00
    0.11094E-10         0.28076E-19         0.00000E+00
    0.11094E-10         0.82455E-20         0.00000E+00
    0.11094E-10        -0.19694E-19         0.00000E+00
    0.11094E-10        -0.24214E-19         0.00000E+00
    0.11094E-10        -0.13833E-19         0.00000E+00
    0.11094E-10        -0.37253E-20         0.00000E+00
    0.11094E-10         0.45202E-20         0.00000E+00
    0.11094E-10        -0.37253E-20         0.00000E+00
    0.11094E-10        -0.19421E-19         0.00000E+00
    0.11094E-10        -0.93132E-20         0.00000E+00
    0.11094E-10        -0.93132E-20         0.00000E+00
    0.11094E-10        -0.83819E-20         0.00000E+00
    0.11094E-10        -0.94496E-20         0.00000E+00
    0.11094E-10        -0.11176E-19         0.00000E+00
    0.11094E-10        -0.16764E-19         0.00000E+00
    0.11094E-10        -0.22352E-19         0.00000E+00
    0.11094E-10        -0.24214E-19         0.00000E+00
    0.11094E-10        -0.24214E-19         0.00000E+00
    0.11094E-10        -0.91768E-20         0.00000E+00
    0.11094E-10         0.83819E-20         0.00000E+00
    0.11094E-10         0.15696E-19         0.00000E+00
    0.11094E-10         0.14901E-19         0.00000E+00
    0.11094E-10         0.18626E-19         0.00000E+00
    0.11094E-10         0.14901E-19         0.00000E+00
    0.11094E-10        -0.35889E-20         0.00000E+00
    0.11094E-10         0.65193E-20         0.00000E+00
    0.11094E-10         0.13833E-19         0.00000E+00
    0.11094E-10        -0.55879E-20         0.00000E+00
    0.11094E-10        -0.11971E-19         0.00000E+00
    0.11094E-10        -0.18626E-20         0.00000E+00
    0.11094E-10         0.45202E-20         0.00000E+00
    0.11094E-10         0.00000E+00         0.00000E+00
    0.11094E-10        -0.18626E-20         0.00000E+00
    0.11094E-10        -0.55879E-20         0.00000E+00
    0.11094E-10        -0.21284E-19         0.00000E+00
    0.11094E-10        -0.32460E-19         0.00000E+00
    0.11094E-10        -0.25282E-19         0.00000E+00
    0.11094E-10        -0.22352E-19         0.00000E+00
    0.11094E-10        -0.21284E-19         0.00000E+00
    0.11094E-10        -0.12244E-19         0.00000E+00
    0.11094E-10        -0.15969E-19         0.00000E+00
    0.11094E-10        -0.16764E-19         0.00000E+00
    0.11094E-10        -0.26576E-20         0.00000E+00
    0.11094E-10         0.47930E-20         0.00000E+00
    0.11094E-10        -0.29304E-20         0.00000E+00
    0.11094E-10        -0.58607E-20         0.00000E+00
    0.13480E-10         0.95858E-20         0.00000E+00
    0.13480E-10         0.74506E-20         0.00000E+00
    0.13480E-10         0.74506E-20         0.00000E+00
    0.13480E-10         0.74506E-20         0.00000E+00
    0.13480E-10         0.27940E-20         0.00000E+00
    0.13480E-10         0.65193E-20         0.00000E+00
    0.13480E-10         0.65193E-20         0.00000E+00
    0.13480E-10        -0.17264E-20         0.00000E+00
    0.13480E-10        -0.93132E-20         0.00000E+00
    0.13480E-10        -0.12243E-19         0.00000E+00
    0.13480E-10        -0.10381E-19         0.00000E+00
    0.13480E-10        -0.11176E-19         0.00000E+00
    0.13480E-10        -0.13039E-19         0.00000E+00
    0.13480E-10        -0.55879E-20         0.00000E+00
    0.13480E-10        -0.11176E-19         0.00000E+00
    0.13480E-10        -0.22352E-19         0.00000E+00
    0.13480E-10        -0.22352E-19         0.00000E+00
    0.13480E-10        -0.16764E-19         0.00000E+00
    0.13480E-10        -0.93132E-20         0.00000E+00
    0.13480E-10         0.55879E-20         0.00000E+00
    0.13480E-10         0.55879E-20         0.00000E+00
    0.13480E-10        -0.55879E-20         0.00000E+00
    0.13480E-10        -0.37253E-20         0.00000E+00
    0.13480E-10         0.18626E-20         0.00000E+00
    0.13480E-10        -0.74506E-20         0.00000E+00
    0.13480E-10        -0.63830E-20         0.00000E+00
    0.13480E-10         0.14901E-19         0.00000E+00
    0.13480E-10         0.10108E-19         0.00000E+00
    0.13480E-10        -0.18626E-20         0.00000E+00
    0.13480E-10         0.37253E-20         0.00000E+00
    0.13480E-10        -0.37253E-20         0.00000E+00
    0.13480E-10        -0.45203E-20         0.00000E+00
    0.13480E-10         0.93132E-20         0.00000E+00
    0.13480E-10         0.17559E-19         0.00000E+00
    0.13480E-10         0.11176E-19         0.00000E+00
    0.13480E-10         0.00000E+00         0.00000E+00
    0.13480E-10        -0.14901E-19         0.00000E+00
    0.13480E-10        -0.31665E-19         0.00000E+00
    0.13480E-10        -0.26077E-19         0.00000E+00
    0.13480E-10        -0.21284E-19         0.00000E+00
    0.13480E-10        -0.14901E-19         0.00000E+00
    0.13480E-10        -0.74506E-20         0.00000E+00
    0.13480E-10        -0.74506E-20         0.00000E+00
    0.13480E-10        -0.22352E-19         0.00000E+00
    0.13480E-10        -0.29802E-19         0.00000E+00
    0.13480E-10        -0.23419E-19         0.00000E+00
    0.13480E-10        -0.18626E-19         0.00000E+00
    0.13480E-10        -0.93132E-20         0.00000E+00
    0.13480E-10        -0.74506E-20         0.00000E+00
    0.13480E-10         0.26577E-20         0.00000E+00
    0.13480E-10         0.16491E-19         0.00000E+00
    0.16373E-10        -0.37253E-20         0.00000E+00
    0.16373E-10        -0.45205E-20         0.00000E+00
    0.16373E-10         0.00000E+00         0.00000E+00
    0.16373E-10         0.45205E-20         0.00000E+00
    0.16373E-10         0.38615E-20         0.00000E+00
    0.16373E-10        -0.46566E-20         0.00000E+00
    0.16373E-10        -0.19694E-19         0.00000E+00
    0.16373E-10        -0.13039E-19         0.00000E+00
    0.16373E-10        -0.74506E-20         0.00000E+00
    0.16373E-10        -0.13039E-19         0.00000E+00
    0.16373E-10        -0.55879E-20         0.00000E+00
    0.16373E-10         0.93132E-20         0.00000E+00
    0.16373E-10         0.11176E-19         0.00000E+00
    0.16373E-10         0.55879E-20         0.00000E+00
    0.16373E-10         0.00000E+00         0.00000E+00
    0.16373E-10         0.18626E-20         0.00000E+00
    0.16373E-10         0.55879E-20         0.00000E+00
    0.16373E-10        -0.13039E-19         0.00000E+00
    0.16373E-10        -0.35390E-19         0.00000E+00
    0.16373E-10        -0.33528E-19         0.00000E+00
    0.16373E-10        -0.11176E-19         0.00000E+00
    0.16373E-10         0.37253E-20         0.00000E+00
    0.16373E-10         0.37253E-20         0.00000E+00
    0.16373E-10         0.10675E-20         0.00000E+00
    0.16373E-10         0.93132E-20         0.00000E+00
    0.16373E-10         0.11176E-19         0.00000E+00
    0.16373E-10        -0.18626E-20         0.00000E+00
    0.16373E-10         0.45205E-20         0.00000E+00
    0.16373E-10         0.13039E-19         0.00000E+00
    0.16373E-10         0.55879E-20         0.00000E+00
    0.16373E-10         0.00000E+00         0.00000E+00
    0.16373E-10        -0.11176E-19         0.00000E+00
    0.16373E-10        -0.13039E-19         0.00000E+00
    0.16373E-10         0.74506E-20         0.00000E+00
    0.16373E-10         0.14901E-19         0.00000E+00
    0.16373E-10        -0.55879E-20         0.00000E+00
    0.16373E-10        -0.17559E-19         0.00000E+00
    0.16373E-10        -0.26578E-20         0.00000E+00
    0.16373E-10        -0.10675E-20         0.00000E+00
    0.16373E-10         0.79516E-21         0.00000E+00
    0.16373E-10         0.18626E-20         0.00000E+00
    0.16373E-10        -0.37253E-20         0.00000E+00
    0.16373E-10        -0.93132E-20         0.00000E+00
    0.16373E-10        -0.74506E-20         0.00000E+00
    0.16373E-10        -0.93132E-20         0.00000E+00
    0.16373E-10        -0.16764E-19         0.00000E+00
    0.16373E-10        -0.14901E-19         0.00000E+00
    0.16373E-10        -0.19422E-19         0.00000E+00
    0.16373E-10        -0.19422E-19         0.00000E+00
    0.16373E-10        -0.95855E-20         0.00000E+00
    0.16373E-10        -0.42699E-20         0.00000E+00
    0.19879E-10         0.18626E-19         0.00000E+00
    0.19879E-10         0.20489E-19         0.00000E+00
    0.19879E-10         0.11176E-19         0.00000E+00
    0.19879E-10         0.00000E+00         0.00000E+00
    0.19879E-10        -0.73146E-20         0.00000E+00
    0.19879E-10        -0.27940E-20         0.00000E+00
    0.19879E-10         0.11971E-19         0.00000E+00
    0.19879E-10         0.93132E-20         0.00000E+00
    0.19879E-10         0.37253E-20         0.00000E+00
    0.19879E-10         0.13039E-19         0.00000E+00
    0.19879E-10         0.15968E-19         0.00000E+00
    0.19879E-10         0.18626E-20         0.00000E+00
    0.19879E-10        -0.12243E-19         0.00000E+00
    0.19879E-10        -0.82459E-20         0.00000E+00
    0.19879E-10        -0.18626E-20         0.00000E+00
    0.19879E-10        -0.19830E-19         0.00000E+00
    0.19879E-10        -0.30734E-19         0.00000E+00
    0.19879E-10        -0.11971E-19         0.00000E+00
    0.19879E-10         0.55879E-20         0.00000E+00
    0.19879E-10        -0.18626E-20         0.00000E+00
    0.19879E-10        -0.18626E-19         0.00000E+00
    0.19879E-10        -0.18626E-19         0.00000E+00
    0.19879E-10        -0.93132E-20         0.00000E+00
    0.19879E-10         0.00000E+00         0.00000E+00
    0.19879E-10         0.18626E-20         0.00000E+00
    0.19879E-10        -0.18626E-20         0.00000E+00
    0.19879E-10         0.55879E-20         0.00000E+00
    0.19879E-10         0.18626E-20         0.00000E+00
    0.19879E-10         0.00000E+00         0.00000E+00
    0.19879E-10         0.18626E-19         0.00000E+00
    0.19879E-10         0.20489E-19         0.00000E+00
    0.19879E-10         0.74506E-20         0.00000E+00
    0.19879E-10        -0.55879E-20         0.00000E+00
    0.19879E-10        -0.11176E-19         0.00000E+00
    0.19879E-10         0.00000E+00         0.00000E+00
    0.19879E-10         0.10109E-19         0.00000E+00
    0.19879E-10         0.11176E-19         0.00000E+00
    0.19879E-10         0.85179E-20         0.00000E+00
    0.19879E-10        -0.55879E-20         0.00000E+00
    0.19879E-10        -0.93132E-20         0.00000E+00
    0.19879E-10        -0.10109E-19         0.00000E+00
    0.19879E-10        -0.37253E-20         0.00000E+00
    0.19879E-10         0.63833E-20         0.00000E+00
    0.19879E-10        -0.18626E-20         0.00000E+00
    0.19879E-10        -0.11176E-19         0.00000E+00
    0.19879E-10        -0.13039E-19         0.00000E+00
    0.19879E-10        -0.63833E-20         0.00000E+00
    0.19879E-10         0.65193E-20         0.00000E+00
    0.19879E-10         0.73146E-20         0.00000E+00
    0.19879E-10        -0.47926E-20         0.00000E+00
    0.19879E-10        -0.58599E-20         0.00000E+00
    0.24125E-10        -0.11176E-19         0.00000E+00
    0.24125E-10        -0.55879E-20         0.00000E+00
    0.24125E-10         0.37253E-20         0.00000E+00
    0.24125E-10         0.74506E-20         0.00000E+00
    0.24125E-10         0.11176E-19         0.00000E+00
    0.24125E-10         0.26077E-19         0.00000E+00
    0.24125E-10         0.27940E-19         0.00000E+00
    0.24125E-10         0.93132E-20         0.00000E+00
    0.24125E-10         0.10671E-20         0.00000E+00
    0.24125E-10         0.00000E+00         0.00000E+00
    0.24125E-10         0.79550E-21         0.00000E+00
    0.24125E-10         0.37253E-20         0.00000E+00
    0.24125E-10        -0.47924E-20         0.00000E+00
    0.24125E-10        -0.93132E-20         0.00000E+00
    0.24125E-10        -0.63834E-20         0.00000E+00
    0.24125E-10        -0.74506E-20         0.00000E+00
    0.24125E-10        -0.37253E-20         0.00000E+00
    0.24125E-10        -0.12243E-19         0.00000E+00
    0.24125E-10        -0.27940E-19         0.00000E+00
    0.24125E-10        -0.23147E-19         0.00000E+00
    0.24125E-10        -0.55879E-20         0.00000E+00
    0.24125E-10        -0.18626E-20         0.00000E+00
    0.24125E-10        -0.11176E-19         0.00000E+00
    0.24125E-10        -0.16764E-19         0.00000E+00
    0.24125E-10        -0.18626E-19         0.00000E+00
    0.24125E-10        -0.93132E-20         0.00000E+00
    0.24125E-10        -0.55879E-20         0.00000E+00
    0.24125E-10        -0.18626E-20         0.00000E+00
    0.24125E-10         0.55879E-20         0.00000E+00
    0.24125E-10        -0.37253E-20         0.00000E+00
    0.24125E-10        -0.55879E-20         0.00000E+00
    0.24125E-10         0.37253E-20         0.00000E+00
    0.24125E-10         0.16764E-19         0.00000E+00
    0.24125E-10         0.25010E-19         0.00000E+00
    0.24125E-10         0.22352E-19         0.00000E+00
    0.24125E-10         0.55879E-20         0.00000E+00
    0.24125E-10        -0.18626E-20         0.00000E+00
    0.24125E-10         0.66551E-20         0.00000E+00
    0.24125E-10         0.16764E-19         0.00000E+00
    0.24125E-10         0.13039E-19         0.00000E+00
    0.24125E-10         0.37253E-20         0.00000E+00
    0.24125E-10         0.37253E-20         0.00000E+00
    0.24125E-10        -0.37253E-20         0.00000E+00
    0.24125E-10        -0.18626E-20         0.00000E+00
    0.24125E-10         0.93132E-20         0.00000E+00
    0.24125E-10         0.13039E-19         0.00000E+00
    0.24125E-10         0.16764E-19         0.00000E+00
    0.24125E-10         0.11176E-19         0.00000E+00
    0.24125E-10        -0.47924E-20         0.00000E+00
    0.24125E-10        -0.47924E-20         0.00000E+00
    0.24125E-10        -0.37253E-20         0.00000E+00
    0.29265E-10         0.37253E-20         0.00000E+00
    0.29265E-10         0.74506E-20         0.00000E+00
    0.29265E-10         0.63837E-20         0.00000E+00
    0.29265E-10         0.26584E-20         0.00000E+00
    0.29265E-10         0.13559E-21         0.00000E+00
    0.29265E-10         0.15037E-19         0.00000E+00
    0.29265E-10         0.22352E-19         0.00000E+00
    0.29265E-10         0.18626E-19         0.00000E+00
    0.29265E-10         0.16764E-19         0.00000E+00
    0.29265E-10         0.16764E-19         0.00000E+00
    0.29265E-10         0.82463E-20         0.00000E+00
    0.29265E-10        -0.29296E-20         0.00000E+00
    0.29265E-10         0.13039E-19         0.00000E+00
    0.29265E-10         0.14105E-19         0.00000E+00
    0.29265E-10        -0.12767E-19         0.00000E+00
    0.29265E-10        -0.11176E-19         0.00000E+00
    0.29265E-10        -0.10669E-20         0.00000E+00
    0.29265E-10        -0.12243E-19         0.00000E+00
    0.29265E-10        -0.14105E-19         0.00000E+00
    0.29265E-10        -0.74506E-20         0.00000E+00
    0.29265E-10        -0.13834E-19         0.00000E+00
    0.29265E-10        -0.32461E-19         0.00000E+00
    0.29265E-10        -0.34595E-19         0.00000E+00
    0.29265E-10        -0.14901E-19         0.00000E+00
    0.29265E-10        -0.13039E-19         0.00000E+00
    0.29265E-10        -0.25010E-19         0.00000E+00
    0.29265E-10        -0.16764E-19         0.00000E+00
    0.29265E-10        -0.13310E-19         0.00000E+00
    0.29265E-10        -0.10109E-19         0.00000E+00
    0.29265E-10         0.19693E-19         0.00000E+00
    0.29265E-10         0.25010E-19         0.00000E+00
    0.29265E-10         0.26077E-19         0.00000E+00
    0.29265E-10         0.31936E-19         0.00000E+00
    0.29265E-10         0.21556E-19         0.00000E+00
    0.29265E-10        -0.27118E-21         0.00000E+00
    0.29265E-10        -0.39965E-20         0.00000E+00
    0.29265E-10         0.00000E+00         0.00000E+00
    0.29265E-10        -0.55879E-20         0.00000E+00
    0.29265E-10        -0.10109E-19         0.00000E+00
    0.29265E-10        -0.63837E-20         0.00000E+00
    0.29265E-10         0.18626E-20         0.00000E+00
    0.29265E-10         0.26584E-20         0.00000E+00
    0.29265E-10         0.37253E-20         0.00000E+00
    0.29265E-10         0.47922E-20         0.00000E+00
    0.29265E-10         0.82463E-20         0.00000E+00
    0.29265E-10         0.11972E-19         0.00000E+00
    0.29265E-10        -0.26584E-20         0.00000E+00
    0.29265E-10         0.47922E-20         0.00000E+00
    0.29265E-10         0.18626E-19         0.00000E+00
    0.29265E-10         0.10109E-19         0.00000E+00
    0.29265E-10         0.15915E-20         0.00000E+00
    0.35484E-10        -0.37253E-20         0.00000E+00
    0.35484E-10        -0.47919E-20         0.00000E+00
    0.35484E-10        -0.37253E-20         0.00000E+00
    0.35484E-10         0.13970E-19         0.00000E+00
    0.35484E-10         0.18626E-19         0.00000E+00
    0.35484E-10         0.93132E-21         0.00000E+00
    0.35484E-10         0.93132E-21         0.00000E+00
    0.35484E-10         0.93132E-20         0.00000E+00
    0.35484E-10         0.15832E-19         0.00000E+00
    0.35484E-10         0.21556E-19         0.00000E+00
    0.35484E-10         0.18626E-19         0.00000E+00
    0.35484E-10         0.16764E-19         0.00000E+00
    0.35484E-10         0.55879E-20         0.00000E+00
    0.35484E-10        -0.18626E-20         0.00000E+00
    0.35484E-10        -0.66546E-20         0.00000E+00
    0.35484E-10        -0.15968E-19         0.00000E+00
    0.35484E-10        -0.16764E-19         0.00000E+00
    0.35484E-10        -0.93132E-20         0.00000E+00
    0.35484E-10        -0.18626E-20         0.00000E+00
    0.35484E-10        -0.55879E-20         0.00000E+00
    0.35484E-10        -0.16764E-19         0.00000E+00
    0.35484E-10         0.00000E+00         0.00000E+00
    0.35484E-10         0.00000E+00         0.00000E+00
    0.35484E-10        -0.12903E-19         0.00000E+00
    0.35484E-10        -0.17695E-19         0.00000E+00
    0.35484E-10        -0.12243E-19         0.00000E+00
    0.35484E-10         0.00000E+00         0.00000E+00
    0.35484E-10        -0.37253E-20         0.00000E+00
    0.35484E-10        -0.74506E-20         0.00000E+00
    0.35484E-10        -0.11176E-19         0.00000E+00
    0.35484E-10        -0.26587E-20         0.00000E+00
    0.35484E-10        -0.26587E-20         0.00000E+00
    0.35484E-10        -0.14105E-19         0.00000E+00
    0.35484E-10         0.26587E-20         0.00000E+00
    0.35484E-10         0.26077E-19         0.00000E+00
    0.35484E-10         0.25281E-19         0.00000E+00
    0.35484E-10         0.66546E-20         0.00000E+00
    0.35484E-10        -0.37253E-20         0.00000E+00
    0.35484E-10         0.63839E-20         0.00000E+00
    0.35484E-10         0.13039E-19         0.00000E+00
    0.35484E-10         0.37253E-20         0.00000E+00
    0.35484E-10         0.18626E-20         0.00000E+00
    0.35484E-10         0.93132E-20         0.00000E+00
    0.35484E-10         0.18626E-19         0.00000E+00
    0.35484E-10         0.74506E-20         0.00000E+00
    0.35484E-10        -0.37253E-20         0.00000E+00
    0.35484E-10         0.11176E-19         0.00000E+00
    0.35484E-10         0.15697E-19         0.00000E+00
    0.35484E-10         0.57232E-20         0.00000E+00
    0.35484E-10         0.27940E-20         0.00000E+00
    0.35484E-10         0.53173E-20         0.00000E+00
    0.43006E-10        -0.37253E-20         0.00000E+00
    0.43006E-10        -0.63843E-20         0.00000E+00
    0.43006E-10        -0.63843E-20         0.00000E+00
    0.43006E-10        -0.12242E-19         0.00000E+00
    0.43006E-10         0.00000E+00         0.00000E+00
    0.43006E-10         0.11176E-19         0.00000E+00
    0.43006E-10        -0.29289E-20         0.00000E+00
    0.43006E-10        -0.55879E-20         0.00000E+00
    0.43006E-10         0.74506E-20         0.00000E+00
    0.43006E-10         0.55879E-20         0.00000E+00
    0.43006E-10        -0.37253E-20         0.00000E+00
    0.43006E-10        -0.37253E-20         0.00000E+00
    0.43006E-10         0.00000E+00         0.00000E+00
    0.43006E-10         0.10663E-20         0.00000E+00
    0.43006E-10        -0.18626E-20         0.00000E+00
    0.43006E-10         0.13835E-19         0.00000E+00
    0.43006E-10         0.17830E-19         0.00000E+00
    0.43006E-10         0.17830E-19         0.00000E+00
    0.43006E-10         0.17560E-19         0.00000E+00
    0.43006E-10         0.18626E-19         0.00000E+00
    0.43006E-10         0.22352E-19         0.00000E+00
    0.43006E-10        -0.29289E-20         0.00000E+00
    0.43006E-10        -0.16764E-19         0.00000E+00
    0.43006E-10        -0.45216E-20         0.00000E+00
    0.43006E-10        -0.37253E-20         0.00000E+00
    0.43006E-10        -0.10663E-20         0.00000E+00
    0.43006E-10        -0.55879E-20         0.00000E+00
    0.43006E-10        -0.55879E-20         0.00000E+00
    0.43006E-10        -0.18626E-20         0.00000E+00
    0.43006E-10        -0.93132E-20         0.00000E+00
    0.43006E-10        -0.20489E-19         0.00000E+00
    0.43006E-10        -0.10906E-19         0.00000E+00
    0.43006E-10         0.11176E-19         0.00000E+00
    0.43006E-10         0.16494E-19         0.00000E+00
    0.43006E-10         0.14901E-19         0.00000E+00
    0.43006E-10         0.14901E-19         0.00000E+00
    0.43006E-10         0.11176E-19         0.00000E+00
    0.43006E-10         0.55879E-20         0.00000E+00
    0.43006E-10         0.37253E-20         0.00000E+00
    0.43006E-10        -0.26590E-20         0.00000E+00
    0.43006E-10         0.10663E-20         0.00000E+00
    0.43006E-10         0.10110E-19         0.00000E+00
    0.43006E-10         0.37253E-20         0.00000E+00
    0.43006E-10        -0.26590E-20         0.00000E+00
    0.43006E-10         0.63843E-20         0.00000E+00
    0.43006E-10         0.15698E-19         0.00000E+00
    0.43006E-10         0.55879E-20         0.00000E+00
    0.43006E-10        -0.37253E-20         0.00000E+00
    0.43006E-10         0.18626E-20         0.00000E+00
    0.43006E-10         0.82469E-20         0.00000E+00
    0.43006E-10         0.12769E-19         0.00000E+00
    0.52097E-10         0.00000E+00         0.00000E+00
    0.52097E-10         0.00000E+00         0.00000E+00
    0.52097E-10        -0.82473E-20         0.00000E+00
    0.52097E-10        -0.18626E-19         0.00000E+00
    0.52097E-10        -0.29006E-19         0.00000E+00
    0.52097E-10        -0.26077E-19         0.00000E+00
    0.52097E-10        -0.93132E-20         0.00000E+00
    0.52097E-10        -0.18626E-20         0.00000E+00
    0.52097E-10        -0.63847E-20         0.00000E+00
    0.52097E-10        -0.45220E-20         0.00000E+00
    0.52097E-10         0.79675E-21         0.00000E+00
    0.52097E-10         0.18626E-20         0.00000E+00
    0.52097E-10         0.37253E-20         0.00000E+00
    0.52097E-10         0.37253E-20         0.00000E+00
    0.52097E-10         0.12242E-19         0.00000E+00
    0.52097E-10         0.93132E-20         0.00000E+00
    0.52097E-10         0.11973E-19         0.00000E+00
    0.52097E-10         0.31665E-19         0.00000E+00
    0.52097E-10         0.17561E-19         0.00000E+00
    0.52097E-10         0.55879E-20         0.00000E+00
    0.52097E-10        -0.10907E-19         0.00000E+00
    0.52097E-10        -0.37253E-20         0.00000E+00
    0.52097E-10         0.82473E-20         0.00000E+00
    0.52097E-10        -0.11176E-19         0.00000E+00
    0.52097E-10        -0.93132E-20         0.00000E+00
    0.52097E-10        -0.18626E-20         0.00000E+00
    0.52097E-10        -0.37253E-20         0.00000E+00
    0.52097E-10        -0.47912E-20         0.00000E+00
    0.52097E-10        -0.74506E-20         0.00000E+00
    0.52097E-10         0.47912E-20         0.00000E+00
    0.52097E-10         0.17561E-19         0.00000E+00
    0.52097E-10         0.11176E-19         0.00000E+00
    0.52097E-10         0.13308E-19         0.00000E+00
    0.52097E-10         0.19423E-19         0.00000E+00
    0.52097E-10         0.11973E-19         0.00000E+00
    0.52097E-10         0.13039E-19         0.00000E+00
    0.52097E-10         0.27940E-19         0.00000E+00
    0.52097E-10         0.15967E-19         0.00000E+00
    0.52097E-10         0.55879E-20         0.00000E+00
    0.52097E-10         0.19423E-19         0.00000E+00
    0.52097E-10         0.24214E-19         0.00000E+00
    0.52097E-10         0.19692E-19         0.00000E+00
    0.52097E-10         0.10379E-19         0.00000E+00
    0.52097E-10        -0.58571E-20         0.00000E+00
    0.52097E-10        -0.14104E-19         0.00000E+00
    0.52097E-10        -0.10110E-19         0.00000E+00
    0.52097E-10        -0.74506E-20         0.00000E+00
    0.52097E-10        -0.37253E-20         0.00000E+00
    0.52097E-10        -0.63847E-20         0.00000E+00
    0.52097E-10        -0.13039E-19         0.00000E+00
    0.52097E-10        -0.13308E-19         0.00000E+00
    0.63079E-10         0.74506E-20         0.00000E+00
    0.63079E-10        -0.37253E-20         0.00000E+00
    0.63079E-10        -0.74506E-20         0.00000E+00
    0.63079E-10        -0.37253E-20         0.00000E+00
    0.63079E-10        -0.11973E-19         0.00000E+00
    0.63079E-10        -0.18626E-19         0.00000E+00
    0.63079E-10        -0.21555E-19         0.00000E+00
    0.63079E-10        -0.26874E-19         0.00000E+00
    0.63079E-10        -0.13039E-19         0.00000E+00
    0.63079E-10        -0.10654E-20         0.00000E+00
    0.63079E-10        -0.79724E-21         0.00000E+00
    0.63079E-10         0.13836E-19         0.00000E+00
    0.63079E-10         0.45225E-20         0.00000E+00
    0.63079E-10         0.26817E-21         0.00000E+00
    0.63079E-10         0.85160E-20         0.00000E+00
    0.63079E-10         0.14633E-19         0.00000E+00
    0.63079E-10         0.93132E-20         0.00000E+00
    0.63079E-10         0.18626E-20         0.00000E+00
    0.63079E-10         0.23946E-19         0.00000E+00
    0.63079E-10         0.19692E-19         0.00000E+00
    0.63079E-10        -0.63852E-20         0.00000E+00
    0.63079E-10        -0.14901E-19         0.00000E+00
    0.63079E-10         0.29281E-20         0.00000E+00
    0.63079E-10         0.19692E-19         0.00000E+00
    0.63079E-10         0.53198E-20         0.00000E+00
    0.63079E-10         0.37253E-20         0.00000E+00
    0.63079E-10         0.85160E-20         0.00000E+00
    0.63079E-10         0.10110E-19         0.00000E+00
    0.63079E-10         0.15698E-19         0.00000E+00
    0.63079E-10         0.12241E-19         0.00000E+00
    0.63079E-10        -0.15945E-20         0.00000E+00
    0.63079E-10         0.55879E-20         0.00000E+00
    0.63079E-10         0.18358E-19         0.00000E+00
    0.63079E-10         0.26077E-19         0.00000E+00
    0.63079E-10         0.30868E-19         0.00000E+00
    0.63079E-10         0.22084E-19         0.00000E+00
    0.63079E-10         0.74506E-20         0.00000E+00
    0.63079E-10         0.12241E-19         0.00000E+00
    0.63079E-10         0.93132E-20         0.00000E+00
    0.63079E-10        -0.10654E-20         0.00000E+00
    0.63079E-10         0.18626E-20         0.00000E+00
    0.63079E-10         0.10654E-20         0.00000E+00
    0.63079E-10        -0.10379E-19         0.00000E+00
    0.63079E-10        -0.55879E-20         0.00000E+00
    0.63079E-10        -0.63852E-20         0.00000E+00
    0.63079E-10        -0.15035E-19         0.00000E+00
    0.63079E-10        -0.75847E-20         0.00000E+00
    0.63079E-10        -0.25258E-20         0.00000E+00
    0.63079E-10         0.10654E-20         0.00000E+00
    0.63079E-10         0.25258E-20         0.00000E+00
    0.63079E-10         0.90451E-20         0.00000E+00
    0.76337E-10        -0.37253E-20         0.00000E+00
    0.76337E-10         0.18626E-20         0.00000E+00
    0.76337E-10         0.45231E-20         0.00000E+00
    0.76337E-10         0.79783E-21         0.00000E+00
    0.76337E-10         0.21296E-20         0.00000E+00
    0.76337E-10         0.13305E-19         0.00000E+00
    0.76337E-10         0.11974E-19         0.00000E+00
    0.76337E-10         0.26605E-20         0.00000E+00
    0.76337E-10        -0.13039E-19         0.00000E+00
    0.76337E-10        -0.23417E-19         0.00000E+00
    0.76337E-10        -0.66527E-20         0.00000E+00
    0.76337E-10        -0.45231E-20         0.00000E+00
    0.76337E-10        -0.63858E-20         0.00000E+00
    0.76337E-10        -0.74506E-20         0.00000E+00
    0.76337E-10        -0.45231E-20         0.00000E+00
    0.76337E-10         0.55879E-20         0.00000E+00
    0.76337E-10         0.62523E-20         0.00000E+00
    0.76337E-10        -0.38588E-20         0.00000E+00
    0.76337E-10        -0.11974E-19         0.00000E+00
    0.76337E-10         0.00000E+00         0.00000E+00
    0.76337E-10         0.25012E-19         0.00000E+00
    0.76337E-10         0.18626E-19         0.00000E+00
    0.76337E-10        -0.79783E-21         0.00000E+00
    0.76337E-10        -0.10909E-19         0.00000E+00
    0.76337E-10        -0.12241E-19         0.00000E+00
    0.76337E-10        -0.93132E-20         0.00000E+00
    0.76337E-10         0.18626E-20         0.00000E+00
    0.76337E-10         0.82484E-20         0.00000E+00
    0.76337E-10         0.77176E-20         0.00000E+00
    0.76337E-10         0.25279E-19         0.00000E+00
    0.76337E-10         0.32463E-19         0.00000E+00
    0.76337E-10         0.27940E-19         0.00000E+00
    0.76337E-10         0.32463E-19         0.00000E+00
    0.76337E-10         0.25810E-19         0.00000E+00
    0.76337E-10         0.14103E-19         0.00000E+00
    0.76337E-10         0.22352E-19         0.00000E+00
    0.76337E-10         0.29004E-19         0.00000E+00
    0.76337E-10         0.22619E-19         0.00000E+00
    0.76337E-10         0.21287E-19         0.00000E+00
    0.76337E-10         0.18359E-19         0.00000E+00
    0.76337E-10         0.13836E-19         0.00000E+00
    0.76337E-10         0.55879E-20         0.00000E+00
    0.76337E-10         0.66527E-20         0.00000E+00
    0.76337E-10         0.85154E-20         0.00000E+00
    0.76337E-10        -0.37253E-20         0.00000E+00
    0.76337E-10        -0.91797E-20         0.00000E+00
    0.76337E-10        -0.16764E-19         0.00000E+00
    0.76337E-10        -0.11309E-19         0.00000E+00
    0.76337E-10        -0.47901E-20         0.00000E+00
    0.76337E-10        -0.29275E-20         0.00000E+00
    0.76337E-10        -0.37253E-20         0.00000E+00
    0.92334E-10         0.95788E-20         0.00000E+00
    0.92334E-10         0.18626E-19         0.00000E+00
    0.92334E-10         0.16764E-19         0.00000E+00
    0.92334E-10         0.11176E-19         0.00000E+00
    0.92334E-10         0.63865E-20         0.00000E+00
    0.92334E-10        -0.75834E-20         0.00000E+00
    0.92334E-10        -0.93132E-21         0.00000E+00
    0.92334E-10         0.11176E-19         0.00000E+00
    0.92334E-10         0.14901E-19         0.00000E+00
    0.92334E-10         0.18626E-19         0.00000E+00
    0.92334E-10         0.27940E-20         0.00000E+00
    0.92334E-10        -0.73178E-20         0.00000E+00
    0.92334E-10        -0.93132E-20         0.00000E+00
    0.92334E-10        -0.11974E-19         0.00000E+00
    0.92334E-10         0.10641E-20         0.00000E+00
    0.92334E-10        -0.10377E-19         0.00000E+00
    0.92334E-10        -0.14901E-19         0.00000E+00
    0.92334E-10        -0.10641E-20         0.00000E+00
    0.92334E-10         0.90477E-20         0.00000E+00
    0.92334E-10         0.37253E-20         0.00000E+00
    0.92334E-10        -0.19425E-19         0.00000E+00
    0.92334E-10        -0.17562E-19         0.00000E+00
    0.92334E-10         0.37253E-20         0.00000E+00
    0.92334E-10         0.75834E-20         0.00000E+00
    0.92334E-10        -0.13277E-21         0.00000E+00
    0.92334E-10         0.37253E-20         0.00000E+00
    0.92334E-10         0.37253E-20         0.00000E+00
    0.92334E-10         0.13039E-19         0.00000E+00
    0.92334E-10         0.25278E-19         0.00000E+00
    0.92334E-10         0.22352E-19         0.00000E+00
    0.92334E-10         0.27940E-19         0.00000E+00
    0.92334E-10         0.32464E-19         0.00000E+00
    0.92334E-10         0.18626E-19         0.00000E+00
    0.92334E-10         0.19425E-19         0.00000E+00
    0.92334E-10         0.27940E-19         0.00000E+00
    0.92334E-10         0.16764E-19         0.00000E+00
    0.92334E-10         0.13039E-19         0.00000E+00
    0.92334E-10         0.29802E-19         0.00000E+00
    0.92334E-10         0.27940E-19         0.00000E+00
    0.92334E-10         0.13039E-19         0.00000E+00
    0.92334E-10         0.74506E-20         0.00000E+00
    0.92334E-10         0.55879E-20         0.00000E+00
    0.92334E-10         0.45238E-20         0.00000E+00
    0.92334E-10         0.00000E+00         0.00000E+00
    0.92334E-10         0.13304E-19         0.00000E+00
    0.92334E-10         0.17828E-19         0.00000E+00
    0.92334E-10         0.63865E-20         0.00000E+00
    0.92334E-10        -0.11176E-19         0.00000E+00
    0.92334E-10        -0.14901E-19         0.00000E+00
    0.92334E-10        -0.85147E-20         0.00000E+00
    0.92334E-10        -0.58535E-20         0.00000E+00
    0.11162E-09        -0.58517E-20         0.00000E+00
    0.11162E-09        -0.74506E-20         0.00000E+00
    0.11162E-09        -0.79942E-21         0.00000E+00
    0.11162E-09         0.93132E-20         0.00000E+00
    0.11162E-09         0.13039E-19         0.00000E+00
    0.11162E-09         0.15701E-19         0.00000E+00
    0.11162E-09         0.11975E-19         0.00000E+00
    0.11162E-09         0.66512E-20         0.00000E+00
    0.11162E-09         0.55879E-20         0.00000E+00
    0.11162E-09         0.82500E-20         0.00000E+00
    0.11162E-09         0.10632E-20         0.00000E+00
    0.11162E-09        -0.15701E-19         0.00000E+00
    0.11162E-09        -0.25278E-19         0.00000E+00
    0.11162E-09        -0.14901E-19         0.00000E+00
    0.11162E-09         0.39891E-20         0.00000E+00
    0.11162E-09         0.66512E-20         0.00000E+00
    0.11162E-09        -0.47885E-20         0.00000E+00
    0.11162E-09        -0.15165E-19         0.00000E+00
    0.11162E-09        -0.15964E-19         0.00000E+00
    0.11162E-09        -0.74506E-20         0.00000E+00
    0.11162E-09         0.18626E-20         0.00000E+00
    0.11162E-09        -0.74506E-20         0.00000E+00
    0.11162E-09        -0.19426E-19         0.00000E+00
    0.11162E-09        -0.13838E-19         0.00000E+00
    0.11162E-09        -0.12239E-19         0.00000E+00
    0.11162E-09        -0.74506E-20         0.00000E+00
    0.11162E-09         0.66512E-20         0.00000E+00
    0.11162E-09         0.17563E-19         0.00000E+00
    0.11162E-09         0.21289E-19         0.00000E+00
    0.11162E-09         0.22616E-19         0.00000E+00
    0.11162E-09         0.29934E-19         0.00000E+00
    0.11162E-09         0.40047E-19         0.00000E+00
    0.11162E-09         0.42841E-19         0.00000E+00
    0.11162E-09         0.36190E-19         0.00000E+00
    0.11162E-09         0.22352E-19         0.00000E+00
    0.11162E-09         0.10113E-19         0.00000E+00
    0.11162E-09         0.45247E-20         0.00000E+00
    0.11162E-09        -0.63874E-20         0.00000E+00
    0.11162E-09         0.18626E-20         0.00000E+00
    0.11162E-09         0.19426E-19         0.00000E+00
    0.11162E-09         0.16764E-19         0.00000E+00
    0.11162E-09         0.37253E-20         0.00000E+00
    0.11162E-09        -0.63874E-20         0.00000E+00
    0.11162E-09         0.29259E-20         0.00000E+00
    0.11162E-09         0.79942E-21         0.00000E+00
    0.11162E-09        -0.39873E-34         0.00000E+00
    0.11162E-09         0.10376E-19         0.00000E+00
    0.11162E-09         0.17563E-19         0.00000E+00
    0.11162E-09         0.26876E-19         0.00000E+00
    0.11162E-09         0.22352E-19         0.00000E+00
    0.11162E-09         0.18626E-19         0.00000E+00
    0.13487E-09         0.00000E+00         0.00000E+00
    0.13487E-09         0.85128E-20         0.00000E+00
    0.13487E-09         0.55879E-20         0.00000E+00
    0.13487E-09        -0.47875E-20         0.00000E+00
    0.13487E-09         0.10622E-20         0.00000E+00
    0.13487E-09         0.12238E-19         0.00000E+00
    0.13487E-09         0.91824E-20         0.00000E+00
    0.13487E-09        -0.46566E-20         0.00000E+00
    0.13487E-09        -0.10245E-19         0.00000E+00
    0.13487E-09        -0.11307E-19         0.00000E+00
    0.13487E-09        -0.18626E-20         0.00000E+00
    0.13487E-09         0.85128E-20         0.00000E+00
    0.13487E-09        -0.26631E-20         0.00000E+00
    0.13487E-09        -0.17826E-19         0.00000E+00
    0.13487E-09        -0.82510E-20         0.00000E+00
    0.13487E-09        -0.74506E-20         0.00000E+00
    0.13487E-09        -0.77123E-20         0.00000E+00
    0.13487E-09        -0.11176E-19         0.00000E+00
    0.13487E-09        -0.26077E-19         0.00000E+00
    0.13487E-09        -0.24214E-19         0.00000E+00
    0.13487E-09        -0.13839E-19         0.00000E+00
    0.13487E-09        -0.13839E-19         0.00000E+00
    0.13487E-09        -0.15963E-19         0.00000E+00
    0.13487E-09        -0.14901E-19         0.00000E+00
    0.13487E-09        -0.74506E-20         0.00000E+00
    0.13487E-09         0.45258E-20         0.00000E+00
    0.13487E-09         0.55879E-20         0.00000E+00
    0.13487E-09         0.10375E-19         0.00000E+00
    0.13487E-09         0.22352E-19         0.00000E+00
    0.13487E-09         0.26878E-19         0.00000E+00
    0.13487E-09         0.20489E-19         0.00000E+00
    0.13487E-09         0.16764E-19         0.00000E+00
    0.13487E-09         0.13039E-19         0.00000E+00
    0.13487E-09         0.55879E-20         0.00000E+00
    0.13487E-09         0.00000E+00         0.00000E+00
    0.13487E-09         0.00000E+00         0.00000E+00
    0.13487E-09         0.37253E-20         0.00000E+00
    0.13487E-09         0.22352E-19         0.00000E+00
    0.13487E-09         0.30064E-19         0.00000E+00
    0.13487E-09         0.20489E-19         0.00000E+00
    0.13487E-09         0.22090E-19         0.00000E+00
    0.13487E-09         0.17826E-19         0.00000E+00
    0.13487E-09         0.13039E-19         0.00000E+00
    0.13487E-09         0.93132E-20         0.00000E+00
    0.13487E-09         0.00000E+00         0.00000E+00
    0.13487E-09        -0.66501E-20         0.00000E+00
    0.13487E-09        -0.55879E-20         0.00000E+00
    0.13487E-09         0.38561E-20         0.00000E+00
    0.13487E-09         0.27940E-20         0.00000E+00
    0.13487E-09        -0.47875E-20         0.00000E+00
    0.13487E-09        -0.11176E-19         0.00000E+00
    0.16286E-09        -0.53288E-20         0.00000E+00
    0.16286E-09        -0.74506E-20         0.00000E+00
    0.16286E-09        -0.10609E-20         0.00000E+00
    0.16286E-09        -0.80173E-21         0.00000E+00
    0.16286E-09        -0.63897E-20         0.00000E+00
    0.16286E-09        -0.15962E-19         0.00000E+00
    0.16286E-09        -0.10374E-19         0.00000E+00
    0.16286E-09        -0.74506E-20         0.00000E+00
    0.16286E-09        -0.85115E-20         0.00000E+00
    0.16286E-09        -0.93132E-21         0.00000E+00
    0.16286E-09        -0.14772E-19         0.00000E+00
    0.16286E-09        -0.24214E-19         0.00000E+00
    0.16286E-09        -0.16764E-19         0.00000E+00
    0.16286E-09         0.18626E-20         0.00000E+00
    0.16286E-09         0.20489E-19         0.00000E+00
    0.16286E-09         0.27940E-19         0.00000E+00
    0.16286E-09         0.18626E-19         0.00000E+00
    0.16286E-09        -0.37253E-20         0.00000E+00
    0.16286E-09        -0.55879E-20         0.00000E+00
    0.16286E-09        -0.74506E-20         0.00000E+00
    0.16286E-09        -0.16764E-19         0.00000E+00
    0.16286E-09        -0.16764E-19         0.00000E+00
    0.16286E-09        -0.14901E-19         0.00000E+00
    0.16286E-09        -0.13039E-19         0.00000E+00
    0.16286E-09        -0.14901E-19         0.00000E+00
    0.16286E-09        -0.16764E-19         0.00000E+00
    0.16286E-09        -0.74506E-20         0.00000E+00
    0.16286E-09         0.74506E-20         0.00000E+00
    0.16286E-09         0.11176E-19         0.00000E+00
    0.16286E-09         0.55879E-20         0.00000E+00
    0.16286E-09         0.18626E-20         0.00000E+00
    0.16286E-09         0.10609E-20         0.00000E+00
    0.16286E-09         0.93132E-20         0.00000E+00
    0.16286E-09         0.20489E-19         0.00000E+00
    0.16286E-09         0.18626E-19         0.00000E+00
    0.16286E-09         0.10115E-19         0.00000E+00
    0.16286E-09         0.00000E+00         0.00000E+00
    0.16286E-09         0.10609E-20         0.00000E+00
    0.16286E-09         0.55879E-20         0.00000E+00
    0.16286E-09         0.11978E-19         0.00000E+00
    0.16286E-09         0.12237E-19         0.00000E+00
    0.16286E-09         0.14901E-19         0.00000E+00
    0.16286E-09         0.19428E-19         0.00000E+00
    0.16286E-09         0.55879E-20         0.00000E+00
    0.16286E-09        -0.11176E-19         0.00000E+00
    0.16286E-09        -0.26644E-20         0.00000E+00
    0.16286E-09         0.18626E-19         0.00000E+00
    0.16286E-09         0.25016E-19         0.00000E+00
    0.16286E-09         0.17825E-19         0.00000E+00
    0.16286E-09         0.82523E-20         0.00000E+00
    0.16286E-09         0.32069E-20         0.00000E+00
    0.19654E-09         0.74506E-20         0.00000E+00
    0.19654E-09         0.80326E-21         0.00000E+00
    0.19654E-09        -0.16764E-19         0.00000E+00
    0.19654E-09        -0.10116E-19         0.00000E+00
    0.19654E-09         0.11304E-19         0.00000E+00
    0.19654E-09         0.15832E-19         0.00000E+00
    0.19654E-09        -0.10594E-20         0.00000E+00
    0.19654E-09        -0.16764E-19         0.00000E+00
    0.19654E-09        -0.18626E-20         0.00000E+00
    0.19654E-09        -0.55879E-20         0.00000E+00
    0.19654E-09        -0.93132E-20         0.00000E+00
    0.19654E-09         0.18626E-20         0.00000E+00
    0.19654E-09         0.37253E-20         0.00000E+00
    0.19654E-09         0.85100E-20         0.00000E+00
    0.19654E-09         0.13039E-19         0.00000E+00
    0.19654E-09        -0.66473E-20         0.00000E+00
    0.19654E-09        -0.20489E-19         0.00000E+00
    0.19654E-09        -0.74506E-20         0.00000E+00
    0.19654E-09        -0.29220E-20         0.00000E+00
    0.19654E-09        -0.55879E-20         0.00000E+00
    0.19654E-09         0.29220E-20         0.00000E+00
    0.19654E-09         0.85100E-20         0.00000E+00
    0.19654E-09         0.37253E-20         0.00000E+00
    0.19654E-09        -0.55879E-20         0.00000E+00
    0.19654E-09        -0.25146E-33         0.00000E+00
    0.19654E-09         0.10116E-19         0.00000E+00
    0.19654E-09        -0.18626E-20         0.00000E+00
    0.19654E-09        -0.17567E-19         0.00000E+00
    0.19654E-09        -0.55879E-20         0.00000E+00
    0.19654E-09         0.10116E-19         0.00000E+00
    0.19654E-09         0.16764E-19         0.00000E+00
    0.19654E-09         0.26077E-19         0.00000E+00
    0.19654E-09         0.20489E-19         0.00000E+00
    0.19654E-09         0.14901E-19         0.00000E+00
    0.19654E-09         0.14901E-19         0.00000E+00
    0.19654E-09         0.37253E-20         0.00000E+00
    0.19654E-09        -0.74506E-20         0.00000E+00
    0.19654E-09        -0.16764E-19         0.00000E+00
    0.19654E-09        -0.93132E-20         0.00000E+00
    0.19654E-09        -0.55879E-20         0.00000E+00
    0.19654E-09        -0.93132E-20         0.00000E+00
    0.19654E-09        -0.93132E-20         0.00000E+00
    0.19654E-09        -0.11176E-19         0.00000E+00
    0.19654E-09         0.00000E+00         0.00000E+00
    0.19654E-09         0.11176E-19         0.00000E+00
    0.19654E-09         0.93132E-20         0.00000E+00
    0.19654E-09         0.55879E-20         0.00000E+00
    0.19654E-09         0.14901E-19         0.00000E+00
    0.19654E-09         0.22352E-19         0.00000E+00
    0.19654E-09         0.10116E-19         0.00000E+00
    0.19654E-09         0.53318E-20         0.00000E+00
    0.23704E-09        -0.74506E-20         0.00000E+00
    0.23704E-09        -0.18626E-20         0.00000E+00
    0.23704E-09         0.14096E-19         0.00000E+00
    0.23704E-09         0.24214E-19         0.00000E+00
    0.23704E-09         0.11176E-19         0.00000E+00
    0.23704E-09         0.18626E-20         0.00000E+00
    0.23704E-09         0.11981E-19         0.00000E+00
    0.23704E-09         0.93132E-20         0.00000E+00
    0.23704E-09         0.29202E-20         0.00000E+00
    0.23704E-09         0.13970E-19         0.00000E+00
    0.23704E-09         0.20363E-19         0.00000E+00
    0.23704E-09         0.15706E-19         0.00000E+00
    0.23704E-09         0.13970E-19         0.00000E+00
    0.23704E-09         0.94394E-20         0.00000E+00
    0.23704E-09         0.00000E+00         0.00000E+00
    0.23704E-09         0.73244E-20         0.00000E+00
    0.23704E-09         0.17695E-19         0.00000E+00
    0.23704E-09         0.14901E-19         0.00000E+00
    0.23704E-09         0.74506E-20         0.00000E+00
    0.23704E-09         0.85081E-20         0.00000E+00
    0.23704E-09        -0.18626E-20         0.00000E+00
    0.23704E-09        -0.18626E-19         0.00000E+00
    0.23704E-09        -0.13039E-19         0.00000E+00
    0.23704E-09         0.66455E-20         0.00000E+00
    0.23704E-09         0.11176E-19         0.00000E+00
    0.23704E-09         0.63930E-20         0.00000E+00
    0.23704E-09         0.00000E+00         0.00000E+00
    0.23704E-09        -0.18626E-20         0.00000E+00
    0.23704E-09        -0.18626E-20         0.00000E+00
    0.23704E-09         0.37253E-20         0.00000E+00
    0.23704E-09         0.93132E-20         0.00000E+00
    0.23704E-09         0.00000E+00         0.00000E+00
    0.23704E-09        -0.18626E-20         0.00000E+00
    0.23704E-09         0.63930E-20         0.00000E+00
    0.23704E-09         0.14901E-19         0.00000E+00
    0.23704E-09         0.13844E-19         0.00000E+00
    0.23704E-09        -0.11915E-33         0.00000E+00
    0.23704E-09         0.39777E-20         0.00000E+00
    0.23704E-09         0.29202E-20         0.00000E+00
    0.23704E-09        -0.18626E-20         0.00000E+00
    0.23704E-09        -0.29202E-20         0.00000E+00
    0.23704E-09        -0.13039E-19         0.00000E+00
    0.23704E-09        -0.11981E-19         0.00000E+00
    0.23704E-09        -0.11176E-19         0.00000E+00
    0.23704E-09        -0.93132E-20         0.00000E+00
    0.23704E-09         0.27940E-20         0.00000E+00
    0.23704E-09        -0.27940E-20         0.00000E+00
    0.23704E-09        -0.11176E-19         0.00000E+00
    0.23704E-09        -0.66455E-20         0.00000E+00
    0.23704E-09         0.26677E-20         0.00000E+00
    0.23704E-09         0.90608E-20         0.00000E+00
    0.28571E-09         0.37253E-20         0.00000E+00
    0.28571E-09         0.37253E-20         0.00000E+00
    0.28571E-09         0.37253E-20         0.00000E+00
    0.28571E-09         0.55879E-20         0.00000E+00
    0.28571E-09        -0.18626E-20         0.00000E+00
    0.28571E-09        -0.18626E-20         0.00000E+00
    0.28571E-09         0.74506E-20         0.00000E+00
    0.28571E-09         0.93132E-20         0.00000E+00
    0.28571E-09         0.22352E-19         0.00000E+00
    0.28571E-09         0.29802E-19         0.00000E+00
    0.28571E-09         0.20489E-19         0.00000E+00
    0.28571E-09         0.13039E-19         0.00000E+00
    0.28571E-09         0.93132E-20         0.00000E+00
    0.28571E-09         0.11176E-19         0.00000E+00
    0.28571E-09         0.93132E-20         0.00000E+00
    0.28571E-09         0.18626E-20         0.00000E+00
    0.28571E-09        -0.55879E-20         0.00000E+00
    0.28571E-09        -0.18626E-20         0.00000E+00
    0.28571E-09        -0.18626E-20         0.00000E+00
    0.28571E-09        -0.11176E-19         0.00000E+00
    0.28571E-09        -0.93132E-20         0.00000E+00
    0.28571E-09        -0.18626E-20         0.00000E+00
    0.28571E-09        -0.11176E-19         0.00000E+00
    0.28571E-09        -0.24214E-19         0.00000E+00
    0.28571E-09        -0.74506E-20         0.00000E+00
    0.28571E-09         0.37253E-20         0.00000E+00
    0.28571E-09         0.37253E-20         0.00000E+00
    0.28571E-09         0.74506E-20         0.00000E+00
    0.28571E-09         0.16764E-19         0.00000E+00
    0.28571E-09         0.18378E-19         0.00000E+00
    0.28571E-09         0.53399E-20         0.00000E+00
    0.28571E-09         0.79466E-20         0.00000E+00
    0.28571E-09         0.76986E-20         0.00000E+00
    0.28571E-09         0.34773E-20         0.00000E+00
    0.28571E-09        -0.93132E-20         0.00000E+00
    0.28571E-09        -0.14901E-19         0.00000E+00
    0.28571E-09         0.37253E-20         0.00000E+00
    0.28571E-09         0.11176E-19         0.00000E+00
    0.28571E-09         0.93132E-20         0.00000E+00
    0.28571E-09         0.00000E+00         0.00000E+00
    0.28571E-09        -0.37253E-20         0.00000E+00
    0.28571E-09         0.37253E-20         0.00000E+00
    0.28571E-09        -0.74506E-20         0.00000E+00
    0.28571E-09        -0.13287E-19         0.00000E+00
    0.28571E-09        -0.55879E-20         0.00000E+00
    0.28571E-09        -0.10928E-19         0.00000E+00
    0.28571E-09        -0.11176E-19         0.00000E+00
    0.28571E-09        -0.37253E-20         0.00000E+00
    0.28571E-09        -0.37253E-20         0.00000E+00
    0.28571E-09        -0.74506E-20         0.00000E+00
    0.28571E-09        -0.11176E-19         0.00000E+00
    0.34414E-09         0.00000E+00         0.00000E+00
    0.34414E-09         0.00000E+00         0.00000E+00
    0.34414E-09        -0.37253E-20         0.00000E+00
    0.34414E-09         0.00000E+00         0.00000E+00
    0.34414E-09         0.13039E-19         0.00000E+00
    0.34414E-09         0.14901E-19         0.00000E+00
    0.34414E-09         0.11176E-19         0.00000E+00
    0.34414E-09         0.11176E-19         0.00000E+00
    0.34414E-09         0.18626E-20         0.00000E+00
    0.34414E-09        -0.95559E-20         0.00000E+00
    0.34414E-09        -0.55879E-20         0.00000E+00
    0.34414E-09        -0.72079E-20         0.00000E+00
    0.34414E-09        -0.15144E-19         0.00000E+00
    0.34414E-09        -0.22109E-19         0.00000E+00
    0.34414E-09        -0.22109E-19         0.00000E+00
    0.34414E-09         0.16200E-20         0.00000E+00
    0.34414E-09         0.20489E-19         0.00000E+00
    0.34414E-09         0.11176E-19         0.00000E+00
    0.34414E-09        -0.58306E-20         0.00000E+00
    0.34414E-09        -0.21053E-20         0.00000E+00
    0.34414E-09         0.58306E-20         0.00000E+00
    0.34414E-09         0.24266E-21         0.00000E+00
    0.34414E-09         0.37253E-20         0.00000E+00
    0.34414E-09         0.18626E-20         0.00000E+00
    0.34414E-09        -0.74506E-20         0.00000E+00
    0.34414E-09         0.18626E-20         0.00000E+00
    0.34414E-09         0.37253E-20         0.00000E+00
    0.34414E-09         0.74506E-20         0.00000E+00
    0.34414E-09         0.14901E-19         0.00000E+00
    0.34414E-09         0.10933E-19         0.00000E+00
    0.34414E-09         0.16200E-20         0.00000E+00
    0.34414E-09        -0.12553E-19         0.00000E+00
    0.34414E-09        -0.74506E-20         0.00000E+00
    0.34414E-09         0.90706E-20         0.00000E+00
    0.34414E-09         0.95559E-20         0.00000E+00
    0.34414E-09         0.34826E-20         0.00000E+00
    0.34414E-09        -0.74506E-20         0.00000E+00
    0.34414E-09         0.39679E-20         0.00000E+00
    0.34414E-09         0.18626E-19         0.00000E+00
    0.34414E-09         0.16764E-19         0.00000E+00
    0.34414E-09         0.37253E-20         0.00000E+00
    0.34414E-09        -0.13281E-19         0.00000E+00
    0.34414E-09        -0.55879E-20         0.00000E+00
    0.34414E-09         0.39679E-20         0.00000E+00
    0.34414E-09         0.18626E-20         0.00000E+00
    0.34414E-09         0.00000E+00         0.00000E+00
    0.34414E-09        -0.37253E-20         0.00000E+00
    0.34414E-09        -0.37253E-20         0.00000E+00
    0.34414E-09         0.55879E-20         0.00000E+00
    0.34414E-09         0.55879E-20         0.00000E+00
    0.34414E-09         0.00000E+00         0.00000E+00
    0.41424E-09        -0.15374E-19         0.00000E+00
    0.41424E-09        -0.13039E-19         0.00000E+00
    0.41424E-09         0.39615E-20         0.00000E+00
    0.41424E-09         0.24214E-19         0.00000E+00
    0.41424E-09         0.35154E-19         0.00000E+00
    0.41424E-09         0.22352E-19         0.00000E+00
    0.41424E-09         0.23623E-21         0.00000E+00
    0.41424E-09        -0.74506E-20         0.00000E+00
    0.41424E-09         0.00000E+00         0.00000E+00
    0.41424E-09         0.93132E-20         0.00000E+00
    0.41424E-09         0.37253E-20         0.00000E+00
    0.41424E-09         0.00000E+00         0.00000E+00
    0.41424E-09        -0.74506E-20         0.00000E+00
    0.41424E-09        -0.93132E-20         0.00000E+00
    0.41424E-09        -0.11176E-19         0.00000E+00
    0.41424E-09        -0.93132E-20         0.00000E+00
    0.41424E-09        -0.18626E-20         0.00000E+00
    0.41424E-09        -0.10481E-19         0.00000E+00
    0.41424E-09        -0.11676E-20         0.00000E+00
    0.41424E-09         0.13275E-19         0.00000E+00
    0.41424E-09         0.58242E-20         0.00000E+00
    0.41424E-09         0.18626E-20         0.00000E+00
    0.41424E-09         0.55879E-20         0.00000E+00
    0.41424E-09         0.37253E-20         0.00000E+00
    0.41424E-09        -0.37253E-20         0.00000E+00
    0.41424E-09        -0.11176E-19         0.00000E+00
    0.41424E-09        -0.11176E-19         0.00000E+00
    0.41424E-09        -0.55879E-20         0.00000E+00
    0.41424E-09        -0.11176E-19         0.00000E+00
    0.41424E-09        -0.55879E-20         0.00000E+00
    0.41424E-09         0.93132E-20         0.00000E+00
    0.41424E-09         0.13039E-19         0.00000E+00
    0.41424E-09         0.11176E-19         0.00000E+00
    0.41424E-09        -0.18626E-20         0.00000E+00
    0.41424E-09        -0.74506E-20         0.00000E+00
    0.41424E-09        -0.74506E-20         0.00000E+00
    0.41424E-09        -0.74506E-20         0.00000E+00
    0.41424E-09        -0.11176E-19         0.00000E+00
    0.41424E-09        -0.74506E-20         0.00000E+00
    0.41424E-09         0.37253E-20         0.00000E+00
    0.41424E-09         0.11176E-19         0.00000E+00
    0.41424E-09         0.12802E-19         0.00000E+00
    0.41424E-09         0.13039E-19         0.00000E+00
    0.41424E-09         0.95495E-20         0.00000E+00
    0.41424E-09         0.53517E-20         0.00000E+00
    0.41424E-09         0.37253E-20         0.00000E+00
    0.41424E-09        -0.34891E-20         0.00000E+00
    0.41424E-09        -0.74506E-20         0.00000E+00
    0.41424E-09        -0.12343E-19         0.00000E+00
    0.41424E-09        -0.12107E-19         0.00000E+00
    0.41424E-09        -0.32528E-20         0.00000E+00
    0.49827E-09         0.37253E-20         0.00000E+00
    0.49827E-09         0.37253E-20         0.00000E+00
    0.49827E-09         0.37253E-20         0.00000E+00
    0.49827E-09         0.00000E+00         0.00000E+00
    0.49827E-09        -0.95417E-20         0.00000E+00
    0.49827E-09        -0.15219E-32         0.00000E+00
    0.49827E-09         0.39538E-20         0.00000E+00
    0.49827E-09         0.74506E-20         0.00000E+00
    0.49827E-09         0.14901E-19         0.00000E+00
    0.49827E-09         0.18626E-20         0.00000E+00
    0.49827E-09        -0.11176E-19         0.00000E+00
    0.49827E-09        -0.18626E-19         0.00000E+00
    0.49827E-09        -0.18626E-19         0.00000E+00
    0.49827E-09        -0.22352E-19         0.00000E+00
    0.49827E-09        -0.16764E-19         0.00000E+00
    0.49827E-09        -0.37253E-20         0.00000E+00
    0.49827E-09         0.93132E-20         0.00000E+00
    0.49827E-09         0.14901E-19         0.00000E+00
    0.49827E-09         0.93132E-20         0.00000E+00
    0.49827E-09         0.74506E-20         0.00000E+00
    0.49827E-09         0.55879E-20         0.00000E+00
    0.49827E-09         0.11176E-19         0.00000E+00
    0.49827E-09         0.13039E-19         0.00000E+00
    0.49827E-09         0.18626E-20         0.00000E+00
    0.49827E-09        -0.74506E-20         0.00000E+00
    0.49827E-09        -0.37253E-20         0.00000E+00
    0.49827E-09        -0.37253E-20         0.00000E+00
    0.49827E-09        -0.93132E-20         0.00000E+00
    0.49827E-09        -0.74506E-20         0.00000E+00
    0.49827E-09        -0.37253E-20         0.00000E+00
    0.49827E-09         0.55879E-20         0.00000E+00
    0.49827E-09         0.93132E-20         0.00000E+00
    0.49827E-09         0.00000E+00         0.00000E+00
    0.49827E-09        -0.74506E-20         0.00000E+00
    0.49827E-09        -0.74506E-20         0.00000E+00
    0.49827E-09        -0.13039E-19         0.00000E+00
    0.49827E-09        -0.13039E-19         0.00000E+00
    0.49827E-09        -0.74506E-20         0.00000E+00
    0.49827E-09        -0.93132E-20         0.00000E+00
    0.49827E-09        -0.11176E-19         0.00000E+00
    0.49827E-09        -0.74506E-20         0.00000E+00
    0.49827E-09         0.00000E+00         0.00000E+00
    0.49827E-09         0.18626E-20         0.00000E+00
    0.49827E-09         0.53594E-20         0.00000E+00
    0.49827E-09         0.55879E-20         0.00000E+00
    0.49827E-09         0.76791E-20         0.00000E+00
    0.49827E-09         0.72221E-20         0.00000E+00
    0.49827E-09        -0.20911E-20         0.00000E+00
    0.49827E-09         0.37253E-20         0.00000E+00
    0.49827E-09         0.58164E-20         0.00000E+00
    0.49827E-09         0.45700E-21         0.00000E+00
    0.59889E-09        -0.41637E-20         0.00000E+00
    0.59889E-09        -0.55879E-20         0.00000E+00
    0.59889E-09        -0.16545E-19         0.00000E+00
    0.59889E-09        -0.16764E-19         0.00000E+00
    0.59889E-09         0.16434E-20         0.00000E+00
    0.59889E-09        -0.18626E-20         0.00000E+00
    0.59889E-09        -0.74506E-20         0.00000E+00
    0.59889E-09         0.18626E-20         0.00000E+00
    0.59889E-09         0.18626E-20         0.00000E+00
    0.59889E-09         0.18626E-20         0.00000E+00
    0.59889E-09        -0.55879E-20         0.00000E+00
    0.59889E-09        -0.14901E-19         0.00000E+00
    0.59889E-09        -0.10957E-19         0.00000E+00
    0.59889E-09        -0.16764E-19         0.00000E+00
    0.59889E-09        -0.18626E-19         0.00000E+00
    0.59889E-09        -0.55879E-20         0.00000E+00
    0.59889E-09        -0.37253E-20         0.00000E+00
    0.59889E-09        -0.13039E-19         0.00000E+00
    0.59889E-09        -0.76698E-20         0.00000E+00
    0.59889E-09         0.37253E-20         0.00000E+00
    0.59889E-09        -0.16434E-20         0.00000E+00
    0.59889E-09        -0.93132E-20         0.00000E+00
    0.59889E-09        -0.74506E-20         0.00000E+00
    0.59889E-09         0.37253E-20         0.00000E+00
    0.59889E-09         0.18626E-19         0.00000E+00
    0.59889E-09         0.13039E-19         0.00000E+00
    0.59889E-09         0.18626E-20         0.00000E+00
    0.59889E-09        -0.37253E-20         0.00000E+00
    0.59889E-09        -0.11176E-19         0.00000E+00
    0.59889E-09         0.00000E+00         0.00000E+00
    0.59889E-09         0.74506E-20         0.00000E+00
    0.59889E-09         0.74506E-20         0.00000E+00
    0.59889E-09         0.74506E-20         0.00000E+00
    0.59889E-09         0.93132E-20         0.00000E+00
    0.59889E-09         0.18626E-19         0.00000E+00
    0.59889E-09         0.74506E-20         0.00000E+00
    0.59889E-09        -0.18626E-20         0.00000E+00
    0.59889E-09         0.18626E-20         0.00000E+00
    0.59889E-09        -0.93132E-20         0.00000E+00
    0.59889E-09        -0.13039E-19         0.00000E+00
    0.59889E-09        -0.74506E-20         0.00000E+00
    0.59889E-09        -0.74506E-20         0.00000E+00
    0.59889E-09        -0.76698E-20         0.00000E+00
    0.59889E-09        -0.74506E-20         0.00000E+00
    0.59889E-09         0.39445E-20         0.00000E+00
    0.59889E-09         0.11176E-19         0.00000E+00
    0.59889E-09         0.12819E-19         0.00000E+00
    0.59889E-09         0.16764E-19         0.00000E+00
    0.59889E-09         0.58071E-20         0.00000E+00
    0.59889E-09        -0.18626E-20         0.00000E+00
    0.59889E-09         0.00000E+00         0.00000E+00
    0.71928E-09        -0.41611E-21         0.00000E+00
    0.71928E-09        -0.20707E-20         0.00000E+00
    0.71928E-09        -0.93132E-20         0.00000E+00
    0.71928E-09        -0.12830E-19         0.00000E+00
    0.71928E-09         0.37253E-20         0.00000E+00
    0.71928E-09         0.16764E-19         0.00000E+00
    0.71928E-09         0.74506E-20         0.00000E+00
    0.71928E-09         0.53799E-20         0.00000E+00
    0.71928E-09         0.76586E-20         0.00000E+00
    0.71928E-09         0.95213E-20         0.00000E+00
    0.71928E-09         0.74506E-20         0.00000E+00
    0.71928E-09        -0.57960E-20         0.00000E+00
    0.71928E-09        -0.37253E-20         0.00000E+00
    0.71928E-09         0.39333E-20         0.00000E+00
    0.71928E-09        -0.37253E-20         0.00000E+00
    0.71928E-09        -0.95213E-20         0.00000E+00
    0.71928E-09        -0.74506E-20         0.00000E+00
    0.71928E-09        -0.74506E-20         0.00000E+00
    0.71928E-09        -0.15109E-19         0.00000E+00
    0.71928E-09        -0.22144E-19         0.00000E+00
    0.71928E-09        -0.14693E-19         0.00000E+00
    0.71928E-09        -0.55879E-20         0.00000E+00
    0.71928E-09         0.00000E+00         0.00000E+00
    0.71928E-09        -0.74506E-20         0.00000E+00
    0.71928E-09        -0.14901E-19         0.00000E+00
    0.71928E-09        -0.93132E-20         0.00000E+00
    0.71928E-09        -0.37253E-20         0.00000E+00
    0.71928E-09         0.55879E-20         0.00000E+00
    0.71928E-09         0.18418E-19         0.00000E+00
    0.71928E-09         0.18626E-19         0.00000E+00
    0.71928E-09         0.37253E-20         0.00000E+00
    0.71928E-09        -0.74506E-20         0.00000E+00
    0.71928E-09        -0.74506E-20         0.00000E+00
    0.71928E-09         0.18626E-20         0.00000E+00
    0.71928E-09         0.15109E-19         0.00000E+00
    0.71928E-09         0.16556E-19         0.00000E+00
    0.71928E-09         0.10968E-19         0.00000E+00
    0.71928E-09         0.93132E-20         0.00000E+00
    0.71928E-09         0.39333E-20         0.00000E+00
    0.71928E-09        -0.14693E-19         0.00000E+00
    0.71928E-09        -0.20489E-19         0.00000E+00
    0.71928E-09        -0.11176E-19         0.00000E+00
    0.71928E-09         0.00000E+00         0.00000E+00
    0.71928E-09         0.16764E-19         0.00000E+00
    0.71928E-09         0.18626E-19         0.00000E+00
    0.71928E-09         0.91052E-20         0.00000E+00
    0.71928E-09         0.55879E-20         0.00000E+00
    0.71928E-09         0.11176E-19         0.00000E+00
    0.71928E-09         0.12830E-19         0.00000E+00
    0.71928E-09         0.95213E-20         0.00000E+00
    0.71928E-09         0.78667E-20         0.00000E+00
    0.86319E-09         0.38935E-21         0.00000E+00
    0.86319E-09         0.18626E-20         0.00000E+00
    0.86319E-09         0.16680E-20         0.00000E+00
    0.86319E-09        -0.16680E-20         0.00000E+00
    0.86319E-09         0.37253E-20         0.00000E+00
    0.86319E-09         0.12844E-19         0.00000E+00
    0.86319E-09         0.16764E-19         0.00000E+00
    0.86319E-09         0.13039E-19         0.00000E+00
    0.86319E-09         0.76453E-20         0.00000E+00
    0.86319E-09         0.13233E-19         0.00000E+00
    0.86319E-09         0.16680E-20         0.00000E+00
    0.86319E-09        -0.18626E-20         0.00000E+00
    0.86319E-09        -0.51609E-33         0.00000E+00
    0.86319E-09        -0.14901E-19         0.00000E+00
    0.86319E-09        -0.35306E-20         0.00000E+00
    0.86319E-09        -0.18626E-20         0.00000E+00
    0.86319E-09        -0.55879E-20         0.00000E+00
    0.86319E-09         0.16680E-20         0.00000E+00
    0.86319E-09        -0.19467E-21         0.00000E+00
    0.86319E-09        -0.18626E-20         0.00000E+00
    0.86319E-09        -0.16680E-20         0.00000E+00
    0.86319E-09         0.57826E-20         0.00000E+00
    0.86319E-09         0.18626E-20         0.00000E+00
    0.86319E-09        -0.74506E-20         0.00000E+00
    0.86319E-09        -0.11371E-19         0.00000E+00
    0.86319E-09        -0.93132E-20         0.00000E+00
    0.86319E-09        -0.72559E-20         0.00000E+00
    0.86319E-09        -0.18626E-20         0.00000E+00
    0.86319E-09         0.18626E-20         0.00000E+00
    0.86319E-09         0.74506E-20         0.00000E+00
    0.86319E-09         0.14901E-19         0.00000E+00
    0.86319E-09         0.55879E-20         0.00000E+00
    0.86319E-09        -0.18626E-20         0.00000E+00
    0.86319E-09        -0.20573E-20         0.00000E+00
    0.86319E-09        -0.13234E-33         0.00000E+00
    0.86319E-09         0.76453E-20         0.00000E+00
    0.86319E-09         0.10981E-19         0.00000E+00
    0.86319E-09         0.74506E-20         0.00000E+00
    0.86319E-09         0.18626E-20         0.00000E+00
    0.86319E-09        -0.55879E-20         0.00000E+00
    0.86319E-09        -0.55879E-20         0.00000E+00
    0.86319E-09        -0.18626E-20         0.00000E+00
    0.86319E-09        -0.35306E-20         0.00000E+00
    0.86319E-09        -0.76453E-20         0.00000E+00
    0.86319E-09         0.00000E+00         0.00000E+00
    0.86319E-09         0.95079E-20         0.00000E+00
    0.86319E-09         0.10981E-19         0.00000E+00
    0.86319E-09         0.17695E-19         0.00000E+00
    0.86319E-09         0.17890E-19         0.00000E+00
    0.86319E-09         0.72559E-20         0.00000E+00
    0.86319E-09        -0.38935E-21         0.00000E+00
    0.10350E-08         0.00000E+00         0.00000E+00
    0.10350E-08         0.57666E-20         0.00000E+00
    0.10350E-08         0.13039E-19         0.00000E+00
    0.10350E-08         0.16585E-19         0.00000E+00
    0.10350E-08         0.16764E-19         0.00000E+00
    0.10350E-08         0.22352E-19         0.00000E+00
    0.10350E-08         0.27940E-19         0.00000E+00
    0.10350E-08         0.29981E-19         0.00000E+00
    0.10350E-08         0.31665E-19         0.00000E+00
    0.10350E-08         0.22352E-19         0.00000E+00
    0.10350E-08         0.76292E-20         0.00000E+00
    0.10350E-08         0.00000E+00         0.00000E+00
    0.10350E-08         0.18626E-20         0.00000E+00
    0.10350E-08         0.93132E-20         0.00000E+00
    0.10350E-08         0.54093E-20         0.00000E+00
    0.10350E-08        -0.13039E-19         0.00000E+00
    0.10350E-08        -0.18626E-19         0.00000E+00
    0.10350E-08        -0.16942E-19         0.00000E+00
    0.10350E-08        -0.16764E-19         0.00000E+00
    0.10350E-08        -0.13039E-19         0.00000E+00
    0.10350E-08         0.20413E-20         0.00000E+00
    0.10350E-08         0.11355E-19         0.00000E+00
    0.10350E-08         0.00000E+00         0.00000E+00
    0.10350E-08        -0.55879E-20         0.00000E+00
    0.10350E-08         0.16840E-20         0.00000E+00
    0.10350E-08         0.93132E-20         0.00000E+00
    0.10350E-08         0.13217E-19         0.00000E+00
    0.10350E-08         0.72719E-20         0.00000E+00
    0.10350E-08         0.18626E-20         0.00000E+00
    0.10350E-08         0.14901E-19         0.00000E+00
    0.10350E-08         0.20489E-19         0.00000E+00
    0.10350E-08         0.76292E-20         0.00000E+00
    0.10350E-08        -0.76292E-20         0.00000E+00
    0.10350E-08        -0.18626E-19         0.00000E+00
    0.10350E-08        -0.72719E-20         0.00000E+00
    0.10350E-08         0.16840E-20         0.00000E+00
    0.10350E-08         0.55879E-20         0.00000E+00
    0.10350E-08         0.93132E-20         0.00000E+00
    0.10350E-08        -0.17864E-21         0.00000E+00
    0.10350E-08         0.17864E-21         0.00000E+00
    0.10350E-08         0.11905E-33         0.00000E+00
    0.10350E-08        -0.17864E-21         0.00000E+00
    0.10350E-08         0.93132E-20         0.00000E+00
    0.10350E-08         0.18805E-19         0.00000E+00
    0.10350E-08         0.18805E-19         0.00000E+00
    0.10350E-08         0.93132E-20         0.00000E+00
    0.10350E-08         0.54093E-20         0.00000E+00
    0.10350E-08         0.13039E-19         0.00000E+00
    0.10350E-08         0.83819E-20         0.00000E+00
    0.10350E-08        -0.29726E-20         0.00000E+00
    0.10350E-08         0.00000E+00         0.00000E+00
    0.12400E-08         0.00000E+00         0.00000E+00
    0.12400E-08         0.00000E+00         0.00000E+00
    0.12400E-08         0.38847E-20         0.00000E+00
    0.12400E-08         0.74506E-20         0.00000E+00
    0.12400E-08         0.11016E-19         0.00000E+00
    0.12400E-08         0.14901E-19         0.00000E+00
    0.12400E-08         0.22352E-19         0.00000E+00
    0.12400E-08         0.26077E-19         0.00000E+00
    0.12400E-08         0.20489E-19         0.00000E+00
    0.12400E-08         0.16764E-19         0.00000E+00
    0.12400E-08         0.11335E-19         0.00000E+00
    0.12400E-08         0.11176E-19         0.00000E+00
    0.12400E-08         0.11016E-19         0.00000E+00
    0.12400E-08        -0.35659E-20         0.00000E+00
    0.12400E-08        -0.20489E-19         0.00000E+00
    0.12400E-08        -0.18626E-19         0.00000E+00
    0.12400E-08        -0.16604E-19         0.00000E+00
    0.12400E-08        -0.18786E-19         0.00000E+00
    0.12400E-08        -0.20221E-20         0.00000E+00
    0.12400E-08         0.37253E-20         0.00000E+00
    0.12400E-08         0.18626E-20         0.00000E+00
    0.12400E-08         0.11335E-19         0.00000E+00
    0.12400E-08         0.13198E-19         0.00000E+00
    0.12400E-08         0.55879E-20         0.00000E+00
    0.12400E-08        -0.15943E-21         0.00000E+00
    0.12400E-08         0.18626E-20         0.00000E+00
    0.12400E-08         0.20221E-20         0.00000E+00
    0.12400E-08         0.55879E-20         0.00000E+00
    0.12400E-08         0.55879E-20         0.00000E+00
    0.12400E-08         0.35659E-20         0.00000E+00
    0.12400E-08         0.91538E-20         0.00000E+00
    0.12400E-08         0.94727E-20         0.00000E+00
    0.12400E-08        -0.18626E-20         0.00000E+00
    0.12400E-08        -0.13039E-19         0.00000E+00
    0.12400E-08        -0.74506E-20         0.00000E+00
    0.12400E-08        -0.20221E-20         0.00000E+00
    0.12400E-08        -0.18626E-20         0.00000E+00
    0.12400E-08         0.20221E-20         0.00000E+00
    0.12400E-08         0.94727E-20         0.00000E+00
    0.12400E-08         0.72911E-20         0.00000E+00
    0.12400E-08        -0.15943E-21         0.00000E+00
    0.12400E-08        -0.17032E-20         0.00000E+00
    0.12400E-08         0.94727E-20         0.00000E+00
    0.12400E-08         0.31665E-19         0.00000E+00
    0.12400E-08         0.33368E-19         0.00000E+00
    0.12400E-08         0.20330E-19         0.00000E+00
    0.12400E-08         0.16764E-19         0.00000E+00
    0.12400E-08         0.11176E-19         0.00000E+00
    0.12400E-08        -0.18626E-20         0.00000E+00
    0.12400E-08         0.00000E+00         0.00000E+00
    0.12400E-08         0.74506E-20         0.00000E+00
    0.14842E-08         0.74506E-20         0.00000E+00
    0.14842E-08         0.13175E-19         0.00000E+00
    0.14842E-08         0.15038E-19         0.00000E+00
    0.14842E-08         0.35888E-20         0.00000E+00
    0.14842E-08         0.73141E-20         0.00000E+00
    0.14842E-08         0.22488E-19         0.00000E+00
    0.14842E-08         0.16900E-19         0.00000E+00
    0.14842E-08         0.35888E-20         0.00000E+00
    0.14842E-08         0.17262E-20         0.00000E+00
    0.14842E-08        -0.55879E-20         0.00000E+00
    0.14842E-08        -0.74506E-20         0.00000E+00
    0.14842E-08        -0.74506E-20         0.00000E+00
    0.14842E-08        -0.14901E-19         0.00000E+00
    0.14842E-08        -0.11176E-19         0.00000E+00
    0.14842E-08        -0.74506E-20         0.00000E+00
    0.14842E-08        -0.18626E-19         0.00000E+00
    0.14842E-08        -0.33528E-19         0.00000E+00
    0.14842E-08        -0.22352E-19         0.00000E+00
    0.14842E-08        -0.13645E-21         0.00000E+00
    0.14842E-08         0.74506E-20         0.00000E+00
    0.14842E-08         0.15038E-19         0.00000E+00
    0.14842E-08         0.18626E-19         0.00000E+00
    0.14842E-08         0.20489E-19         0.00000E+00
    0.14842E-08         0.24351E-19         0.00000E+00
    0.14842E-08         0.11176E-19         0.00000E+00
    0.14842E-08        -0.38617E-20         0.00000E+00
    0.14842E-08        -0.37253E-20         0.00000E+00
    0.14842E-08        -0.18626E-20         0.00000E+00
    0.14842E-08        -0.74506E-20         0.00000E+00
    0.14842E-08        -0.74506E-20         0.00000E+00
    0.14842E-08        -0.74506E-20         0.00000E+00
    0.14842E-08        -0.93132E-20         0.00000E+00
    0.14842E-08        -0.74506E-20         0.00000E+00
    0.14842E-08        -0.55879E-20         0.00000E+00
    0.14842E-08        -0.18626E-20         0.00000E+00
    0.14842E-08         0.17262E-20         0.00000E+00
    0.14842E-08         0.74506E-20         0.00000E+00
    0.14842E-08         0.13175E-19         0.00000E+00
    0.14842E-08         0.16764E-19         0.00000E+00
    0.14842E-08         0.14901E-19         0.00000E+00
    0.14842E-08         0.16627E-19         0.00000E+00
    0.14842E-08         0.16764E-19         0.00000E+00
    0.14842E-08         0.13311E-19         0.00000E+00
    0.14842E-08         0.22352E-19         0.00000E+00
    0.14842E-08         0.24078E-19         0.00000E+00
    0.14842E-08         0.13039E-19         0.00000E+00
    0.14842E-08         0.19991E-20         0.00000E+00
    0.14842E-08         0.65193E-20         0.00000E+00
    0.14842E-08         0.82454E-20         0.00000E+00
    0.14842E-08         0.55879E-20         0.00000E+00
    0.14842E-08         0.74506E-20         0.00000E+00
    0.17749E-08         0.37253E-20         0.00000E+00
    0.17749E-08         0.55879E-20         0.00000E+00
    0.17749E-08         0.93132E-20         0.00000E+00
    0.17749E-08         0.16873E-19         0.00000E+00
    0.17749E-08         0.22352E-19         0.00000E+00
    0.17749E-08         0.20380E-19         0.00000E+00
    0.17749E-08         0.21311E-19         0.00000E+00
    0.17749E-08         0.16764E-19         0.00000E+00
    0.17749E-08         0.14079E-19         0.00000E+00
    0.17749E-08         0.55879E-20         0.00000E+00
    0.17749E-08        -0.74506E-20         0.00000E+00
    0.17749E-08        -0.13039E-19         0.00000E+00
    0.17749E-08        -0.55879E-20         0.00000E+00
    0.17749E-08        -0.36163E-20         0.00000E+00
    0.17749E-08        -0.18626E-19         0.00000E+00
    0.17749E-08        -0.35499E-19         0.00000E+00
    0.17749E-08        -0.31665E-19         0.00000E+00
    0.17749E-08        -0.16764E-19         0.00000E+00
    0.17749E-08        -0.55879E-20         0.00000E+00
    0.17749E-08        -0.18626E-20         0.00000E+00
    0.17749E-08         0.74506E-20         0.00000E+00
    0.17749E-08         0.24323E-19         0.00000E+00
    0.17749E-08         0.26077E-19         0.00000E+00
    0.17749E-08         0.26077E-19         0.00000E+00
    0.17749E-08         0.29802E-19         0.00000E+00
    0.17749E-08         0.20489E-19         0.00000E+00
    0.17749E-08         0.56969E-20         0.00000E+00
    0.17749E-08        -0.56969E-20         0.00000E+00
    0.17749E-08        -0.13148E-19         0.00000E+00
    0.17749E-08        -0.74506E-20         0.00000E+00
    0.17749E-08        -0.18626E-20         0.00000E+00
    0.17749E-08         0.10899E-21         0.00000E+00
    0.17749E-08        -0.36163E-20         0.00000E+00
    0.17749E-08        -0.18735E-19         0.00000E+00
    0.17749E-08        -0.18735E-19         0.00000E+00
    0.17749E-08        -0.13039E-19         0.00000E+00
    0.17749E-08        -0.13039E-19         0.00000E+00
    0.17749E-08        -0.55879E-20         0.00000E+00
    0.17749E-08         0.37253E-20         0.00000E+00
    0.17749E-08         0.55879E-20         0.00000E+00
    0.17749E-08         0.37253E-20         0.00000E+00
    0.17749E-08         0.11176E-19         0.00000E+00
    0.17749E-08         0.24105E-19         0.00000E+00
    0.17749E-08         0.28049E-19         0.00000E+00
    0.17749E-08         0.20598E-19         0.00000E+00
    0.17749E-08         0.14792E-19         0.00000E+00
    0.17749E-08         0.12216E-19         0.00000E+00
    0.17749E-08         0.12107E-19         0.00000E+00
    0.17749E-08         0.92042E-20         0.00000E+00
    0.17749E-08         0.55879E-20         0.00000E+00
    0.17749E-08         0.37253E-20         0.00000E+00
    0.21203E-08         0.00000E+00         0.00000E+00
    0.21203E-08         0.00000E+00         0.00000E+00
    0.21203E-08         0.55879E-20         0.00000E+00
    0.21203E-08         0.55879E-20         0.00000E+00
    0.21203E-08         0.11176E-19         0.00000E+00
    0.21203E-08         0.29802E-19         0.00000E+00
    0.21203E-08         0.33528E-19         0.00000E+00
    0.21203E-08         0.23207E-19         0.00000E+00
    0.21203E-08         0.16764E-19         0.00000E+00
    0.21203E-08         0.12260E-19         0.00000E+00
    0.21203E-08         0.19388E-20         0.00000E+00
    0.21203E-08        -0.76190E-22         0.00000E+00
    0.21203E-08         0.36491E-20         0.00000E+00
    0.21203E-08         0.55879E-20         0.00000E+00
    0.21203E-08        -0.74506E-20         0.00000E+00
    0.21203E-08        -0.13039E-19         0.00000E+00
    0.21203E-08        -0.22352E-19         0.00000E+00
    0.21203E-08        -0.22352E-19         0.00000E+00
    0.21203E-08        -0.37253E-20         0.00000E+00
    0.21203E-08         0.93132E-20         0.00000E+00
    0.21203E-08         0.93132E-20         0.00000E+00
    0.21203E-08         0.74506E-20         0.00000E+00
    0.21203E-08         0.14901E-19         0.00000E+00
    0.21203E-08         0.13039E-19         0.00000E+00
    0.21203E-08         0.73744E-20         0.00000E+00
    0.21203E-08         0.93132E-20         0.00000E+00
    0.21203E-08         0.75268E-20         0.00000E+00
    0.21203E-08         0.55879E-20         0.00000E+00
    0.21203E-08         0.18626E-20         0.00000E+00
    0.21203E-08         0.18626E-20         0.00000E+00
    0.21203E-08         0.00000E+00         0.00000E+00
    0.21203E-08        -0.73744E-20         0.00000E+00
    0.21203E-08        -0.24214E-19         0.00000E+00
    0.21203E-08        -0.37329E-19         0.00000E+00
    0.21203E-08        -0.35390E-19         0.00000E+00
    0.21203E-08        -0.27940E-19         0.00000E+00
    0.21203E-08        -0.93132E-20         0.00000E+00
    0.21203E-08         0.00000E+00         0.00000E+00
    0.21203E-08        -0.55879E-20         0.00000E+00
    0.21203E-08        -0.74506E-20         0.00000E+00
    0.21203E-08         0.18626E-20         0.00000E+00
    0.21203E-08         0.11100E-19         0.00000E+00
    0.21203E-08         0.14901E-19         0.00000E+00
    0.21203E-08         0.14977E-19         0.00000E+00
    0.21203E-08         0.13039E-19         0.00000E+00
    0.21203E-08         0.74506E-20         0.00000E+00
    0.21203E-08         0.55879E-20         0.00000E+00
    0.21203E-08         0.74506E-20         0.00000E+00
    0.21203E-08         0.55879E-20         0.00000E+00
    0.21203E-08         0.36491E-20         0.00000E+00
    0.21203E-08         0.35729E-20         0.00000E+00
    0.25305E-08         0.74506E-20         0.00000E+00
    0.25305E-08         0.74506E-20         0.00000E+00
    0.25305E-08         0.37253E-20         0.00000E+00
    0.25305E-08        -0.37253E-20         0.00000E+00
    0.25305E-08         0.74135E-20         0.00000E+00
    0.25305E-08         0.26077E-19         0.00000E+00
    0.25305E-08         0.29839E-19         0.00000E+00
    0.25305E-08         0.27977E-19         0.00000E+00
    0.25305E-08         0.21420E-19         0.00000E+00
    0.25305E-08         0.13039E-19         0.00000E+00
    0.25305E-08         0.13039E-19         0.00000E+00
    0.25305E-08         0.12070E-19         0.00000E+00
    0.25305E-08         0.14901E-19         0.00000E+00
    0.25305E-08         0.13039E-19         0.00000E+00
    0.25305E-08         0.37253E-20         0.00000E+00
    0.25305E-08        -0.84190E-20         0.00000E+00
    0.25305E-08        -0.13039E-19         0.00000E+00
    0.25305E-08        -0.74506E-20         0.00000E+00
    0.25305E-08        -0.65193E-20         0.00000E+00
    0.25305E-08        -0.18256E-20         0.00000E+00
    0.25305E-08         0.18626E-20         0.00000E+00
    0.25305E-08         0.11176E-19         0.00000E+00
    0.25305E-08         0.14901E-19         0.00000E+00
    0.25305E-08         0.16764E-19         0.00000E+00
    0.25305E-08         0.16727E-19         0.00000E+00
    0.25305E-08         0.11213E-19         0.00000E+00
    0.25305E-08        -0.55509E-20         0.00000E+00
    0.25305E-08        -0.74876E-20         0.00000E+00
    0.25305E-08        -0.74506E-20         0.00000E+00
    0.25305E-08        -0.93132E-20         0.00000E+00
    0.25305E-08        -0.37253E-20         0.00000E+00
    0.25305E-08        -0.74506E-20         0.00000E+00
    0.25305E-08        -0.16764E-19         0.00000E+00
    0.25305E-08        -0.20526E-19         0.00000E+00
    0.25305E-08        -0.24214E-19         0.00000E+00
    0.25305E-08        -0.29765E-19         0.00000E+00
    0.25305E-08        -0.27940E-19         0.00000E+00
    0.25305E-08        -0.22352E-19         0.00000E+00
    0.25305E-08        -0.18626E-19         0.00000E+00
    0.25305E-08        -0.18626E-19         0.00000E+00
    0.25305E-08        -0.13039E-19         0.00000E+00
    0.25305E-08         0.00000E+00         0.00000E+00
    0.25305E-08         0.11176E-19         0.00000E+00
    0.25305E-08         0.14864E-19         0.00000E+00
    0.25305E-08         0.93132E-20         0.00000E+00
    0.25305E-08         0.37994E-20         0.00000E+00
    0.25305E-08         0.27940E-20         0.00000E+00
    0.25305E-08        -0.37624E-20         0.00000E+00
    0.25305E-08        -0.37253E-20         0.00000E+00
    0.25305E-08         0.18256E-20         0.00000E+00
    0.25305E-08         0.73764E-20         0.00000E+00
    0.30167E-08         0.37253E-20         0.00000E+00
    0.30167E-08         0.74506E-20         0.00000E+00
    0.30167E-08         0.93228E-20         0.00000E+00
    0.30167E-08         0.11185E-19         0.00000E+00
    0.30167E-08         0.22352E-19         0.00000E+00
    0.30167E-08         0.31665E-19         0.00000E+00
    0.30167E-08         0.29793E-19         0.00000E+00
    0.30167E-08         0.23264E-19         0.00000E+00
    0.30167E-08         0.26999E-19         0.00000E+00
    0.30167E-08         0.22361E-19         0.00000E+00
    0.30167E-08         0.14911E-19         0.00000E+00
    0.30167E-08         0.18626E-19         0.00000E+00
    0.30167E-08         0.22352E-19         0.00000E+00
    0.30167E-08         0.19548E-19         0.00000E+00
    0.30167E-08         0.46566E-20         0.00000E+00
    0.30167E-08        -0.37157E-20         0.00000E+00
    0.30167E-08        -0.93132E-20         0.00000E+00
    0.30167E-08        -0.74410E-20         0.00000E+00
    0.30167E-08         0.18626E-20         0.00000E+00
    0.30167E-08        -0.95485E-23         0.00000E+00
    0.30167E-08        -0.74506E-20         0.00000E+00
    0.30167E-08        -0.37253E-20         0.00000E+00
    0.30167E-08         0.55975E-20         0.00000E+00
    0.30167E-08         0.74506E-20         0.00000E+00
    0.30167E-08         0.11176E-19         0.00000E+00
    0.30167E-08         0.10235E-19         0.00000E+00
    0.30167E-08         0.65097E-20         0.00000E+00
    0.30167E-08         0.56070E-20         0.00000E+00
    0.30167E-08        -0.11176E-19         0.00000E+00
    0.30167E-08        -0.11185E-19         0.00000E+00
    0.30167E-08        -0.37253E-20         0.00000E+00
    0.30167E-08        -0.74506E-20         0.00000E+00
    0.30167E-08        -0.18626E-19         0.00000E+00
    0.30167E-08        -0.37253E-19         0.00000E+00
    0.30167E-08        -0.42841E-19         0.00000E+00
    0.30167E-08        -0.33528E-19         0.00000E+00
    0.30167E-08        -0.22352E-19         0.00000E+00
    0.30167E-08        -0.22352E-19         0.00000E+00
    0.30167E-08        -0.27940E-19         0.00000E+00
    0.30167E-08        -0.26077E-19         0.00000E+00
    0.30167E-08        -0.11176E-19         0.00000E+00
    0.30167E-08         0.37157E-20         0.00000E+00
    0.30167E-08         0.13039E-19         0.00000E+00
    0.30167E-08         0.16773E-19         0.00000E+00
    0.30167E-08         0.13048E-19         0.00000E+00
    0.30167E-08         0.74601E-20         0.00000E+00
    0.30167E-08         0.18626E-20         0.00000E+00
    0.30167E-08         0.37157E-20         0.00000E+00
    0.30167E-08         0.74410E-20         0.00000E+00
    0.30167E-08         0.18722E-20         0.00000E+00
    0.30167E-08        -0.37062E-20         0.00000E+00
    0.35922E-08         0.57180E-20         0.00000E+00
    0.35922E-08         0.46566E-20         0.00000E+00
    0.35922E-08         0.92482E-20         0.00000E+00
    0.35922E-08         0.74506E-20         0.00000E+00
    0.35922E-08         0.11241E-19         0.00000E+00
    0.35922E-08         0.36322E-19         0.00000E+00
    0.35922E-08         0.51158E-19         0.00000E+00
    0.35922E-08         0.44703E-19         0.00000E+00
    0.35922E-08         0.33593E-19         0.00000E+00
    0.35922E-08         0.27940E-19         0.00000E+00
    0.35922E-08         0.21420E-19         0.00000E+00
    0.35922E-08         0.17695E-19         0.00000E+00
    0.35922E-08         0.18561E-19         0.00000E+00
    0.35922E-08         0.11176E-19         0.00000E+00
    0.35922E-08        -0.74506E-20         0.00000E+00
    0.35922E-08        -0.93132E-20         0.00000E+00
    0.35922E-08        -0.37253E-20         0.00000E+00
    0.35922E-08        -0.74506E-20         0.00000E+00
    0.35922E-08        -0.73856E-20         0.00000E+00
    0.35922E-08        -0.55879E-20         0.00000E+00
    0.35922E-08        -0.65030E-22         0.00000E+00
    0.35922E-08         0.37253E-20         0.00000E+00
    0.35922E-08         0.00000E+00         0.00000E+00
    0.35922E-08         0.36603E-20         0.00000E+00
    0.35922E-08         0.84469E-20         0.00000E+00
    0.35922E-08         0.93132E-20         0.00000E+00
    0.35922E-08         0.73856E-20         0.00000E+00
    0.35922E-08         0.99635E-21         0.00000E+00
    0.35922E-08        -0.74506E-20         0.00000E+00
    0.35922E-08        -0.74506E-20         0.00000E+00
    0.35922E-08        -0.37253E-20         0.00000E+00
    0.35922E-08        -0.13039E-19         0.00000E+00
    0.35922E-08        -0.26077E-19         0.00000E+00
    0.35922E-08        -0.31665E-19         0.00000E+00
    0.35922E-08        -0.29802E-19         0.00000E+00
    0.35922E-08        -0.23218E-19         0.00000E+00
    0.35922E-08        -0.20489E-19         0.00000E+00
    0.35922E-08        -0.21485E-19         0.00000E+00
    0.35922E-08        -0.22287E-19         0.00000E+00
    0.35922E-08        -0.24214E-19         0.00000E+00
    0.35922E-08        -0.13039E-19         0.00000E+00
    0.35922E-08         0.37253E-20         0.00000E+00
    0.35922E-08         0.14836E-19         0.00000E+00
    0.35922E-08         0.16764E-19         0.00000E+00
    0.35922E-08         0.13104E-19         0.00000E+00
    0.35922E-08         0.74506E-20         0.00000E+00
    0.35922E-08        -0.19277E-20         0.00000E+00
    0.35922E-08        -0.55879E-20         0.00000E+00
    0.35922E-08        -0.45916E-20         0.00000E+00
    0.35922E-08        -0.86629E-21         0.00000E+00
    0.35922E-08         0.74506E-20         0.00000E+00
    0.42726E-08         0.00000E+00         0.00000E+00
    0.42726E-08         0.00000E+00         0.00000E+00
    0.42726E-08         0.75816E-20         0.00000E+00
    0.42726E-08         0.13169E-19         0.00000E+00
    0.42726E-08         0.20489E-19         0.00000E+00
    0.42726E-08         0.39916E-19         0.00000E+00
    0.42726E-08         0.46566E-19         0.00000E+00
    0.42726E-08         0.40978E-19         0.00000E+00
    0.42726E-08         0.26877E-19         0.00000E+00
    0.42726E-08         0.14901E-19         0.00000E+00
    0.42726E-08         0.93132E-20         0.00000E+00
    0.42726E-08         0.18626E-19         0.00000E+00
    0.42726E-08         0.22352E-19         0.00000E+00
    0.42726E-08         0.16764E-19         0.00000E+00
    0.42726E-08         0.37253E-20         0.00000E+00
    0.42726E-08         0.00000E+00         0.00000E+00
    0.42726E-08        -0.37253E-20         0.00000E+00
    0.42726E-08        -0.11976E-19         0.00000E+00
    0.42726E-08        -0.82509E-20         0.00000E+00
    0.42726E-08        -0.10376E-19         0.00000E+00
    0.42726E-08        -0.11176E-19         0.00000E+00
    0.42726E-08         0.10623E-20         0.00000E+00
    0.42726E-08         0.55879E-20         0.00000E+00
    0.42726E-08         0.25320E-20         0.00000E+00
    0.42726E-08         0.18626E-20         0.00000E+00
    0.42726E-08         0.29250E-20         0.00000E+00
    0.42726E-08         0.18626E-20         0.00000E+00
    0.42726E-08         0.57189E-20         0.00000E+00
    0.42726E-08        -0.13098E-21         0.00000E+00
    0.42726E-08        -0.19936E-20         0.00000E+00
    0.42726E-08        -0.37253E-20         0.00000E+00
    0.42726E-08        -0.11176E-19         0.00000E+00
    0.42726E-08        -0.24214E-19         0.00000E+00
    0.42726E-08        -0.39116E-19         0.00000E+00
    0.42726E-08        -0.33528E-19         0.00000E+00
    0.42726E-08        -0.25015E-19         0.00000E+00
    0.42726E-08        -0.18626E-19         0.00000E+00
    0.42726E-08        -0.12238E-19         0.00000E+00
    0.42726E-08        -0.13039E-19         0.00000E+00
    0.42726E-08        -0.16764E-19         0.00000E+00
    0.42726E-08        -0.74506E-20         0.00000E+00
    0.42726E-08         0.55879E-20         0.00000E+00
    0.42726E-08         0.11307E-19         0.00000E+00
    0.42726E-08         0.13970E-19         0.00000E+00
    0.42726E-08         0.65193E-20         0.00000E+00
    0.42726E-08        -0.73196E-20         0.00000E+00
    0.42726E-08        -0.74506E-20         0.00000E+00
    0.42726E-08        -0.13098E-21         0.00000E+00
    0.42726E-08        -0.19936E-20         0.00000E+00
    0.42726E-08        -0.35943E-20         0.00000E+00
    0.42726E-08         0.26197E-21         0.00000E+00
    0.50755E-08         0.74506E-20         0.00000E+00
    0.50755E-08         0.67285E-20         0.00000E+00
    0.50755E-08         0.93132E-20         0.00000E+00
    0.50755E-08         0.15623E-19         0.00000E+00
    0.50755E-08         0.23492E-19         0.00000E+00
    0.50755E-08         0.30943E-19         0.00000E+00
    0.50755E-08         0.37975E-19         0.00000E+00
    0.50755E-08         0.35390E-19         0.00000E+00
    0.50755E-08         0.38394E-19         0.00000E+00
    0.50755E-08         0.32387E-19         0.00000E+00
    0.50755E-08         0.13039E-19         0.00000E+00
    0.50755E-08         0.85912E-20         0.00000E+00
    0.50755E-08         0.13761E-19         0.00000E+00
    0.50755E-08         0.15623E-19         0.00000E+00
    0.50755E-08         0.14901E-19         0.00000E+00
    0.50755E-08         0.76599E-20         0.00000E+00
    0.50755E-08         0.39346E-20         0.00000E+00
    0.50755E-08         0.00000E+00         0.00000E+00
    0.50755E-08         0.37253E-20         0.00000E+00
    0.50755E-08         0.35160E-20         0.00000E+00
    0.50755E-08         0.00000E+00         0.00000E+00
    0.50755E-08        -0.18626E-20         0.00000E+00
    0.50755E-08        -0.55879E-20         0.00000E+00
    0.50755E-08         0.39346E-20         0.00000E+00
    0.50755E-08         0.18626E-20         0.00000E+00
    0.50755E-08         0.37253E-20         0.00000E+00
    0.50755E-08         0.74506E-20         0.00000E+00
    0.50755E-08        -0.55879E-20         0.00000E+00
    0.50755E-08        -0.14901E-19         0.00000E+00
    0.50755E-08        -0.13248E-19         0.00000E+00
    0.50755E-08        -0.11176E-19         0.00000E+00
    0.50755E-08        -0.16764E-19         0.00000E+00
    0.50755E-08        -0.16764E-19         0.00000E+00
    0.50755E-08        -0.20280E-19         0.00000E+00
    0.50755E-08        -0.28149E-19         0.00000E+00
    0.50755E-08        -0.28871E-19         0.00000E+00
    0.50755E-08        -0.20489E-19         0.00000E+00
    0.50755E-08        -0.13039E-19         0.00000E+00
    0.50755E-08        -0.81726E-20         0.00000E+00
    0.50755E-08        -0.13248E-19         0.00000E+00
    0.50755E-08        -0.11176E-19         0.00000E+00
    0.50755E-08         0.20719E-20         0.00000E+00
    0.50755E-08         0.63100E-20         0.00000E+00
    0.50755E-08         0.81726E-20         0.00000E+00
    0.50755E-08         0.30033E-20         0.00000E+00
    0.50755E-08         0.93132E-21         0.00000E+00
    0.50755E-08         0.72204E-21         0.00000E+00
    0.50755E-08         0.11406E-20         0.00000E+00
    0.50755E-08         0.18626E-20         0.00000E+00
    0.50755E-08        -0.13354E-34         0.00000E+00
    0.50755E-08         0.97318E-20         0.00000E+00
    0.60215E-08         0.13643E-19         0.00000E+00
    0.60215E-08         0.13970E-19         0.00000E+00
    0.60215E-08         0.16462E-19         0.00000E+00
    0.60215E-08         0.11478E-19         0.00000E+00
    0.60215E-08         0.15203E-19         0.00000E+00
    0.60215E-08         0.27940E-19         0.00000E+00
    0.60215E-08         0.29500E-19         0.00000E+00
    0.60215E-08         0.30734E-19         0.00000E+00
    0.60215E-08         0.23283E-19         0.00000E+00
    0.60215E-08         0.10874E-19         0.00000E+00
    0.60215E-08         0.13039E-19         0.00000E+00
    0.60215E-08         0.18929E-19         0.00000E+00
    0.60215E-08         0.28242E-19         0.00000E+00
    0.60215E-08         0.29500E-19         0.00000E+00
    0.60215E-08         0.16462E-19         0.00000E+00
    0.60215E-08         0.96154E-20         0.00000E+00
    0.60215E-08         0.77527E-20         0.00000E+00
    0.60215E-08         0.37253E-20         0.00000E+00
    0.60215E-08         0.74506E-20         0.00000E+00
    0.60215E-08         0.14901E-19         0.00000E+00
    0.60215E-08         0.74506E-20         0.00000E+00
    0.60215E-08         0.11176E-19         0.00000E+00
    0.60215E-08         0.16764E-19         0.00000E+00
    0.60215E-08         0.34232E-20         0.00000E+00
    0.60215E-08         0.18626E-20         0.00000E+00
    0.60215E-08        -0.18626E-20         0.00000E+00
    0.60215E-08        -0.13039E-19         0.00000E+00
    0.60215E-08        -0.12736E-19         0.00000E+00
    0.60215E-08        -0.20489E-19         0.00000E+00
    0.60215E-08        -0.24517E-19         0.00000E+00
    0.60215E-08        -0.25146E-19         0.00000E+00
    0.60215E-08        -0.22352E-19         0.00000E+00
    0.60215E-08        -0.23283E-19         0.00000E+00
    0.60215E-08        -0.31363E-19         0.00000E+00
    0.60215E-08        -0.31665E-19         0.00000E+00
    0.60215E-08        -0.20489E-19         0.00000E+00
    0.60215E-08        -0.11176E-19         0.00000E+00
    0.60215E-08        -0.93132E-20         0.00000E+00
    0.60215E-08        -0.12409E-19         0.00000E+00
    0.60215E-08        -0.16135E-19         0.00000E+00
    0.60215E-08        -0.18626E-20         0.00000E+00
    0.60215E-08         0.12409E-19         0.00000E+00
    0.60215E-08         0.15832E-19         0.00000E+00
    0.60215E-08         0.14599E-19         0.00000E+00
    0.60215E-08         0.12409E-19         0.00000E+00
    0.60215E-08         0.14272E-19         0.00000E+00
    0.60215E-08         0.80798E-20         0.00000E+00
    0.60215E-08         0.80798E-20         0.00000E+00
    0.60215E-08         0.49587E-20         0.00000E+00
    0.60215E-08         0.12334E-20         0.00000E+00
    0.60215E-08         0.74506E-20         0.00000E+00
    0.71340E-08         0.66265E-20         0.00000E+00
    0.71340E-08         0.16352E-19         0.00000E+00
    0.71340E-08         0.22764E-19         0.00000E+00
    0.71340E-08         0.15313E-19         0.00000E+00
    0.71340E-08         0.22352E-19         0.00000E+00
    0.71340E-08         0.40978E-19         0.00000E+00
    0.71340E-08         0.41497E-19         0.00000E+00
    0.71340E-08         0.30734E-19         0.00000E+00
    0.71340E-08         0.30214E-19         0.00000E+00
    0.71340E-08         0.26596E-19         0.00000E+00
    0.71340E-08         0.17283E-19         0.00000E+00
    0.71340E-08         0.22352E-19         0.00000E+00
    0.71340E-08         0.27420E-19         0.00000E+00
    0.71340E-08         0.19558E-19         0.00000E+00
    0.71340E-08         0.13970E-19         0.00000E+00
    0.71340E-08         0.14382E-19         0.00000E+00
    0.71340E-08         0.13558E-19         0.00000E+00
    0.71340E-08         0.10245E-19         0.00000E+00
    0.71340E-08         0.97253E-20         0.00000E+00
    0.71340E-08         0.55879E-20         0.00000E+00
    0.71340E-08         0.55879E-20         0.00000E+00
    0.71340E-08         0.55879E-20         0.00000E+00
    0.71340E-08         0.93132E-20         0.00000E+00
    0.71340E-08         0.14489E-19         0.00000E+00
    0.71340E-08         0.10245E-19         0.00000E+00
    0.71340E-08         0.69313E-20         0.00000E+00
    0.71340E-08         0.55879E-20         0.00000E+00
    0.71340E-08        -0.37253E-20         0.00000E+00
    0.71340E-08        -0.11176E-19         0.00000E+00
    0.71340E-08        -0.13039E-19         0.00000E+00
    0.71340E-08        -0.14901E-19         0.00000E+00
    0.71340E-08        -0.21832E-19         0.00000E+00
    0.71340E-08        -0.24214E-19         0.00000E+00
    0.71340E-08        -0.27008E-19         0.00000E+00
    0.71340E-08        -0.31665E-19         0.00000E+00
    0.71340E-08        -0.36841E-19         0.00000E+00
    0.71340E-08        -0.25558E-19         0.00000E+00
    0.71340E-08        -0.16245E-19         0.00000E+00
    0.71340E-08        -0.74506E-20         0.00000E+00
    0.71340E-08        -0.11176E-19         0.00000E+00
    0.71340E-08        -0.13558E-19         0.00000E+00
    0.71340E-08         0.50687E-20         0.00000E+00
    0.71340E-08         0.18626E-19         0.00000E+00
    0.71340E-08         0.18626E-19         0.00000E+00
    0.71340E-08         0.74506E-20         0.00000E+00
    0.71340E-08         0.18626E-20         0.00000E+00
    0.71340E-08         0.00000E+00         0.00000E+00
    0.71340E-08        -0.50687E-20         0.00000E+00
    0.71340E-08        -0.50687E-20         0.00000E+00
    0.71340E-08         0.41373E-20         0.00000E+00
    0.71340E-08         0.82747E-20         0.00000E+00
    0.84398E-08         0.00000E+00         0.00000E+00
    0.84398E-08         0.74506E-20         0.00000E+00
    0.84398E-08         0.14359E-19         0.00000E+00
    0.84398E-08         0.93132E-20         0.00000E+00
    0.84398E-08         0.11718E-19         0.00000E+00
    0.84398E-08         0.29802E-19         0.00000E+00
    0.84398E-08         0.39116E-19         0.00000E+00
    0.84398E-08         0.27940E-19         0.00000E+00
    0.84398E-08         0.20489E-19         0.00000E+00
    0.84398E-08         0.24214E-19         0.00000E+00
    0.84398E-08         0.33528E-19         0.00000E+00
    0.84398E-08         0.34848E-19         0.00000E+00
    0.84398E-08         0.29260E-19         0.00000E+00
    0.84398E-08         0.22352E-19         0.00000E+00
    0.84398E-08         0.42673E-20         0.00000E+00
    0.84398E-08        -0.69086E-20         0.00000E+00
    0.84398E-08        -0.55879E-20         0.00000E+00
    0.84398E-08         0.37253E-20         0.00000E+00
    0.84398E-08         0.20489E-19         0.00000E+00
    0.84398E-08         0.16764E-19         0.00000E+00
    0.84398E-08         0.37253E-20         0.00000E+00
    0.84398E-08         0.37253E-20         0.00000E+00
    0.84398E-08         0.74506E-20         0.00000E+00
    0.84398E-08         0.13039E-19         0.00000E+00
    0.84398E-08         0.13039E-19         0.00000E+00
    0.84398E-08         0.55879E-20         0.00000E+00
    0.84398E-08         0.00000E+00         0.00000E+00
    0.84398E-08        -0.74506E-20         0.00000E+00
    0.84398E-08        -0.24214E-19         0.00000E+00
    0.84398E-08        -0.24214E-19         0.00000E+00
    0.84398E-08        -0.14901E-19         0.00000E+00
    0.84398E-08        -0.14512E-19         0.00000E+00
    0.84398E-08        -0.19558E-19         0.00000E+00
    0.84398E-08        -0.31123E-19         0.00000E+00
    0.84398E-08        -0.33528E-19         0.00000E+00
    0.84398E-08        -0.22352E-19         0.00000E+00
    0.84398E-08        -0.11176E-19         0.00000E+00
    0.84398E-08        -0.37253E-20         0.00000E+00
    0.84398E-08        -0.74506E-20         0.00000E+00
    0.84398E-08        -0.61299E-20         0.00000E+00
    0.84398E-08         0.37253E-20         0.00000E+00
    0.84398E-08         0.93132E-20         0.00000E+00
    0.84398E-08         0.10634E-19         0.00000E+00
    0.84398E-08         0.93132E-20         0.00000E+00
    0.84398E-08         0.79926E-20         0.00000E+00
    0.84398E-08         0.42673E-20         0.00000E+00
    0.84398E-08        -0.42673E-20         0.00000E+00
    0.84398E-08         0.46566E-20         0.00000E+00
    0.84398E-08         0.70613E-20         0.00000E+00
    0.84398E-08         0.24046E-20         0.00000E+00
    0.84398E-08         0.48093E-20         0.00000E+00
    0.99695E-08         0.11176E-19         0.00000E+00
    0.99695E-08         0.13039E-19         0.00000E+00
    0.99695E-08         0.13039E-19         0.00000E+00
    0.99695E-08         0.13039E-19         0.00000E+00
    0.99695E-08         0.22352E-19         0.00000E+00
    0.99695E-08         0.34695E-19         0.00000E+00
    0.99695E-08         0.42841E-19         0.00000E+00
    0.99695E-08         0.37253E-19         0.00000E+00
    0.99695E-08         0.22352E-19         0.00000E+00
    0.99695E-08         0.10009E-19         0.00000E+00
    0.99695E-08         0.37253E-20         0.00000E+00
    0.99695E-08         0.13039E-19         0.00000E+00
    0.99695E-08         0.26077E-19         0.00000E+00
    0.99695E-08         0.21656E-19         0.00000E+00
    0.99695E-08         0.14901E-19         0.00000E+00
    0.99695E-08         0.15597E-19         0.00000E+00
    0.99695E-08         0.14206E-19         0.00000E+00
    0.99695E-08         0.65193E-20         0.00000E+00
    0.99695E-08        -0.76865E-20         0.00000E+00
    0.99695E-08        -0.37253E-20         0.00000E+00
    0.99695E-08         0.00000E+00         0.00000E+00
    0.99695E-08        -0.18626E-20         0.00000E+00
    0.99695E-08         0.37253E-20         0.00000E+00
    0.99695E-08         0.93132E-20         0.00000E+00
    0.99695E-08         0.11176E-19         0.00000E+00
    0.99695E-08         0.86178E-20         0.00000E+00
    0.99695E-08         0.46566E-20         0.00000E+00
    0.99695E-08         0.16267E-20         0.00000E+00
    0.99695E-08        -0.74506E-20         0.00000E+00
    0.99695E-08        -0.18626E-19         0.00000E+00
    0.99695E-08        -0.22352E-19         0.00000E+00
    0.99695E-08        -0.18626E-19         0.00000E+00
    0.99695E-08        -0.20489E-19         0.00000E+00
    0.99695E-08        -0.27940E-19         0.00000E+00
    0.99695E-08        -0.24214E-19         0.00000E+00
    0.99695E-08        -0.24214E-19         0.00000E+00
    0.99695E-08        -0.22352E-19         0.00000E+00
    0.99695E-08        -0.16764E-19         0.00000E+00
    0.99695E-08        -0.11176E-19         0.00000E+00
    0.99695E-08        -0.74506E-20         0.00000E+00
    0.99695E-08        -0.44207E-20         0.00000E+00
    0.99695E-08         0.67552E-20         0.00000E+00
    0.99695E-08         0.15597E-19         0.00000E+00
    0.99695E-08         0.16764E-19         0.00000E+00
    0.99695E-08         0.74506E-20         0.00000E+00
    0.99695E-08        -0.55879E-20         0.00000E+00
    0.99695E-08        -0.27940E-20         0.00000E+00
    0.99695E-08         0.72147E-20         0.00000E+00
    0.99695E-08         0.55879E-20         0.00000E+00
    0.99695E-08         0.25580E-20         0.00000E+00
    0.99695E-08         0.13908E-20         0.00000E+00
    0.11758E-07         0.38356E-20         0.00000E+00
    0.11758E-07         0.74506E-20         0.00000E+00
    0.11758E-07         0.11121E-19         0.00000E+00
    0.11758E-07         0.93132E-20         0.00000E+00
    0.11758E-07         0.14901E-19         0.00000E+00
    0.11758E-07         0.27940E-19         0.00000E+00
    0.11758E-07         0.29802E-19         0.00000E+00
    0.11758E-07         0.24214E-19         0.00000E+00
    0.11758E-07         0.24214E-19         0.00000E+00
    0.11758E-07         0.22352E-19         0.00000E+00
    0.11758E-07         0.20489E-19         0.00000E+00
    0.11758E-07         0.22352E-19         0.00000E+00
    0.11758E-07         0.18626E-19         0.00000E+00
    0.11758E-07         0.18626E-19         0.00000E+00
    0.11758E-07         0.13039E-19         0.00000E+00
    0.11758E-07         0.00000E+00         0.00000E+00
    0.11758E-07        -0.37253E-20         0.00000E+00
    0.11758E-07        -0.55879E-20         0.00000E+00
    0.11758E-07         0.18626E-20         0.00000E+00
    0.11758E-07         0.37253E-20         0.00000E+00
    0.11758E-07         0.37253E-20         0.00000E+00
    0.11758E-07         0.93132E-20         0.00000E+00
    0.11758E-07         0.13039E-19         0.00000E+00
    0.11758E-07         0.18682E-19         0.00000E+00
    0.11758E-07         0.93132E-20         0.00000E+00
    0.11758E-07         0.00000E+00         0.00000E+00
    0.11758E-07        -0.93132E-21         0.00000E+00
    0.11758E-07         0.87617E-21         0.00000E+00
    0.11758E-07        -0.55879E-20         0.00000E+00
    0.11758E-07        -0.13039E-19         0.00000E+00
    0.11758E-07        -0.74506E-20         0.00000E+00
    0.11758E-07        -0.12052E-19         0.00000E+00
    0.11758E-07        -0.25146E-19         0.00000E+00
    0.11758E-07        -0.29857E-19         0.00000E+00
    0.11758E-07        -0.35390E-19         0.00000E+00
    0.11758E-07        -0.31665E-19         0.00000E+00
    0.11758E-07        -0.18626E-19         0.00000E+00
    0.11758E-07        -0.13039E-19         0.00000E+00
    0.11758E-07        -0.18626E-19         0.00000E+00
    0.11758E-07        -0.22352E-19         0.00000E+00
    0.11758E-07        -0.11176E-19         0.00000E+00
    0.11758E-07         0.55879E-20         0.00000E+00
    0.11758E-07         0.14901E-19         0.00000E+00
    0.11758E-07         0.11176E-19         0.00000E+00
    0.11758E-07         0.55879E-20         0.00000E+00
    0.11758E-07         0.37804E-20         0.00000E+00
    0.11758E-07        -0.18626E-20         0.00000E+00
    0.11758E-07        -0.28491E-20         0.00000E+00
    0.11758E-07         0.37253E-20         0.00000E+00
    0.11758E-07         0.55328E-20         0.00000E+00
    0.11758E-07         0.36150E-20         0.00000E+00
    0.13843E-07         0.37253E-20         0.00000E+00
    0.13843E-07         0.11018E-19         0.00000E+00
    0.13843E-07         0.14901E-19         0.00000E+00
    0.13843E-07         0.11176E-19         0.00000E+00
    0.13843E-07         0.14901E-19         0.00000E+00
    0.13843E-07         0.26235E-19         0.00000E+00
    0.13843E-07         0.33528E-19         0.00000E+00
    0.13843E-07         0.31665E-19         0.00000E+00
    0.13843E-07         0.29802E-19         0.00000E+00
    0.13843E-07         0.24214E-19         0.00000E+00
    0.13843E-07         0.22352E-19         0.00000E+00
    0.13843E-07         0.24057E-19         0.00000E+00
    0.13843E-07         0.31822E-19         0.00000E+00
    0.13843E-07         0.28097E-19         0.00000E+00
    0.13843E-07         0.35678E-20         0.00000E+00
    0.13843E-07        -0.55879E-20         0.00000E+00
    0.13843E-07        -0.18626E-20         0.00000E+00
    0.13843E-07        -0.18626E-20         0.00000E+00
    0.13843E-07         0.93132E-20         0.00000E+00
    0.13843E-07         0.18626E-19         0.00000E+00
    0.13843E-07         0.11176E-19         0.00000E+00
    0.13843E-07         0.18626E-20         0.00000E+00
    0.13843E-07         0.00000E+00         0.00000E+00
    0.13843E-07        -0.15751E-21         0.00000E+00
    0.13843E-07         0.74506E-20         0.00000E+00
    0.13843E-07         0.11176E-19         0.00000E+00
    0.13843E-07         0.55879E-20         0.00000E+00
    0.13843E-07        -0.17051E-20         0.00000E+00
    0.13843E-07        -0.16764E-19         0.00000E+00
    0.13843E-07        -0.18626E-19         0.00000E+00
    0.13843E-07        -0.11176E-19         0.00000E+00
    0.13843E-07        -0.11176E-19         0.00000E+00
    0.13843E-07        -0.20489E-19         0.00000E+00
    0.13843E-07        -0.33528E-19         0.00000E+00
    0.13843E-07        -0.29802E-19         0.00000E+00
    0.13843E-07        -0.23126E-19         0.00000E+00
    0.13843E-07        -0.22352E-19         0.00000E+00
    0.13843E-07        -0.14127E-19         0.00000E+00
    0.13843E-07        -0.13039E-19         0.00000E+00
    0.13843E-07        -0.13039E-19         0.00000E+00
    0.13843E-07        -0.48141E-20         0.00000E+00
    0.13843E-07         0.83819E-20         0.00000E+00
    0.13843E-07         0.94707E-20         0.00000E+00
    0.13843E-07         0.72931E-20         0.00000E+00
    0.13843E-07        -0.65193E-20         0.00000E+00
    0.13843E-07        -0.11950E-19         0.00000E+00
    0.13843E-07        -0.11018E-19         0.00000E+00
    0.13843E-07        -0.15751E-21         0.00000E+00
    0.13843E-07        -0.31090E-20         0.00000E+00
    0.13843E-07        -0.61631E-21         0.00000E+00
    0.13843E-07         0.24927E-20         0.00000E+00
    0.16268E-07         0.11176E-19         0.00000E+00
    0.16268E-07         0.93132E-20         0.00000E+00
    0.16268E-07         0.97204E-20         0.00000E+00
    0.16268E-07         0.16764E-19         0.00000E+00
    0.16268E-07         0.25670E-19         0.00000E+00
    0.16268E-07         0.35390E-19         0.00000E+00
    0.16268E-07         0.42434E-19         0.00000E+00
    0.16268E-07         0.41910E-19         0.00000E+00
    0.16268E-07         0.40454E-19         0.00000E+00
    0.16268E-07         0.31665E-19         0.00000E+00
    0.16268E-07         0.27940E-19         0.00000E+00
    0.16268E-07         0.35390E-19         0.00000E+00
    0.16268E-07         0.31665E-19         0.00000E+00
    0.16268E-07         0.24738E-19         0.00000E+00
    0.16268E-07         0.20489E-19         0.00000E+00
    0.16268E-07         0.65193E-20         0.00000E+00
    0.16268E-07         0.74506E-20         0.00000E+00
    0.16268E-07         0.40721E-21         0.00000E+00
    0.16268E-07         0.18626E-20         0.00000E+00
    0.16268E-07         0.37253E-20         0.00000E+00
    0.16268E-07        -0.18626E-20         0.00000E+00
    0.16268E-07         0.37253E-20         0.00000E+00
    0.16268E-07         0.13039E-19         0.00000E+00
    0.16268E-07         0.18626E-19         0.00000E+00
    0.16268E-07         0.13039E-19         0.00000E+00
    0.16268E-07         0.55879E-20         0.00000E+00
    0.16268E-07         0.00000E+00         0.00000E+00
    0.16268E-07        -0.13039E-19         0.00000E+00
    0.16268E-07        -0.24214E-19         0.00000E+00
    0.16268E-07        -0.18626E-19         0.00000E+00
    0.16268E-07        -0.11176E-19         0.00000E+00
    0.16268E-07        -0.14901E-19         0.00000E+00
    0.16268E-07        -0.24214E-19         0.00000E+00
    0.16268E-07        -0.26077E-19         0.00000E+00
    0.16268E-07        -0.24214E-19         0.00000E+00
    0.16268E-07        -0.18626E-19         0.00000E+00
    0.16268E-07        -0.10652E-19         0.00000E+00
    0.16268E-07        -0.14377E-19         0.00000E+00
    0.16268E-07        -0.19151E-19         0.00000E+00
    0.16268E-07        -0.21013E-19         0.00000E+00
    0.16268E-07        -0.16764E-19         0.00000E+00
    0.16268E-07         0.18626E-20         0.00000E+00
    0.16268E-07         0.20489E-19         0.00000E+00
    0.16268E-07         0.13039E-19         0.00000E+00
    0.16268E-07        -0.55879E-20         0.00000E+00
    0.16268E-07        -0.13039E-19         0.00000E+00
    0.16268E-07        -0.14901E-19         0.00000E+00
    0.16268E-07        -0.37253E-20         0.00000E+00
    0.16268E-07         0.37253E-20         0.00000E+00
    0.16268E-07         0.32012E-20         0.00000E+00
    0.16268E-07         0.10128E-19         0.00000E+00
    0.19082E-07         0.37253E-20         0.00000E+00
    0.19082E-07         0.55879E-20         0.00000E+00
    0.19082E-07         0.11628E-20         0.00000E+00
    0.19082E-07         0.00000E+00         0.00000E+00
    0.19082E-07         0.13738E-19         0.00000E+00
    0.19082E-07         0.31665E-19         0.00000E+00
    0.19082E-07         0.40978E-19         0.00000E+00
    0.19082E-07         0.29802E-19         0.00000E+00
    0.19082E-07         0.26309E-19         0.00000E+00
    0.19082E-07         0.38184E-19         0.00000E+00
    0.19082E-07         0.39815E-19         0.00000E+00
    0.19082E-07         0.34227E-19         0.00000E+00
    0.19082E-07         0.30734E-19         0.00000E+00
    0.19082E-07         0.30034E-19         0.00000E+00
    0.19082E-07         0.20489E-19         0.00000E+00
    0.19082E-07         0.13039E-19         0.00000E+00
    0.19082E-07         0.55879E-20         0.00000E+00
    0.19082E-07         0.18626E-20         0.00000E+00
    0.19082E-07         0.93132E-20         0.00000E+00
    0.19082E-07         0.14901E-19         0.00000E+00
    0.19082E-07         0.37253E-20         0.00000E+00
    0.19082E-07         0.37253E-20         0.00000E+00
    0.19082E-07         0.93132E-20         0.00000E+00
    0.19082E-07         0.11176E-19         0.00000E+00
    0.19082E-07         0.14901E-19         0.00000E+00
    0.19082E-07         0.11176E-19         0.00000E+00
    0.19082E-07         0.00000E+00         0.00000E+00
    0.19082E-07        -0.93132E-20         0.00000E+00
    0.19082E-07        -0.14901E-19         0.00000E+00
    0.19082E-07        -0.16764E-19         0.00000E+00
    0.19082E-07        -0.18626E-19         0.00000E+00
    0.19082E-07        -0.14901E-19         0.00000E+00
    0.19082E-07        -0.16764E-19         0.00000E+00
    0.19082E-07        -0.27240E-19         0.00000E+00
    0.19082E-07        -0.31665E-19         0.00000E+00
    0.19082E-07        -0.34227E-19         0.00000E+00
    0.19082E-07        -0.26077E-19         0.00000E+00
    0.19082E-07        -0.16764E-19         0.00000E+00
    0.19082E-07        -0.13039E-19         0.00000E+00
    0.19082E-07        -0.11176E-19         0.00000E+00
    0.19082E-07        -0.37253E-20         0.00000E+00
    0.19082E-07         0.37253E-20         0.00000E+00
    0.19082E-07         0.30254E-20         0.00000E+00
    0.19082E-07         0.11176E-19         0.00000E+00
    0.19082E-07         0.13738E-19         0.00000E+00
    0.19082E-07         0.37253E-20         0.00000E+00
    0.19082E-07        -0.44251E-20         0.00000E+00
    0.19082E-07        -0.10245E-19         0.00000E+00
    0.19082E-07        -0.11407E-19         0.00000E+00
    0.19082E-07        -0.11628E-20         0.00000E+00
    0.19082E-07         0.51250E-20         0.00000E+00
    0.22337E-07         0.37253E-20         0.00000E+00
    0.22337E-07         0.74506E-20         0.00000E+00
    0.22337E-07         0.11176E-19         0.00000E+00
    0.22337E-07         0.93132E-20         0.00000E+00
    0.22337E-07         0.20489E-19         0.00000E+00
    0.22337E-07         0.44703E-19         0.00000E+00
    0.22337E-07         0.53196E-19         0.00000E+00
    0.22337E-07         0.46566E-19         0.00000E+00
    0.22337E-07         0.38073E-19         0.00000E+00
    0.22337E-07         0.27940E-19         0.00000E+00
    0.22337E-07         0.26077E-19         0.00000E+00
    0.22337E-07         0.26077E-19         0.00000E+00
    0.22337E-07         0.22352E-19         0.00000E+00
    0.22337E-07         0.21310E-19         0.00000E+00
    0.22337E-07         0.16764E-19         0.00000E+00
    0.22337E-07         0.10355E-19         0.00000E+00
    0.22337E-07         0.93132E-20         0.00000E+00
    0.22337E-07         0.55879E-20         0.00000E+00
    0.22337E-07         0.74506E-20         0.00000E+00
    0.22337E-07         0.13039E-19         0.00000E+00
    0.22337E-07         0.11176E-19         0.00000E+00
    0.22337E-07         0.74506E-20         0.00000E+00
    0.22337E-07         0.11176E-19         0.00000E+00
    0.22337E-07         0.14901E-19         0.00000E+00
    0.22337E-07         0.74506E-20         0.00000E+00
    0.22337E-07         0.55879E-20         0.00000E+00
    0.22337E-07         0.18626E-20         0.00000E+00
    0.22337E-07        -0.74506E-20         0.00000E+00
    0.22337E-07        -0.18626E-19         0.00000E+00
    0.22337E-07        -0.22352E-19         0.00000E+00
    0.22337E-07        -0.18626E-19         0.00000E+00
    0.22337E-07        -0.22352E-19         0.00000E+00
    0.22337E-07        -0.33528E-19         0.00000E+00
    0.22337E-07        -0.40978E-19         0.00000E+00
    0.22337E-07        -0.37253E-19         0.00000E+00
    0.22337E-07        -0.26077E-19         0.00000E+00
    0.22337E-07        -0.14901E-19         0.00000E+00
    0.22337E-07        -0.13039E-19         0.00000E+00
    0.22337E-07        -0.13039E-19         0.00000E+00
    0.22337E-07        -0.13039E-19         0.00000E+00
    0.22337E-07        -0.11176E-19         0.00000E+00
    0.22337E-07         0.55879E-20         0.00000E+00
    0.22337E-07         0.19669E-19         0.00000E+00
    0.22337E-07         0.14901E-19         0.00000E+00
    0.22337E-07         0.82711E-20         0.00000E+00
    0.22337E-07         0.64085E-20         0.00000E+00
    0.22337E-07         0.10245E-19         0.00000E+00
    0.22337E-07         0.18737E-19         0.00000E+00
    0.22337E-07         0.93132E-20         0.00000E+00
    0.22337E-07        -0.82056E-21         0.00000E+00
    0.22337E-07        -0.16411E-20         0.00000E+00
    0.26091E-07         0.11176E-19         0.00000E+00
    0.26091E-07         0.13039E-19         0.00000E+00
    0.26091E-07         0.16764E-19         0.00000E+00
    0.26091E-07         0.20489E-19         0.00000E+00
    0.26091E-07         0.30312E-19         0.00000E+00
    0.26091E-07         0.41910E-19         0.00000E+00
    0.26091E-07         0.45125E-19         0.00000E+00
    0.26091E-07         0.40557E-19         0.00000E+00
    0.26091E-07         0.33528E-19         0.00000E+00
    0.26091E-07         0.24636E-19         0.00000E+00
    0.26091E-07         0.20489E-19         0.00000E+00
    0.26091E-07         0.26077E-19         0.00000E+00
    0.26091E-07         0.29802E-19         0.00000E+00
    0.26091E-07         0.26077E-19         0.00000E+00
    0.26091E-07         0.18626E-19         0.00000E+00
    0.26091E-07         0.13039E-19         0.00000E+00
    0.26091E-07         0.11176E-19         0.00000E+00
    0.26091E-07         0.55879E-20         0.00000E+00
    0.26091E-07         0.11176E-19         0.00000E+00
    0.26091E-07         0.14901E-19         0.00000E+00
    0.26091E-07         0.13039E-19         0.00000E+00
    0.26091E-07         0.13039E-19         0.00000E+00
    0.26091E-07         0.74506E-20         0.00000E+00
    0.26091E-07         0.74506E-20         0.00000E+00
    0.26091E-07         0.55879E-20         0.00000E+00
    0.26091E-07         0.18626E-20         0.00000E+00
    0.26091E-07        -0.18626E-20         0.00000E+00
    0.26091E-07        -0.11176E-19         0.00000E+00
    0.26091E-07        -0.22352E-19         0.00000E+00
    0.26091E-07        -0.22352E-19         0.00000E+00
    0.26091E-07        -0.22352E-19         0.00000E+00
    0.26091E-07        -0.27940E-19         0.00000E+00
    0.26091E-07        -0.27940E-19         0.00000E+00
    0.26091E-07        -0.24214E-19         0.00000E+00
    0.26091E-07        -0.24214E-19         0.00000E+00
    0.26091E-07        -0.25567E-19         0.00000E+00
    0.26091E-07        -0.14901E-19         0.00000E+00
    0.26091E-07        -0.60980E-20         0.00000E+00
    0.26091E-07        -0.32152E-20         0.00000E+00
    0.26091E-07        -0.65193E-20         0.00000E+00
    0.26091E-07        -0.33041E-20         0.00000E+00
    0.26091E-07         0.51009E-21         0.00000E+00
    0.26091E-07         0.23727E-20         0.00000E+00
    0.26091E-07         0.97345E-20         0.00000E+00
    0.26091E-07         0.15322E-19         0.00000E+00
    0.26091E-07         0.79607E-20         0.00000E+00
    0.26091E-07        -0.46566E-20         0.00000E+00
    0.26091E-07        -0.33041E-20         0.00000E+00
    0.26091E-07        -0.41465E-20         0.00000E+00
    0.26091E-07        -0.41465E-20         0.00000E+00
    0.26091E-07         0.74506E-20         0.00000E+00
    0.30406E-07         0.19499E-20         0.00000E+00
    0.30406E-07         0.74506E-20         0.00000E+00
    0.30406E-07         0.13926E-19         0.00000E+00
    0.30406E-07         0.15789E-19         0.00000E+00
    0.30406E-07         0.27983E-19         0.00000E+00
    0.30406E-07         0.43859E-19         0.00000E+00
    0.30406E-07         0.47454E-19         0.00000E+00
    0.30406E-07         0.43729E-19         0.00000E+00
    0.30406E-07         0.40978E-19         0.00000E+00
    0.30406E-07         0.31665E-19         0.00000E+00
    0.30406E-07         0.26077E-19         0.00000E+00
    0.30406E-07         0.27940E-19         0.00000E+00
    0.30406E-07         0.29802E-19         0.00000E+00
    0.30406E-07         0.27940E-19         0.00000E+00
    0.30406E-07         0.19514E-19         0.00000E+00
    0.30406E-07         0.13082E-19         0.00000E+00
    0.30406E-07         0.66065E-20         0.00000E+00
    0.30406E-07         0.18626E-20         0.00000E+00
    0.30406E-07         0.64756E-20         0.00000E+00
    0.30406E-07         0.83383E-20         0.00000E+00
    0.30406E-07         0.55879E-20         0.00000E+00
    0.30406E-07         0.18626E-20         0.00000E+00
    0.30406E-07         0.18626E-20         0.00000E+00
    0.30406E-07         0.74506E-20         0.00000E+00
    0.30406E-07         0.74506E-20         0.00000E+00
    0.30406E-07         0.37253E-20         0.00000E+00
    0.30406E-07        -0.74506E-20         0.00000E+00
    0.30406E-07        -0.11176E-19         0.00000E+00
    0.30406E-07        -0.20489E-19         0.00000E+00
    0.30406E-07        -0.26077E-19         0.00000E+00
    0.30406E-07        -0.16764E-19         0.00000E+00
    0.30406E-07        -0.11176E-19         0.00000E+00
    0.30406E-07        -0.16764E-19         0.00000E+00
    0.30406E-07        -0.31665E-19         0.00000E+00
    0.30406E-07        -0.29802E-19         0.00000E+00
    0.30406E-07        -0.20445E-19         0.00000E+00
    0.30406E-07        -0.14858E-19         0.00000E+00
    0.30406E-07        -0.16764E-19         0.00000E+00
    0.30406E-07        -0.12151E-19         0.00000E+00
    0.30406E-07        -0.10245E-19         0.00000E+00
    0.30406E-07        -0.13039E-19         0.00000E+00
    0.30406E-07        -0.74942E-20         0.00000E+00
    0.30406E-07         0.18626E-20         0.00000E+00
    0.30406E-07         0.55879E-20         0.00000E+00
    0.30406E-07        -0.18190E-20         0.00000E+00
    0.30406E-07        -0.10245E-19         0.00000E+00
    0.30406E-07        -0.93132E-21         0.00000E+00
    0.30406E-07         0.19063E-20         0.00000E+00
    0.30406E-07        -0.56752E-20         0.00000E+00
    0.30406E-07        -0.65193E-20         0.00000E+00
    0.30406E-07        -0.12864E-19         0.00000E+00
    0.35346E-07         0.11176E-19         0.00000E+00
    0.35346E-07         0.13039E-19         0.00000E+00
    0.35346E-07         0.13622E-19         0.00000E+00
    0.35346E-07         0.15485E-19         0.00000E+00
    0.35346E-07         0.24214E-19         0.00000E+00
    0.35346E-07         0.32944E-19         0.00000E+00
    0.35346E-07         0.40395E-19         0.00000E+00
    0.35346E-07         0.40978E-19         0.00000E+00
    0.35346E-07         0.40978E-19         0.00000E+00
    0.35346E-07         0.37253E-19         0.00000E+00
    0.35346E-07         0.27940E-19         0.00000E+00
    0.35346E-07         0.33528E-19         0.00000E+00
    0.35346E-07         0.37836E-19         0.00000E+00
    0.35346E-07         0.34459E-19         0.00000E+00
    0.35346E-07         0.27704E-19         0.00000E+00
    0.35346E-07         0.65193E-20         0.00000E+00
    0.35346E-07        -0.34795E-21         0.00000E+00
    0.35346E-07         0.74506E-20         0.00000E+00
    0.35346E-07         0.58337E-21         0.00000E+00
    0.35346E-07        -0.93132E-20         0.00000E+00
    0.35346E-07        -0.98966E-20         0.00000E+00
    0.35346E-07        -0.55879E-20         0.00000E+00
    0.35346E-07        -0.18626E-20         0.00000E+00
    0.35346E-07         0.93132E-20         0.00000E+00
    0.35346E-07         0.14901E-19         0.00000E+00
    0.35346E-07         0.93132E-20         0.00000E+00
    0.35346E-07         0.37253E-20         0.00000E+00
    0.35346E-07        -0.55879E-20         0.00000E+00
    0.35346E-07        -0.18626E-19         0.00000E+00
    0.35346E-07        -0.27940E-19         0.00000E+00
    0.35346E-07        -0.22352E-19         0.00000E+00
    0.35346E-07        -0.16764E-19         0.00000E+00
    0.35346E-07        -0.27940E-19         0.00000E+00
    0.35346E-07        -0.31665E-19         0.00000E+00
    0.35346E-07        -0.26077E-19         0.00000E+00
    0.35346E-07        -0.24214E-19         0.00000E+00
    0.35346E-07        -0.22352E-19         0.00000E+00
    0.35346E-07        -0.16764E-19         0.00000E+00
    0.35346E-07        -0.20489E-19         0.00000E+00
    0.35346E-07        -0.25494E-19         0.00000E+00
    0.35346E-07        -0.12455E-19         0.00000E+00
    0.35346E-07        -0.58337E-21         0.00000E+00
    0.35346E-07         0.31419E-20         0.00000E+00
    0.35346E-07         0.15147E-20         0.00000E+00
    0.35346E-07        -0.22106E-20         0.00000E+00
    0.35346E-07        -0.55879E-20         0.00000E+00
    0.35346E-07        -0.12691E-19         0.00000E+00
    0.35346E-07        -0.89653E-20         0.00000E+00
    0.35346E-07        -0.74506E-20         0.00000E+00
    0.35346E-07        -0.34795E-21         0.00000E+00
    0.35346E-07         0.10480E-19         0.00000E+00
    0.40981E-07         0.24167E-20         0.00000E+00
    0.40981E-07         0.37253E-20         0.00000E+00
    0.40981E-07         0.43796E-20         0.00000E+00
    0.40981E-07         0.93132E-20         0.00000E+00
    0.40981E-07         0.17972E-19         0.00000E+00
    0.40981E-07         0.31665E-19         0.00000E+00
    0.40981E-07         0.44703E-19         0.00000E+00
    0.40981E-07         0.39116E-19         0.00000E+00
    0.40981E-07         0.24869E-19         0.00000E+00
    0.40981E-07         0.18626E-19         0.00000E+00
    0.40981E-07         0.25423E-19         0.00000E+00
    0.40981E-07         0.27285E-19         0.00000E+00
    0.40981E-07         0.26731E-19         0.00000E+00
    0.40981E-07         0.19281E-19         0.00000E+00
    0.40981E-07         0.55879E-20         0.00000E+00
    0.40981E-07         0.74506E-20         0.00000E+00
    0.40981E-07         0.74506E-20         0.00000E+00
    0.40981E-07         0.37253E-20         0.00000E+00
    0.40981E-07         0.67963E-20         0.00000E+00
    0.40981E-07         0.74506E-20         0.00000E+00
    0.40981E-07         0.25169E-20         0.00000E+00
    0.40981E-07        -0.18626E-20         0.00000E+00
    0.40981E-07         0.37253E-20         0.00000E+00
    0.40981E-07         0.13039E-19         0.00000E+00
    0.40981E-07         0.14901E-19         0.00000E+00
    0.40981E-07         0.11176E-19         0.00000E+00
    0.40981E-07         0.37253E-20         0.00000E+00
    0.40981E-07        -0.55879E-20         0.00000E+00
    0.40981E-07        -0.24214E-19         0.00000E+00
    0.40981E-07        -0.20489E-19         0.00000E+00
    0.40981E-07        -0.11830E-19         0.00000E+00
    0.40981E-07        -0.20489E-19         0.00000E+00
    0.40981E-07        -0.27285E-19         0.00000E+00
    0.40981E-07        -0.34182E-19         0.00000E+00
    0.40981E-07        -0.33528E-19         0.00000E+00
    0.40981E-07        -0.35390E-19         0.00000E+00
    0.40981E-07        -0.33528E-19         0.00000E+00
    0.40981E-07        -0.29148E-19         0.00000E+00
    0.40981E-07        -0.24214E-19         0.00000E+00
    0.40981E-07        -0.17418E-19         0.00000E+00
    0.40981E-07        -0.15555E-19         0.00000E+00
    0.40981E-07        -0.67963E-20         0.00000E+00
    0.40981E-07         0.43796E-20         0.00000E+00
    0.40981E-07         0.55879E-20         0.00000E+00
    0.40981E-07        -0.65428E-21         0.00000E+00
    0.40981E-07        -0.46566E-20         0.00000E+00
    0.40981E-07         0.74506E-20         0.00000E+00
    0.40981E-07         0.13970E-19         0.00000E+00
    0.40981E-07         0.62422E-20         0.00000E+00
    0.40981E-07         0.12084E-20         0.00000E+00
    0.40981E-07        -0.13086E-20         0.00000E+00
    0.47378E-07         0.94478E-20         0.00000E+00
    0.47378E-07         0.15900E-19         0.00000E+00
    0.47378E-07         0.14901E-19         0.00000E+00
    0.47378E-07         0.37253E-20         0.00000E+00
    0.47378E-07         0.93132E-20         0.00000E+00
    0.47378E-07         0.23216E-19         0.00000E+00
    0.47378E-07         0.27940E-19         0.00000E+00
    0.47378E-07         0.21420E-19         0.00000E+00
    0.47378E-07         0.24214E-19         0.00000E+00
    0.47378E-07         0.14901E-19         0.00000E+00
    0.47378E-07         0.12107E-19         0.00000E+00
    0.47378E-07         0.22352E-19         0.00000E+00
    0.47378E-07         0.26941E-19         0.00000E+00
    0.47378E-07         0.27940E-19         0.00000E+00
    0.47378E-07         0.20489E-19         0.00000E+00
    0.47378E-07         0.12174E-19         0.00000E+00
    0.47378E-07         0.83819E-20         0.00000E+00
    0.47378E-07         0.55879E-20         0.00000E+00
    0.47378E-07         0.37253E-20         0.00000E+00
    0.47378E-07        -0.19299E-20         0.00000E+00
    0.47378E-07         0.37253E-20         0.00000E+00
    0.47378E-07         0.93132E-20         0.00000E+00
    0.47378E-07         0.74506E-20         0.00000E+00
    0.47378E-07         0.74506E-20         0.00000E+00
    0.47378E-07         0.11176E-19         0.00000E+00
    0.47378E-07         0.74506E-20         0.00000E+00
    0.47378E-07        -0.74506E-20         0.00000E+00
    0.47378E-07        -0.20489E-19         0.00000E+00
    0.47378E-07        -0.26077E-19         0.00000E+00
    0.47378E-07        -0.26077E-19         0.00000E+00
    0.47378E-07        -0.22352E-19         0.00000E+00
    0.47378E-07        -0.18626E-19         0.00000E+00
    0.47378E-07        -0.25078E-19         0.00000E+00
    0.47378E-07        -0.39116E-19         0.00000E+00
    0.47378E-07        -0.41977E-19         0.00000E+00
    0.47378E-07        -0.29802E-19         0.00000E+00
    0.47378E-07        -0.18626E-19         0.00000E+00
    0.47378E-07        -0.92459E-20         0.00000E+00
    0.47378E-07        -0.14901E-19         0.00000E+00
    0.47378E-07        -0.25146E-19         0.00000E+00
    0.47378E-07        -0.65193E-20         0.00000E+00
    0.47378E-07         0.12107E-19         0.00000E+00
    0.47378E-07         0.19558E-19         0.00000E+00
    0.47378E-07         0.15832E-19         0.00000E+00
    0.47378E-07         0.12174E-19         0.00000E+00
    0.47378E-07         0.86402E-21         0.00000E+00
    0.47378E-07        -0.27940E-20         0.00000E+00
    0.47378E-07         0.27940E-20         0.00000E+00
    0.47378E-07         0.86402E-21         0.00000E+00
    0.47378E-07         0.28613E-20         0.00000E+00
    0.47378E-07         0.57225E-20         0.00000E+00
    0.54607E-07        -0.17955E-20         0.00000E+00
    0.54607E-07        -0.93132E-21         0.00000E+00
    0.54607E-07         0.55544E-20         0.00000E+00
    0.54607E-07         0.56215E-20         0.00000E+00
    0.54607E-07         0.93132E-20         0.00000E+00
    0.54607E-07         0.27906E-19         0.00000E+00
    0.54607E-07         0.32630E-19         0.00000E+00
    0.54607E-07         0.25179E-19         0.00000E+00
    0.54607E-07         0.27906E-19         0.00000E+00
    0.54607E-07         0.23283E-19         0.00000E+00
    0.54607E-07         0.14003E-19         0.00000E+00
    0.54607E-07         0.16730E-19         0.00000E+00
    0.54607E-07         0.15832E-19         0.00000E+00
    0.54607E-07         0.17729E-19         0.00000E+00
    0.54607E-07         0.11176E-19         0.00000E+00
    0.54607E-07         0.89775E-21         0.00000E+00
    0.54607E-07         0.37253E-20         0.00000E+00
    0.54607E-07         0.18626E-20         0.00000E+00
    0.54607E-07         0.16764E-19         0.00000E+00
    0.54607E-07         0.12141E-19         0.00000E+00
    0.54607E-07         0.37253E-20         0.00000E+00
    0.54607E-07        -0.37253E-20         0.00000E+00
    0.54607E-07        -0.55879E-20         0.00000E+00
    0.54607E-07        -0.55879E-20         0.00000E+00
    0.54607E-07        -0.74841E-20         0.00000E+00
    0.54607E-07        -0.11176E-19         0.00000E+00
    0.54607E-07        -0.16730E-19         0.00000E+00
    0.54607E-07        -0.14901E-19         0.00000E+00
    0.54607E-07        -0.22352E-19         0.00000E+00
    0.54607E-07        -0.22352E-19         0.00000E+00
    0.54607E-07        -0.14901E-19         0.00000E+00
    0.54607E-07        -0.18626E-19         0.00000E+00
    0.54607E-07        -0.22385E-19         0.00000E+00
    0.54607E-07        -0.29802E-19         0.00000E+00
    0.54607E-07        -0.30734E-19         0.00000E+00
    0.54607E-07        -0.30801E-19         0.00000E+00
    0.54607E-07        -0.29769E-19         0.00000E+00
    0.54607E-07        -0.24181E-19         0.00000E+00
    0.54607E-07        -0.14935E-19         0.00000E+00
    0.54607E-07        -0.11176E-19         0.00000E+00
    0.54607E-07        -0.18626E-20         0.00000E+00
    0.54607E-07         0.14901E-19         0.00000E+00
    0.54607E-07         0.24214E-19         0.00000E+00
    0.54607E-07         0.22352E-19         0.00000E+00
    0.54607E-07         0.16764E-19         0.00000E+00
    0.54607E-07         0.11176E-19         0.00000E+00
    0.54607E-07         0.55879E-20         0.00000E+00
    0.54607E-07         0.18626E-20         0.00000E+00
    0.54607E-07        -0.37253E-20         0.00000E+00
    0.54607E-07         0.00000E+00         0.00000E+00
    0.54607E-07         0.74506E-20         0.00000E+00
    0.62731E-07         0.11176E-19         0.00000E+00
    0.62731E-07         0.11188E-19         0.00000E+00
    0.62731E-07         0.56003E-20         0.00000E+00
    0.62731E-07         0.18626E-20         0.00000E+00
    0.62731E-07         0.14889E-19         0.00000E+00
    0.62731E-07         0.26065E-19         0.00000E+00
    0.62731E-07         0.27952E-19         0.00000E+00
    0.62731E-07         0.29802E-19         0.00000E+00
    0.62731E-07         0.20489E-19         0.00000E+00
    0.62731E-07         0.13051E-19         0.00000E+00
    0.62731E-07         0.13026E-19         0.00000E+00
    0.62731E-07         0.18626E-19         0.00000E+00
    0.62731E-07         0.20502E-19         0.00000E+00
    0.62731E-07         0.11188E-19         0.00000E+00
    0.62731E-07         0.37253E-20         0.00000E+00
    0.62731E-07         0.18378E-20         0.00000E+00
    0.62731E-07        -0.12414E-22         0.00000E+00
    0.62731E-07         0.18626E-20         0.00000E+00
    0.62731E-07        -0.12414E-22         0.00000E+00
    0.62731E-07        -0.93008E-20         0.00000E+00
    0.62731E-07        -0.93008E-20         0.00000E+00
    0.62731E-07        -0.74506E-20         0.00000E+00
    0.62731E-07        -0.74506E-20         0.00000E+00
    0.62731E-07        -0.93132E-20         0.00000E+00
    0.62731E-07        -0.74506E-20         0.00000E+00
    0.62731E-07        -0.37253E-20         0.00000E+00
    0.62731E-07        -0.74382E-20         0.00000E+00
    0.62731E-07        -0.14901E-19         0.00000E+00
    0.62731E-07        -0.22352E-19         0.00000E+00
    0.62731E-07        -0.22352E-19         0.00000E+00
    0.62731E-07        -0.22364E-19         0.00000E+00
    0.62731E-07        -0.24214E-19         0.00000E+00
    0.62731E-07        -0.27927E-19         0.00000E+00
    0.62731E-07        -0.31665E-19         0.00000E+00
    0.62731E-07        -0.29815E-19         0.00000E+00
    0.62731E-07        -0.22364E-19         0.00000E+00
    0.62731E-07        -0.11163E-19         0.00000E+00
    0.62731E-07        -0.93132E-20         0.00000E+00
    0.62731E-07        -0.13051E-19         0.00000E+00
    0.62731E-07        -0.11176E-19         0.00000E+00
    0.62731E-07         0.37377E-20         0.00000E+00
    0.62731E-07         0.10245E-19         0.00000E+00
    0.62731E-07         0.16764E-19         0.00000E+00
    0.62731E-07         0.19570E-19         0.00000E+00
    0.62731E-07         0.14889E-19         0.00000E+00
    0.62731E-07         0.74382E-20         0.00000E+00
    0.62731E-07        -0.18502E-20         0.00000E+00
    0.62731E-07        -0.18626E-20         0.00000E+00
    0.62731E-07        -0.12414E-22         0.00000E+00
    0.62731E-07        -0.28064E-20         0.00000E+00
    0.62731E-07        -0.56128E-20         0.00000E+00
    0.71806E-07         0.74506E-20         0.00000E+00
    0.71806E-07         0.91686E-20         0.00000E+00
    0.71806E-07         0.13039E-19         0.00000E+00
    0.71806E-07         0.13183E-19         0.00000E+00
    0.71806E-07         0.16764E-19         0.00000E+00
    0.71806E-07         0.27795E-19         0.00000E+00
    0.71806E-07         0.33383E-19         0.00000E+00
    0.71806E-07         0.28084E-19         0.00000E+00
    0.71806E-07         0.24359E-19         0.00000E+00
    0.71806E-07         0.16619E-19         0.00000E+00
    0.71806E-07         0.54433E-20         0.00000E+00
    0.71806E-07         0.14465E-21         0.00000E+00
    0.71806E-07         0.57326E-20         0.00000E+00
    0.71806E-07         0.16764E-19         0.00000E+00
    0.71806E-07         0.11031E-19         0.00000E+00
    0.71806E-07        -0.14465E-21         0.00000E+00
    0.71806E-07        -0.55879E-20         0.00000E+00
    0.71806E-07        -0.11963E-19         0.00000E+00
    0.71806E-07        -0.82373E-20         0.00000E+00
    0.71806E-07        -0.20073E-20         0.00000E+00
    0.71806E-07        -0.12107E-19         0.00000E+00
    0.71806E-07        -0.11963E-19         0.00000E+00
    0.71806E-07        -0.75952E-20         0.00000E+00
    0.71806E-07         0.35806E-20         0.00000E+00
    0.71806E-07         0.85265E-20         0.00000E+00
    0.71806E-07         0.18626E-20         0.00000E+00
    0.71806E-07        -0.66639E-20         0.00000E+00
    0.71806E-07        -0.74506E-20         0.00000E+00
    0.71806E-07        -0.12894E-19         0.00000E+00
    0.71806E-07        -0.15832E-19         0.00000E+00
    0.71806E-07        -0.17840E-19         0.00000E+00
    0.71806E-07        -0.16764E-19         0.00000E+00
    0.71806E-07        -0.20489E-19         0.00000E+00
    0.71806E-07        -0.31520E-19         0.00000E+00
    0.71806E-07        -0.29658E-19         0.00000E+00
    0.71806E-07        -0.24214E-19         0.00000E+00
    0.71806E-07        -0.17840E-19         0.00000E+00
    0.71806E-07        -0.14114E-19         0.00000E+00
    0.71806E-07        -0.37253E-20         0.00000E+00
    0.71806E-07        -0.91686E-20         0.00000E+00
    0.71806E-07        -0.13970E-19         0.00000E+00
    0.71806E-07         0.27940E-20         0.00000E+00
    0.71806E-07         0.38699E-20         0.00000E+00
    0.71806E-07         0.37253E-20         0.00000E+00
    0.71806E-07         0.37253E-20         0.00000E+00
    0.71806E-07         0.91686E-20         0.00000E+00
    0.71806E-07         0.18482E-19         0.00000E+00
    0.71806E-07         0.14901E-19         0.00000E+00
    0.71806E-07         0.48013E-20         0.00000E+00
    0.71806E-07         0.40146E-20         0.00000E+00
    0.71806E-07         0.21519E-20         0.00000E+00
    0.81876E-07         0.37253E-20         0.00000E+00
    0.81876E-07         0.13039E-19         0.00000E+00
    0.81876E-07         0.20037E-19         0.00000E+00
    0.81876E-07         0.14901E-19         0.00000E+00
    0.81876E-07         0.19078E-19         0.00000E+00
    0.81876E-07         0.37253E-19         0.00000E+00
    0.81876E-07         0.44703E-19         0.00000E+00
    0.81876E-07         0.33528E-19         0.00000E+00
    0.81876E-07         0.28419E-19         0.00000E+00
    0.81876E-07         0.22831E-19         0.00000E+00
    0.81876E-07         0.13491E-19         0.00000E+00
    0.81876E-07         0.12107E-19         0.00000E+00
    0.81876E-07         0.74506E-20         0.00000E+00
    0.81876E-07         0.18626E-20         0.00000E+00
    0.81876E-07        -0.88339E-20         0.00000E+00
    0.81876E-07        -0.93132E-20         0.00000E+00
    0.81876E-07        -0.88612E-20         0.00000E+00
    0.81876E-07        -0.55879E-20         0.00000E+00
    0.81876E-07        -0.23420E-20         0.00000E+00
    0.81876E-07        -0.55879E-20         0.00000E+00
    0.81876E-07        -0.18353E-20         0.00000E+00
    0.81876E-07         0.37253E-20         0.00000E+00
    0.81876E-07        -0.60673E-20         0.00000E+00
    0.81876E-07        -0.12107E-19         0.00000E+00
    0.81876E-07        -0.46566E-20         0.00000E+00
    0.81876E-07         0.43672E-33         0.00000E+00
    0.81876E-07         0.65193E-20         0.00000E+00
    0.81876E-07         0.41773E-20         0.00000E+00
    0.81876E-07        -0.37253E-20         0.00000E+00
    0.81876E-07        -0.32460E-20         0.00000E+00
    0.81876E-07        -0.32733E-20         0.00000E+00
    0.81876E-07        -0.18626E-19         0.00000E+00
    0.81876E-07        -0.22324E-19         0.00000E+00
    0.81876E-07        -0.22831E-19         0.00000E+00
    0.81876E-07        -0.28419E-19         0.00000E+00
    0.81876E-07        -0.18626E-19         0.00000E+00
    0.81876E-07        -0.93132E-20         0.00000E+00
    0.81876E-07        -0.88339E-20         0.00000E+00
    0.81876E-07        -0.15832E-19         0.00000E+00
    0.81876E-07        -0.21900E-19         0.00000E+00
    0.81876E-07        -0.11176E-19         0.00000E+00
    0.81876E-07         0.23420E-20         0.00000E+00
    0.81876E-07         0.11655E-19         0.00000E+00
    0.81876E-07         0.11149E-19         0.00000E+00
    0.81876E-07         0.23146E-20         0.00000E+00
    0.81876E-07         0.79299E-20         0.00000E+00
    0.81876E-07         0.00000E+00         0.00000E+00
    0.81876E-07        -0.37253E-20         0.00000E+00
    0.81876E-07         0.47933E-21         0.00000E+00
    0.81876E-07        -0.18626E-20         0.00000E+00
    0.81876E-07        -0.46840E-20         0.00000E+00
    0.92963E-07         0.74506E-20         0.00000E+00
    0.92963E-07         0.74506E-20         0.00000E+00
    0.92963E-07         0.55879E-20         0.00000E+00
    0.92963E-07         0.11176E-19         0.00000E+00
    0.92963E-07         0.22352E-19         0.00000E+00
    0.92963E-07         0.33528E-19         0.00000E+00
    0.92963E-07         0.46566E-19         0.00000E+00
    0.92963E-07         0.46573E-19         0.00000E+00
    0.92963E-07         0.26077E-19         0.00000E+00
    0.92963E-07         0.13031E-19         0.00000E+00
    0.92963E-07         0.65121E-20         0.00000E+00
    0.92963E-07         0.83819E-20         0.00000E+00
    0.92963E-07         0.14901E-19         0.00000E+00
    0.92963E-07         0.11183E-19         0.00000E+00
    0.92963E-07         0.56022E-20         0.00000E+00
    0.92963E-07        -0.46638E-20         0.00000E+00
    0.92963E-07        -0.74506E-20         0.00000E+00
    0.92963E-07        -0.12114E-19         0.00000E+00
    0.92963E-07        -0.16771E-19         0.00000E+00
    0.92963E-07        -0.83676E-20         0.00000E+00
    0.92963E-07        -0.10237E-19         0.00000E+00
    0.92963E-07        -0.28011E-20         0.00000E+00
    0.92963E-07         0.92417E-21         0.00000E+00
    0.92963E-07         0.00000E+00         0.00000E+00
    0.92963E-07         0.00000E+00         0.00000E+00
    0.92963E-07        -0.65121E-20         0.00000E+00
    0.92963E-07        -0.13039E-19         0.00000E+00
    0.92963E-07        -0.74506E-20         0.00000E+00
    0.92963E-07        -0.10237E-19         0.00000E+00
    0.92963E-07        -0.11176E-19         0.00000E+00
    0.92963E-07        -0.28011E-20         0.00000E+00
    0.92963E-07        -0.18626E-20         0.00000E+00
    0.92963E-07        -0.93132E-20         0.00000E+00
    0.92963E-07        -0.22352E-19         0.00000E+00
    0.92963E-07        -0.27940E-19         0.00000E+00
    0.92963E-07        -0.27016E-19         0.00000E+00
    0.92963E-07        -0.20489E-19         0.00000E+00
    0.92963E-07        -0.14908E-19         0.00000E+00
    0.92963E-07        -0.13039E-19         0.00000E+00
    0.92963E-07        -0.11169E-19         0.00000E+00
    0.92963E-07        -0.46495E-20         0.00000E+00
    0.92963E-07         0.83819E-20         0.00000E+00
    0.92963E-07         0.14901E-19         0.00000E+00
    0.92963E-07         0.13970E-19         0.00000E+00
    0.92963E-07         0.10237E-19         0.00000E+00
    0.92963E-07         0.18626E-20         0.00000E+00
    0.92963E-07         0.18626E-20         0.00000E+00
    0.92963E-07         0.37253E-20         0.00000E+00
    0.92963E-07         0.37253E-20         0.00000E+00
    0.92963E-07         0.55879E-20         0.00000E+00
    0.92963E-07         0.37253E-20         0.00000E+00
    0.10507E-06         0.37253E-20         0.00000E+00
    0.10507E-06         0.55879E-20         0.00000E+00
    0.10507E-06         0.13039E-19         0.00000E+00
    0.10507E-06         0.14901E-19         0.00000E+00
    0.10507E-06         0.18914E-19         0.00000E+00
    0.10507E-06         0.36322E-19         0.00000E+00
    0.10507E-06         0.37897E-19         0.00000E+00
    0.10507E-06         0.30089E-19         0.00000E+00
    0.10507E-06         0.21420E-19         0.00000E+00
    0.10507E-06         0.62321E-20         0.00000E+00
    0.10507E-06        -0.15755E-20         0.00000E+00
    0.10507E-06         0.64416E-21         0.00000E+00
    0.10507E-06         0.10889E-19         0.00000E+00
    0.10507E-06         0.14544E-19         0.00000E+00
    0.10507E-06         0.58751E-20         0.00000E+00
    0.10507E-06        -0.52309E-20         0.00000E+00
    0.10507E-06        -0.13039E-19         0.00000E+00
    0.10507E-06        -0.14901E-19         0.00000E+00
    0.10507E-06        -0.16407E-19         0.00000E+00
    0.10507E-06        -0.11820E-19         0.00000E+00
    0.10507E-06        -0.99574E-20         0.00000E+00
    0.10507E-06        -0.11176E-19         0.00000E+00
    0.10507E-06        -0.43695E-20         0.00000E+00
    0.10507E-06         0.30811E-20         0.00000E+00
    0.10507E-06         0.96702E-20         0.00000E+00
    0.10507E-06         0.00000E+00         0.00000E+00
    0.10507E-06        -0.80947E-20         0.00000E+00
    0.10507E-06        -0.11463E-19         0.00000E+00
    0.10507E-06        -0.18914E-19         0.00000E+00
    0.10507E-06        -0.12751E-19         0.00000E+00
    0.10507E-06        -0.10602E-19         0.00000E+00
    0.10507E-06        -0.74506E-20         0.00000E+00
    0.10507E-06        -0.52309E-20         0.00000E+00
    0.10507E-06        -0.15832E-19         0.00000E+00
    0.10507E-06        -0.22065E-19         0.00000E+00
    0.10507E-06        -0.17338E-19         0.00000E+00
    0.10507E-06        -0.14901E-19         0.00000E+00
    0.10507E-06        -0.10889E-19         0.00000E+00
    0.10507E-06        -0.37253E-20         0.00000E+00
    0.10507E-06        -0.28716E-21         0.00000E+00
    0.10507E-06         0.37253E-20         0.00000E+00
    0.10507E-06         0.77377E-20         0.00000E+00
    0.10507E-06         0.10889E-19         0.00000E+00
    0.10507E-06         0.13039E-19         0.00000E+00
    0.10507E-06         0.40124E-20         0.00000E+00
    0.10507E-06         0.15755E-20         0.00000E+00
    0.10507E-06         0.34381E-20         0.00000E+00
    0.10507E-06         0.52309E-20         0.00000E+00
    0.10507E-06         0.40124E-20         0.00000E+00
    0.10507E-06        -0.15056E-20         0.00000E+00
    0.10507E-06         0.31510E-20         0.00000E+00
    0.11814E-06         0.37253E-20         0.00000E+00
    0.11814E-06         0.74506E-20         0.00000E+00
    0.11814E-06         0.74506E-20         0.00000E+00
    0.11814E-06         0.93132E-20         0.00000E+00
    0.11814E-06         0.17138E-19         0.00000E+00
    0.11814E-06         0.24771E-19         0.00000E+00
    0.11814E-06         0.24397E-19         0.00000E+00
    0.11814E-06         0.17138E-19         0.00000E+00
    0.11814E-06         0.11550E-19         0.00000E+00
    0.11814E-06         0.13039E-19         0.00000E+00
    0.11814E-06         0.14901E-19         0.00000E+00
    0.11814E-06         0.11550E-19         0.00000E+00
    0.11814E-06         0.40999E-20         0.00000E+00
    0.11814E-06        -0.37253E-20         0.00000E+00
    0.11814E-06        -0.93132E-20         0.00000E+00
    0.11814E-06        -0.37253E-20         0.00000E+00
    0.11814E-06        -0.22372E-20         0.00000E+00
    0.11814E-06        -0.15650E-19         0.00000E+00
    0.11814E-06        -0.19001E-19         0.00000E+00
    0.11814E-06        -0.16764E-19         0.00000E+00
    0.11814E-06        -0.57701E-20         0.00000E+00
    0.11814E-06         0.13059E-20         0.00000E+00
    0.11814E-06         0.14881E-20         0.00000E+00
    0.11814E-06         0.59625E-20         0.00000E+00
    0.11814E-06         0.98700E-20         0.00000E+00
    0.11814E-06         0.80073E-20         0.00000E+00
    0.11814E-06         0.37458E-21         0.00000E+00
    0.11814E-06        -0.74506E-20         0.00000E+00
    0.11814E-06        -0.12664E-19         0.00000E+00
    0.11814E-06        -0.14527E-19         0.00000E+00
    0.11814E-06        -0.13039E-19         0.00000E+00
    0.11814E-06        -0.13039E-19         0.00000E+00
    0.11814E-06        -0.18626E-19         0.00000E+00
    0.11814E-06        -0.28314E-19         0.00000E+00
    0.11814E-06        -0.26452E-19         0.00000E+00
    0.11814E-06        -0.19001E-19         0.00000E+00
    0.11814E-06        -0.11176E-19         0.00000E+00
    0.11814E-06        -0.70760E-20         0.00000E+00
    0.11814E-06        -0.19001E-19         0.00000E+00
    0.11814E-06        -0.22726E-19         0.00000E+00
    0.11814E-06        -0.89386E-20         0.00000E+00
    0.11814E-06         0.81997E-20         0.00000E+00
    0.11814E-06         0.20489E-19         0.00000E+00
    0.11814E-06         0.16389E-19         0.00000E+00
    0.11814E-06         0.13039E-19         0.00000E+00
    0.11814E-06         0.13039E-19         0.00000E+00
    0.11814E-06         0.93132E-20         0.00000E+00
    0.11814E-06         0.37253E-20         0.00000E+00
    0.11814E-06        -0.18626E-20         0.00000E+00
    0.11814E-06        -0.40999E-20         0.00000E+00
    0.11814E-06        -0.44745E-20         0.00000E+00
    0.13211E-06         0.37253E-20         0.00000E+00
    0.13211E-06         0.74506E-20         0.00000E+00
    0.13211E-06         0.14644E-19         0.00000E+00
    0.13211E-06         0.10918E-19         0.00000E+00
    0.13211E-06         0.61030E-20         0.00000E+00
    0.13211E-06         0.15416E-19         0.00000E+00
    0.13211E-06         0.25819E-19         0.00000E+00
    0.13211E-06         0.18369E-19         0.00000E+00
    0.13211E-06         0.11176E-19         0.00000E+00
    0.13211E-06         0.53304E-20         0.00000E+00
    0.13211E-06        -0.39828E-20         0.00000E+00
    0.13211E-06         0.25755E-21         0.00000E+00
    0.13211E-06         0.15159E-19         0.00000E+00
    0.13211E-06         0.16764E-19         0.00000E+00
    0.13211E-06         0.58455E-20         0.00000E+00
    0.13211E-06        -0.55879E-20         0.00000E+00
    0.13211E-06        -0.61030E-20         0.00000E+00
    0.13211E-06        -0.21202E-20         0.00000E+00
    0.13211E-06         0.25755E-21         0.00000E+00
    0.13211E-06         0.13039E-19         0.00000E+00
    0.13211E-06         0.12781E-19         0.00000E+00
    0.13211E-06         0.00000E+00         0.00000E+00
    0.13211E-06        -0.90557E-20         0.00000E+00
    0.13211E-06        -0.69355E-20         0.00000E+00
    0.13211E-06        -0.21202E-20         0.00000E+00
    0.13211E-06        -0.11176E-19         0.00000E+00
    0.13211E-06        -0.55879E-20         0.00000E+00
    0.13211E-06        -0.39828E-20         0.00000E+00
    0.13211E-06        -0.11592E-19         0.00000E+00
    0.13211E-06        -0.15575E-19         0.00000E+00
    0.13211E-06        -0.17021E-19         0.00000E+00
    0.13211E-06        -0.20489E-19         0.00000E+00
    0.13211E-06        -0.17021E-19         0.00000E+00
    0.13211E-06        -0.22867E-19         0.00000E+00
    0.13211E-06        -0.32339E-19         0.00000E+00
    0.13211E-06        -0.23283E-19         0.00000E+00
    0.13211E-06        -0.16506E-19         0.00000E+00
    0.13211E-06        -0.16249E-19         0.00000E+00
    0.13211E-06        -0.39828E-20         0.00000E+00
    0.13211E-06        -0.42404E-20         0.00000E+00
    0.13211E-06        -0.95708E-20         0.00000E+00
    0.13211E-06         0.37253E-20         0.00000E+00
    0.13211E-06         0.10502E-19         0.00000E+00
    0.13211E-06         0.10502E-19         0.00000E+00
    0.13211E-06         0.74506E-20         0.00000E+00
    0.13211E-06         0.58455E-20         0.00000E+00
    0.13211E-06         0.46566E-20         0.00000E+00
    0.13211E-06         0.62617E-20         0.00000E+00
    0.13211E-06         0.90557E-20         0.00000E+00
    0.13211E-06         0.90557E-20         0.00000E+00
    0.13211E-06         0.74506E-20         0.00000E+00
    0.14683E-06         0.15048E-19         0.00000E+00
    0.14683E-06         0.74506E-20         0.00000E+00
    0.14683E-06         0.37253E-20         0.00000E+00
    0.14683E-06         0.18626E-20         0.00000E+00
    0.14683E-06         0.73040E-20         0.00000E+00
    0.14683E-06         0.22352E-19         0.00000E+00
    0.14683E-06         0.24288E-19         0.00000E+00
    0.14683E-06         0.20562E-19         0.00000E+00
    0.14683E-06         0.12965E-19         0.00000E+00
    0.14683E-06         0.16764E-19         0.00000E+00
    0.14683E-06         0.20562E-19         0.00000E+00
    0.14683E-06         0.14828E-19         0.00000E+00
    0.14683E-06         0.11176E-19         0.00000E+00
    0.14683E-06         0.14974E-19         0.00000E+00
    0.14683E-06         0.11103E-19         0.00000E+00
    0.14683E-06        -0.57345E-20         0.00000E+00
    0.14683E-06        -0.17160E-20         0.00000E+00
    0.14683E-06        -0.11103E-19         0.00000E+00
    0.14683E-06        -0.11176E-19         0.00000E+00
    0.14683E-06        -0.73773E-20         0.00000E+00
    0.14683E-06        -0.14974E-19         0.00000E+00
    0.14683E-06        -0.13112E-19         0.00000E+00
    0.14683E-06        -0.37253E-20         0.00000E+00
    0.14683E-06         0.36520E-20         0.00000E+00
    0.14683E-06         0.75239E-20         0.00000E+00
    0.14683E-06        -0.18626E-20         0.00000E+00
    0.14683E-06        -0.22425E-19         0.00000E+00
    0.14683E-06        -0.20416E-19         0.00000E+00
    0.14683E-06        -0.10171E-19         0.00000E+00
    0.14683E-06        -0.12180E-19         0.00000E+00
    0.14683E-06        -0.74506E-20         0.00000E+00
    0.14683E-06        -0.93132E-20         0.00000E+00
    0.14683E-06        -0.24288E-19         0.00000E+00
    0.14683E-06        -0.26077E-19         0.00000E+00
    0.14683E-06        -0.24214E-19         0.00000E+00
    0.14683E-06        -0.18480E-19         0.00000E+00
    0.14683E-06        -0.15832E-19         0.00000E+00
    0.14683E-06        -0.15832E-19         0.00000E+00
    0.14683E-06        -0.16764E-19         0.00000E+00
    0.14683E-06        -0.12107E-19         0.00000E+00
    0.14683E-06         0.46566E-20         0.00000E+00
    0.14683E-06         0.11103E-19         0.00000E+00
    0.14683E-06         0.16764E-19         0.00000E+00
    0.14683E-06         0.11176E-19         0.00000E+00
    0.14683E-06         0.73773E-20         0.00000E+00
    0.14683E-06         0.10318E-19         0.00000E+00
    0.14683E-06         0.10046E-20         0.00000E+00
    0.14683E-06        -0.47299E-20         0.00000E+00
    0.14683E-06        -0.37253E-20         0.00000E+00
    0.14683E-06         0.19359E-20         0.00000E+00
    0.14683E-06         0.11322E-19         0.00000E+00
    0.16208E-06        -0.86981E-20         0.00000E+00
    0.16208E-06         0.55879E-20         0.00000E+00
    0.16208E-06         0.93132E-20         0.00000E+00
    0.16208E-06         0.74506E-20         0.00000E+00
    0.16208E-06         0.11800E-19         0.00000E+00
    0.16208E-06         0.11800E-19         0.00000E+00
    0.16208E-06         0.14901E-19         0.00000E+00
    0.16208E-06         0.21420E-19         0.00000E+00
    0.16208E-06         0.27940E-19         0.00000E+00
    0.16208E-06         0.18626E-19         0.00000E+00
    0.16208E-06         0.46566E-20         0.00000E+00
    0.16208E-06         0.10552E-19         0.00000E+00
    0.16208E-06         0.13039E-19         0.00000E+00
    0.16208E-06         0.96208E-20         0.00000E+00
    0.16208E-06         0.40328E-20         0.00000E+00
    0.16208E-06         0.13662E-19         0.00000E+00
    0.16208E-06         0.55879E-20         0.00000E+00
    0.16208E-06        -0.12389E-20         0.00000E+00
    0.16208E-06        -0.62030E-20         0.00000E+00
    0.16208E-06        -0.14901E-19         0.00000E+00
    0.16208E-06        -0.12731E-19         0.00000E+00
    0.16208E-06        -0.10868E-19         0.00000E+00
    0.16208E-06        -0.14901E-19         0.00000E+00
    0.16208E-06        -0.23907E-19         0.00000E+00
    0.16208E-06        -0.17071E-19         0.00000E+00
    0.16208E-06        -0.13039E-19         0.00000E+00
    0.16208E-06        -0.37253E-20         0.00000E+00
    0.16208E-06        -0.18626E-20         0.00000E+00
    0.16208E-06        -0.11800E-19         0.00000E+00
    0.16208E-06        -0.12107E-19         0.00000E+00
    0.16208E-06        -0.10245E-19         0.00000E+00
    0.16208E-06        -0.86895E-20         0.00000E+00
    0.16208E-06        -0.16764E-19         0.00000E+00
    0.16208E-06        -0.29179E-19         0.00000E+00
    0.16208E-06        -0.31665E-19         0.00000E+00
    0.16208E-06        -0.30734E-19         0.00000E+00
    0.16208E-06        -0.27008E-19         0.00000E+00
    0.16208E-06        -0.11176E-19         0.00000E+00
    0.16208E-06        -0.55879E-20         0.00000E+00
    0.16208E-06        -0.93132E-20         0.00000E+00
    0.16208E-06        -0.55879E-20         0.00000E+00
    0.16208E-06         0.18626E-20         0.00000E+00
    0.16208E-06         0.80744E-20         0.00000E+00
    0.16208E-06         0.20489E-19         0.00000E+00
    0.16208E-06         0.12722E-19         0.00000E+00
    0.16208E-06         0.40328E-20         0.00000E+00
    0.16208E-06         0.90057E-20         0.00000E+00
    0.16208E-06         0.55879E-20         0.00000E+00
    0.16208E-06         0.00000E+00         0.00000E+00
    0.16208E-06        -0.40328E-20         0.00000E+00
    0.16208E-06        -0.43404E-20         0.00000E+00
    0.17757E-06         0.74506E-20         0.00000E+00
    0.17757E-06         0.88454E-20         0.00000E+00
    0.17757E-06         0.55879E-20         0.00000E+00
    0.17757E-06         0.23305E-20         0.00000E+00
    0.17757E-06         0.93132E-20         0.00000E+00
    0.17757E-06         0.18626E-19         0.00000E+00
    0.17757E-06         0.27472E-19         0.00000E+00
    0.17757E-06         0.21884E-19         0.00000E+00
    0.17757E-06         0.11176E-19         0.00000E+00
    0.17757E-06         0.13039E-19         0.00000E+00
    0.17757E-06         0.11176E-19         0.00000E+00
    0.17757E-06         0.93176E-20         0.00000E+00
    0.17757E-06         0.14901E-19         0.00000E+00
    0.17757E-06         0.14897E-19         0.00000E+00
    0.17757E-06         0.18670E-20         0.00000E+00
    0.17757E-06        -0.55879E-20         0.00000E+00
    0.17757E-06         0.23261E-20         0.00000E+00
    0.17757E-06        -0.37253E-20         0.00000E+00
    0.17757E-06        -0.79184E-20         0.00000E+00
    0.17757E-06        -0.37253E-20         0.00000E+00
    0.17757E-06        -0.69827E-20         0.00000E+00
    0.17757E-06        -0.51201E-20         0.00000E+00
    0.17757E-06        -0.60558E-20         0.00000E+00
    0.17757E-06        -0.93132E-20         0.00000E+00
    0.17757E-06        -0.13039E-19         0.00000E+00
    0.17757E-06        -0.13039E-19         0.00000E+00
    0.17757E-06        -0.12571E-19         0.00000E+00
    0.17757E-06        -0.13506E-19         0.00000E+00
    0.17757E-06        -0.20957E-19         0.00000E+00
    0.17757E-06        -0.31661E-19         0.00000E+00
    0.17757E-06        -0.18626E-19         0.00000E+00
    0.17757E-06        -0.69871E-20         0.00000E+00
    0.17757E-06        -0.16764E-19         0.00000E+00
    0.17757E-06        -0.19558E-19         0.00000E+00
    0.17757E-06        -0.20953E-19         0.00000E+00
    0.17757E-06        -0.19094E-19         0.00000E+00
    0.17757E-06        -0.15369E-19         0.00000E+00
    0.17757E-06        -0.11639E-19         0.00000E+00
    0.17757E-06        -0.11639E-19         0.00000E+00
    0.17757E-06        -0.12575E-19         0.00000E+00
    0.17757E-06        -0.55879E-20         0.00000E+00
    0.17757E-06         0.27940E-20         0.00000E+00
    0.17757E-06         0.51201E-20         0.00000E+00
    0.17757E-06         0.18626E-20         0.00000E+00
    0.17757E-06         0.18626E-20         0.00000E+00
    0.17757E-06         0.18626E-20         0.00000E+00
    0.17757E-06        -0.13948E-20         0.00000E+00
    0.17757E-06         0.41931E-20         0.00000E+00
    0.17757E-06         0.37253E-20         0.00000E+00
    0.17757E-06         0.13948E-20         0.00000E+00
    0.17757E-06         0.27896E-20         0.00000E+00
    0.19290E-06        -0.82569E-21         0.00000E+00
    0.19290E-06         0.55879E-20         0.00000E+00
    0.19290E-06         0.60008E-20         0.00000E+00
    0.19290E-06         0.18626E-20         0.00000E+00
    0.19290E-06         0.55879E-20         0.00000E+00
    0.19290E-06         0.12626E-19         0.00000E+00
    0.19290E-06         0.16351E-19         0.00000E+00
    0.19290E-06         0.20902E-19         0.00000E+00
    0.19290E-06         0.14901E-19         0.00000E+00
    0.19290E-06         0.51751E-20         0.00000E+00
    0.19290E-06         0.11589E-19         0.00000E+00
    0.19290E-06         0.13451E-19         0.00000E+00
    0.19290E-06         0.51751E-20         0.00000E+00
    0.19290E-06         0.64187E-33         0.00000E+00
    0.19290E-06         0.82569E-21         0.00000E+00
    0.19290E-06        -0.51751E-20         0.00000E+00
    0.19290E-06        -0.13451E-19         0.00000E+00
    0.19290E-06        -0.13864E-19         0.00000E+00
    0.19290E-06        -0.78634E-20         0.00000E+00
    0.19290E-06        -0.55879E-20         0.00000E+00
    0.19290E-06        -0.93132E-20         0.00000E+00
    0.19290E-06        -0.11176E-19         0.00000E+00
    0.19290E-06        -0.70377E-20         0.00000E+00
    0.19290E-06        -0.51751E-20         0.00000E+00
    0.19290E-06        -0.78634E-20         0.00000E+00
    0.19290E-06        -0.11176E-19         0.00000E+00
    0.19290E-06        -0.12626E-19         0.00000E+00
    0.19290E-06        -0.11589E-19         0.00000E+00
    0.19290E-06        -0.13451E-19         0.00000E+00
    0.19290E-06        -0.56936E-20         0.00000E+00
    0.19290E-06        -0.79691E-20         0.00000E+00
    0.19290E-06        -0.16764E-19         0.00000E+00
    0.19290E-06        -0.18626E-19         0.00000E+00
    0.19290E-06        -0.26490E-19         0.00000E+00
    0.19290E-06        -0.24214E-19         0.00000E+00
    0.19290E-06        -0.20902E-19         0.00000E+00
    0.19290E-06        -0.19039E-19         0.00000E+00
    0.19290E-06        -0.12626E-19         0.00000E+00
    0.19290E-06        -0.14901E-19         0.00000E+00
    0.19290E-06        -0.17177E-19         0.00000E+00
    0.19290E-06        -0.13039E-19         0.00000E+00
    0.19290E-06        -0.55879E-20         0.00000E+00
    0.19290E-06         0.60008E-20         0.00000E+00
    0.19290E-06         0.11589E-19         0.00000E+00
    0.19290E-06         0.14498E-20         0.00000E+00
    0.19290E-06        -0.37253E-20         0.00000E+00
    0.19290E-06         0.22755E-20         0.00000E+00
    0.19290E-06        -0.41285E-21         0.00000E+00
    0.19290E-06        -0.41381E-20         0.00000E+00
    0.19290E-06         0.00000E+00         0.00000E+00
    0.19290E-06         0.37253E-20         0.00000E+00
    0.20760E-06         0.74506E-20         0.00000E+00
    0.20760E-06         0.35698E-20         0.00000E+00
    0.20760E-06         0.77583E-21         0.00000E+00
    0.20760E-06         0.00000E+00         0.00000E+00
    0.20760E-06         0.57434E-20         0.00000E+00
    0.20760E-06         0.16298E-19         0.00000E+00
    0.20760E-06         0.20955E-19         0.00000E+00
    0.20760E-06         0.11331E-19         0.00000E+00
    0.20760E-06         0.11176E-19         0.00000E+00
    0.20760E-06         0.10555E-19         0.00000E+00
    0.20760E-06         0.40355E-20         0.00000E+00
    0.20760E-06         0.37253E-20         0.00000E+00
    0.20760E-06         0.55879E-20         0.00000E+00
    0.20760E-06         0.35706E-20         0.00000E+00
    0.20760E-06        -0.66739E-20         0.00000E+00
    0.20760E-06        -0.11953E-19         0.00000E+00
    0.20760E-06        -0.11953E-19         0.00000E+00
    0.20760E-06        -0.13039E-19         0.00000E+00
    0.20760E-06        -0.13970E-19         0.00000E+00
    0.20760E-06        -0.13039E-19         0.00000E+00
    0.20760E-06        -0.13039E-19         0.00000E+00
    0.20760E-06        -0.54324E-20         0.00000E+00
    0.20760E-06         0.15549E-21         0.00000E+00
    0.20760E-06         0.27940E-20         0.00000E+00
    0.20760E-06         0.77608E-20         0.00000E+00
    0.20760E-06         0.55879E-20         0.00000E+00
    0.20760E-06        -0.23283E-20         0.00000E+00
    0.20760E-06        -0.27940E-20         0.00000E+00
    0.20760E-06        -0.80709E-20         0.00000E+00
    0.20760E-06        -0.18316E-19         0.00000E+00
    0.20760E-06        -0.16609E-19         0.00000E+00
    0.20760E-06        -0.17074E-19         0.00000E+00
    0.20760E-06        -0.28405E-19         0.00000E+00
    0.20760E-06        -0.34614E-19         0.00000E+00
    0.20760E-06        -0.37253E-19         0.00000E+00
    0.20760E-06        -0.29181E-19         0.00000E+00
    0.20760E-06        -0.21886E-19         0.00000E+00
    0.20760E-06        -0.15057E-19         0.00000E+00
    0.20760E-06        -0.13970E-19         0.00000E+00
    0.20760E-06        -0.13039E-19         0.00000E+00
    0.20760E-06        -0.18626E-20         0.00000E+00
    0.20760E-06         0.62091E-20         0.00000E+00
    0.20760E-06         0.71404E-20         0.00000E+00
    0.20760E-06         0.63638E-20         0.00000E+00
    0.20760E-06         0.54324E-20         0.00000E+00
    0.20760E-06        -0.31017E-21         0.00000E+00
    0.20760E-06        -0.51223E-20         0.00000E+00
    0.20760E-06        -0.38808E-20         0.00000E+00
    0.20760E-06        -0.17072E-20         0.00000E+00
    0.20760E-06         0.93132E-21         0.00000E+00
    0.20760E-06         0.34143E-20         0.00000E+00
    0.22107E-06         0.00000E+00         0.00000E+00
    0.22107E-06         0.67026E-20         0.00000E+00
    0.22107E-06         0.93132E-20         0.00000E+00
    0.22107E-06         0.54046E-20         0.00000E+00
    0.22107E-06         0.85652E-20         0.00000E+00
    0.22107E-06         0.18810E-19         0.00000E+00
    0.22107E-06         0.24031E-19         0.00000E+00
    0.22107E-06         0.24214E-19         0.00000E+00
    0.22107E-06         0.16764E-19         0.00000E+00
    0.22107E-06         0.63359E-20         0.00000E+00
    0.22107E-06         0.18626E-20         0.00000E+00
    0.22107E-06         0.57712E-20         0.00000E+00
    0.22107E-06         0.85652E-20         0.00000E+00
    0.22107E-06         0.35420E-20         0.00000E+00
    0.22107E-06        -0.28235E-21         0.00000E+00
    0.22107E-06        -0.15832E-19         0.00000E+00
    0.22107E-06        -0.23184E-19         0.00000E+00
    0.22107E-06        -0.16764E-19         0.00000E+00
    0.22107E-06        -0.83819E-20         0.00000E+00
    0.22107E-06        -0.27940E-20         0.00000E+00
    0.22107E-06        -0.26107E-20         0.00000E+00
    0.22107E-06        -0.74801E-21         0.00000E+00
    0.22107E-06        -0.20460E-20         0.00000E+00
    0.22107E-06        -0.18626E-20         0.00000E+00
    0.22107E-06        -0.18626E-20         0.00000E+00
    0.22107E-06        -0.39086E-20         0.00000E+00
    0.22107E-06        -0.27940E-20         0.00000E+00
    0.22107E-06        -0.63359E-20         0.00000E+00
    0.22107E-06        -0.16764E-19         0.00000E+00
    0.22107E-06        -0.17878E-19         0.00000E+00
    0.22107E-06        -0.15832E-19         0.00000E+00
    0.22107E-06        -0.17695E-19         0.00000E+00
    0.22107E-06        -0.21420E-19         0.00000E+00
    0.22107E-06        -0.27940E-19         0.00000E+00
    0.22107E-06        -0.27008E-19         0.00000E+00
    0.22107E-06        -0.22352E-19         0.00000E+00
    0.22107E-06        -0.17695E-19         0.00000E+00
    0.22107E-06        -0.15832E-19         0.00000E+00
    0.22107E-06        -0.84809E-20         0.00000E+00
    0.22107E-06        -0.11176E-19         0.00000E+00
    0.22107E-06        -0.13871E-19         0.00000E+00
    0.22107E-06        -0.16793E-20         0.00000E+00
    0.22107E-06         0.27940E-20         0.00000E+00
    0.22107E-06         0.46566E-20         0.00000E+00
    0.22107E-06         0.27940E-20         0.00000E+00
    0.22107E-06         0.26107E-20         0.00000E+00
    0.22107E-06         0.27940E-20         0.00000E+00
    0.22107E-06         0.29773E-20         0.00000E+00
    0.22107E-06         0.00000E+00         0.00000E+00
    0.22107E-06        -0.29773E-20         0.00000E+00
    0.22107E-06         0.00000E+00         0.00000E+00
    0.23265E-06         0.94381E-20         0.00000E+00
    0.23265E-06         0.46566E-20         0.00000E+00
    0.23265E-06         0.27940E-20         0.00000E+00
    0.23265E-06         0.18626E-20         0.00000E+00
    0.23265E-06         0.55879E-20         0.00000E+00
    0.23265E-06         0.14901E-19         0.00000E+00
    0.23265E-06         0.17695E-19         0.00000E+00
    0.23265E-06         0.10245E-19         0.00000E+00
    0.23265E-06         0.83819E-20         0.00000E+00
    0.23265E-06         0.83819E-20         0.00000E+00
    0.23265E-06         0.37253E-20         0.00000E+00
    0.23265E-06         0.55879E-20         0.00000E+00
    0.23265E-06         0.13039E-19         0.00000E+00
    0.23265E-06         0.14032E-19         0.00000E+00
    0.23265E-06         0.55879E-20         0.00000E+00
    0.23265E-06         0.86890E-21         0.00000E+00
    0.23265E-06        -0.50960E-33         0.00000E+00
    0.23265E-06        -0.55879E-20         0.00000E+00
    0.23265E-06        -0.10307E-19         0.00000E+00
    0.23265E-06        -0.65193E-20         0.00000E+00
    0.23265E-06        -0.93132E-20         0.00000E+00
    0.23265E-06        -0.12107E-19         0.00000E+00
    0.23265E-06        -0.10245E-19         0.00000E+00
    0.23265E-06        -0.46566E-20         0.00000E+00
    0.23265E-06         0.93132E-21         0.00000E+00
    0.23265E-06         0.19251E-20         0.00000E+00
    0.23265E-06        -0.55879E-20         0.00000E+00
    0.23265E-06        -0.84443E-20         0.00000E+00
    0.23265E-06        -0.93132E-20         0.00000E+00
    0.23265E-06        -0.14901E-19         0.00000E+00
    0.23265E-06        -0.12976E-19         0.00000E+00
    0.23265E-06        -0.11113E-19         0.00000E+00
    0.23265E-06        -0.15832E-19         0.00000E+00
    0.23265E-06        -0.22414E-19         0.00000E+00
    0.23265E-06        -0.25208E-19         0.00000E+00
    0.23265E-06        -0.23283E-19         0.00000E+00
    0.23265E-06        -0.18626E-19         0.00000E+00
    0.23265E-06        -0.10245E-19         0.00000E+00
    0.23265E-06        -0.64568E-20         0.00000E+00
    0.23265E-06        -0.12107E-19         0.00000E+00
    0.23265E-06        -0.65193E-20         0.00000E+00
    0.23265E-06        -0.93132E-21         0.00000E+00
    0.23265E-06        -0.62425E-22         0.00000E+00
    0.23265E-06         0.93132E-21         0.00000E+00
    0.23265E-06        -0.27940E-20         0.00000E+00
    0.23265E-06        -0.55879E-20         0.00000E+00
    0.23265E-06        -0.27940E-20         0.00000E+00
    0.23265E-06         0.93132E-21         0.00000E+00
    0.23265E-06        -0.18626E-20         0.00000E+00
    0.23265E-06         0.59912E-20         0.00000E+00
    0.23265E-06         0.17570E-19         0.00000E+00
    0.24164E-06         0.60064E-21         0.00000E+00
    0.24164E-06         0.37253E-20         0.00000E+00
    0.24164E-06        -0.21630E-20         0.00000E+00
    0.24164E-06        -0.16534E-21         0.00000E+00
    0.24164E-06         0.10079E-19         0.00000E+00
    0.24164E-06         0.13670E-19         0.00000E+00
    0.24164E-06         0.12738E-19         0.00000E+00
    0.24164E-06         0.14901E-19         0.00000E+00
    0.24164E-06         0.21120E-19         0.00000E+00
    0.24164E-06         0.83819E-20         0.00000E+00
    0.24164E-06        -0.63100E-21         0.00000E+00
    0.24164E-06         0.55879E-20         0.00000E+00
    0.24164E-06         0.37253E-20         0.00000E+00
    0.24164E-06         0.18626E-20         0.00000E+00
    0.24164E-06        -0.18626E-20         0.00000E+00
    0.24164E-06        -0.74506E-20         0.00000E+00
    0.24164E-06        -0.74506E-20         0.00000E+00
    0.24164E-06        -0.27940E-20         0.00000E+00
    0.24164E-06         0.18626E-20         0.00000E+00
    0.24164E-06        -0.18626E-20         0.00000E+00
    0.24164E-06        -0.18626E-20         0.00000E+00
    0.24164E-06         0.93132E-21         0.00000E+00
    0.24164E-06        -0.18626E-20         0.00000E+00
    0.24164E-06        -0.18626E-20         0.00000E+00
    0.24164E-06         0.93132E-21         0.00000E+00
    0.24164E-06        -0.27940E-20         0.00000E+00
    0.24164E-06        -0.46566E-20         0.00000E+00
    0.24164E-06        -0.55879E-20         0.00000E+00
    0.24164E-06        -0.11176E-19         0.00000E+00
    0.24164E-06        -0.83819E-20         0.00000E+00
    0.24164E-06        -0.55879E-20         0.00000E+00
    0.24164E-06        -0.10410E-19         0.00000E+00
    0.24164E-06        -0.21420E-19         0.00000E+00
    0.24164E-06        -0.22352E-19         0.00000E+00
    0.24164E-06        -0.18626E-19         0.00000E+00
    0.24164E-06        -0.17530E-19         0.00000E+00
    0.24164E-06        -0.10245E-19         0.00000E+00
    0.24164E-06        -0.76159E-20         0.00000E+00
    0.24164E-06        -0.13039E-19         0.00000E+00
    0.24164E-06        -0.14736E-19         0.00000E+00
    0.24164E-06        -0.66846E-20         0.00000E+00
    0.24164E-06        -0.18626E-20         0.00000E+00
    0.24164E-06         0.10967E-20         0.00000E+00
    0.24164E-06         0.37253E-20         0.00000E+00
    0.24164E-06         0.00000E+00         0.00000E+00
    0.24164E-06         0.76598E-21         0.00000E+00
    0.24164E-06         0.37253E-20         0.00000E+00
    0.24164E-06         0.48220E-20         0.00000E+00
    0.24164E-06         0.35600E-20         0.00000E+00
    0.24164E-06         0.71503E-20         0.00000E+00
    0.24164E-06         0.10906E-19         0.00000E+00
    0.24738E-06        -0.18626E-20         0.00000E+00
    0.24738E-06        -0.69685E-20         0.00000E+00
    0.24738E-06        -0.93132E-21         0.00000E+00
    0.24738E-06         0.23119E-20         0.00000E+00
    0.24738E-06        -0.10694E-19         0.00000E+00
    0.24738E-06        -0.44929E-21         0.00000E+00
    0.24738E-06         0.19525E-19         0.00000E+00
    0.24738E-06         0.16282E-19         0.00000E+00
    0.24738E-06         0.51386E-20         0.00000E+00
    0.24738E-06         0.93132E-21         0.00000E+00
    0.24738E-06        -0.93132E-21         0.00000E+00
    0.24738E-06         0.18626E-20         0.00000E+00
    0.24738E-06         0.46566E-20         0.00000E+00
    0.24738E-06        -0.23119E-20         0.00000E+00
    0.24738E-06         0.18626E-20         0.00000E+00
    0.24738E-06         0.69685E-20         0.00000E+00
    0.24738E-06         0.00000E+00         0.00000E+00
    0.24738E-06        -0.46566E-20         0.00000E+00
    0.24738E-06        -0.18626E-20         0.00000E+00
    0.24738E-06         0.18626E-20         0.00000E+00
    0.24738E-06        -0.18626E-20         0.00000E+00
    0.24738E-06        -0.37253E-20         0.00000E+00
    0.24738E-06         0.18626E-20         0.00000E+00
    0.24738E-06         0.74506E-20         0.00000E+00
    0.24738E-06         0.55879E-20         0.00000E+00
    0.24738E-06         0.37253E-20         0.00000E+00
    0.24738E-06         0.93132E-21         0.00000E+00
    0.24738E-06        -0.37253E-20         0.00000E+00
    0.24738E-06        -0.83819E-20         0.00000E+00
    0.24738E-06        -0.74506E-20         0.00000E+00
    0.24738E-06        -0.27940E-20         0.00000E+00
    0.24738E-06        -0.64865E-20         0.00000E+00
    0.24738E-06        -0.55879E-20         0.00000E+00
    0.24738E-06        -0.84146E-20         0.00000E+00
    0.24738E-06        -0.15832E-19         0.00000E+00
    0.24738E-06        -0.15832E-19         0.00000E+00
    0.24738E-06        -0.13039E-19         0.00000E+00
    0.24738E-06        -0.11176E-19         0.00000E+00
    0.24738E-06        -0.10245E-19         0.00000E+00
    0.24738E-06        -0.74506E-20         0.00000E+00
    0.24738E-06        -0.55879E-20         0.00000E+00
    0.24738E-06         0.93132E-21         0.00000E+00
    0.24738E-06         0.83819E-20         0.00000E+00
    0.24738E-06         0.18790E-20         0.00000E+00
    0.24738E-06         0.41910E-20         0.00000E+00
    0.24738E-06         0.69685E-20         0.00000E+00
    0.24738E-06        -0.65029E-20         0.00000E+00
    0.24738E-06        -0.83655E-20         0.00000E+00
    0.24738E-06         0.83655E-20         0.00000E+00
    0.24738E-06         0.92805E-20         0.00000E+00
    0.24738E-06        -0.37580E-20         0.00000E+00
    0.24936E-06         0.00000E+00         0.00000E+00
    0.24936E-06         0.00000E+00         0.00000E+00
    0.24936E-06         0.00000E+00         0.00000E+00
    0.24936E-06         0.00000E+00         0.00000E+00
    0.24936E-06         0.00000E+00         0.00000E+00
    0.24936E-06         0.00000E+00         0.00000E+00
    0.24936E-06         0.00000E+00         0.00000E+00
    0.24936E-06         0.00000E+00         0.00000E+00
    0.24936E-06         0.00000E+00         0.00000E+00
    0.24936E-06        -0.74506E-20         0.00000E+00
    0.24936E-06         0.00000E+00         0.00000E+00
    0.24936E-06         0.74506E-20         0.00000E+00
    0.24936E-06         0.00000E+00         0.00000E+00
    0.24936E-06         0.00000E+00         0.00000E+00
    0.24936E-06         0.00000E+00         0.00000E+00
    0.24936E-06         0.00000E+00         0.00000E+00
    0.24936E-06         0.00000E+00         0.00000E+00
    0.24936E-06         0.74506E-20         0.00000E+00
    0.24936E-06         0.00000E+00         0.00000E+00
    0.24936E-06        -0.74506E-20         0.00000E+00
    0.24936E-06         0.00000E+00         0.00000E+00
    0.24936E-06         0.00000E+00         0.00000E+00
    0.24936E-06         0.00000E+00         0.00000E+00
    0.24936E-06         0.00000E+00         0.00000E+00
    0.24936E-06         0.00000E+00         0.00000E+00
    0.24936E-06         0.00000E+00         0.00000E+00
    0.24936E-06         0.00000E+00         0.00000E+00
    0.24936E-06         0.00000E+00         0.00000E+00
    0.24936E-06         0.00000E+00         0.00000E+00
    0.24936E-06         0.00000E+00         0.00000E+00
    0.24936E-06         0.00000E+00         0.00000E+00
    0.24936E-06         0.00000E+00         0.00000E+00
    0.24936E-06         0.00000E+00         0.00000E+00
    0.24936E-06         0.00000E+00         0.00000E+00
    0.24936E-06         0.00000E+00         0.00000E+00
    0.24936E-06         0.00000E+00         0.00000E+00
    0.24936E-06         0.00000E+00         0.00000E+00
    0.24936E-06         0.00000E+00         0.00000E+00
    0.24936E-06         0.00000E+00         0.00000E+00
    0.24936E-06        -0.83819E-20         0.00000E+00
    0.24936E-06        -0.74506E-20         0.00000E+00
    0.24936E-06         0.74506E-20         0.00000E+00
    0.24936E-06         0.74506E-20         0.00000E+00
    0.24936E-06         0.00000E+00         0.00000E+00
    0.24936E-06         0.00000E+00         0.00000E+00
    0.24936E-06         0.00000E+00         0.00000E+00
    0.24936E-06         0.00000E+00         0.00000E+00
    0.24936E-06         0.74506E-20         0.00000E+00
    0.24936E-06         0.93132E-21         0.00000E+00
    0.24936E-06         0.00000E+00         0.00000E+00
    0.24936E-06         0.14901E-19         0.00000E+00
CELL_DATA       5000
TENSORS stressef double 
    0.17170E+04         0.11700E+01         0.00000E+00
    0.11700E+01         0.13571E+00         0.00000E+00
    0.00000E+00         0.00000E+00         0.00000E+00
 
    0.17255E+04         0.35996E+01         0.00000E+00
    0.35996E+01         0.10953E+01         0.00000E+00
    0.00000E+00         0.00000E+00         0.00000E+00
 
    0.17321E+04         0.60430E+01         0.00000E+00
    0.60430E+01         0.30299E+01         0.00000E+00
    0.00000E+00         0.00000E+00         0.00000E+00
 
    0.17368E+04         0.84960E+01         0.00000E+00
    0.84960E+01         0.59443E+01         0.00000E+00
    0.00000E+00         0.00000E+00         0.00000E+00
 
    0.17394E+04         0.10955E+02         0.00000E+00
    0.10955E+02         0.98416E+01         0.00000E+00
    0.00000E+00         0.00000E+00         0.00000E+00
 
    0.17402E+04         0.13416E+02         0.00000E+00
    0.13416E+02         0.14724E+02         0.00000E+00
    0.00000E+00         0.00000E+00         0.00000E+00
 
    0.17389E+04         0.15878E+02         0.00000E+00
    0.15878E+02         0.20591E+02         0.00000E+00
    0.00000E+00         0.00000E+00         0.00000E+00
 
    0.17357E+04         0.18336E+02         0.00000E+00
    0.18336E+02         0.27443E+02         0.00000E+00
    0.00000E+00         0.00000E+00         0.00000E+00
 
    0.17305E+04         0.20787E+02         0.00000E+00
    0.20787E+02         0.35278E+02         0.00000E+00
    0.00000E+00         0.00000E+00         0.00000E+00
 
    0.17233E+04         0.23230E+02         0.00000E+00
    0.23230E+02         0.44093E+02         0.00000E+00
    0.00000E+00         0.00000E+00         0.00000E+00
 
    0.17142E+04         0.25661E+02         0.00000E+00
    0.25661E+02         0.53884E+02         0.00000E+00
    0.00000E+00         0.00000E+00         0.00000E+00
 
    0.17031E+04         0.28078E+02         0.00000E+00
    0.28078E+02         0.64645E+02         0.00000E+00
    0.00000E+00         0.00000E+00         0.00000E+00
 
    0.16901E+04         0.30477E+02         0.00000E+00
    0.30477E+02         0.76371E+02         0.00000E+00
    0.00000E+00         0.00000E+00         0.00000E+00
 
    0.16750E+04         0.32855E+02         0.00000E+00
    0.32855E+02         0.89053E+02         0.00000E+00
    0.00000E+00         0.00000E+00         0.00000E+00
 
    0.16581E+04         0.35212E+02         0.00000E+00
    0.35212E+02         0.10268E+03         0.00000E+00
    0.00000E+00         0.00000E+00         0.00000E+00
 
    0.16392E+04         0.37542E+02         0.00000E+00
    0.37542E+02         0.11725E+03         0.00000E+00
    0.00000E+00         0.00000E+00         0.00000E+00
 
    0.16184E+04         0.39844E+02         0.00000E+00
    0.39844E+02         0.13275E+03         0.00000E+00
    0.00000E+00         0.00000E+00         0.00000E+00
 
    0.15957E+04         0.42116E+02         0.00000E+00
    0.42116E+02         0.14916E+03         0.00000E+00
    0.00000E+00         0.00000E+00         0.00000E+00
 
    0.15711E+04         0.44353E+02         0.00000E+00
    0.44353E+02         0.16647E+03         0.00000E+00
    0.00000E+00         0.00000E+00         0.00000E+00
 
    0.15447E+04         0.46555E+02         0.00000E+00
    0.46555E+02         0.18468E+03         0.00000E+00
    0.00000E+00         0.00000E+00         0.00000E+00
 
    0.15164E+04         0.48717E+02         0.00000E+00
    0.48717E+02         0.20376E+03         0.00000E+00
    0.00000E+00         0.00000E+00         0.00000E+00
 
    0.14863E+04         0.50839E+02         0.00000E+00
    0.50839E+02         0.22369E+03         0.00000E+00
    0.00000E+00         0.00000E+00         0.00000E+00
 
    0.14544E+04         0.52916E+02         0.00000E+00
    0.52916E+02         0.24447E+03         0.00000E+00
    0.00000E+00         0.00000E+00         0.00000E+00
 
    0.14207E+04         0.54947E+02         0.00000E+00
    0.54947E+02         0.26607E+03         0.00000E+00
    0.00000E+00         0.00000E+00         0.00000E+00
 
    0.13852E+04         0.56929E+02         0.00000E+00
    0.56929E+02         0.28847E+03         0.00000E+00
    0.00000E+00         0.00000E+00         0.00000E+00
 
    0.13480E+04         0.58859E+02         0.00000E+00
    0.58859E+02         0.31165E+03         0.00000E+00
    0.00000E+00         0.00000E+00         0.00000E+00
 
    0.13092E+04         0.60736E+02         0.00000E+00
    0.60736E+02         0.33560E+03         0.00000E+00
    0.00000E+00         0.00000E+00         0.00000E+00
 
    0.12686E+04         0.62557E+02         0.00000E+00
    0.62557E+02         0.36029E+03         0.00000E+00
    0.00000E+00         0.00000E+00         0.00000E+00
 
    0.12264E+04         0.64319E+02         0.00000E+00
    0.64319E+02         0.38569E+03         0.00000E+00
    0.00000E+00         0.00000E+00         0.00000E+00
 
    0.11827E+04         0.66021E+02         0.00000E+00
    0.66021E+02         0.41179E+03         0.00000E+00
    0.00000E+00         0.00000E+00         0.00000E+00
 
    0.11373E+04         0.67660E+02         0.00000E+00
    0.67660E+02         0.43856E+03         0.00000E+00
    0.00000E+00         0.00000E+00         0.00000E+00
 
    0.10904E+04         0.69234E+02         0.00000E+00
    0.69234E+02         0.46597E+03         0.00000E+00
    0.00000E+00         0.00000E+00         0.00000E+00
 
    0.10421E+04         0.70741E+02         0.00000E+00
    0.70741E+02         0.49400E+03         0.00000E+00
    0.00000E+00         0.00000E+00         0.00000E+00
 
    0.99227E+03         0.72178E+02         0.00000E+00
    0.72178E+02         0.52262E+03         0.00000E+00
    0.00000E+00         0.00000E+00         0.00000E+00
 
    0.94103E+03         0.73545E+02         0.00000E+00
    0.73545E+02         0.55180E+03         0.00000E+00
    0.00000E+00         0.00000E+00         0.00000E+00
 
    0.88843E+03         0.74839E+02         0.00000E+00
    0.74839E+02         0.58151E+03         0.00000E+00
    0.00000E+00         0.00000E+00         0.00000E+00
 
    0.83449E+03         0.76057E+02         0.00000E+00
    0.76057E+02         0.61173E+03         0.00000E+00
    0.00000E+00         0.00000E+00         0.00000E+00
 
    0.77927E+03         0.77199E+02         0.00000E+00
    0.77199E+02         0.64242E+03         0.00000E+00
    0.00000E+00         0.00000E+00         0.00000E+00
 
    0.72281E+03         0.78262E+02         0.00000E+00
    0.78262E+02         0.67355E+03         0.00000E+00
    0.00000E+00         0.00000E+00         0.00000E+00
 
    0.66515E+03         0.79245E+02         0.00000E+00
    0.79245E+02         0.70508E+03         0.00000E+00
    0.00000E+00         0.00000E+00         0.00000E+00
 
    0.60634E+03         0.80147E+02         0.00000E+00
    0.80147E+02         0.73700E+03         0.00000E+00
    0.00000E+00         0.00000E+00         0.00000E+00
 
    0.54644E+03         0.80965E+02         0.00000E+00
    0.80965E+02         0.76926E+03         0.00000E+00
    0.00000E+00         0.00000E+00         0.00000E+00
 
    0.48548E+03         0.81699E+02         0.00000E+00
    0.81699E+02         0.80183E+03         0.00000E+00
    0.00000E+00         0.00000E+00         0.00000E+00
 
    0.42352E+03         0.82347E+02         0.00000E+00
    0.82347E+02         0.83468E+03         0.00000E+00
    0.00000E+00         0.00000E+00         0.00000E+00
 
    0.36060E+03         0.82907E+02         0.00000E+00
    0.82907E+02         0.86777E+03         0.00000E+00
    0.00000E+00         0.00000E+00         0.00000E+00
 
    0.29679E+03         0.83380E+02         0.00000E+00
    0.83380E+02         0.90107E+03         0.00000E+00
    0.00000E+00         0.00000E+00         0.00000E+00
 
    0.23213E+03         0.83763E+02         0.00000E+00
    0.83763E+02         0.93454E+03         0.00000E+00
    0.00000E+00         0.00000E+00         0.00000E+00
 
    0.16668E+03         0.84057E+02         0.00000E+00
    0.84057E+02         0.96814E+03         0.00000E+00
    0.00000E+00         0.00000E+00         0.00000E+00
 
    0.10049E+03         0.84261E+02         0.00000E+00
    0.84261E+02         0.10018E+04         0.00000E+00
    0.00000E+00         0.00000E+00         0.00000E+00
 
    0.33606E+02         0.84377E+02         0.00000E+00
    0.84377E+02         0.10356E+04         0.00000E+00
    0.00000E+00         0.00000E+00         0.00000E+00
 
    0.17410E+04         0.35930E+01         0.00000E+00
    0.35930E+01        -0.60526E-01         0.00000E+00
    0.00000E+00         0.00000E+00         0.00000E+00
 
    0.17497E+04         0.10912E+02         0.00000E+00
    0.10912E+02         0.92410E+00         0.00000E+00
    0.00000E+00         0.00000E+00         0.00000E+00
 
    0.17564E+04         0.18269E+02         0.00000E+00
    0.18269E+02         0.28986E+01         0.00000E+00
    0.00000E+00         0.00000E+00         0.00000E+00
 
    0.17612E+04         0.25655E+02         0.00000E+00
    0.25655E+02         0.58664E+01         0.00000E+00
    0.00000E+00         0.00000E+00         0.00000E+00
 
    0.17639E+04         0.33060E+02         0.00000E+00
    0.33060E+02         0.98304E+01         0.00000E+00
    0.00000E+00         0.00000E+00         0.00000E+00
 
    0.17646E+04         0.40474E+02         0.00000E+00
    0.40474E+02         0.14792E+02         0.00000E+00
    0.00000E+00         0.00000E+00         0.00000E+00
 
    0.17634E+04         0.47887E+02         0.00000E+00
    0.47887E+02         0.20752E+02         0.00000E+00
    0.00000E+00         0.00000E+00         0.00000E+00
 
    0.17601E+04         0.55291E+02         0.00000E+00
    0.55291E+02         0.27710E+02         0.00000E+00
    0.00000E+00         0.00000E+00         0.00000E+00
 
    0.17548E+04         0.62678E+02         0.00000E+00
    0.62678E+02         0.35663E+02         0.00000E+00
    0.00000E+00         0.00000E+00         0.00000E+00
 
    0.17476E+04         0.70038E+02         0.00000E+00
    0.70038E+02         0.44609E+02         0.00000E+00
    0.00000E+00         0.00000E+00         0.00000E+00
 
    0.17383E+04         0.77363E+02         0.00000E+00
    0.77363E+02         0.54545E+02         0.00000E+00
    0.00000E+00         0.00000E+00         0.00000E+00
 
    0.17270E+04         0.84644E+02         0.00000E+00
    0.84644E+02         0.65463E+02         0.00000E+00
    0.00000E+00         0.00000E+00         0.00000E+00
 
    0.17138E+04         0.91873E+02         0.00000E+00
    0.91873E+02         0.77359E+02         0.00000E+00
    0.00000E+00         0.00000E+00         0.00000E+00
 
    0.16986E+04         0.99042E+02         0.00000E+00
    0.99042E+02         0.90225E+02         0.00000E+00
    0.00000E+00         0.00000E+00         0.00000E+00
 
    0.16814E+04         0.10614E+03         0.00000E+00
    0.10614E+03         0.10405E+03         0.00000E+00
    0.00000E+00         0.00000E+00         0.00000E+00
 
    0.16622E+04         0.11317E+03         0.00000E+00
    0.11317E+03         0.11883E+03         0.00000E+00
    0.00000E+00         0.00000E+00         0.00000E+00
 
    0.16411E+04         0.12010E+03         0.00000E+00
    0.12010E+03         0.13455E+03         0.00000E+00
    0.00000E+00         0.00000E+00         0.00000E+00
 
    0.16181E+04         0.12695E+03         0.00000E+00
    0.12695E+03         0.15119E+03         0.00000E+00
    0.00000E+00         0.00000E+00         0.00000E+00
 
    0.15932E+04         0.13369E+03         0.00000E+00
    0.13369E+03         0.16876E+03         0.00000E+00
    0.00000E+00         0.00000E+00         0.00000E+00
 
    0.15664E+04         0.14033E+03         0.00000E+00
    0.14033E+03         0.18722E+03         0.00000E+00
    0.00000E+00         0.00000E+00         0.00000E+00
 
    0.15377E+04         0.14685E+03         0.00000E+00
    0.14685E+03         0.20657E+03         0.00000E+00
    0.00000E+00         0.00000E+00         0.00000E+00
 
    0.15071E+04         0.15324E+03         0.00000E+00
    0.15324E+03         0.22679E+03         0.00000E+00
    0.00000E+00         0.00000E+00         0.00000E+00
 
    0.14747E+04         0.15950E+03         0.00000E+00
    0.15950E+03         0.24786E+03         0.00000E+00
    0.00000E+00         0.00000E+00         0.00000E+00
 
    0.14406E+04         0.16562E+03         0.00000E+00
    0.16562E+03         0.26976E+03         0.00000E+00
    0.00000E+00         0.00000E+00         0.00000E+00
 
    0.14046E+04         0.17159E+03         0.00000E+00
    0.17159E+03         0.29248E+03         0.00000E+00
    0.00000E+00         0.00000E+00         0.00000E+00
 
    0.13669E+04         0.17741E+03         0.00000E+00
    0.17741E+03         0.31600E+03         0.00000E+00
    0.00000E+00         0.00000E+00         0.00000E+00
 
    0.13275E+04         0.18307E+03         0.00000E+00
    0.18307E+03         0.34028E+03         0.00000E+00
    0.00000E+00         0.00000E+00         0.00000E+00
 
    0.12864E+04         0.18856E+03         0.00000E+00
    0.18856E+03         0.36532E+03         0.00000E+00
    0.00000E+00         0.00000E+00         0.00000E+00
 
    0.12436E+04         0.19387E+03         0.00000E+00
    0.19387E+03         0.39109E+03         0.00000E+00
    0.00000E+00         0.00000E+00         0.00000E+00
 
    0.11992E+04         0.19900E+03         0.00000E+00
    0.19900E+03         0.41756E+03         0.00000E+00
    0.00000E+00         0.00000E+00         0.00000E+00
 
    0.11532E+04         0.20394E+03         0.00000E+00
    0.20394E+03         0.44470E+03         0.00000E+00
    0.00000E+00         0.00000E+00         0.00000E+00
 
    0.11057E+04         0.20868E+03         0.00000E+00
    0.20868E+03         0.47250E+03         0.00000E+00
    0.00000E+00         0.00000E+00         0.00000E+00
 
    0.10566E+04         0.21322E+03         0.00000E+00
    0.21322E+03         0.50093E+03         0.00000E+00
    0.00000E+00         0.00000E+00         0.00000E+00
 
    0.10061E+04         0.21755E+03         0.00000E+00
    0.21755E+03         0.52995E+03         0.00000E+00
    0.00000E+00         0.00000E+00         0.00000E+00
 
    0.95416E+03         0.22167E+03         0.00000E+00
    0.22167E+03         0.55954E+03         0.00000E+00
    0.00000E+00         0.00000E+00         0.00000E+00
 
    0.90081E+03         0.22557E+03         0.00000E+00
    0.22557E+03         0.58967E+03         0.00000E+00
    0.00000E+00         0.00000E+00         0.00000E+00
 
    0.84612E+03         0.22924E+03         0.00000E+00
    0.22924E+03         0.62031E+03         0.00000E+00
    0.00000E+00         0.00000E+00         0.00000E+00
 
    0.79012E+03         0.23269E+03         0.00000E+00
    0.23269E+03         0.65143E+03         0.00000E+00
    0.00000E+00         0.00000E+00         0.00000E+00
 
    0.73286E+03         0.23589E+03         0.00000E+00
    0.23589E+03         0.68300E+03         0.00000E+00
    0.00000E+00         0.00000E+00         0.00000E+00
 
    0.67439E+03         0.23885E+03         0.00000E+00
    0.23885E+03         0.71499E+03         0.00000E+00
    0.00000E+00         0.00000E+00         0.00000E+00
 
    0.61475E+03         0.24157E+03         0.00000E+00
    0.24157E+03         0.74735E+03         0.00000E+00
    0.00000E+00         0.00000E+00         0.00000E+00
 
    0.55400E+03         0.24404E+03         0.00000E+00
    0.24404E+03         0.78007E+03         0.00000E+00
    0.00000E+00         0.00000E+00         0.00000E+00
 
    0.49219E+03         0.24625E+03         0.00000E+00
    0.24625E+03         0.81310E+03         0.00000E+00
    0.00000E+00         0.00000E+00         0.00000E+00
 
    0.42936E+03         0.24820E+03         0.00000E+00
    0.24820E+03         0.84641E+03         0.00000E+00
    0.00000E+00         0.00000E+00         0.00000E+00
 
    0.36557E+03         0.24989E+03         0.00000E+00
    0.24989E+03         0.87996E+03         0.00000E+00
    0.00000E+00         0.00000E+00         0.00000E+00
 
    0.30087E+03         0.25131E+03         0.00000E+00
    0.25131E+03         0.91373E+03         0.00000E+00
    0.00000E+00         0.00000E+00         0.00000E+00
 
    0.23531E+03         0.25246E+03         0.00000E+00
    0.25246E+03         0.94766E+03         0.00000E+00
    0.00000E+00         0.00000E+00         0.00000E+00
 
    0.16895E+03         0.25334E+03         0.00000E+00
    0.25334E+03         0.98173E+03         0.00000E+00
    0.00000E+00         0.00000E+00         0.00000E+00
 
    0.10185E+03         0.25394E+03         0.00000E+00
    0.25394E+03         0.10159E+04         0.00000E+00
    0.00000E+00         0.00000E+00         0.00000E+00
 
    0.34058E+02         0.25427E+03         0.00000E+00
    0.25427E+03         0.10501E+04         0.00000E+00
    0.00000E+00         0.00000E+00         0.00000E+00
 
    0.17897E+04         0.60655E+01         0.00000E+00
    0.60655E+01        -0.27364E+00         0.00000E+00
    0.00000E+00         0.00000E+00         0.00000E+00
 
    0.17987E+04         0.18399E+02         0.00000E+00
    0.18399E+02         0.73668E+00         0.00000E+00
    0.00000E+00         0.00000E+00         0.00000E+00
 
    0.18056E+04         0.30787E+02         0.00000E+00
    0.30787E+02         0.27674E+01         0.00000E+00
    0.00000E+00         0.00000E+00         0.00000E+00
 
    0.18105E+04         0.43217E+02         0.00000E+00
    0.43217E+02         0.58215E+01         0.00000E+00
    0.00000E+00         0.00000E+00         0.00000E+00
 
    0.18133E+04         0.55675E+02         0.00000E+00
    0.55675E+02         0.99013E+01         0.00000E+00
    0.00000E+00         0.00000E+00         0.00000E+00
 
    0.18141E+04         0.68145E+02         0.00000E+00
    0.68145E+02         0.15008E+02         0.00000E+00
    0.00000E+00         0.00000E+00         0.00000E+00
 
    0.18128E+04         0.80615E+02         0.00000E+00
    0.80615E+02         0.21141E+02         0.00000E+00
    0.00000E+00         0.00000E+00         0.00000E+00
 
    0.18094E+04         0.93068E+02         0.00000E+00
    0.93068E+02         0.28300E+02         0.00000E+00
    0.00000E+00         0.00000E+00         0.00000E+00
 
    0.18040E+04         0.10549E+03         0.00000E+00
    0.10549E+03         0.36484E+02         0.00000E+00
    0.00000E+00         0.00000E+00         0.00000E+00
 
    0.17965E+04         0.11787E+03         0.00000E+00
    0.11787E+03         0.45688E+02         0.00000E+00
    0.00000E+00         0.00000E+00         0.00000E+00
 
    0.17870E+04         0.13019E+03         0.00000E+00
    0.13019E+03         0.55908E+02         0.00000E+00
    0.00000E+00         0.00000E+00         0.00000E+00
 
    0.17754E+04         0.14244E+03         0.00000E+00
    0.14244E+03         0.67139E+02         0.00000E+00
    0.00000E+00         0.00000E+00         0.00000E+00
 
    0.17618E+04         0.15460E+03         0.00000E+00
    0.15460E+03         0.79375E+02         0.00000E+00
    0.00000E+00         0.00000E+00         0.00000E+00
 
    0.17461E+04         0.16665E+03         0.00000E+00
    0.16665E+03         0.92607E+02         0.00000E+00
    0.00000E+00         0.00000E+00         0.00000E+00
 
    0.17285E+04         0.17860E+03         0.00000E+00
    0.17860E+03         0.10683E+03         0.00000E+00
    0.00000E+00         0.00000E+00         0.00000E+00
 
    0.17088E+04         0.19041E+03         0.00000E+00
    0.19041E+03         0.12202E+03         0.00000E+00
    0.00000E+00         0.00000E+00         0.00000E+00
 
    0.16871E+04         0.20208E+03         0.00000E+00
    0.20208E+03         0.13819E+03         0.00000E+00
    0.00000E+00         0.00000E+00         0.00000E+00
 
    0.16634E+04         0.21359E+03         0.00000E+00
    0.21359E+03         0.15530E+03         0.00000E+00
    0.00000E+00         0.00000E+00         0.00000E+00
 
    0.16378E+04         0.22494E+03         0.00000E+00
    0.22494E+03         0.17336E+03         0.00000E+00
    0.00000E+00         0.00000E+00         0.00000E+00
 
    0.16102E+04         0.23610E+03         0.00000E+00
    0.23610E+03         0.19235E+03         0.00000E+00
    0.00000E+00         0.00000E+00         0.00000E+00
 
    0.15807E+04         0.24706E+03         0.00000E+00
    0.24706E+03         0.21224E+03         0.00000E+00
    0.00000E+00         0.00000E+00         0.00000E+00
 
    0.15493E+04         0.25781E+03         0.00000E+00
    0.25781E+03         0.23303E+03         0.00000E+00
    0.00000E+00         0.00000E+00         0.00000E+00
 
    0.15160E+04         0.26835E+03         0.00000E+00
    0.26835E+03         0.25470E+03         0.00000E+00
    0.00000E+00         0.00000E+00         0.00000E+00
 
    0.14809E+04         0.27864E+03         0.00000E+00
    0.27864E+03         0.27722E+03         0.00000E+00
    0.00000E+00         0.00000E+00         0.00000E+00
 
    0.14439E+04         0.28869E+03         0.00000E+00
    0.28869E+03         0.30058E+03         0.00000E+00
    0.00000E+00         0.00000E+00         0.00000E+00
 
    0.14051E+04         0.29848E+03         0.00000E+00
    0.29848E+03         0.32475E+03         0.00000E+00
    0.00000E+00         0.00000E+00         0.00000E+00
 
    0.13646E+04         0.30799E+03         0.00000E+00
    0.30799E+03         0.34972E+03         0.00000E+00
    0.00000E+00         0.00000E+00         0.00000E+00
 
    0.13223E+04         0.31722E+03         0.00000E+00
    0.31722E+03         0.37546E+03         0.00000E+00
    0.00000E+00         0.00000E+00         0.00000E+00
 
    0.12783E+04         0.32616E+03         0.00000E+00
    0.32616E+03         0.40195E+03         0.00000E+00
    0.00000E+00         0.00000E+00         0.00000E+00
 
    0.12327E+04         0.33479E+03         0.00000E+00
    0.33479E+03         0.42916E+03         0.00000E+00
    0.00000E+00         0.00000E+00         0.00000E+00
 
    0.11854E+04         0.34310E+03         0.00000E+00
    0.34310E+03         0.45707E+03         0.00000E+00
    0.00000E+00         0.00000E+00         0.00000E+00
 
    0.11366E+04         0.35107E+03         0.00000E+00
    0.35107E+03         0.48565E+03         0.00000E+00
    0.00000E+00         0.00000E+00         0.00000E+00
 
    0.10861E+04         0.35871E+03         0.00000E+00
    0.35871E+03         0.51487E+03         0.00000E+00
    0.00000E+00         0.00000E+00         0.00000E+00
 
    0.10342E+04         0.36600E+03         0.00000E+00
    0.36600E+03         0.54471E+03         0.00000E+00
    0.00000E+00         0.00000E+00         0.00000E+00
 
    0.98078E+03         0.37293E+03         0.00000E+00
    0.37293E+03         0.57513E+03         0.00000E+00
    0.00000E+00         0.00000E+00         0.00000E+00
 
    0.92594E+03         0.37949E+03         0.00000E+00
    0.37949E+03         0.60610E+03         0.00000E+00
    0.00000E+00         0.00000E+00         0.00000E+00
 
    0.86972E+03         0.38567E+03         0.00000E+00
    0.38567E+03         0.63760E+03         0.00000E+00
    0.00000E+00         0.00000E+00         0.00000E+00
 
    0.81215E+03         0.39145E+03         0.00000E+00
    0.39145E+03         0.66960E+03         0.00000E+00
    0.00000E+00         0.00000E+00         0.00000E+00
 
    0.75329E+03         0.39684E+03         0.00000E+00
    0.39684E+03         0.70205E+03         0.00000E+00
    0.00000E+00         0.00000E+00         0.00000E+00
 
    0.69318E+03         0.40183E+03         0.00000E+00
    0.40183E+03         0.73493E+03         0.00000E+00
    0.00000E+00         0.00000E+00         0.00000E+00
 
    0.63188E+03         0.40640E+03         0.00000E+00
    0.40640E+03         0.76820E+03         0.00000E+00
    0.00000E+00         0.00000E+00         0.00000E+00
 
    0.56943E+03         0.41054E+03         0.00000E+00
    0.41054E+03         0.80183E+03         0.00000E+00
    0.00000E+00         0.00000E+00         0.00000E+00
 
    0.50589E+03         0.41426E+03         0.00000E+00
    0.41426E+03         0.83578E+03         0.00000E+00
    0.00000E+00         0.00000E+00         0.00000E+00
 
    0.44131E+03         0.41754E+03         0.00000E+00
    0.41754E+03         0.87002E+03         0.00000E+00
    0.00000E+00         0.00000E+00         0.00000E+00
 
    0.37574E+03         0.42037E+03         0.00000E+00
    0.42037E+03         0.90451E+03         0.00000E+00
    0.00000E+00         0.00000E+00         0.00000E+00
 
    0.30923E+03         0.42276E+03         0.00000E+00
    0.42276E+03         0.93922E+03         0.00000E+00
    0.00000E+00         0.00000E+00         0.00000E+00
 
    0.24185E+03         0.42468E+03         0.00000E+00
    0.42468E+03         0.97410E+03         0.00000E+00
    0.00000E+00         0.00000E+00         0.00000E+00
 
    0.17365E+03         0.42615E+03         0.00000E+00
    0.42615E+03         0.10091E+04         0.00000E+00
    0.00000E+00         0.00000E+00         0.00000E+00
 
    0.10468E+03         0.42715E+03         0.00000E+00
    0.42715E+03         0.10442E+04         0.00000E+00
    0.00000E+00         0.00000E+00         0.00000E+00
 
    0.35006E+02         0.42768E+03         0.00000E+00
    0.42768E+03         0.10794E+04         0.00000E+00
    0.00000E+00         0.00000E+00         0.00000E+00
 
    0.18638E+04         0.86209E+01         0.00000E+00
    0.86209E+01        -0.50295E+00         0.00000E+00
    0.00000E+00         0.00000E+00         0.00000E+00
 
    0.18732E+04         0.26144E+02         0.00000E+00
    0.26144E+02         0.54925E+00         0.00000E+00
    0.00000E+00         0.00000E+00         0.00000E+00
 
    0.18804E+04         0.43743E+02         0.00000E+00
    0.43743E+02         0.26638E+01         0.00000E+00
    0.00000E+00         0.00000E+00         0.00000E+00
 
    0.18855E+04         0.61398E+02         0.00000E+00
    0.61398E+02         0.58445E+01         0.00000E+00
    0.00000E+00         0.00000E+00         0.00000E+00
 
    0.18884E+04         0.79090E+02         0.00000E+00
    0.79090E+02         0.10094E+02         0.00000E+00
    0.00000E+00         0.00000E+00         0.00000E+00
 
    0.18892E+04         0.96798E+02         0.00000E+00
    0.96798E+02         0.15413E+02         0.00000E+00
    0.00000E+00         0.00000E+00         0.00000E+00
 
    0.18878E+04         0.11450E+03         0.00000E+00
    0.11450E+03         0.21802E+02         0.00000E+00
    0.00000E+00         0.00000E+00         0.00000E+00
 
    0.18843E+04         0.13218E+03         0.00000E+00
    0.13218E+03         0.29261E+02         0.00000E+00
    0.00000E+00         0.00000E+00         0.00000E+00
 
    0.18787E+04         0.14982E+03         0.00000E+00
    0.14982E+03         0.37786E+02         0.00000E+00
    0.00000E+00         0.00000E+00         0.00000E+00
 
    0.18709E+04         0.16739E+03         0.00000E+00
    0.16739E+03         0.47375E+02         0.00000E+00
    0.00000E+00         0.00000E+00         0.00000E+00
 
    0.18610E+04         0.18488E+03         0.00000E+00
    0.18488E+03         0.58022E+02         0.00000E+00
    0.00000E+00         0.00000E+00         0.00000E+00
 
    0.18489E+04         0.20227E+03         0.00000E+00
    0.20227E+03         0.69722E+02         0.00000E+00
    0.00000E+00         0.00000E+00         0.00000E+00
 
    0.18347E+04         0.21953E+03         0.00000E+00
    0.21953E+03         0.82468E+02         0.00000E+00
    0.00000E+00         0.00000E+00         0.00000E+00
 
    0.18184E+04         0.23664E+03         0.00000E+00
    0.23664E+03         0.96252E+02         0.00000E+00
    0.00000E+00         0.00000E+00         0.00000E+00
 
    0.18000E+04         0.25359E+03         0.00000E+00
    0.25359E+03         0.11106E+03         0.00000E+00
    0.00000E+00         0.00000E+00         0.00000E+00
 
    0.17795E+04         0.27036E+03         0.00000E+00
    0.27036E+03         0.12689E+03         0.00000E+00
    0.00000E+00         0.00000E+00         0.00000E+00
 
    0.17569E+04         0.28693E+03         0.00000E+00
    0.28693E+03         0.14373E+03         0.00000E+00
    0.00000E+00         0.00000E+00         0.00000E+00
 
    0.17322E+04         0.30327E+03         0.00000E+00
    0.30327E+03         0.16156E+03         0.00000E+00
    0.00000E+00         0.00000E+00         0.00000E+00
 
    0.17055E+04         0.31938E+03         0.00000E+00
    0.31938E+03         0.18037E+03         0.00000E+00
    0.00000E+00         0.00000E+00         0.00000E+00
 
    0.16768E+04         0.33522E+03         0.00000E+00
    0.33522E+03         0.20014E+03         0.00000E+00
    0.00000E+00         0.00000E+00         0.00000E+00
 
    0.16461E+04         0.35078E+03         0.00000E+00
    0.35078E+03         0.22086E+03         0.00000E+00
    0.00000E+00         0.00000E+00         0.00000E+00
 
    0.16133E+04         0.36604E+03         0.00000E+00
    0.36604E+03         0.24252E+03         0.00000E+00
    0.00000E+00         0.00000E+00         0.00000E+00
 
    0.15787E+04         0.38099E+03         0.00000E+00
    0.38099E+03         0.26508E+03         0.00000E+00
    0.00000E+00         0.00000E+00         0.00000E+00
 
    0.15421E+04         0.39561E+03         0.00000E+00
    0.39561E+03         0.28854E+03         0.00000E+00
    0.00000E+00         0.00000E+00         0.00000E+00
 
    0.15036E+04         0.40987E+03         0.00000E+00
    0.40987E+03         0.31286E+03         0.00000E+00
    0.00000E+00         0.00000E+00         0.00000E+00
 
    0.14632E+04         0.42376E+03         0.00000E+00
    0.42376E+03         0.33804E+03         0.00000E+00
    0.00000E+00         0.00000E+00         0.00000E+00
 
    0.14210E+04         0.43727E+03         0.00000E+00
    0.43727E+03         0.36404E+03         0.00000E+00
    0.00000E+00         0.00000E+00         0.00000E+00
 
    0.13770E+04         0.45037E+03         0.00000E+00
    0.45037E+03         0.39085E+03         0.00000E+00
    0.00000E+00         0.00000E+00         0.00000E+00
 
    0.13312E+04         0.46306E+03         0.00000E+00
    0.46306E+03         0.41844E+03         0.00000E+00
    0.00000E+00         0.00000E+00         0.00000E+00
 
    0.12836E+04         0.47530E+03         0.00000E+00
    0.47530E+03         0.44678E+03         0.00000E+00
    0.00000E+00         0.00000E+00         0.00000E+00
 
    0.12344E+04         0.48710E+03         0.00000E+00
    0.48710E+03         0.47584E+03         0.00000E+00
    0.00000E+00         0.00000E+00         0.00000E+00
 
    0.11835E+04         0.49842E+03         0.00000E+00
    0.49842E+03         0.50560E+03         0.00000E+00
    0.00000E+00         0.00000E+00         0.00000E+00
 
    0.11310E+04         0.50927E+03         0.00000E+00
    0.50927E+03         0.53603E+03         0.00000E+00
    0.00000E+00         0.00000E+00         0.00000E+00
 
    0.10769E+04         0.51961E+03         0.00000E+00
    0.51961E+03         0.56710E+03         0.00000E+00
    0.00000E+00         0.00000E+00         0.00000E+00
 
    0.10213E+04         0.52945E+03         0.00000E+00
    0.52945E+03         0.59878E+03         0.00000E+00
    0.00000E+00         0.00000E+00         0.00000E+00
 
    0.96417E+03         0.53876E+03         0.00000E+00
    0.53876E+03         0.63104E+03         0.00000E+00
    0.00000E+00         0.00000E+00         0.00000E+00
 
    0.90561E+03         0.54752E+03         0.00000E+00
    0.54752E+03         0.66384E+03         0.00000E+00
    0.00000E+00         0.00000E+00         0.00000E+00
 
    0.84567E+03         0.55574E+03         0.00000E+00
    0.55574E+03         0.69715E+03         0.00000E+00
    0.00000E+00         0.00000E+00         0.00000E+00
 
    0.78437E+03         0.56339E+03         0.00000E+00
    0.56339E+03         0.73095E+03         0.00000E+00
    0.00000E+00         0.00000E+00         0.00000E+00
 
    0.72178E+03         0.57046E+03         0.00000E+00
    0.57046E+03         0.76518E+03         0.00000E+00
    0.00000E+00         0.00000E+00         0.00000E+00
 
    0.65795E+03         0.57694E+03         0.00000E+00
    0.57694E+03         0.79983E+03         0.00000E+00
    0.00000E+00         0.00000E+00         0.00000E+00
 
    0.59293E+03         0.58283E+03         0.00000E+00
    0.58283E+03         0.83485E+03         0.00000E+00
    0.00000E+00         0.00000E+00         0.00000E+00
 
    0.52676E+03         0.58810E+03         0.00000E+00
    0.58810E+03         0.87020E+03         0.00000E+00
    0.00000E+00         0.00000E+00         0.00000E+00
 
    0.45951E+03         0.59275E+03         0.00000E+00
    0.59275E+03         0.90585E+03         0.00000E+00
    0.00000E+00         0.00000E+00         0.00000E+00
 
    0.39124E+03         0.59677E+03         0.00000E+00
    0.59677E+03         0.94177E+03         0.00000E+00
    0.00000E+00         0.00000E+00         0.00000E+00
 
    0.32199E+03         0.60014E+03         0.00000E+00
    0.60014E+03         0.97790E+03         0.00000E+00
    0.00000E+00         0.00000E+00         0.00000E+00
 
    0.25183E+03         0.60287E+03         0.00000E+00
    0.60287E+03         0.10142E+04         0.00000E+00
    0.00000E+00         0.00000E+00         0.00000E+00
 
    0.18081E+03         0.60495E+03         0.00000E+00
    0.60495E+03         0.10507E+04         0.00000E+00
    0.00000E+00         0.00000E+00         0.00000E+00
 
    0.10900E+03         0.60635E+03         0.00000E+00
    0.60635E+03         0.10873E+04         0.00000E+00
    0.00000E+00         0.00000E+00         0.00000E+00
 
    0.36450E+02         0.60709E+03         0.00000E+00
    0.60709E+03         0.11239E+04         0.00000E+00
    0.00000E+00         0.00000E+00         0.00000E+00
 
    0.19644E+04         0.11298E+02         0.00000E+00
    0.11298E+02        -0.76065E+00         0.00000E+00
    0.00000E+00         0.00000E+00         0.00000E+00
 
    0.19742E+04         0.34259E+02         0.00000E+00
    0.34259E+02         0.34824E+00         0.00000E+00
    0.00000E+00         0.00000E+00         0.00000E+00
 
    0.19818E+04         0.57318E+02         0.00000E+00
    0.57318E+02         0.25769E+01         0.00000E+00
    0.00000E+00         0.00000E+00         0.00000E+00
 
    0.19872E+04         0.80449E+02         0.00000E+00
    0.80449E+02         0.59292E+01         0.00000E+00
    0.00000E+00         0.00000E+00         0.00000E+00
 
    0.19902E+04         0.10363E+03         0.00000E+00
    0.10363E+03         0.10408E+02         0.00000E+00
    0.00000E+00         0.00000E+00         0.00000E+00
 
    0.19911E+04         0.12682E+03         0.00000E+00
    0.12682E+03         0.16015E+02         0.00000E+00
    0.00000E+00         0.00000E+00         0.00000E+00
 
    0.19896E+04         0.15002E+03         0.00000E+00
    0.15002E+03         0.22749E+02         0.00000E+00
    0.00000E+00         0.00000E+00         0.00000E+00
 
    0.19859E+04         0.17318E+03         0.00000E+00
    0.17318E+03         0.30610E+02         0.00000E+00
    0.00000E+00         0.00000E+00         0.00000E+00
 
    0.19800E+04         0.19628E+03         0.00000E+00
    0.19628E+03         0.39596E+02         0.00000E+00
    0.00000E+00         0.00000E+00         0.00000E+00
 
    0.19718E+04         0.21929E+03         0.00000E+00
    0.21929E+03         0.49703E+02         0.00000E+00
    0.00000E+00         0.00000E+00         0.00000E+00
 
    0.19613E+04         0.24220E+03         0.00000E+00
    0.24220E+03         0.60926E+02         0.00000E+00
    0.00000E+00         0.00000E+00         0.00000E+00
 
    0.19486E+04         0.26497E+03         0.00000E+00
    0.26497E+03         0.73259E+02         0.00000E+00
    0.00000E+00         0.00000E+00         0.00000E+00
 
    0.19336E+04         0.28757E+03         0.00000E+00
    0.28757E+03         0.86694E+02         0.00000E+00
    0.00000E+00         0.00000E+00         0.00000E+00
 
    0.19164E+04         0.30999E+03         0.00000E+00
    0.30999E+03         0.10122E+03         0.00000E+00
    0.00000E+00         0.00000E+00         0.00000E+00
 
    0.18970E+04         0.33219E+03         0.00000E+00
    0.33219E+03         0.11684E+03         0.00000E+00
    0.00000E+00         0.00000E+00         0.00000E+00
 
    0.18753E+04         0.35415E+03         0.00000E+00
    0.35415E+03         0.13352E+03         0.00000E+00
    0.00000E+00         0.00000E+00         0.00000E+00
 
    0.18515E+04         0.37585E+03         0.00000E+00
    0.37585E+03         0.15127E+03         0.00000E+00
    0.00000E+00         0.00000E+00         0.00000E+00
 
    0.18255E+04         0.39725E+03         0.00000E+00
    0.39725E+03         0.17006E+03         0.00000E+00
    0.00000E+00         0.00000E+00         0.00000E+00
 
    0.17974E+04         0.41834E+03         0.00000E+00
    0.41834E+03         0.18988E+03         0.00000E+00
    0.00000E+00         0.00000E+00         0.00000E+00
 
    0.17671E+04         0.43908E+03         0.00000E+00
    0.43908E+03         0.21072E+03         0.00000E+00
    0.00000E+00         0.00000E+00         0.00000E+00
 
    0.17347E+04         0.45946E+03         0.00000E+00
    0.45946E+03         0.23256E+03         0.00000E+00
    0.00000E+00         0.00000E+00         0.00000E+00
 
    0.17002E+04         0.47945E+03         0.00000E+00
    0.47945E+03         0.25538E+03         0.00000E+00
    0.00000E+00         0.00000E+00         0.00000E+00
 
    0.16637E+04         0.49903E+03         0.00000E+00
    0.49903E+03         0.27916E+03         0.00000E+00
    0.00000E+00         0.00000E+00         0.00000E+00
 
    0.16251E+04         0.51817E+03         0.00000E+00
    0.51817E+03         0.30388E+03         0.00000E+00
    0.00000E+00         0.00000E+00         0.00000E+00
 
    0.15845E+04         0.53684E+03         0.00000E+00
    0.53684E+03         0.32952E+03         0.00000E+00
    0.00000E+00         0.00000E+00         0.00000E+00
 
    0.15419E+04         0.55504E+03         0.00000E+00
    0.55504E+03         0.35606E+03         0.00000E+00
    0.00000E+00         0.00000E+00         0.00000E+00
 
    0.14974E+04         0.57273E+03         0.00000E+00
    0.57273E+03         0.38346E+03         0.00000E+00
    0.00000E+00         0.00000E+00         0.00000E+00
 
    0.14510E+04         0.58988E+03         0.00000E+00
    0.58988E+03         0.41171E+03         0.00000E+00
    0.00000E+00         0.00000E+00         0.00000E+00
 
    0.14028E+04         0.60649E+03         0.00000E+00
    0.60649E+03         0.44078E+03         0.00000E+00
    0.00000E+00         0.00000E+00         0.00000E+00
 
    0.13527E+04         0.62253E+03         0.00000E+00
    0.62253E+03         0.47065E+03         0.00000E+00
    0.00000E+00         0.00000E+00         0.00000E+00
 
    0.13008E+04         0.63797E+03         0.00000E+00
    0.63797E+03         0.50128E+03         0.00000E+00
    0.00000E+00         0.00000E+00         0.00000E+00
 
    0.12472E+04         0.65281E+03         0.00000E+00
    0.65281E+03         0.53264E+03         0.00000E+00
    0.00000E+00         0.00000E+00         0.00000E+00
 
    0.11918E+04         0.66701E+03         0.00000E+00
    0.66701E+03         0.56471E+03         0.00000E+00
    0.00000E+00         0.00000E+00         0.00000E+00
 
    0.11348E+04         0.68055E+03         0.00000E+00
    0.68055E+03         0.59745E+03         0.00000E+00
    0.00000E+00         0.00000E+00         0.00000E+00
 
    0.10762E+04         0.69343E+03         0.00000E+00
    0.69343E+03         0.63083E+03         0.00000E+00
    0.00000E+00         0.00000E+00         0.00000E+00
 
    0.10160E+04         0.70562E+03         0.00000E+00
    0.70562E+03         0.66482E+03         0.00000E+00
    0.00000E+00         0.00000E+00         0.00000E+00
 
    0.95430E+03         0.71710E+03         0.00000E+00
    0.71710E+03         0.69939E+03         0.00000E+00
    0.00000E+00         0.00000E+00         0.00000E+00
 
    0.89113E+03         0.72785E+03         0.00000E+00
    0.72785E+03         0.73449E+03         0.00000E+00
    0.00000E+00         0.00000E+00         0.00000E+00
 
    0.82654E+03         0.73787E+03         0.00000E+00
    0.73787E+03         0.77010E+03         0.00000E+00
    0.00000E+00         0.00000E+00         0.00000E+00
 
    0.76058E+03         0.74713E+03         0.00000E+00
    0.74713E+03         0.80618E+03         0.00000E+00
    0.00000E+00         0.00000E+00         0.00000E+00
 
    0.69332E+03         0.75562E+03         0.00000E+00
    0.75562E+03         0.84268E+03         0.00000E+00
    0.00000E+00         0.00000E+00         0.00000E+00
 
    0.62479E+03         0.76332E+03         0.00000E+00
    0.76332E+03         0.87958E+03         0.00000E+00
    0.00000E+00         0.00000E+00         0.00000E+00
 
    0.55507E+03         0.77022E+03         0.00000E+00
    0.77022E+03         0.91684E+03         0.00000E+00
    0.00000E+00         0.00000E+00         0.00000E+00
 
    0.48421E+03         0.77630E+03         0.00000E+00
    0.77630E+03         0.95441E+03         0.00000E+00
    0.00000E+00         0.00000E+00         0.00000E+00
 
    0.41226E+03         0.78156E+03         0.00000E+00
    0.78156E+03         0.99225E+03         0.00000E+00
    0.00000E+00         0.00000E+00         0.00000E+00
 
    0.33929E+03         0.78598E+03         0.00000E+00
    0.78598E+03         0.10303E+04         0.00000E+00
    0.00000E+00         0.00000E+00         0.00000E+00
 
    0.26536E+03         0.78955E+03         0.00000E+00
    0.78955E+03         0.10686E+04         0.00000E+00
    0.00000E+00         0.00000E+00         0.00000E+00
 
    0.19053E+03         0.79225E+03         0.00000E+00
    0.79225E+03         0.11070E+04         0.00000E+00
    0.00000E+00         0.00000E+00         0.00000E+00
 
    0.11486E+03         0.79409E+03         0.00000E+00
    0.79409E+03         0.11456E+04         0.00000E+00
    0.00000E+00         0.00000E+00         0.00000E+00
 
    0.38409E+02         0.79504E+03         0.00000E+00
    0.79504E+03         0.11841E+04         0.00000E+00
    0.00000E+00         0.00000E+00         0.00000E+00
 
    0.20928E+04         0.14135E+02         0.00000E+00
    0.14135E+02        -0.10574E+01         0.00000E+00
    0.00000E+00         0.00000E+00         0.00000E+00
 
    0.21033E+04         0.42859E+02         0.00000E+00
    0.42859E+02         0.12395E+00         0.00000E+00
    0.00000E+00         0.00000E+00         0.00000E+00
 
    0.21113E+04         0.71704E+02         0.00000E+00
    0.71704E+02         0.24982E+01         0.00000E+00
    0.00000E+00         0.00000E+00         0.00000E+00
 
    0.21170E+04         0.10064E+03         0.00000E+00
    0.10064E+03         0.60696E+01         0.00000E+00
    0.00000E+00         0.00000E+00         0.00000E+00
 
    0.21203E+04         0.12963E+03         0.00000E+00
    0.12963E+03         0.10841E+02         0.00000E+00
    0.00000E+00         0.00000E+00         0.00000E+00
 
    0.21211E+04         0.15865E+03         0.00000E+00
    0.15865E+03         0.16814E+02         0.00000E+00
    0.00000E+00         0.00000E+00         0.00000E+00
 
    0.21196E+04         0.18766E+03         0.00000E+00
    0.18766E+03         0.23988E+02         0.00000E+00
    0.00000E+00         0.00000E+00         0.00000E+00
 
    0.21156E+04         0.21662E+03         0.00000E+00
    0.21662E+03         0.32364E+02         0.00000E+00
    0.00000E+00         0.00000E+00         0.00000E+00
 
    0.21093E+04         0.24552E+03         0.00000E+00
    0.24552E+03         0.41937E+02         0.00000E+00
    0.00000E+00         0.00000E+00         0.00000E+00
 
    0.21005E+04         0.27430E+03         0.00000E+00
    0.27430E+03         0.52704E+02         0.00000E+00
    0.00000E+00         0.00000E+00         0.00000E+00
 
    0.20893E+04         0.30295E+03         0.00000E+00
    0.30295E+03         0.64660E+02         0.00000E+00
    0.00000E+00         0.00000E+00         0.00000E+00
 
    0.20758E+04         0.33142E+03         0.00000E+00
    0.33142E+03         0.77798E+02         0.00000E+00
    0.00000E+00         0.00000E+00         0.00000E+00
 
    0.20598E+04         0.35969E+03         0.00000E+00
    0.35969E+03         0.92111E+02         0.00000E+00
    0.00000E+00         0.00000E+00         0.00000E+00
 
    0.20415E+04         0.38773E+03         0.00000E+00
    0.38773E+03         0.10759E+03         0.00000E+00
    0.00000E+00         0.00000E+00         0.00000E+00
 
    0.20208E+04         0.41549E+03         0.00000E+00
    0.41549E+03         0.12422E+03         0.00000E+00
    0.00000E+00         0.00000E+00         0.00000E+00
 
    0.19977E+04         0.44295E+03         0.00000E+00
    0.44295E+03         0.14200E+03         0.00000E+00
    0.00000E+00         0.00000E+00         0.00000E+00
 
    0.19723E+04         0.47008E+03         0.00000E+00
    0.47008E+03         0.16090E+03         0.00000E+00
    0.00000E+00         0.00000E+00         0.00000E+00
 
    0.19446E+04         0.49684E+03         0.00000E+00
    0.49684E+03         0.18092E+03         0.00000E+00
    0.00000E+00         0.00000E+00         0.00000E+00
 
    0.19146E+04         0.52321E+03         0.00000E+00
    0.52321E+03         0.20204E+03         0.00000E+00
    0.00000E+00         0.00000E+00         0.00000E+00
 
    0.18823E+04         0.54916E+03         0.00000E+00
    0.54916E+03         0.22424E+03         0.00000E+00
    0.00000E+00         0.00000E+00         0.00000E+00
 
    0.18478E+04         0.57464E+03         0.00000E+00
    0.57464E+03         0.24750E+03         0.00000E+00
    0.00000E+00         0.00000E+00         0.00000E+00
 
    0.18111E+04         0.59964E+03         0.00000E+00
    0.59964E+03         0.27181E+03         0.00000E+00
    0.00000E+00         0.00000E+00         0.00000E+00
 
    0.17721E+04         0.62411E+03         0.00000E+00
    0.62411E+03         0.29714E+03         0.00000E+00
    0.00000E+00         0.00000E+00         0.00000E+00
 
    0.17310E+04         0.64804E+03         0.00000E+00
    0.64804E+03         0.32348E+03         0.00000E+00
    0.00000E+00         0.00000E+00         0.00000E+00
 
    0.16878E+04         0.67140E+03         0.00000E+00
    0.67140E+03         0.35079E+03         0.00000E+00
    0.00000E+00         0.00000E+00         0.00000E+00
 
    0.16424E+04         0.69415E+03         0.00000E+00
    0.69415E+03         0.37905E+03         0.00000E+00
    0.00000E+00         0.00000E+00         0.00000E+00
 
    0.15950E+04         0.71626E+03         0.00000E+00
    0.71626E+03         0.40824E+03         0.00000E+00
    0.00000E+00         0.00000E+00         0.00000E+00
 
    0.15456E+04         0.73772E+03         0.00000E+00
    0.73772E+03         0.43833E+03         0.00000E+00
    0.00000E+00         0.00000E+00         0.00000E+00
 
    0.14942E+04         0.75848E+03         0.00000E+00
    0.75848E+03         0.46930E+03         0.00000E+00
    0.00000E+00         0.00000E+00         0.00000E+00
 
    0.14408E+04         0.77854E+03         0.00000E+00
    0.77854E+03         0.50111E+03         0.00000E+00
    0.00000E+00         0.00000E+00         0.00000E+00
 
    0.13855E+04         0.79785E+03         0.00000E+00
    0.79785E+03         0.53373E+03         0.00000E+00
    0.00000E+00         0.00000E+00         0.00000E+00
 
    0.13284E+04         0.81639E+03         0.00000E+00
    0.81639E+03         0.56714E+03         0.00000E+00
    0.00000E+00         0.00000E+00         0.00000E+00
 
    0.12694E+04         0.83414E+03         0.00000E+00
    0.83414E+03         0.60129E+03         0.00000E+00
    0.00000E+00         0.00000E+00         0.00000E+00
 
    0.12087E+04         0.85108E+03         0.00000E+00
    0.85108E+03         0.63617E+03         0.00000E+00
    0.00000E+00         0.00000E+00         0.00000E+00
 
    0.11463E+04         0.86718E+03         0.00000E+00
    0.86718E+03         0.67172E+03         0.00000E+00
    0.00000E+00         0.00000E+00         0.00000E+00
 
    0.10822E+04         0.88242E+03         0.00000E+00
    0.88242E+03         0.70793E+03         0.00000E+00
    0.00000E+00         0.00000E+00         0.00000E+00
 
    0.10165E+04         0.89677E+03         0.00000E+00
    0.89677E+03         0.74474E+03         0.00000E+00
    0.00000E+00         0.00000E+00         0.00000E+00
 
    0.94916E+03         0.91022E+03         0.00000E+00
    0.91022E+03         0.78213E+03         0.00000E+00
    0.00000E+00         0.00000E+00         0.00000E+00
 
    0.88036E+03         0.92274E+03         0.00000E+00
    0.92274E+03         0.82006E+03         0.00000E+00
    0.00000E+00         0.00000E+00         0.00000E+00
 
    0.81011E+03         0.93432E+03         0.00000E+00
    0.93432E+03         0.85848E+03         0.00000E+00
    0.00000E+00         0.00000E+00         0.00000E+00
 
    0.73846E+03         0.94493E+03         0.00000E+00
    0.94493E+03         0.89737E+03         0.00000E+00
    0.00000E+00         0.00000E+00         0.00000E+00
 
    0.66547E+03         0.95455E+03         0.00000E+00
    0.95455E+03         0.93667E+03         0.00000E+00
    0.00000E+00         0.00000E+00         0.00000E+00
 
    0.59121E+03         0.96318E+03         0.00000E+00
    0.96318E+03         0.97635E+03         0.00000E+00
    0.00000E+00         0.00000E+00         0.00000E+00
 
    0.51573E+03         0.97078E+03         0.00000E+00
    0.97078E+03         0.10164E+04         0.00000E+00
    0.00000E+00         0.00000E+00         0.00000E+00
 
    0.43910E+03         0.97735E+03         0.00000E+00
    0.97735E+03         0.10567E+04         0.00000E+00
    0.00000E+00         0.00000E+00         0.00000E+00
 
    0.36138E+03         0.98288E+03         0.00000E+00
    0.98288E+03         0.10972E+04         0.00000E+00
    0.00000E+00         0.00000E+00         0.00000E+00
 
    0.28264E+03         0.98733E+03         0.00000E+00
    0.98733E+03         0.11380E+04         0.00000E+00
    0.00000E+00         0.00000E+00         0.00000E+00
 
    0.20293E+03         0.99071E+03         0.00000E+00
    0.99071E+03         0.11789E+04         0.00000E+00
    0.00000E+00         0.00000E+00         0.00000E+00
 
    0.12233E+03         0.99301E+03         0.00000E+00
    0.99301E+03         0.12199E+04         0.00000E+00
    0.00000E+00         0.00000E+00         0.00000E+00
 
    0.40909E+02         0.99419E+03         0.00000E+00
    0.99419E+03         0.12611E+04         0.00000E+00
    0.00000E+00         0.00000E+00         0.00000E+00
 
    0.22509E+04         0.17173E+02         0.00000E+00
    0.17173E+02        -0.14060E+01         0.00000E+00
    0.00000E+00         0.00000E+00         0.00000E+00
 
    0.22621E+04         0.52066E+02         0.00000E+00
    0.52066E+02        -0.13543E+00         0.00000E+00
    0.00000E+00         0.00000E+00         0.00000E+00
 
    0.22708E+04         0.87106E+02         0.00000E+00
    0.87106E+02         0.24180E+01         0.00000E+00
    0.00000E+00         0.00000E+00         0.00000E+00
 
    0.22768E+04         0.12225E+03         0.00000E+00
    0.12225E+03         0.62590E+01         0.00000E+00
    0.00000E+00         0.00000E+00         0.00000E+00
 
    0.22803E+04         0.15747E+03         0.00000E+00
    0.15747E+03         0.11390E+02         0.00000E+00
    0.00000E+00         0.00000E+00         0.00000E+00
 
    0.22812E+04         0.19272E+03         0.00000E+00
    0.19272E+03         0.17814E+02         0.00000E+00
    0.00000E+00         0.00000E+00         0.00000E+00
 
    0.22796E+04         0.22795E+03         0.00000E+00
    0.22795E+03         0.25530E+02         0.00000E+00
    0.00000E+00         0.00000E+00         0.00000E+00
 
    0.22753E+04         0.26313E+03         0.00000E+00
    0.26313E+03         0.34537E+02         0.00000E+00
    0.00000E+00         0.00000E+00         0.00000E+00
 
    0.22684E+04         0.29823E+03         0.00000E+00
    0.29823E+03         0.44832E+02         0.00000E+00
    0.00000E+00         0.00000E+00         0.00000E+00
 
    0.22590E+04         0.33319E+03         0.00000E+00
    0.33319E+03         0.56412E+02         0.00000E+00
    0.00000E+00         0.00000E+00         0.00000E+00
 
    0.22469E+04         0.36798E+03         0.00000E+00
    0.36798E+03         0.69270E+02         0.00000E+00
    0.00000E+00         0.00000E+00         0.00000E+00
 
    0.22323E+04         0.40256E+03         0.00000E+00
    0.40256E+03         0.83399E+02         0.00000E+00
    0.00000E+00         0.00000E+00         0.00000E+00
 
    0.22151E+04         0.43690E+03         0.00000E+00
    0.43690E+03         0.98791E+02         0.00000E+00
    0.00000E+00         0.00000E+00         0.00000E+00
 
    0.21954E+04         0.47094E+03         0.00000E+00
    0.47094E+03         0.11544E+03         0.00000E+00
    0.00000E+00         0.00000E+00         0.00000E+00
 
    0.21731E+04         0.50466E+03         0.00000E+00
    0.50466E+03         0.13332E+03         0.00000E+00
    0.00000E+00         0.00000E+00         0.00000E+00
 
    0.21483E+04         0.53801E+03         0.00000E+00
    0.53801E+03         0.15244E+03         0.00000E+00
    0.00000E+00         0.00000E+00         0.00000E+00
 
    0.21210E+04         0.57096E+03         0.00000E+00
    0.57096E+03         0.17277E+03         0.00000E+00
    0.00000E+00         0.00000E+00         0.00000E+00
 
    0.20912E+04         0.60346E+03         0.00000E+00
    0.60346E+03         0.19429E+03         0.00000E+00
    0.00000E+00         0.00000E+00         0.00000E+00
 
    0.20589E+04         0.63548E+03         0.00000E+00
    0.63548E+03         0.21700E+03         0.00000E+00
    0.00000E+00         0.00000E+00         0.00000E+00
 
    0.20242E+04         0.66698E+03         0.00000E+00
    0.66698E+03         0.24088E+03         0.00000E+00
    0.00000E+00         0.00000E+00         0.00000E+00
 
    0.19870E+04         0.69793E+03         0.00000E+00
    0.69793E+03         0.26589E+03         0.00000E+00
    0.00000E+00         0.00000E+00         0.00000E+00
 
    0.19475E+04         0.72828E+03         0.00000E+00
    0.72828E+03         0.29203E+03         0.00000E+00
    0.00000E+00         0.00000E+00         0.00000E+00
 
    0.19056E+04         0.75801E+03         0.00000E+00
    0.75801E+03         0.31927E+03         0.00000E+00
    0.00000E+00         0.00000E+00         0.00000E+00
 
    0.18614E+04         0.78706E+03         0.00000E+00
    0.78706E+03         0.34759E+03         0.00000E+00
    0.00000E+00         0.00000E+00         0.00000E+00
 
    0.18149E+04         0.81542E+03         0.00000E+00
    0.81542E+03         0.37695E+03         0.00000E+00
    0.00000E+00         0.00000E+00         0.00000E+00
 
    0.17661E+04         0.84305E+03         0.00000E+00
    0.84305E+03         0.40734E+03         0.00000E+00
    0.00000E+00         0.00000E+00         0.00000E+00
 
    0.17151E+04         0.86990E+03         0.00000E+00
    0.86990E+03         0.43873E+03         0.00000E+00
    0.00000E+00         0.00000E+00         0.00000E+00
 
    0.16620E+04         0.89595E+03         0.00000E+00
    0.89595E+03         0.47109E+03         0.00000E+00
    0.00000E+00         0.00000E+00         0.00000E+00
 
    0.16067E+04         0.92117E+03         0.00000E+00
    0.92117E+03         0.50438E+03         0.00000E+00
    0.00000E+00         0.00000E+00         0.00000E+00
 
    0.15493E+04         0.94552E+03         0.00000E+00
    0.94552E+03         0.53859E+03         0.00000E+00
    0.00000E+00         0.00000E+00         0.00000E+00
 
    0.14898E+04         0.96896E+03         0.00000E+00
    0.96896E+03         0.57366E+03         0.00000E+00
    0.00000E+00         0.00000E+00         0.00000E+00
 
    0.14284E+04         0.99148E+03         0.00000E+00
    0.99148E+03         0.60958E+03         0.00000E+00
    0.00000E+00         0.00000E+00         0.00000E+00
 
    0.13650E+04         0.10130E+04         0.00000E+00
    0.10130E+04         0.64631E+03         0.00000E+00
    0.00000E+00         0.00000E+00         0.00000E+00
 
    0.12997E+04         0.10336E+04         0.00000E+00
    0.10336E+04         0.68380E+03         0.00000E+00
    0.00000E+00         0.00000E+00         0.00000E+00
 
    0.12325E+04         0.10532E+04         0.00000E+00
    0.10532E+04         0.72203E+03         0.00000E+00
    0.00000E+00         0.00000E+00         0.00000E+00
 
    0.11636E+04         0.10717E+04         0.00000E+00
    0.10717E+04         0.76096E+03         0.00000E+00
    0.00000E+00         0.00000E+00         0.00000E+00
 
    0.10929E+04         0.10891E+04         0.00000E+00
    0.10891E+04         0.80054E+03         0.00000E+00
    0.00000E+00         0.00000E+00         0.00000E+00
 
    0.10206E+04         0.11054E+04         0.00000E+00
    0.11054E+04         0.84074E+03         0.00000E+00
    0.00000E+00         0.00000E+00         0.00000E+00
 
    0.94659E+03         0.11206E+04         0.00000E+00
    0.11206E+04         0.88152E+03         0.00000E+00
    0.00000E+00         0.00000E+00         0.00000E+00
 
    0.87105E+03         0.11347E+04         0.00000E+00
    0.11347E+04         0.92283E+03         0.00000E+00
    0.00000E+00         0.00000E+00         0.00000E+00
 
    0.79401E+03         0.11475E+04         0.00000E+00
    0.11475E+04         0.96464E+03         0.00000E+00
    0.00000E+00         0.00000E+00         0.00000E+00
 
    0.71553E+03         0.11592E+04         0.00000E+00
    0.11592E+04         0.10069E+04         0.00000E+00
    0.00000E+00         0.00000E+00         0.00000E+00
 
    0.63568E+03         0.11697E+04         0.00000E+00
    0.11697E+04         0.10496E+04         0.00000E+00
    0.00000E+00         0.00000E+00         0.00000E+00
 
    0.55452E+03         0.11789E+04         0.00000E+00
    0.11789E+04         0.10926E+04         0.00000E+00
    0.00000E+00         0.00000E+00         0.00000E+00
 
    0.47213E+03         0.11869E+04         0.00000E+00
    0.11869E+04         0.11359E+04         0.00000E+00
    0.00000E+00         0.00000E+00         0.00000E+00
 
    0.38856E+03         0.11936E+04         0.00000E+00
    0.11936E+04         0.11795E+04         0.00000E+00
    0.00000E+00         0.00000E+00         0.00000E+00
 
    0.30389E+03         0.11990E+04         0.00000E+00
    0.11990E+04         0.12233E+04         0.00000E+00
    0.00000E+00         0.00000E+00         0.00000E+00
 
    0.21819E+03         0.12031E+04         0.00000E+00
    0.12031E+04         0.12673E+04         0.00000E+00
    0.00000E+00         0.00000E+00         0.00000E+00
 
    0.13153E+03         0.12059E+04         0.00000E+00
    0.12059E+04         0.13115E+04         0.00000E+00
    0.00000E+00         0.00000E+00         0.00000E+00
 
    0.43986E+02         0.12073E+04         0.00000E+00
    0.12073E+04         0.13557E+04         0.00000E+00
    0.00000E+00         0.00000E+00         0.00000E+00
 
    0.24409E+04         0.20454E+02         0.00000E+00
    0.20454E+02        -0.18214E+01         0.00000E+00
    0.00000E+00         0.00000E+00         0.00000E+00
 
    0.24530E+04         0.62010E+02         0.00000E+00
    0.62010E+02        -0.44362E+00         0.00000E+00
    0.00000E+00         0.00000E+00         0.00000E+00
 
    0.24624E+04         0.10374E+03         0.00000E+00
    0.10374E+03         0.23253E+01         0.00000E+00
    0.00000E+00         0.00000E+00         0.00000E+00
 
    0.24689E+04         0.14560E+03         0.00000E+00
    0.14560E+03         0.64901E+01         0.00000E+00
    0.00000E+00         0.00000E+00         0.00000E+00
 
    0.24727E+04         0.18754E+03         0.00000E+00
    0.18754E+03         0.12054E+02         0.00000E+00
    0.00000E+00         0.00000E+00         0.00000E+00
 
    0.24736E+04         0.22951E+03         0.00000E+00
    0.22951E+03         0.19020E+02         0.00000E+00
    0.00000E+00         0.00000E+00         0.00000E+00
 
    0.24718E+04         0.27147E+03         0.00000E+00
    0.27147E+03         0.27386E+02         0.00000E+00
    0.00000E+00         0.00000E+00         0.00000E+00
 
    0.24671E+04         0.31337E+03         0.00000E+00
    0.31337E+03         0.37152E+02         0.00000E+00
    0.00000E+00         0.00000E+00         0.00000E+00
 
    0.24596E+04         0.35516E+03         0.00000E+00
    0.35516E+03         0.48315E+02         0.00000E+00
    0.00000E+00         0.00000E+00         0.00000E+00
 
    0.24494E+04         0.39679E+03         0.00000E+00
    0.39679E+03         0.60870E+02         0.00000E+00
    0.00000E+00         0.00000E+00         0.00000E+00
 
    0.24363E+04         0.43822E+03         0.00000E+00
    0.43822E+03         0.74811E+02         0.00000E+00
    0.00000E+00         0.00000E+00         0.00000E+00
 
    0.24204E+04         0.47940E+03         0.00000E+00
    0.47940E+03         0.90130E+02         0.00000E+00
    0.00000E+00         0.00000E+00         0.00000E+00
 
    0.24017E+04         0.52028E+03         0.00000E+00
    0.52028E+03         0.10682E+03         0.00000E+00
    0.00000E+00         0.00000E+00         0.00000E+00
 
    0.23803E+04         0.56081E+03         0.00000E+00
    0.56081E+03         0.12486E+03         0.00000E+00
    0.00000E+00         0.00000E+00         0.00000E+00
 
    0.23561E+04         0.60096E+03         0.00000E+00
    0.60096E+03         0.14426E+03         0.00000E+00
    0.00000E+00         0.00000E+00         0.00000E+00
 
    0.23292E+04         0.64067E+03         0.00000E+00
    0.64067E+03         0.16498E+03         0.00000E+00
    0.00000E+00         0.00000E+00         0.00000E+00
 
    0.22996E+04         0.67989E+03         0.00000E+00
    0.67989E+03         0.18702E+03         0.00000E+00
    0.00000E+00         0.00000E+00         0.00000E+00
 
    0.22672E+04         0.71859E+03         0.00000E+00
    0.71859E+03         0.21036E+03         0.00000E+00
    0.00000E+00         0.00000E+00         0.00000E+00
 
    0.22322E+04         0.75672E+03         0.00000E+00
    0.75672E+03         0.23498E+03         0.00000E+00
    0.00000E+00         0.00000E+00         0.00000E+00
 
    0.21946E+04         0.79422E+03         0.00000E+00
    0.79422E+03         0.26086E+03         0.00000E+00
    0.00000E+00         0.00000E+00         0.00000E+00
 
    0.21543E+04         0.83106E+03         0.00000E+00
    0.83106E+03         0.28798E+03         0.00000E+00
    0.00000E+00         0.00000E+00         0.00000E+00
 
    0.21114E+04         0.86720E+03         0.00000E+00
    0.86720E+03         0.31632E+03         0.00000E+00
    0.00000E+00         0.00000E+00         0.00000E+00
 
    0.20660E+04         0.90259E+03         0.00000E+00
    0.90259E+03         0.34585E+03         0.00000E+00
    0.00000E+00         0.00000E+00         0.00000E+00
 
    0.20180E+04         0.93718E+03         0.00000E+00
    0.93718E+03         0.37654E+03         0.00000E+00
    0.00000E+00         0.00000E+00         0.00000E+00
 
    0.19676E+04         0.97095E+03         0.00000E+00
    0.97095E+03         0.40838E+03         0.00000E+00
    0.00000E+00         0.00000E+00         0.00000E+00
 
    0.19147E+04         0.10038E+04         0.00000E+00
    0.10038E+04         0.44133E+03         0.00000E+00
    0.00000E+00         0.00000E+00         0.00000E+00
 
    0.18594E+04         0.10358E+04         0.00000E+00
    0.10358E+04         0.47535E+03         0.00000E+00
    0.00000E+00         0.00000E+00         0.00000E+00
 
    0.18017E+04         0.10668E+04         0.00000E+00
    0.10668E+04         0.51043E+03         0.00000E+00
    0.00000E+00         0.00000E+00         0.00000E+00
 
    0.17418E+04         0.10968E+04         0.00000E+00
    0.10968E+04         0.54652E+03         0.00000E+00
    0.00000E+00         0.00000E+00         0.00000E+00
 
    0.16795E+04         0.11258E+04         0.00000E+00
    0.11258E+04         0.58360E+03         0.00000E+00
    0.00000E+00         0.00000E+00         0.00000E+00
 
    0.16151E+04         0.11537E+04         0.00000E+00
    0.11537E+04         0.62162E+03         0.00000E+00
    0.00000E+00         0.00000E+00         0.00000E+00
 
    0.15485E+04         0.11805E+04         0.00000E+00
    0.11805E+04         0.66055E+03         0.00000E+00
    0.00000E+00         0.00000E+00         0.00000E+00
 
    0.14797E+04         0.12062E+04         0.00000E+00
    0.12062E+04         0.70036E+03         0.00000E+00
    0.00000E+00         0.00000E+00         0.00000E+00
 
    0.14089E+04         0.12307E+04         0.00000E+00
    0.12307E+04         0.74101E+03         0.00000E+00
    0.00000E+00         0.00000E+00         0.00000E+00
 
    0.13361E+04         0.12539E+04         0.00000E+00
    0.12539E+04         0.78245E+03         0.00000E+00
    0.00000E+00         0.00000E+00         0.00000E+00
 
    0.12614E+04         0.12760E+04         0.00000E+00
    0.12760E+04         0.82464E+03         0.00000E+00
    0.00000E+00         0.00000E+00         0.00000E+00
 
    0.11848E+04         0.12967E+04         0.00000E+00
    0.12967E+04         0.86755E+03         0.00000E+00
    0.00000E+00         0.00000E+00         0.00000E+00
 
    0.11063E+04         0.13162E+04         0.00000E+00
    0.13162E+04         0.91113E+03         0.00000E+00
    0.00000E+00         0.00000E+00         0.00000E+00
 
    0.10261E+04         0.13342E+04         0.00000E+00
    0.13342E+04         0.95533E+03         0.00000E+00
    0.00000E+00         0.00000E+00         0.00000E+00
 
    0.94424E+03         0.13510E+04         0.00000E+00
    0.13510E+04         0.10001E+04         0.00000E+00
    0.00000E+00         0.00000E+00         0.00000E+00
 
    0.86072E+03         0.13663E+04         0.00000E+00
    0.13663E+04         0.10454E+04         0.00000E+00
    0.00000E+00         0.00000E+00         0.00000E+00
 
    0.77565E+03         0.13802E+04         0.00000E+00
    0.13802E+04         0.10912E+04         0.00000E+00
    0.00000E+00         0.00000E+00         0.00000E+00
 
    0.68909E+03         0.13927E+04         0.00000E+00
    0.13927E+04         0.11375E+04         0.00000E+00
    0.00000E+00         0.00000E+00         0.00000E+00
 
    0.60111E+03         0.14037E+04         0.00000E+00
    0.14037E+04         0.11841E+04         0.00000E+00
    0.00000E+00         0.00000E+00         0.00000E+00
 
    0.51179E+03         0.14132E+04         0.00000E+00
    0.14132E+04         0.12311E+04         0.00000E+00
    0.00000E+00         0.00000E+00         0.00000E+00
 
    0.42120E+03         0.14212E+04         0.00000E+00
    0.14212E+04         0.12783E+04         0.00000E+00
    0.00000E+00         0.00000E+00         0.00000E+00
 
    0.32942E+03         0.14276E+04         0.00000E+00
    0.14276E+04         0.13258E+04         0.00000E+00
    0.00000E+00         0.00000E+00         0.00000E+00
 
    0.23652E+03         0.14325E+04         0.00000E+00
    0.14325E+04         0.13735E+04         0.00000E+00
    0.00000E+00         0.00000E+00         0.00000E+00
 
    0.14258E+03         0.14358E+04         0.00000E+00
    0.14358E+04         0.14214E+04         0.00000E+00
    0.00000E+00         0.00000E+00         0.00000E+00
 
    0.47681E+02         0.14375E+04         0.00000E+00
    0.14375E+04         0.14693E+04         0.00000E+00
    0.00000E+00         0.00000E+00         0.00000E+00
 
    0.26655E+04         0.24025E+02         0.00000E+00
    0.24025E+02        -0.23214E+01         0.00000E+00
    0.00000E+00         0.00000E+00         0.00000E+00
 
    0.26787E+04         0.72833E+02         0.00000E+00
    0.72833E+02        -0.81690E+00         0.00000E+00
    0.00000E+00         0.00000E+00         0.00000E+00
 
    0.26888E+04         0.12185E+03         0.00000E+00
    0.12185E+03         0.22066E+01         0.00000E+00
    0.00000E+00         0.00000E+00         0.00000E+00
 
    0.26959E+04         0.17101E+03         0.00000E+00
    0.17101E+03         0.67544E+01         0.00000E+00
    0.00000E+00         0.00000E+00         0.00000E+00
 
    0.27000E+04         0.22026E+03         0.00000E+00
    0.22026E+03         0.12830E+02         0.00000E+00
    0.00000E+00         0.00000E+00         0.00000E+00
 
    0.27010E+04         0.26956E+03         0.00000E+00
    0.26956E+03         0.20435E+02         0.00000E+00
    0.00000E+00         0.00000E+00         0.00000E+00
 
    0.26989E+04         0.31883E+03         0.00000E+00
    0.31883E+03         0.29570E+02         0.00000E+00
    0.00000E+00         0.00000E+00         0.00000E+00
 
    0.26938E+04         0.36803E+03         0.00000E+00
    0.36803E+03         0.40234E+02         0.00000E+00
    0.00000E+00         0.00000E+00         0.00000E+00
 
    0.26856E+04         0.41711E+03         0.00000E+00
    0.41711E+03         0.52422E+02         0.00000E+00
    0.00000E+00         0.00000E+00         0.00000E+00
 
    0.26744E+04         0.46600E+03         0.00000E+00
    0.46600E+03         0.66129E+02         0.00000E+00
    0.00000E+00         0.00000E+00         0.00000E+00
 
    0.26600E+04         0.51464E+03         0.00000E+00
    0.51464E+03         0.81350E+02         0.00000E+00
    0.00000E+00         0.00000E+00         0.00000E+00
 
    0.26427E+04         0.56300E+03         0.00000E+00
    0.56300E+03         0.98076E+02         0.00000E+00
    0.00000E+00         0.00000E+00         0.00000E+00
 
    0.26223E+04         0.61100E+03         0.00000E+00
    0.61100E+03         0.11630E+03         0.00000E+00
    0.00000E+00         0.00000E+00         0.00000E+00
 
    0.25988E+04         0.65860E+03         0.00000E+00
    0.65860E+03         0.13600E+03         0.00000E+00
    0.00000E+00         0.00000E+00         0.00000E+00
 
    0.25724E+04         0.70574E+03         0.00000E+00
    0.70574E+03         0.15717E+03         0.00000E+00
    0.00000E+00         0.00000E+00         0.00000E+00
 
    0.25430E+04         0.75237E+03         0.00000E+00
    0.75237E+03         0.17979E+03         0.00000E+00
    0.00000E+00         0.00000E+00         0.00000E+00
 
    0.25106E+04         0.79843E+03         0.00000E+00
    0.79843E+03         0.20385E+03         0.00000E+00
    0.00000E+00         0.00000E+00         0.00000E+00
 
    0.24753E+04         0.84386E+03         0.00000E+00
    0.84386E+03         0.22933E+03         0.00000E+00
    0.00000E+00         0.00000E+00         0.00000E+00
 
    0.24370E+04         0.88863E+03         0.00000E+00
    0.88863E+03         0.25621E+03         0.00000E+00
    0.00000E+00         0.00000E+00         0.00000E+00
 
    0.23959E+04         0.93266E+03         0.00000E+00
    0.93266E+03         0.28447E+03         0.00000E+00
    0.00000E+00         0.00000E+00         0.00000E+00
 
    0.23519E+04         0.97592E+03         0.00000E+00
    0.97592E+03         0.31407E+03         0.00000E+00
    0.00000E+00         0.00000E+00         0.00000E+00
 
    0.23050E+04         0.10183E+04         0.00000E+00
    0.10183E+04         0.34501E+03         0.00000E+00
    0.00000E+00         0.00000E+00         0.00000E+00
 
    0.22554E+04         0.10599E+04         0.00000E+00
    0.10599E+04         0.37724E+03         0.00000E+00
    0.00000E+00         0.00000E+00         0.00000E+00
 
    0.22030E+04         0.11005E+04         0.00000E+00
    0.11005E+04         0.41075E+03         0.00000E+00
    0.00000E+00         0.00000E+00         0.00000E+00
 
    0.21480E+04         0.11402E+04         0.00000E+00
    0.11402E+04         0.44550E+03         0.00000E+00
    0.00000E+00         0.00000E+00         0.00000E+00
 
    0.20902E+04         0.11788E+04         0.00000E+00
    0.11788E+04         0.48146E+03         0.00000E+00
    0.00000E+00         0.00000E+00         0.00000E+00
 
    0.20298E+04         0.12163E+04         0.00000E+00
    0.12163E+04         0.51860E+03         0.00000E+00
    0.00000E+00         0.00000E+00         0.00000E+00
 
    0.19669E+04         0.12527E+04         0.00000E+00
    0.12527E+04         0.55689E+03         0.00000E+00
    0.00000E+00         0.00000E+00         0.00000E+00
 
    0.19014E+04         0.12879E+04         0.00000E+00
    0.12879E+04         0.59629E+03         0.00000E+00
    0.00000E+00         0.00000E+00         0.00000E+00
 
    0.18334E+04         0.13220E+04         0.00000E+00
    0.13220E+04         0.63676E+03         0.00000E+00
    0.00000E+00         0.00000E+00         0.00000E+00
 
    0.17631E+04         0.13547E+04         0.00000E+00
    0.13547E+04         0.67826E+03         0.00000E+00
    0.00000E+00         0.00000E+00         0.00000E+00
 
    0.16903E+04         0.13862E+04         0.00000E+00
    0.13862E+04         0.72076E+03         0.00000E+00
    0.00000E+00         0.00000E+00         0.00000E+00
 
    0.16153E+04         0.14163E+04         0.00000E+00
    0.14163E+04         0.76422E+03         0.00000E+00
    0.00000E+00         0.00000E+00         0.00000E+00
 
    0.15380E+04         0.14451E+04         0.00000E+00
    0.14451E+04         0.80858E+03         0.00000E+00
    0.00000E+00         0.00000E+00         0.00000E+00
 
    0.14585E+04         0.14724E+04         0.00000E+00
    0.14724E+04         0.85381E+03         0.00000E+00
    0.00000E+00         0.00000E+00         0.00000E+00
 
    0.13769E+04         0.14982E+04         0.00000E+00
    0.14982E+04         0.89987E+03         0.00000E+00
    0.00000E+00         0.00000E+00         0.00000E+00
 
    0.12933E+04         0.15226E+04         0.00000E+00
    0.15226E+04         0.94670E+03         0.00000E+00
    0.00000E+00         0.00000E+00         0.00000E+00
 
    0.12077E+04         0.15454E+04         0.00000E+00
    0.15454E+04         0.99426E+03         0.00000E+00
    0.00000E+00         0.00000E+00         0.00000E+00
 
    0.11201E+04         0.15667E+04         0.00000E+00
    0.15667E+04         0.10425E+04         0.00000E+00
    0.00000E+00         0.00000E+00         0.00000E+00
 
    0.10307E+04         0.15863E+04         0.00000E+00
    0.15863E+04         0.10914E+04         0.00000E+00
    0.00000E+00         0.00000E+00         0.00000E+00
 
    0.93954E+03         0.16043E+04         0.00000E+00
    0.16043E+04         0.11408E+04         0.00000E+00
    0.00000E+00         0.00000E+00         0.00000E+00
 
    0.84667E+03         0.16206E+04         0.00000E+00
    0.16206E+04         0.11908E+04         0.00000E+00
    0.00000E+00         0.00000E+00         0.00000E+00
 
    0.75218E+03         0.16353E+04         0.00000E+00
    0.16353E+04         0.12413E+04         0.00000E+00
    0.00000E+00         0.00000E+00         0.00000E+00
 
    0.65615E+03         0.16482E+04         0.00000E+00
    0.16482E+04         0.12922E+04         0.00000E+00
    0.00000E+00         0.00000E+00         0.00000E+00
 
    0.55865E+03         0.16593E+04         0.00000E+00
    0.16593E+04         0.13435E+04         0.00000E+00
    0.00000E+00         0.00000E+00         0.00000E+00
 
    0.45977E+03         0.16687E+04         0.00000E+00
    0.16687E+04         0.13951E+04         0.00000E+00
    0.00000E+00         0.00000E+00         0.00000E+00
 
    0.35958E+03         0.16763E+04         0.00000E+00
    0.16763E+04         0.14469E+04         0.00000E+00
    0.00000E+00         0.00000E+00         0.00000E+00
 
    0.25818E+03         0.16820E+04         0.00000E+00
    0.16820E+04         0.14990E+04         0.00000E+00
    0.00000E+00         0.00000E+00         0.00000E+00
 
    0.15564E+03         0.16859E+04         0.00000E+00
    0.16859E+04         0.15512E+04         0.00000E+00
    0.00000E+00         0.00000E+00         0.00000E+00
 
    0.52046E+02         0.16879E+04         0.00000E+00
    0.16879E+04         0.16035E+04         0.00000E+00
    0.00000E+00         0.00000E+00         0.00000E+00
 
    0.29278E+04         0.27936E+02         0.00000E+00
    0.27936E+02        -0.29274E+01         0.00000E+00
    0.00000E+00         0.00000E+00         0.00000E+00
 
    0.29422E+04         0.84688E+02         0.00000E+00
    0.84688E+02        -0.12748E+01         0.00000E+00
    0.00000E+00         0.00000E+00         0.00000E+00
 
    0.29533E+04         0.14168E+03         0.00000E+00
    0.14168E+03         0.20461E+01         0.00000E+00
    0.00000E+00         0.00000E+00         0.00000E+00
 
    0.29611E+04         0.19883E+03         0.00000E+00
    0.19883E+03         0.70412E+01         0.00000E+00
    0.00000E+00         0.00000E+00         0.00000E+00
 
    0.29655E+04         0.25610E+03         0.00000E+00
    0.25610E+03         0.13714E+02         0.00000E+00
    0.00000E+00         0.00000E+00         0.00000E+00
 
    0.29665E+04         0.31341E+03         0.00000E+00
    0.31341E+03         0.22067E+02         0.00000E+00
    0.00000E+00         0.00000E+00         0.00000E+00
 
    0.29642E+04         0.37070E+03         0.00000E+00
    0.37070E+03         0.32100E+02         0.00000E+00
    0.00000E+00         0.00000E+00         0.00000E+00
 
    0.29586E+04         0.42790E+03         0.00000E+00
    0.42790E+03         0.43811E+02         0.00000E+00
    0.00000E+00         0.00000E+00         0.00000E+00
 
    0.29495E+04         0.48495E+03         0.00000E+00
    0.48495E+03         0.57196E+02         0.00000E+00
    0.00000E+00         0.00000E+00         0.00000E+00
 
    0.29371E+04         0.54179E+03         0.00000E+00
    0.54179E+03         0.72250E+02         0.00000E+00
    0.00000E+00         0.00000E+00         0.00000E+00
 
    0.29213E+04         0.59834E+03         0.00000E+00
    0.59834E+03         0.88965E+02         0.00000E+00
    0.00000E+00         0.00000E+00         0.00000E+00
 
    0.29022E+04         0.65455E+03         0.00000E+00
    0.65455E+03         0.10733E+03         0.00000E+00
    0.00000E+00         0.00000E+00         0.00000E+00
 
    0.28798E+04         0.71036E+03         0.00000E+00
    0.71036E+03         0.12734E+03         0.00000E+00
    0.00000E+00         0.00000E+00         0.00000E+00
 
    0.28540E+04         0.76569E+03         0.00000E+00
    0.76569E+03         0.14898E+03         0.00000E+00
    0.00000E+00         0.00000E+00         0.00000E+00
 
    0.28250E+04         0.82049E+03         0.00000E+00
    0.82049E+03         0.17222E+03         0.00000E+00
    0.00000E+00         0.00000E+00         0.00000E+00
 
    0.27926E+04         0.87468E+03         0.00000E+00
    0.87468E+03         0.19707E+03         0.00000E+00
    0.00000E+00         0.00000E+00         0.00000E+00
 
    0.27570E+04         0.92822E+03         0.00000E+00
    0.92822E+03         0.22349E+03         0.00000E+00
    0.00000E+00         0.00000E+00         0.00000E+00
 
    0.27182E+04         0.98104E+03         0.00000E+00
    0.98104E+03         0.25147E+03         0.00000E+00
    0.00000E+00         0.00000E+00         0.00000E+00
 
    0.26761E+04         0.10331E+04         0.00000E+00
    0.10331E+04         0.28098E+03         0.00000E+00
    0.00000E+00         0.00000E+00         0.00000E+00
 
    0.26309E+04         0.10843E+04         0.00000E+00
    0.10843E+04         0.31200E+03         0.00000E+00
    0.00000E+00         0.00000E+00         0.00000E+00
 
    0.25826E+04         0.11345E+04         0.00000E+00
    0.11345E+04         0.34451E+03         0.00000E+00
    0.00000E+00         0.00000E+00         0.00000E+00
 
    0.25311E+04         0.11838E+04         0.00000E+00
    0.11838E+04         0.37848E+03         0.00000E+00
    0.00000E+00         0.00000E+00         0.00000E+00
 
    0.24766E+04         0.12321E+04         0.00000E+00
    0.12321E+04         0.41387E+03         0.00000E+00
    0.00000E+00         0.00000E+00         0.00000E+00
 
    0.24191E+04         0.12793E+04         0.00000E+00
    0.12793E+04         0.45066E+03         0.00000E+00
    0.00000E+00         0.00000E+00         0.00000E+00
 
    0.23586E+04         0.13254E+04         0.00000E+00
    0.13254E+04         0.48882E+03         0.00000E+00
    0.00000E+00         0.00000E+00         0.00000E+00
 
    0.22951E+04         0.13703E+04         0.00000E+00
    0.13703E+04         0.52830E+03         0.00000E+00
    0.00000E+00         0.00000E+00         0.00000E+00
 
    0.22288E+04         0.14139E+04         0.00000E+00
    0.14139E+04         0.56908E+03         0.00000E+00
    0.00000E+00         0.00000E+00         0.00000E+00
 
    0.21597E+04         0.14562E+04         0.00000E+00
    0.14562E+04         0.61112E+03         0.00000E+00
    0.00000E+00         0.00000E+00         0.00000E+00
 
    0.20878E+04         0.14972E+04         0.00000E+00
    0.14972E+04         0.65437E+03         0.00000E+00
    0.00000E+00         0.00000E+00         0.00000E+00
 
    0.20131E+04         0.15367E+04         0.00000E+00
    0.15367E+04         0.69881E+03         0.00000E+00
    0.00000E+00         0.00000E+00         0.00000E+00
 
    0.19359E+04         0.15748E+04         0.00000E+00
    0.15748E+04         0.74437E+03         0.00000E+00
    0.00000E+00         0.00000E+00         0.00000E+00
 
    0.18560E+04         0.16114E+04         0.00000E+00
    0.16114E+04         0.79103E+03         0.00000E+00
    0.00000E+00         0.00000E+00         0.00000E+00
 
    0.17736E+04         0.16464E+04         0.00000E+00
    0.16464E+04         0.83874E+03         0.00000E+00
    0.00000E+00         0.00000E+00         0.00000E+00
 
    0.16887E+04         0.16798E+04         0.00000E+00
    0.16798E+04         0.88744E+03         0.00000E+00
    0.00000E+00         0.00000E+00         0.00000E+00
 
    0.16014E+04         0.17116E+04         0.00000E+00
    0.17116E+04         0.93710E+03         0.00000E+00
    0.00000E+00         0.00000E+00         0.00000E+00
 
    0.15118E+04         0.17416E+04         0.00000E+00
    0.17416E+04         0.98766E+03         0.00000E+00
    0.00000E+00         0.00000E+00         0.00000E+00
 
    0.14200E+04         0.17699E+04         0.00000E+00
    0.17699E+04         0.10391E+04         0.00000E+00
    0.00000E+00         0.00000E+00         0.00000E+00
 
    0.13259E+04         0.17964E+04         0.00000E+00
    0.17964E+04         0.10913E+04         0.00000E+00
    0.00000E+00         0.00000E+00         0.00000E+00
 
    0.12298E+04         0.18211E+04         0.00000E+00
    0.18211E+04         0.11443E+04         0.00000E+00
    0.00000E+00         0.00000E+00         0.00000E+00
 
    0.11317E+04         0.18439E+04         0.00000E+00
    0.18439E+04         0.11979E+04         0.00000E+00
    0.00000E+00         0.00000E+00         0.00000E+00
 
    0.10315E+04         0.18649E+04         0.00000E+00
    0.18649E+04         0.12522E+04         0.00000E+00
    0.00000E+00         0.00000E+00         0.00000E+00
 
    0.92958E+03         0.18838E+04         0.00000E+00
    0.18838E+04         0.13071E+04         0.00000E+00
    0.00000E+00         0.00000E+00         0.00000E+00
 
    0.82584E+03         0.19009E+04         0.00000E+00
    0.19009E+04         0.13625E+04         0.00000E+00
    0.00000E+00         0.00000E+00         0.00000E+00
 
    0.72040E+03         0.19159E+04         0.00000E+00
    0.19159E+04         0.14184E+04         0.00000E+00
    0.00000E+00         0.00000E+00         0.00000E+00
 
    0.61335E+03         0.19288E+04         0.00000E+00
    0.19288E+04         0.14747E+04         0.00000E+00
    0.00000E+00         0.00000E+00         0.00000E+00
 
    0.50478E+03         0.19397E+04         0.00000E+00
    0.19397E+04         0.15313E+04         0.00000E+00
    0.00000E+00         0.00000E+00         0.00000E+00
 
    0.39479E+03         0.19485E+04         0.00000E+00
    0.19485E+04         0.15883E+04         0.00000E+00
    0.00000E+00         0.00000E+00         0.00000E+00
 
    0.28345E+03         0.19552E+04         0.00000E+00
    0.19552E+04         0.16454E+04         0.00000E+00
    0.00000E+00         0.00000E+00         0.00000E+00
 
    0.17087E+03         0.19597E+04         0.00000E+00
    0.19597E+04         0.17027E+04         0.00000E+00
    0.00000E+00         0.00000E+00         0.00000E+00
 
    0.57141E+02         0.19620E+04         0.00000E+00
    0.19620E+04         0.17601E+04         0.00000E+00
    0.00000E+00         0.00000E+00         0.00000E+00
 
    0.32315E+04         0.32244E+02         0.00000E+00
    0.32244E+02        -0.36652E+01         0.00000E+00
    0.00000E+00         0.00000E+00         0.00000E+00
 
    0.32474E+04         0.97742E+02         0.00000E+00
    0.97742E+02        -0.18411E+01         0.00000E+00
    0.00000E+00         0.00000E+00         0.00000E+00
 
    0.32596E+04         0.16351E+03         0.00000E+00
    0.16351E+03         0.18243E+01         0.00000E+00
    0.00000E+00         0.00000E+00         0.00000E+00
 
    0.32681E+04         0.22948E+03         0.00000E+00
    0.22948E+03         0.73373E+01         0.00000E+00
    0.00000E+00         0.00000E+00         0.00000E+00
 
    0.32729E+04         0.29556E+03         0.00000E+00
    0.29556E+03         0.14702E+02         0.00000E+00
    0.00000E+00         0.00000E+00         0.00000E+00
 
    0.32740E+04         0.36170E+03         0.00000E+00
    0.36170E+03         0.23921E+02         0.00000E+00
    0.00000E+00         0.00000E+00         0.00000E+00
 
    0.32714E+04         0.42781E+03         0.00000E+00
    0.42781E+03         0.34993E+02         0.00000E+00
    0.00000E+00         0.00000E+00         0.00000E+00
 
    0.32651E+04         0.49382E+03         0.00000E+00
    0.49382E+03         0.47917E+02         0.00000E+00
    0.00000E+00         0.00000E+00         0.00000E+00
 
    0.32551E+04         0.55965E+03         0.00000E+00
    0.55965E+03         0.62688E+02         0.00000E+00
    0.00000E+00         0.00000E+00         0.00000E+00
 
    0.32413E+04         0.62523E+03         0.00000E+00
    0.62523E+03         0.79301E+02         0.00000E+00
    0.00000E+00         0.00000E+00         0.00000E+00
 
    0.32239E+04         0.69049E+03         0.00000E+00
    0.69049E+03         0.97747E+02         0.00000E+00
    0.00000E+00         0.00000E+00         0.00000E+00
 
    0.32027E+04         0.75535E+03         0.00000E+00
    0.75535E+03         0.11801E+03         0.00000E+00
    0.00000E+00         0.00000E+00         0.00000E+00
 
    0.31779E+04         0.81974E+03         0.00000E+00
    0.81974E+03         0.14009E+03         0.00000E+00
    0.00000E+00         0.00000E+00         0.00000E+00
 
    0.31494E+04         0.88358E+03         0.00000E+00
    0.88358E+03         0.16397E+03         0.00000E+00
    0.00000E+00         0.00000E+00         0.00000E+00
 
    0.31173E+04         0.94681E+03         0.00000E+00
    0.94681E+03         0.18962E+03         0.00000E+00
    0.00000E+00         0.00000E+00         0.00000E+00
 
    0.30816E+04         0.10093E+04         0.00000E+00
    0.10093E+04         0.21703E+03         0.00000E+00
    0.00000E+00         0.00000E+00         0.00000E+00
 
    0.30423E+04         0.10711E+04         0.00000E+00
    0.10711E+04         0.24619E+03         0.00000E+00
    0.00000E+00         0.00000E+00         0.00000E+00
 
    0.29994E+04         0.11320E+04         0.00000E+00
    0.11320E+04         0.27706E+03         0.00000E+00
    0.00000E+00         0.00000E+00         0.00000E+00
 
    0.29529E+04         0.11921E+04         0.00000E+00
    0.11921E+04         0.30962E+03         0.00000E+00
    0.00000E+00         0.00000E+00         0.00000E+00
 
    0.29030E+04         0.12511E+04         0.00000E+00
    0.12511E+04         0.34385E+03         0.00000E+00
    0.00000E+00         0.00000E+00         0.00000E+00
 
    0.28496E+04         0.13091E+04         0.00000E+00
    0.13091E+04         0.37971E+03         0.00000E+00
    0.00000E+00         0.00000E+00         0.00000E+00
 
    0.27928E+04         0.13660E+04         0.00000E+00
    0.13660E+04         0.41719E+03         0.00000E+00
    0.00000E+00         0.00000E+00         0.00000E+00
 
    0.27326E+04         0.14217E+04         0.00000E+00
    0.14217E+04         0.45624E+03         0.00000E+00
    0.00000E+00         0.00000E+00         0.00000E+00
 
    0.26691E+04         0.14762E+04         0.00000E+00
    0.14762E+04         0.49683E+03         0.00000E+00
    0.00000E+00         0.00000E+00         0.00000E+00
 
    0.26023E+04         0.15293E+04         0.00000E+00
    0.15293E+04         0.53892E+03         0.00000E+00
    0.00000E+00         0.00000E+00         0.00000E+00
 
    0.25323E+04         0.15811E+04         0.00000E+00
    0.15811E+04         0.58248E+03         0.00000E+00
    0.00000E+00         0.00000E+00         0.00000E+00
 
    0.24591E+04         0.16314E+04         0.00000E+00
    0.16314E+04         0.62747E+03         0.00000E+00
    0.00000E+00         0.00000E+00         0.00000E+00
 
    0.23828E+04         0.16802E+04         0.00000E+00
    0.16802E+04         0.67385E+03         0.00000E+00
    0.00000E+00         0.00000E+00         0.00000E+00
 
    0.23035E+04         0.17275E+04         0.00000E+00
    0.17275E+04         0.72157E+03         0.00000E+00
    0.00000E+00         0.00000E+00         0.00000E+00
 
    0.22211E+04         0.17731E+04         0.00000E+00
    0.17731E+04         0.77058E+03         0.00000E+00
    0.00000E+00         0.00000E+00         0.00000E+00
 
    0.21358E+04         0.18170E+04         0.00000E+00
    0.18170E+04         0.82085E+03         0.00000E+00
    0.00000E+00         0.00000E+00         0.00000E+00
 
    0.20477E+04         0.18592E+04         0.00000E+00
    0.18592E+04         0.87232E+03         0.00000E+00
    0.00000E+00         0.00000E+00         0.00000E+00
 
    0.19567E+04         0.18996E+04         0.00000E+00
    0.18996E+04         0.92495E+03         0.00000E+00
    0.00000E+00         0.00000E+00         0.00000E+00
 
    0.18631E+04         0.19382E+04         0.00000E+00
    0.19382E+04         0.97868E+03         0.00000E+00
    0.00000E+00         0.00000E+00         0.00000E+00
 
    0.17668E+04         0.19748E+04         0.00000E+00
    0.19748E+04         0.10335E+04         0.00000E+00
    0.00000E+00         0.00000E+00         0.00000E+00
 
    0.16679E+04         0.20094E+04         0.00000E+00
    0.20094E+04         0.10892E+04         0.00000E+00
    0.00000E+00         0.00000E+00         0.00000E+00
 
    0.15666E+04         0.20421E+04         0.00000E+00
    0.20421E+04         0.11460E+04         0.00000E+00
    0.00000E+00         0.00000E+00         0.00000E+00
 
    0.14628E+04         0.20727E+04         0.00000E+00
    0.20727E+04         0.12036E+04         0.00000E+00
    0.00000E+00         0.00000E+00         0.00000E+00
 
    0.13568E+04         0.21012E+04         0.00000E+00
    0.21012E+04         0.12620E+04         0.00000E+00
    0.00000E+00         0.00000E+00         0.00000E+00
 
    0.12485E+04         0.21275E+04         0.00000E+00
    0.21275E+04         0.13212E+04         0.00000E+00
    0.00000E+00         0.00000E+00         0.00000E+00
 
    0.11380E+04         0.21516E+04         0.00000E+00
    0.21516E+04         0.13811E+04         0.00000E+00
    0.00000E+00         0.00000E+00         0.00000E+00
 
    0.10255E+04         0.21735E+04         0.00000E+00
    0.21735E+04         0.14416E+04         0.00000E+00
    0.00000E+00         0.00000E+00         0.00000E+00
 
    0.91107E+03         0.21932E+04         0.00000E+00
    0.21932E+04         0.15028E+04         0.00000E+00
    0.00000E+00         0.00000E+00         0.00000E+00
 
    0.79474E+03         0.22105E+04         0.00000E+00
    0.22105E+04         0.15644E+04         0.00000E+00
    0.00000E+00         0.00000E+00         0.00000E+00
 
    0.67664E+03         0.22254E+04         0.00000E+00
    0.22254E+04         0.16265E+04         0.00000E+00
    0.00000E+00         0.00000E+00         0.00000E+00
 
    0.55687E+03         0.22380E+04         0.00000E+00
    0.22380E+04         0.16890E+04         0.00000E+00
    0.00000E+00         0.00000E+00         0.00000E+00
 
    0.43552E+03         0.22481E+04         0.00000E+00
    0.22481E+04         0.17518E+04         0.00000E+00
    0.00000E+00         0.00000E+00         0.00000E+00
 
    0.31270E+03         0.22558E+04         0.00000E+00
    0.22558E+04         0.18148E+04         0.00000E+00
    0.00000E+00         0.00000E+00         0.00000E+00
 
    0.18850E+03         0.22610E+04         0.00000E+00
    0.22610E+04         0.18780E+04         0.00000E+00
    0.00000E+00         0.00000E+00         0.00000E+00
 
    0.63037E+02         0.22638E+04         0.00000E+00
    0.22638E+04         0.19414E+04         0.00000E+00
    0.00000E+00         0.00000E+00         0.00000E+00
 
    0.35810E+04         0.37009E+02         0.00000E+00
    0.37009E+02        -0.45660E+01         0.00000E+00
    0.00000E+00         0.00000E+00         0.00000E+00
 
    0.35985E+04         0.11218E+03         0.00000E+00
    0.11218E+03        -0.25446E+01         0.00000E+00
    0.00000E+00         0.00000E+00         0.00000E+00
 
    0.36119E+04         0.18766E+03         0.00000E+00
    0.18766E+03         0.15172E+01         0.00000E+00
    0.00000E+00         0.00000E+00         0.00000E+00
 
    0.36213E+04         0.26337E+03         0.00000E+00
    0.26337E+03         0.76262E+01         0.00000E+00
    0.00000E+00         0.00000E+00         0.00000E+00
 
    0.36266E+04         0.33921E+03         0.00000E+00
    0.33921E+03         0.15787E+02         0.00000E+00
    0.00000E+00         0.00000E+00         0.00000E+00
 
    0.36277E+04         0.41510E+03         0.00000E+00
    0.41510E+03         0.26001E+02         0.00000E+00
    0.00000E+00         0.00000E+00         0.00000E+00
 
    0.36248E+04         0.49097E+03         0.00000E+00
    0.49097E+03         0.38269E+02         0.00000E+00
    0.00000E+00         0.00000E+00         0.00000E+00
 
    0.36177E+04         0.56671E+03         0.00000E+00
    0.56671E+03         0.52589E+02         0.00000E+00
    0.00000E+00         0.00000E+00         0.00000E+00
 
    0.36065E+04         0.64226E+03         0.00000E+00
    0.64226E+03         0.68955E+02         0.00000E+00
    0.00000E+00         0.00000E+00         0.00000E+00
 
    0.35912E+04         0.71751E+03         0.00000E+00
    0.71751E+03         0.87360E+02         0.00000E+00
    0.00000E+00         0.00000E+00         0.00000E+00
 
    0.35719E+04         0.79239E+03         0.00000E+00
    0.79239E+03         0.10780E+03         0.00000E+00
    0.00000E+00         0.00000E+00         0.00000E+00
 
    0.35484E+04         0.86681E+03         0.00000E+00
    0.86681E+03         0.13025E+03         0.00000E+00
    0.00000E+00         0.00000E+00         0.00000E+00
 
    0.35208E+04         0.94069E+03         0.00000E+00
    0.94069E+03         0.15471E+03         0.00000E+00
    0.00000E+00         0.00000E+00         0.00000E+00
 
    0.34892E+04         0.10139E+04         0.00000E+00
    0.10139E+04         0.18116E+03         0.00000E+00
    0.00000E+00         0.00000E+00         0.00000E+00
 
    0.34536E+04         0.10865E+04         0.00000E+00
    0.10865E+04         0.20958E+03         0.00000E+00
    0.00000E+00         0.00000E+00         0.00000E+00
 
    0.34140E+04         0.11582E+04         0.00000E+00
    0.11582E+04         0.23994E+03         0.00000E+00
    0.00000E+00         0.00000E+00         0.00000E+00
 
    0.33703E+04         0.12291E+04         0.00000E+00
    0.12291E+04         0.27224E+03         0.00000E+00
    0.00000E+00         0.00000E+00         0.00000E+00
 
    0.33228E+04         0.12990E+04         0.00000E+00
    0.12990E+04         0.30643E+03         0.00000E+00
    0.00000E+00         0.00000E+00         0.00000E+00
 
    0.32713E+04         0.13679E+04         0.00000E+00
    0.13679E+04         0.34250E+03         0.00000E+00
    0.00000E+00         0.00000E+00         0.00000E+00
 
    0.32159E+04         0.14356E+04         0.00000E+00
    0.14356E+04         0.38042E+03         0.00000E+00
    0.00000E+00         0.00000E+00         0.00000E+00
 
    0.31568E+04         0.15022E+04         0.00000E+00
    0.15022E+04         0.42015E+03         0.00000E+00
    0.00000E+00         0.00000E+00         0.00000E+00
 
    0.30938E+04         0.15674E+04         0.00000E+00
    0.15674E+04         0.46166E+03         0.00000E+00
    0.00000E+00         0.00000E+00         0.00000E+00
 
    0.30271E+04         0.16313E+04         0.00000E+00
    0.16313E+04         0.50491E+03         0.00000E+00
    0.00000E+00         0.00000E+00         0.00000E+00
 
    0.29567E+04         0.16938E+04         0.00000E+00
    0.16938E+04         0.54987E+03         0.00000E+00
    0.00000E+00         0.00000E+00         0.00000E+00
 
    0.28827E+04         0.17548E+04         0.00000E+00
    0.17548E+04         0.59649E+03         0.00000E+00
    0.00000E+00         0.00000E+00         0.00000E+00
 
    0.28051E+04         0.18142E+04         0.00000E+00
    0.18142E+04         0.64474E+03         0.00000E+00
    0.00000E+00         0.00000E+00         0.00000E+00
 
    0.27240E+04         0.18719E+04         0.00000E+00
    0.18719E+04         0.69457E+03         0.00000E+00
    0.00000E+00         0.00000E+00         0.00000E+00
 
    0.26394E+04         0.19279E+04         0.00000E+00
    0.19279E+04         0.74593E+03         0.00000E+00
    0.00000E+00         0.00000E+00         0.00000E+00
 
    0.25515E+04         0.19821E+04         0.00000E+00
    0.19821E+04         0.79878E+03         0.00000E+00
    0.00000E+00         0.00000E+00         0.00000E+00
 
    0.24602E+04         0.20344E+04         0.00000E+00
    0.20344E+04         0.85307E+03         0.00000E+00
    0.00000E+00         0.00000E+00         0.00000E+00
 
    0.23657E+04         0.20848E+04         0.00000E+00
    0.20848E+04         0.90874E+03         0.00000E+00
    0.00000E+00         0.00000E+00         0.00000E+00
 
    0.22681E+04         0.21332E+04         0.00000E+00
    0.21332E+04         0.96575E+03         0.00000E+00
    0.00000E+00         0.00000E+00         0.00000E+00
 
    0.21673E+04         0.21795E+04         0.00000E+00
    0.21795E+04         0.10240E+04         0.00000E+00
    0.00000E+00         0.00000E+00         0.00000E+00
 
    0.20636E+04         0.22237E+04         0.00000E+00
    0.22237E+04         0.10835E+04         0.00000E+00
    0.00000E+00         0.00000E+00         0.00000E+00
 
    0.19569E+04         0.22658E+04         0.00000E+00
    0.22658E+04         0.11442E+04         0.00000E+00
    0.00000E+00         0.00000E+00         0.00000E+00
 
    0.18474E+04         0.23055E+04         0.00000E+00
    0.23055E+04         0.12060E+04         0.00000E+00
    0.00000E+00         0.00000E+00         0.00000E+00
 
    0.17351E+04         0.23430E+04         0.00000E+00
    0.23430E+04         0.12688E+04         0.00000E+00
    0.00000E+00         0.00000E+00         0.00000E+00
 
    0.16202E+04         0.23781E+04         0.00000E+00
    0.23781E+04         0.13326E+04         0.00000E+00
    0.00000E+00         0.00000E+00         0.00000E+00
 
    0.15027E+04         0.24107E+04         0.00000E+00
    0.24107E+04         0.13973E+04         0.00000E+00
    0.00000E+00         0.00000E+00         0.00000E+00
 
    0.13828E+04         0.24409E+04         0.00000E+00
    0.24409E+04         0.14629E+04         0.00000E+00
    0.00000E+00         0.00000E+00         0.00000E+00
 
    0.12604E+04         0.24686E+04         0.00000E+00
    0.24686E+04         0.15292E+04         0.00000E+00
    0.00000E+00         0.00000E+00         0.00000E+00
 
    0.11358E+04         0.24938E+04         0.00000E+00
    0.24938E+04         0.15962E+04         0.00000E+00
    0.00000E+00         0.00000E+00         0.00000E+00
 
    0.10091E+04         0.25163E+04         0.00000E+00
    0.25163E+04         0.16639E+04         0.00000E+00
    0.00000E+00         0.00000E+00         0.00000E+00
 
    0.88022E+03         0.25361E+04         0.00000E+00
    0.25361E+04         0.17322E+04         0.00000E+00
    0.00000E+00         0.00000E+00         0.00000E+00
 
    0.74941E+03         0.25533E+04         0.00000E+00
    0.25533E+04         0.18010E+04         0.00000E+00
    0.00000E+00         0.00000E+00         0.00000E+00
 
    0.61676E+03         0.25677E+04         0.00000E+00
    0.25677E+04         0.18702E+04         0.00000E+00
    0.00000E+00         0.00000E+00         0.00000E+00
 
    0.48236E+03         0.25794E+04         0.00000E+00
    0.25794E+04         0.19397E+04         0.00000E+00
    0.00000E+00         0.00000E+00         0.00000E+00
 
    0.34633E+03         0.25882E+04         0.00000E+00
    0.25882E+04         0.20095E+04         0.00000E+00
    0.00000E+00         0.00000E+00         0.00000E+00
 
    0.20877E+03         0.25942E+04         0.00000E+00
    0.25942E+04         0.20796E+04         0.00000E+00
    0.00000E+00         0.00000E+00         0.00000E+00
 
    0.69816E+02         0.25973E+04         0.00000E+00
    0.25973E+04         0.21497E+04         0.00000E+00
    0.00000E+00         0.00000E+00         0.00000E+00
 
    0.39811E+04         0.42299E+02         0.00000E+00
    0.42299E+02        -0.56678E+01         0.00000E+00
    0.00000E+00         0.00000E+00         0.00000E+00
 
    0.40005E+04         0.12821E+03         0.00000E+00
    0.12821E+03        -0.34204E+01         0.00000E+00
    0.00000E+00         0.00000E+00         0.00000E+00
 
    0.40153E+04         0.21447E+03         0.00000E+00
    0.21447E+03         0.10952E+01         0.00000E+00
    0.00000E+00         0.00000E+00         0.00000E+00
 
    0.40257E+04         0.30098E+03         0.00000E+00
    0.30098E+03         0.78865E+01         0.00000E+00
    0.00000E+00         0.00000E+00         0.00000E+00
 
    0.40314E+04         0.38765E+03         0.00000E+00
    0.38765E+03         0.16958E+02         0.00000E+00
    0.00000E+00         0.00000E+00         0.00000E+00
 
    0.40326E+04         0.47438E+03         0.00000E+00
    0.47438E+03         0.28313E+02         0.00000E+00
    0.00000E+00         0.00000E+00         0.00000E+00
 
    0.40293E+04         0.56107E+03         0.00000E+00
    0.56107E+03         0.41950E+02         0.00000E+00
    0.00000E+00         0.00000E+00         0.00000E+00
 
    0.40213E+04         0.64762E+03         0.00000E+00
    0.64762E+03         0.57867E+02         0.00000E+00
    0.00000E+00         0.00000E+00         0.00000E+00
 
    0.40088E+04         0.73393E+03         0.00000E+00
    0.73393E+03         0.76058E+02         0.00000E+00
    0.00000E+00         0.00000E+00         0.00000E+00
 
    0.39918E+04         0.81992E+03         0.00000E+00
    0.81992E+03         0.96516E+02         0.00000E+00
    0.00000E+00         0.00000E+00         0.00000E+00
 
    0.39702E+04         0.90547E+03         0.00000E+00
    0.90547E+03         0.11923E+03         0.00000E+00
    0.00000E+00         0.00000E+00         0.00000E+00
 
    0.39440E+04         0.99050E+03         0.00000E+00
    0.99050E+03         0.14419E+03         0.00000E+00
    0.00000E+00         0.00000E+00         0.00000E+00
 
    0.39133E+04         0.10749E+04         0.00000E+00
    0.10749E+04         0.17137E+03         0.00000E+00
    0.00000E+00         0.00000E+00         0.00000E+00
 
    0.38781E+04         0.11586E+04         0.00000E+00
    0.11586E+04         0.20077E+03         0.00000E+00
    0.00000E+00         0.00000E+00         0.00000E+00
 
    0.38384E+04         0.12415E+04         0.00000E+00
    0.12415E+04         0.23235E+03         0.00000E+00
    0.00000E+00         0.00000E+00         0.00000E+00
 
    0.37943E+04         0.13234E+04         0.00000E+00
    0.13234E+04         0.26610E+03         0.00000E+00
    0.00000E+00         0.00000E+00         0.00000E+00
 
    0.37458E+04         0.14044E+04         0.00000E+00
    0.14044E+04         0.30199E+03         0.00000E+00
    0.00000E+00         0.00000E+00         0.00000E+00
 
    0.36929E+04         0.14843E+04         0.00000E+00
    0.14843E+04         0.33999E+03         0.00000E+00
    0.00000E+00         0.00000E+00         0.00000E+00
 
    0.36356E+04         0.15629E+04         0.00000E+00
    0.15629E+04         0.38007E+03         0.00000E+00
    0.00000E+00         0.00000E+00         0.00000E+00
 
    0.35740E+04         0.16403E+04         0.00000E+00
    0.16403E+04         0.42221E+03         0.00000E+00
    0.00000E+00         0.00000E+00         0.00000E+00
 
    0.35082E+04         0.17163E+04         0.00000E+00
    0.17163E+04         0.46635E+03         0.00000E+00
    0.00000E+00         0.00000E+00         0.00000E+00
 
    0.34382E+04         0.17909E+04         0.00000E+00
    0.17909E+04         0.51248E+03         0.00000E+00
    0.00000E+00         0.00000E+00         0.00000E+00
 
    0.33640E+04         0.18639E+04         0.00000E+00
    0.18639E+04         0.56054E+03         0.00000E+00
    0.00000E+00         0.00000E+00         0.00000E+00
 
    0.32858E+04         0.19353E+04         0.00000E+00
    0.19353E+04         0.61049E+03         0.00000E+00
    0.00000E+00         0.00000E+00         0.00000E+00
 
    0.32035E+04         0.20049E+04         0.00000E+00
    0.20049E+04         0.66230E+03         0.00000E+00
    0.00000E+00         0.00000E+00         0.00000E+00
 
    0.31172E+04         0.20727E+04         0.00000E+00
    0.20727E+04         0.71591E+03         0.00000E+00
    0.00000E+00         0.00000E+00         0.00000E+00
 
    0.30270E+04         0.21387E+04         0.00000E+00
    0.21387E+04         0.77128E+03         0.00000E+00
    0.00000E+00         0.00000E+00         0.00000E+00
 
    0.29330E+04         0.22026E+04         0.00000E+00
    0.22026E+04         0.82835E+03         0.00000E+00
    0.00000E+00         0.00000E+00         0.00000E+00
 
    0.28353E+04         0.22646E+04         0.00000E+00
    0.22646E+04         0.88707E+03         0.00000E+00
    0.00000E+00         0.00000E+00         0.00000E+00
 
    0.27338E+04         0.23243E+04         0.00000E+00
    0.23243E+04         0.94739E+03         0.00000E+00
    0.00000E+00         0.00000E+00         0.00000E+00
 
    0.26288E+04         0.23819E+04         0.00000E+00
    0.23819E+04         0.10092E+04         0.00000E+00
    0.00000E+00         0.00000E+00         0.00000E+00
 
    0.25203E+04         0.24372E+04         0.00000E+00
    0.24372E+04         0.10726E+04         0.00000E+00
    0.00000E+00         0.00000E+00         0.00000E+00
 
    0.24083E+04         0.24901E+04         0.00000E+00
    0.24901E+04         0.11373E+04         0.00000E+00
    0.00000E+00         0.00000E+00         0.00000E+00
 
    0.22930E+04         0.25406E+04         0.00000E+00
    0.25406E+04         0.12035E+04         0.00000E+00
    0.00000E+00         0.00000E+00         0.00000E+00
 
    0.21744E+04         0.25886E+04         0.00000E+00
    0.25886E+04         0.12709E+04         0.00000E+00
    0.00000E+00         0.00000E+00         0.00000E+00
 
    0.20527E+04         0.26340E+04         0.00000E+00
    0.26340E+04         0.13395E+04         0.00000E+00
    0.00000E+00         0.00000E+00         0.00000E+00
 
    0.19280E+04         0.26767E+04         0.00000E+00
    0.26767E+04         0.14093E+04         0.00000E+00
    0.00000E+00         0.00000E+00         0.00000E+00
 
    0.18003E+04         0.27168E+04         0.00000E+00
    0.27168E+04         0.14802E+04         0.00000E+00
    0.00000E+00         0.00000E+00         0.00000E+00
 
    0.16697E+04         0.27542E+04         0.00000E+00
    0.27542E+04         0.15520E+04         0.00000E+00
    0.00000E+00         0.00000E+00         0.00000E+00
 
    0.15364E+04         0.27887E+04         0.00000E+00
    0.27887E+04         0.16249E+04         0.00000E+00
    0.00000E+00         0.00000E+00         0.00000E+00
 
    0.14005E+04         0.28203E+04         0.00000E+00
    0.28203E+04         0.16986E+04         0.00000E+00
    0.00000E+00         0.00000E+00         0.00000E+00
 
    0.12620E+04         0.28490E+04         0.00000E+00
    0.28490E+04         0.17731E+04         0.00000E+00
    0.00000E+00         0.00000E+00         0.00000E+00
 
    0.11212E+04         0.28747E+04         0.00000E+00
    0.28747E+04         0.18483E+04         0.00000E+00
    0.00000E+00         0.00000E+00         0.00000E+00
 
    0.97800E+03         0.28974E+04         0.00000E+00
    0.28974E+04         0.19241E+04         0.00000E+00
    0.00000E+00         0.00000E+00         0.00000E+00
 
    0.83266E+03         0.29170E+04         0.00000E+00
    0.29170E+04         0.20005E+04         0.00000E+00
    0.00000E+00         0.00000E+00         0.00000E+00
 
    0.68527E+03         0.29335E+04         0.00000E+00
    0.29335E+04         0.20774E+04         0.00000E+00
    0.00000E+00         0.00000E+00         0.00000E+00
 
    0.53594E+03         0.29468E+04         0.00000E+00
    0.29468E+04         0.21547E+04         0.00000E+00
    0.00000E+00         0.00000E+00         0.00000E+00
 
    0.38479E+03         0.29569E+04         0.00000E+00
    0.29569E+04         0.22323E+04         0.00000E+00
    0.00000E+00         0.00000E+00         0.00000E+00
 
    0.23196E+03         0.29638E+04         0.00000E+00
    0.29638E+04         0.23101E+04         0.00000E+00
    0.00000E+00         0.00000E+00         0.00000E+00
 
    0.77570E+02         0.29674E+04         0.00000E+00
    0.29674E+04         0.23880E+04         0.00000E+00
    0.00000E+00         0.00000E+00         0.00000E+00
 
    0.44374E+04         0.48190E+02         0.00000E+00
    0.48190E+02        -0.70169E+01         0.00000E+00
    0.00000E+00         0.00000E+00         0.00000E+00
 
    0.44590E+04         0.14605E+03         0.00000E+00
    0.14605E+03        -0.45117E+01         0.00000E+00
    0.00000E+00         0.00000E+00         0.00000E+00
 
    0.44754E+04         0.24431E+03         0.00000E+00
    0.24431E+03         0.52166E+00         0.00000E+00
    0.00000E+00         0.00000E+00         0.00000E+00
 
    0.44868E+04         0.34286E+03         0.00000E+00
    0.34286E+03         0.80912E+01         0.00000E+00
    0.00000E+00         0.00000E+00         0.00000E+00
 
    0.44932E+04         0.44158E+03         0.00000E+00
    0.44158E+03         0.18202E+02         0.00000E+00
    0.00000E+00         0.00000E+00         0.00000E+00
 
    0.44944E+04         0.54036E+03         0.00000E+00
    0.54036E+03         0.30857E+02         0.00000E+00
    0.00000E+00         0.00000E+00         0.00000E+00
 
    0.44906E+04         0.63909E+03         0.00000E+00
    0.63909E+03         0.46056E+02         0.00000E+00
    0.00000E+00         0.00000E+00         0.00000E+00
 
    0.44817E+04         0.73767E+03         0.00000E+00
    0.73767E+03         0.63795E+02         0.00000E+00
    0.00000E+00         0.00000E+00         0.00000E+00
 
    0.44676E+04         0.83597E+03         0.00000E+00
    0.83597E+03         0.84067E+02         0.00000E+00
    0.00000E+00         0.00000E+00         0.00000E+00
 
    0.44485E+04         0.93390E+03         0.00000E+00
    0.93390E+03         0.10687E+03         0.00000E+00
    0.00000E+00         0.00000E+00         0.00000E+00
 
    0.44244E+04         0.10313E+04         0.00000E+00
    0.10313E+04         0.13218E+03         0.00000E+00
    0.00000E+00         0.00000E+00         0.00000E+00
 
    0.43951E+04         0.11282E+04         0.00000E+00
    0.11282E+04         0.15999E+03         0.00000E+00
    0.00000E+00         0.00000E+00         0.00000E+00
 
    0.43608E+04         0.12243E+04         0.00000E+00
    0.12243E+04         0.19028E+03         0.00000E+00
    0.00000E+00         0.00000E+00         0.00000E+00
 
    0.43215E+04         0.13196E+04         0.00000E+00
    0.13196E+04         0.22303E+03         0.00000E+00
    0.00000E+00         0.00000E+00         0.00000E+00
 
    0.42773E+04         0.14140E+04         0.00000E+00
    0.14140E+04         0.25822E+03         0.00000E+00
    0.00000E+00         0.00000E+00         0.00000E+00
 
    0.42280E+04         0.15073E+04         0.00000E+00
    0.15073E+04         0.29583E+03         0.00000E+00
    0.00000E+00         0.00000E+00         0.00000E+00
 
    0.41739E+04         0.15995E+04         0.00000E+00
    0.15995E+04         0.33581E+03         0.00000E+00
    0.00000E+00         0.00000E+00         0.00000E+00
 
    0.41148E+04         0.16904E+04         0.00000E+00
    0.16904E+04         0.37816E+03         0.00000E+00
    0.00000E+00         0.00000E+00         0.00000E+00
 
    0.40510E+04         0.17800E+04         0.00000E+00
    0.17800E+04         0.42281E+03         0.00000E+00
    0.00000E+00         0.00000E+00         0.00000E+00
 
    0.39823E+04         0.18681E+04         0.00000E+00
    0.18681E+04         0.46976E+03         0.00000E+00
    0.00000E+00         0.00000E+00         0.00000E+00
 
    0.39089E+04         0.19547E+04         0.00000E+00
    0.19547E+04         0.51894E+03         0.00000E+00
    0.00000E+00         0.00000E+00         0.00000E+00
 
    0.38308E+04         0.20396E+04         0.00000E+00
    0.20396E+04         0.57033E+03         0.00000E+00
    0.00000E+00         0.00000E+00         0.00000E+00
 
    0.37481E+04         0.21227E+04         0.00000E+00
    0.21227E+04         0.62387E+03         0.00000E+00
    0.00000E+00         0.00000E+00         0.00000E+00
 
    0.36609E+04         0.22039E+04         0.00000E+00
    0.22039E+04         0.67952E+03         0.00000E+00
    0.00000E+00         0.00000E+00         0.00000E+00
 
    0.35691E+04         0.22832E+04         0.00000E+00
    0.22832E+04         0.73724E+03         0.00000E+00
    0.00000E+00         0.00000E+00         0.00000E+00
 
    0.34730E+04         0.23604E+04         0.00000E+00
    0.23604E+04         0.79696E+03         0.00000E+00
    0.00000E+00         0.00000E+00         0.00000E+00
 
    0.33725E+04         0.24355E+04         0.00000E+00
    0.24355E+04         0.85864E+03         0.00000E+00
    0.00000E+00         0.00000E+00         0.00000E+00
 
    0.32677E+04         0.25083E+04         0.00000E+00
    0.25083E+04         0.92221E+03         0.00000E+00
    0.00000E+00         0.00000E+00         0.00000E+00
 
    0.31588E+04         0.25788E+04         0.00000E+00
    0.25788E+04         0.98763E+03         0.00000E+00
    0.00000E+00         0.00000E+00         0.00000E+00
 
    0.30457E+04         0.26469E+04         0.00000E+00
    0.26469E+04         0.10548E+04         0.00000E+00
    0.00000E+00         0.00000E+00         0.00000E+00
 
    0.29287E+04         0.27124E+04         0.00000E+00
    0.27124E+04         0.11237E+04         0.00000E+00
    0.00000E+00         0.00000E+00         0.00000E+00
 
    0.28077E+04         0.27753E+04         0.00000E+00
    0.27753E+04         0.11943E+04         0.00000E+00
    0.00000E+00         0.00000E+00         0.00000E+00
 
    0.26830E+04         0.28356E+04         0.00000E+00
    0.28356E+04         0.12664E+04         0.00000E+00
    0.00000E+00         0.00000E+00         0.00000E+00
 
    0.25545E+04         0.28930E+04         0.00000E+00
    0.28930E+04         0.13401E+04         0.00000E+00
    0.00000E+00         0.00000E+00         0.00000E+00
 
    0.24224E+04         0.29477E+04         0.00000E+00
    0.29477E+04         0.14151E+04         0.00000E+00
    0.00000E+00         0.00000E+00         0.00000E+00
 
    0.22868E+04         0.29994E+04         0.00000E+00
    0.29994E+04         0.14916E+04         0.00000E+00
    0.00000E+00         0.00000E+00         0.00000E+00
 
    0.21478E+04         0.30481E+04         0.00000E+00
    0.30481E+04         0.15693E+04         0.00000E+00
    0.00000E+00         0.00000E+00         0.00000E+00
 
    0.20055E+04         0.30937E+04         0.00000E+00
    0.30937E+04         0.16483E+04         0.00000E+00
    0.00000E+00         0.00000E+00         0.00000E+00
 
    0.18600E+04         0.31362E+04         0.00000E+00
    0.31362E+04         0.17283E+04         0.00000E+00
    0.00000E+00         0.00000E+00         0.00000E+00
 
    0.17115E+04         0.31755E+04         0.00000E+00
    0.31755E+04         0.18095E+04         0.00000E+00
    0.00000E+00         0.00000E+00         0.00000E+00
 
    0.15601E+04         0.32115E+04         0.00000E+00
    0.32115E+04         0.18916E+04         0.00000E+00
    0.00000E+00         0.00000E+00         0.00000E+00
 
    0.14059E+04         0.32442E+04         0.00000E+00
    0.32442E+04         0.19745E+04         0.00000E+00
    0.00000E+00         0.00000E+00         0.00000E+00
 
    0.12489E+04         0.32735E+04         0.00000E+00
    0.32735E+04         0.20583E+04         0.00000E+00
    0.00000E+00         0.00000E+00         0.00000E+00
 
    0.10894E+04         0.32993E+04         0.00000E+00
    0.32993E+04         0.21428E+04         0.00000E+00
    0.00000E+00         0.00000E+00         0.00000E+00
 
    0.92754E+03         0.33216E+04         0.00000E+00
    0.33216E+04         0.22279E+04         0.00000E+00
    0.00000E+00         0.00000E+00         0.00000E+00
 
    0.76335E+03         0.33404E+04         0.00000E+00
    0.33404E+04         0.23135E+04         0.00000E+00
    0.00000E+00         0.00000E+00         0.00000E+00
 
    0.59700E+03         0.33556E+04         0.00000E+00
    0.33556E+04         0.23996E+04         0.00000E+00
    0.00000E+00         0.00000E+00         0.00000E+00
 
    0.42863E+03         0.33671E+04         0.00000E+00
    0.33671E+04         0.24860E+04         0.00000E+00
    0.00000E+00         0.00000E+00         0.00000E+00
 
    0.25839E+03         0.33749E+04         0.00000E+00
    0.33749E+04         0.25727E+04         0.00000E+00
    0.00000E+00         0.00000E+00         0.00000E+00
 
    0.86407E+02         0.33790E+04         0.00000E+00
    0.33790E+04         0.26595E+04         0.00000E+00
    0.00000E+00         0.00000E+00         0.00000E+00
 
    0.49565E+04         0.54763E+02         0.00000E+00
    0.54763E+02        -0.86696E+01         0.00000E+00
    0.00000E+00         0.00000E+00         0.00000E+00
 
    0.49804E+04         0.16597E+03         0.00000E+00
    0.16597E+03        -0.58711E+01         0.00000E+00
    0.00000E+00         0.00000E+00         0.00000E+00
 
    0.49987E+04         0.27761E+03         0.00000E+00
    0.27761E+03        -0.24890E+00         0.00000E+00
    0.00000E+00         0.00000E+00         0.00000E+00
 
    0.50113E+04         0.38958E+03         0.00000E+00
    0.38958E+03         0.82059E+01         0.00000E+00
    0.00000E+00         0.00000E+00         0.00000E+00
 
    0.50183E+04         0.50174E+03         0.00000E+00
    0.50174E+03         0.19499E+02         0.00000E+00
    0.00000E+00         0.00000E+00         0.00000E+00
 
    0.50196E+04         0.61397E+03         0.00000E+00
    0.61397E+03         0.33633E+02         0.00000E+00
    0.00000E+00         0.00000E+00         0.00000E+00
 
    0.50152E+04         0.72615E+03         0.00000E+00
    0.72615E+03         0.50607E+02         0.00000E+00
    0.00000E+00         0.00000E+00         0.00000E+00
 
    0.50051E+04         0.83814E+03         0.00000E+00
    0.83814E+03         0.70418E+02         0.00000E+00
    0.00000E+00         0.00000E+00         0.00000E+00
 
    0.49893E+04         0.94981E+03         0.00000E+00
    0.94981E+03         0.93057E+02         0.00000E+00
    0.00000E+00         0.00000E+00         0.00000E+00
 
    0.49679E+04         0.10611E+04         0.00000E+00
    0.10611E+04         0.11852E+03         0.00000E+00
    0.00000E+00         0.00000E+00         0.00000E+00
 
    0.49408E+04         0.11717E+04         0.00000E+00
    0.11717E+04         0.14678E+03         0.00000E+00
    0.00000E+00         0.00000E+00         0.00000E+00
 
    0.49080E+04         0.12817E+04         0.00000E+00
    0.12817E+04         0.17784E+03         0.00000E+00
    0.00000E+00         0.00000E+00         0.00000E+00
 
    0.48697E+04         0.13909E+04         0.00000E+00
    0.13909E+04         0.21166E+03         0.00000E+00
    0.00000E+00         0.00000E+00         0.00000E+00
 
    0.48257E+04         0.14992E+04         0.00000E+00
    0.14992E+04         0.24823E+03         0.00000E+00
    0.00000E+00         0.00000E+00         0.00000E+00
 
    0.47762E+04         0.16064E+04         0.00000E+00
    0.16064E+04         0.28753E+03         0.00000E+00
    0.00000E+00         0.00000E+00         0.00000E+00
 
    0.47211E+04         0.17124E+04         0.00000E+00
    0.17124E+04         0.32951E+03         0.00000E+00
    0.00000E+00         0.00000E+00         0.00000E+00
 
    0.46605E+04         0.18171E+04         0.00000E+00
    0.18171E+04         0.37416E+03         0.00000E+00
    0.00000E+00         0.00000E+00         0.00000E+00
 
    0.45945E+04         0.19204E+04         0.00000E+00
    0.19204E+04         0.42143E+03         0.00000E+00
    0.00000E+00         0.00000E+00         0.00000E+00
 
    0.45231E+04         0.20221E+04         0.00000E+00
    0.20221E+04         0.47129E+03         0.00000E+00
    0.00000E+00         0.00000E+00         0.00000E+00
 
    0.44464E+04         0.21222E+04         0.00000E+00
    0.21222E+04         0.52370E+03         0.00000E+00
    0.00000E+00         0.00000E+00         0.00000E+00
 
    0.43644E+04         0.22205E+04         0.00000E+00
    0.22205E+04         0.57861E+03         0.00000E+00
    0.00000E+00         0.00000E+00         0.00000E+00
 
    0.42771E+04         0.23169E+04         0.00000E+00
    0.23169E+04         0.63598E+03         0.00000E+00
    0.00000E+00         0.00000E+00         0.00000E+00
 
    0.41847E+04         0.24113E+04         0.00000E+00
    0.24113E+04         0.69575E+03         0.00000E+00
    0.00000E+00         0.00000E+00         0.00000E+00
 
    0.40873E+04         0.25035E+04         0.00000E+00
    0.25035E+04         0.75788E+03         0.00000E+00
    0.00000E+00         0.00000E+00         0.00000E+00
 
    0.39848E+04         0.25936E+04         0.00000E+00
    0.25936E+04         0.82230E+03         0.00000E+00
    0.00000E+00         0.00000E+00         0.00000E+00
 
    0.38774E+04         0.26813E+04         0.00000E+00
    0.26813E+04         0.88897E+03         0.00000E+00
    0.00000E+00         0.00000E+00         0.00000E+00
 
    0.37651E+04         0.27665E+04         0.00000E+00
    0.27665E+04         0.95782E+03         0.00000E+00
    0.00000E+00         0.00000E+00         0.00000E+00
 
    0.36481E+04         0.28492E+04         0.00000E+00
    0.28492E+04         0.10288E+04         0.00000E+00
    0.00000E+00         0.00000E+00         0.00000E+00
 
    0.35264E+04         0.29293E+04         0.00000E+00
    0.29293E+04         0.11018E+04         0.00000E+00
    0.00000E+00         0.00000E+00         0.00000E+00
 
    0.34002E+04         0.30065E+04         0.00000E+00
    0.30065E+04         0.11768E+04         0.00000E+00
    0.00000E+00         0.00000E+00         0.00000E+00
 
    0.32695E+04         0.30809E+04         0.00000E+00
    0.30809E+04         0.12537E+04         0.00000E+00
    0.00000E+00         0.00000E+00         0.00000E+00
 
    0.31344E+04         0.31524E+04         0.00000E+00
    0.31524E+04         0.13325E+04         0.00000E+00
    0.00000E+00         0.00000E+00         0.00000E+00
 
    0.29951E+04         0.32208E+04         0.00000E+00
    0.32208E+04         0.14130E+04         0.00000E+00
    0.00000E+00         0.00000E+00         0.00000E+00
 
    0.28516E+04         0.32861E+04         0.00000E+00
    0.32861E+04         0.14952E+04         0.00000E+00
    0.00000E+00         0.00000E+00         0.00000E+00
 
    0.27042E+04         0.33481E+04         0.00000E+00
    0.33481E+04         0.15790E+04         0.00000E+00
    0.00000E+00         0.00000E+00         0.00000E+00
 
    0.25528E+04         0.34068E+04         0.00000E+00
    0.34068E+04         0.16643E+04         0.00000E+00
    0.00000E+00         0.00000E+00         0.00000E+00
 
    0.23976E+04         0.34621E+04         0.00000E+00
    0.34621E+04         0.17511E+04         0.00000E+00
    0.00000E+00         0.00000E+00         0.00000E+00
 
    0.22387E+04         0.35140E+04         0.00000E+00
    0.35140E+04         0.18392E+04         0.00000E+00
    0.00000E+00         0.00000E+00         0.00000E+00
 
    0.20763E+04         0.35622E+04         0.00000E+00
    0.35622E+04         0.19286E+04         0.00000E+00
    0.00000E+00         0.00000E+00         0.00000E+00
 
    0.19105E+04         0.36068E+04         0.00000E+00
    0.36068E+04         0.20191E+04         0.00000E+00
    0.00000E+00         0.00000E+00         0.00000E+00
 
    0.17415E+04         0.36477E+04         0.00000E+00
    0.36477E+04         0.21107E+04         0.00000E+00
    0.00000E+00         0.00000E+00         0.00000E+00
 
    0.15693E+04         0.36849E+04         0.00000E+00
    0.36849E+04         0.22034E+04         0.00000E+00
    0.00000E+00         0.00000E+00         0.00000E+00
 
    0.13941E+04         0.37181E+04         0.00000E+00
    0.37181E+04         0.22969E+04         0.00000E+00
    0.00000E+00         0.00000E+00         0.00000E+00
 
    0.12161E+04         0.37475E+04         0.00000E+00
    0.37475E+04         0.23912E+04         0.00000E+00
    0.00000E+00         0.00000E+00         0.00000E+00
 
    0.10354E+04         0.37728E+04         0.00000E+00
    0.37728E+04         0.24861E+04         0.00000E+00
    0.00000E+00         0.00000E+00         0.00000E+00
 
    0.85207E+03         0.37942E+04         0.00000E+00
    0.37942E+04         0.25817E+04         0.00000E+00
    0.00000E+00         0.00000E+00         0.00000E+00
 
    0.66638E+03         0.38114E+04         0.00000E+00
    0.38114E+04         0.26778E+04         0.00000E+00
    0.00000E+00         0.00000E+00         0.00000E+00
 
    0.47845E+03         0.38245E+04         0.00000E+00
    0.38245E+04         0.27742E+04         0.00000E+00
    0.00000E+00         0.00000E+00         0.00000E+00
 
    0.28842E+03         0.38334E+04         0.00000E+00
    0.38334E+04         0.28710E+04         0.00000E+00
    0.00000E+00         0.00000E+00         0.00000E+00
 
    0.96448E+02         0.38381E+04         0.00000E+00
    0.38381E+04         0.29679E+04         0.00000E+00
    0.00000E+00         0.00000E+00         0.00000E+00
 
    0.55456E+04         0.62114E+02         0.00000E+00
    0.62114E+02        -0.10695E+02         0.00000E+00
    0.00000E+00         0.00000E+00         0.00000E+00
 
    0.55722E+04         0.18823E+03         0.00000E+00
    0.18823E+03        -0.75633E+01         0.00000E+00
    0.00000E+00         0.00000E+00         0.00000E+00
 
    0.55925E+04         0.31484E+03         0.00000E+00
    0.31484E+03        -0.12728E+01         0.00000E+00
    0.00000E+00         0.00000E+00         0.00000E+00
 
    0.56065E+04         0.44182E+03         0.00000E+00
    0.44182E+03         0.81866E+01         0.00000E+00
    0.00000E+00         0.00000E+00         0.00000E+00
 
    0.56142E+04         0.56900E+03         0.00000E+00
    0.56900E+03         0.20821E+02         0.00000E+00
    0.00000E+00         0.00000E+00         0.00000E+00
 
    0.56155E+04         0.69627E+03         0.00000E+00
    0.69627E+03         0.36633E+02         0.00000E+00
    0.00000E+00         0.00000E+00         0.00000E+00
 
    0.56104E+04         0.82346E+03         0.00000E+00
    0.82346E+03         0.55622E+02         0.00000E+00
    0.00000E+00         0.00000E+00         0.00000E+00
 
    0.55990E+04         0.95043E+03         0.00000E+00
    0.95043E+03         0.77783E+02         0.00000E+00
    0.00000E+00         0.00000E+00         0.00000E+00
 
    0.55812E+04         0.10771E+04         0.00000E+00
    0.10771E+04         0.10311E+03         0.00000E+00
    0.00000E+00         0.00000E+00         0.00000E+00
 
    0.55571E+04         0.12032E+04         0.00000E+00
    0.12032E+04         0.13159E+03         0.00000E+00
    0.00000E+00         0.00000E+00         0.00000E+00
 
    0.55267E+04         0.13287E+04         0.00000E+00
    0.13287E+04         0.16320E+03         0.00000E+00
    0.00000E+00         0.00000E+00         0.00000E+00
 
    0.54899E+04         0.14534E+04         0.00000E+00
    0.14534E+04         0.19794E+03         0.00000E+00
    0.00000E+00         0.00000E+00         0.00000E+00
 
    0.54469E+04         0.15771E+04         0.00000E+00
    0.15771E+04         0.23577E+03         0.00000E+00
    0.00000E+00         0.00000E+00         0.00000E+00
 
    0.53976E+04         0.16999E+04         0.00000E+00
    0.16999E+04         0.27667E+03         0.00000E+00
    0.00000E+00         0.00000E+00         0.00000E+00
 
    0.53421E+04         0.18214E+04         0.00000E+00
    0.18214E+04         0.32062E+03         0.00000E+00
    0.00000E+00         0.00000E+00         0.00000E+00
 
    0.52804E+04         0.19415E+04         0.00000E+00
    0.19415E+04         0.36757E+03         0.00000E+00
    0.00000E+00         0.00000E+00         0.00000E+00
 
    0.52126E+04         0.20602E+04         0.00000E+00
    0.20602E+04         0.41750E+03         0.00000E+00
    0.00000E+00         0.00000E+00         0.00000E+00
 
    0.51386E+04         0.21773E+04         0.00000E+00
    0.21773E+04         0.47037E+03         0.00000E+00
    0.00000E+00         0.00000E+00         0.00000E+00
 
    0.50587E+04         0.22926E+04         0.00000E+00
    0.22926E+04         0.52613E+03         0.00000E+00
    0.00000E+00         0.00000E+00         0.00000E+00
 
    0.49728E+04         0.24060E+04         0.00000E+00
    0.24060E+04         0.58473E+03         0.00000E+00
    0.00000E+00         0.00000E+00         0.00000E+00
 
    0.48810E+04         0.25175E+04         0.00000E+00
    0.25175E+04         0.64614E+03         0.00000E+00
    0.00000E+00         0.00000E+00         0.00000E+00
 
    0.47833E+04         0.26267E+04         0.00000E+00
    0.26267E+04         0.71029E+03         0.00000E+00
    0.00000E+00         0.00000E+00         0.00000E+00
 
    0.46799E+04         0.27337E+04         0.00000E+00
    0.27337E+04         0.77712E+03         0.00000E+00
    0.00000E+00         0.00000E+00         0.00000E+00
 
    0.45708E+04         0.28383E+04         0.00000E+00
    0.28383E+04         0.84659E+03         0.00000E+00
    0.00000E+00         0.00000E+00         0.00000E+00
 
    0.44561E+04         0.29403E+04         0.00000E+00
    0.29403E+04         0.91863E+03         0.00000E+00
    0.00000E+00         0.00000E+00         0.00000E+00
 
    0.43360E+04         0.30397E+04         0.00000E+00
    0.30397E+04         0.99318E+03         0.00000E+00
    0.00000E+00         0.00000E+00         0.00000E+00
 
    0.42104E+04         0.31364E+04         0.00000E+00
    0.31364E+04         0.10702E+04         0.00000E+00
    0.00000E+00         0.00000E+00         0.00000E+00
 
    0.40795E+04         0.32301E+04         0.00000E+00
    0.32301E+04         0.11495E+04         0.00000E+00
    0.00000E+00         0.00000E+00         0.00000E+00
 
    0.39433E+04         0.33208E+04         0.00000E+00
    0.33208E+04         0.12311E+04         0.00000E+00
    0.00000E+00         0.00000E+00         0.00000E+00
 
    0.38021E+04         0.34084E+04         0.00000E+00
    0.34084E+04         0.13150E+04         0.00000E+00
    0.00000E+00         0.00000E+00         0.00000E+00
 
    0.36559E+04         0.34927E+04         0.00000E+00
    0.34927E+04         0.14010E+04         0.00000E+00
    0.00000E+00         0.00000E+00         0.00000E+00
 
    0.35049E+04         0.35737E+04         0.00000E+00
    0.35737E+04         0.14890E+04         0.00000E+00
    0.00000E+00         0.00000E+00         0.00000E+00
 
    0.33490E+04         0.36512E+04         0.00000E+00
    0.36512E+04         0.15790E+04         0.00000E+00
    0.00000E+00         0.00000E+00         0.00000E+00
 
    0.31886E+04         0.37252E+04         0.00000E+00
    0.37252E+04         0.16709E+04         0.00000E+00
    0.00000E+00         0.00000E+00         0.00000E+00
 
    0.30236E+04         0.37955E+04         0.00000E+00
    0.37955E+04         0.17646E+04         0.00000E+00
    0.00000E+00         0.00000E+00         0.00000E+00
 
    0.28543E+04         0.38620E+04         0.00000E+00
    0.38620E+04         0.18600E+04         0.00000E+00
    0.00000E+00         0.00000E+00         0.00000E+00
 
    0.26808E+04         0.39247E+04         0.00000E+00
    0.39247E+04         0.19570E+04         0.00000E+00
    0.00000E+00         0.00000E+00         0.00000E+00
 
    0.25031E+04         0.39834E+04         0.00000E+00
    0.39834E+04         0.20555E+04         0.00000E+00
    0.00000E+00         0.00000E+00         0.00000E+00
 
    0.23215E+04         0.40381E+04         0.00000E+00
    0.40381E+04         0.21555E+04         0.00000E+00
    0.00000E+00         0.00000E+00         0.00000E+00
 
    0.21362E+04         0.40887E+04         0.00000E+00
    0.40887E+04         0.22567E+04         0.00000E+00
    0.00000E+00         0.00000E+00         0.00000E+00
 
    0.19471E+04         0.41351E+04         0.00000E+00
    0.41351E+04         0.23591E+04         0.00000E+00
    0.00000E+00         0.00000E+00         0.00000E+00
 
    0.17546E+04         0.41771E+04         0.00000E+00
    0.41771E+04         0.24627E+04         0.00000E+00
    0.00000E+00         0.00000E+00         0.00000E+00
 
    0.15587E+04         0.42148E+04         0.00000E+00
    0.42148E+04         0.25672E+04         0.00000E+00
    0.00000E+00         0.00000E+00         0.00000E+00
 
    0.13596E+04         0.42481E+04         0.00000E+00
    0.42481E+04         0.26726E+04         0.00000E+00
    0.00000E+00         0.00000E+00         0.00000E+00
 
    0.11576E+04         0.42769E+04         0.00000E+00
    0.42769E+04         0.27788E+04         0.00000E+00
    0.00000E+00         0.00000E+00         0.00000E+00
 
    0.95265E+03         0.43011E+04         0.00000E+00
    0.43011E+04         0.28856E+04         0.00000E+00
    0.00000E+00         0.00000E+00         0.00000E+00
 
    0.74504E+03         0.43206E+04         0.00000E+00
    0.43206E+04         0.29930E+04         0.00000E+00
    0.00000E+00         0.00000E+00         0.00000E+00
 
    0.53492E+03         0.43355E+04         0.00000E+00
    0.43355E+04         0.31009E+04         0.00000E+00
    0.00000E+00         0.00000E+00         0.00000E+00
 
    0.32246E+03         0.43457E+04         0.00000E+00
    0.43457E+04         0.32090E+04         0.00000E+00
    0.00000E+00         0.00000E+00         0.00000E+00
 
    0.10783E+03         0.43510E+04         0.00000E+00
    0.43510E+04         0.33174E+04         0.00000E+00
    0.00000E+00         0.00000E+00         0.00000E+00
 
    0.62130E+04         0.70346E+02         0.00000E+00
    0.70346E+02        -0.13176E+02         0.00000E+00
    0.00000E+00         0.00000E+00         0.00000E+00
 
    0.62426E+04         0.21316E+03         0.00000E+00
    0.21316E+03        -0.96674E+01         0.00000E+00
    0.00000E+00         0.00000E+00         0.00000E+00
 
    0.62652E+04         0.35653E+03         0.00000E+00
    0.35653E+03        -0.26197E+01         0.00000E+00
    0.00000E+00         0.00000E+00         0.00000E+00
 
    0.62807E+04         0.50030E+03         0.00000E+00
    0.50030E+03         0.79778E+01         0.00000E+00
    0.00000E+00         0.00000E+00         0.00000E+00
 
    0.62891E+04         0.64431E+03         0.00000E+00
    0.64431E+03         0.22132E+02         0.00000E+00
    0.00000E+00         0.00000E+00         0.00000E+00
 
    0.62904E+04         0.78839E+03         0.00000E+00
    0.78839E+03         0.39845E+02         0.00000E+00
    0.00000E+00         0.00000E+00         0.00000E+00
 
    0.62846E+04         0.93239E+03         0.00000E+00
    0.93239E+03         0.61115E+02         0.00000E+00
    0.00000E+00         0.00000E+00         0.00000E+00
 
    0.62716E+04         0.10761E+04         0.00000E+00
    0.10761E+04         0.85938E+02         0.00000E+00
    0.00000E+00         0.00000E+00         0.00000E+00
 
    0.62516E+04         0.12195E+04         0.00000E+00
    0.12195E+04         0.11430E+03         0.00000E+00
    0.00000E+00         0.00000E+00         0.00000E+00
 
    0.62244E+04         0.13623E+04         0.00000E+00
    0.13623E+04         0.14620E+03         0.00000E+00
    0.00000E+00         0.00000E+00         0.00000E+00
 
    0.61902E+04         0.15043E+04         0.00000E+00
    0.15043E+04         0.18161E+03         0.00000E+00
    0.00000E+00         0.00000E+00         0.00000E+00
 
    0.61489E+04         0.16455E+04         0.00000E+00
    0.16455E+04         0.22051E+03         0.00000E+00
    0.00000E+00         0.00000E+00         0.00000E+00
 
    0.61005E+04         0.17856E+04         0.00000E+00
    0.17856E+04         0.26288E+03         0.00000E+00
    0.00000E+00         0.00000E+00         0.00000E+00
 
    0.60452E+04         0.19245E+04         0.00000E+00
    0.19245E+04         0.30869E+03         0.00000E+00
    0.00000E+00         0.00000E+00         0.00000E+00
 
    0.59829E+04         0.20620E+04         0.00000E+00
    0.20620E+04         0.35790E+03         0.00000E+00
    0.00000E+00         0.00000E+00         0.00000E+00
 
    0.59137E+04         0.21980E+04         0.00000E+00
    0.21980E+04         0.41049E+03         0.00000E+00
    0.00000E+00         0.00000E+00         0.00000E+00
 
    0.58376E+04         0.23323E+04         0.00000E+00
    0.23323E+04         0.46640E+03         0.00000E+00
    0.00000E+00         0.00000E+00         0.00000E+00
 
    0.57547E+04         0.24648E+04         0.00000E+00
    0.24648E+04         0.52560E+03         0.00000E+00
    0.00000E+00         0.00000E+00         0.00000E+00
 
    0.56651E+04         0.25953E+04         0.00000E+00
    0.25953E+04         0.58803E+03         0.00000E+00
    0.00000E+00         0.00000E+00         0.00000E+00
 
    0.55687E+04         0.27237E+04         0.00000E+00
    0.27237E+04         0.65365E+03         0.00000E+00
    0.00000E+00         0.00000E+00         0.00000E+00
 
    0.54658E+04         0.28498E+04         0.00000E+00
    0.28498E+04         0.72241E+03         0.00000E+00
    0.00000E+00         0.00000E+00         0.00000E+00
 
    0.53564E+04         0.29735E+04         0.00000E+00
    0.29735E+04         0.79423E+03         0.00000E+00
    0.00000E+00         0.00000E+00         0.00000E+00
 
    0.52405E+04         0.30945E+04         0.00000E+00
    0.30945E+04         0.86907E+03         0.00000E+00
    0.00000E+00         0.00000E+00         0.00000E+00
 
    0.51182E+04         0.32129E+04         0.00000E+00
    0.32129E+04         0.94684E+03         0.00000E+00
    0.00000E+00         0.00000E+00         0.00000E+00
 
    0.49897E+04         0.33283E+04         0.00000E+00
    0.33283E+04         0.10275E+04         0.00000E+00
    0.00000E+00         0.00000E+00         0.00000E+00
 
    0.48551E+04         0.34408E+04         0.00000E+00
    0.34408E+04         0.11110E+04         0.00000E+00
    0.00000E+00         0.00000E+00         0.00000E+00
 
    0.47144E+04         0.35501E+04         0.00000E+00
    0.35501E+04         0.11971E+04         0.00000E+00
    0.00000E+00         0.00000E+00         0.00000E+00
 
    0.45677E+04         0.36562E+04         0.00000E+00
    0.36562E+04         0.12860E+04         0.00000E+00
    0.00000E+00         0.00000E+00         0.00000E+00
 
    0.44153E+04         0.37588E+04         0.00000E+00
    0.37588E+04         0.13774E+04         0.00000E+00
    0.00000E+00         0.00000E+00         0.00000E+00
 
    0.42571E+04         0.38579E+04         0.00000E+00
    0.38579E+04         0.14712E+04         0.00000E+00
    0.00000E+00         0.00000E+00         0.00000E+00
 
    0.40933E+04         0.39533E+04         0.00000E+00
    0.39533E+04         0.15675E+04         0.00000E+00
    0.00000E+00         0.00000E+00         0.00000E+00
 
    0.39241E+04         0.40450E+04         0.00000E+00
    0.40450E+04         0.16661E+04         0.00000E+00
    0.00000E+00         0.00000E+00         0.00000E+00
 
    0.37496E+04         0.41327E+04         0.00000E+00
    0.41327E+04         0.17668E+04         0.00000E+00
    0.00000E+00         0.00000E+00         0.00000E+00
 
    0.35699E+04         0.42164E+04         0.00000E+00
    0.42164E+04         0.18697E+04         0.00000E+00
    0.00000E+00         0.00000E+00         0.00000E+00
 
    0.33852E+04         0.42959E+04         0.00000E+00
    0.42959E+04         0.19746E+04         0.00000E+00
    0.00000E+00         0.00000E+00         0.00000E+00
 
    0.31956E+04         0.43712E+04         0.00000E+00
    0.43712E+04         0.20814E+04         0.00000E+00
    0.00000E+00         0.00000E+00         0.00000E+00
 
    0.30013E+04         0.44422E+04         0.00000E+00
    0.44422E+04         0.21899E+04         0.00000E+00
    0.00000E+00         0.00000E+00         0.00000E+00
 
    0.28024E+04         0.45086E+04         0.00000E+00
    0.45086E+04         0.23002E+04         0.00000E+00
    0.00000E+00         0.00000E+00         0.00000E+00
 
    0.25990E+04         0.45705E+04         0.00000E+00
    0.45705E+04         0.24121E+04         0.00000E+00
    0.00000E+00         0.00000E+00         0.00000E+00
 
    0.23915E+04         0.46277E+04         0.00000E+00
    0.46277E+04         0.25254E+04         0.00000E+00
    0.00000E+00         0.00000E+00         0.00000E+00
 
    0.21798E+04         0.46802E+04         0.00000E+00
    0.46802E+04         0.26400E+04         0.00000E+00
    0.00000E+00         0.00000E+00         0.00000E+00
 
    0.19643E+04         0.47278E+04         0.00000E+00
    0.47278E+04         0.27559E+04         0.00000E+00
    0.00000E+00         0.00000E+00         0.00000E+00
 
    0.17450E+04         0.47705E+04         0.00000E+00
    0.47705E+04         0.28729E+04         0.00000E+00
    0.00000E+00         0.00000E+00         0.00000E+00
 
    0.15221E+04         0.48082E+04         0.00000E+00
    0.48082E+04         0.29909E+04         0.00000E+00
    0.00000E+00         0.00000E+00         0.00000E+00
 
    0.12959E+04         0.48408E+04         0.00000E+00
    0.48408E+04         0.31098E+04         0.00000E+00
    0.00000E+00         0.00000E+00         0.00000E+00
 
    0.10665E+04         0.48682E+04         0.00000E+00
    0.48682E+04         0.32294E+04         0.00000E+00
    0.00000E+00         0.00000E+00         0.00000E+00
 
    0.83405E+03         0.48903E+04         0.00000E+00
    0.48903E+04         0.33496E+04         0.00000E+00
    0.00000E+00         0.00000E+00         0.00000E+00
 
    0.59882E+03         0.49072E+04         0.00000E+00
    0.49072E+04         0.34703E+04         0.00000E+00
    0.00000E+00         0.00000E+00         0.00000E+00
 
    0.36098E+03         0.49187E+04         0.00000E+00
    0.49187E+04         0.35914E+04         0.00000E+00
    0.00000E+00         0.00000E+00         0.00000E+00
 
    0.12071E+03         0.49248E+04         0.00000E+00
    0.49248E+04         0.37127E+04         0.00000E+00
    0.00000E+00         0.00000E+00         0.00000E+00
 
    0.69680E+04         0.79576E+02         0.00000E+00
    0.79576E+02        -0.16216E+02         0.00000E+00
    0.00000E+00         0.00000E+00         0.00000E+00
 
    0.70011E+04         0.24110E+03         0.00000E+00
    0.24110E+03        -0.12280E+02         0.00000E+00
    0.00000E+00         0.00000E+00         0.00000E+00
 
    0.70262E+04         0.40325E+03         0.00000E+00
    0.40325E+03        -0.43760E+01         0.00000E+00
    0.00000E+00         0.00000E+00         0.00000E+00
 
    0.70433E+04         0.56585E+03         0.00000E+00
    0.56585E+03         0.75090E+01         0.00000E+00
    0.00000E+00         0.00000E+00         0.00000E+00
 
    0.70526E+04         0.72871E+03         0.00000E+00
    0.72871E+03         0.23382E+02         0.00000E+00
    0.00000E+00         0.00000E+00         0.00000E+00
 
    0.70538E+04         0.89164E+03         0.00000E+00
    0.89164E+03         0.43245E+02         0.00000E+00
    0.00000E+00         0.00000E+00         0.00000E+00
 
    0.70471E+04         0.10545E+04         0.00000E+00
    0.10545E+04         0.67096E+02         0.00000E+00
    0.00000E+00         0.00000E+00         0.00000E+00
 
    0.70324E+04         0.12170E+04         0.00000E+00
    0.12170E+04         0.94930E+02         0.00000E+00
    0.00000E+00         0.00000E+00         0.00000E+00
 
    0.70097E+04         0.13791E+04         0.00000E+00
    0.13791E+04         0.12674E+03         0.00000E+00
    0.00000E+00         0.00000E+00         0.00000E+00
 
    0.69791E+04         0.15405E+04         0.00000E+00
    0.15405E+04         0.16250E+03         0.00000E+00
    0.00000E+00         0.00000E+00         0.00000E+00
 
    0.69405E+04         0.17011E+04         0.00000E+00
    0.17011E+04         0.20220E+03         0.00000E+00
    0.00000E+00         0.00000E+00         0.00000E+00
 
    0.68940E+04         0.18607E+04         0.00000E+00
    0.18607E+04         0.24581E+03         0.00000E+00
    0.00000E+00         0.00000E+00         0.00000E+00
 
    0.68397E+04         0.20191E+04         0.00000E+00
    0.20191E+04         0.29331E+03         0.00000E+00
    0.00000E+00         0.00000E+00         0.00000E+00
 
    0.67775E+04         0.21761E+04         0.00000E+00
    0.21761E+04         0.34467E+03         0.00000E+00
    0.00000E+00         0.00000E+00         0.00000E+00
 
    0.67075E+04         0.23316E+04         0.00000E+00
    0.23316E+04         0.39984E+03         0.00000E+00
    0.00000E+00         0.00000E+00         0.00000E+00
 
    0.66297E+04         0.24854E+04         0.00000E+00
    0.24854E+04         0.45878E+03         0.00000E+00
    0.00000E+00         0.00000E+00         0.00000E+00
 
    0.65443E+04         0.26372E+04         0.00000E+00
    0.26372E+04         0.52146E+03         0.00000E+00
    0.00000E+00         0.00000E+00         0.00000E+00
 
    0.64512E+04         0.27870E+04         0.00000E+00
    0.27870E+04         0.58781E+03         0.00000E+00
    0.00000E+00         0.00000E+00         0.00000E+00
 
    0.63506E+04         0.29345E+04         0.00000E+00
    0.29345E+04         0.65779E+03         0.00000E+00
    0.00000E+00         0.00000E+00         0.00000E+00
 
    0.62425E+04         0.30796E+04         0.00000E+00
    0.30796E+04         0.73135E+03         0.00000E+00
    0.00000E+00         0.00000E+00         0.00000E+00
 
    0.61270E+04         0.32221E+04         0.00000E+00
    0.32221E+04         0.80840E+03         0.00000E+00
    0.00000E+00         0.00000E+00         0.00000E+00
 
    0.60042E+04         0.33619E+04         0.00000E+00
    0.33619E+04         0.88890E+03         0.00000E+00
    0.00000E+00         0.00000E+00         0.00000E+00
 
    0.58742E+04         0.34987E+04         0.00000E+00
    0.34987E+04         0.97278E+03         0.00000E+00
    0.00000E+00         0.00000E+00         0.00000E+00
 
    0.57370E+04         0.36325E+04         0.00000E+00
    0.36325E+04         0.10599E+04         0.00000E+00
    0.00000E+00         0.00000E+00         0.00000E+00
 
    0.55929E+04         0.37630E+04         0.00000E+00
    0.37630E+04         0.11503E+04         0.00000E+00
    0.00000E+00         0.00000E+00         0.00000E+00
 
    0.54419E+04         0.38901E+04         0.00000E+00
    0.38901E+04         0.12439E+04         0.00000E+00
    0.00000E+00         0.00000E+00         0.00000E+00
 
    0.52841E+04         0.40136E+04         0.00000E+00
    0.40136E+04         0.13404E+04         0.00000E+00
    0.00000E+00         0.00000E+00         0.00000E+00
 
    0.51196E+04         0.41335E+04         0.00000E+00
    0.41335E+04         0.14400E+04         0.00000E+00
    0.00000E+00         0.00000E+00         0.00000E+00
 
    0.49486E+04         0.42495E+04         0.00000E+00
    0.42495E+04         0.15424E+04         0.00000E+00
    0.00000E+00         0.00000E+00         0.00000E+00
 
    0.47713E+04         0.43614E+04         0.00000E+00
    0.43614E+04         0.16476E+04         0.00000E+00
    0.00000E+00         0.00000E+00         0.00000E+00
 
    0.45877E+04         0.44693E+04         0.00000E+00
    0.44693E+04         0.17555E+04         0.00000E+00
    0.00000E+00         0.00000E+00         0.00000E+00
 
    0.43980E+04         0.45728E+04         0.00000E+00
    0.45728E+04         0.18659E+04         0.00000E+00
    0.00000E+00         0.00000E+00         0.00000E+00
 
    0.42024E+04         0.46720E+04         0.00000E+00
    0.46720E+04         0.19788E+04         0.00000E+00
    0.00000E+00         0.00000E+00         0.00000E+00
 
    0.40009E+04         0.47666E+04         0.00000E+00
    0.47666E+04         0.20941E+04         0.00000E+00
    0.00000E+00         0.00000E+00         0.00000E+00
 
    0.37938E+04         0.48565E+04         0.00000E+00
    0.48565E+04         0.22116E+04         0.00000E+00
    0.00000E+00         0.00000E+00         0.00000E+00
 
    0.35813E+04         0.49416E+04         0.00000E+00
    0.49416E+04         0.23313E+04         0.00000E+00
    0.00000E+00         0.00000E+00         0.00000E+00
 
    0.33635E+04         0.50217E+04         0.00000E+00
    0.50217E+04         0.24530E+04         0.00000E+00
    0.00000E+00         0.00000E+00         0.00000E+00
 
    0.31405E+04         0.50968E+04         0.00000E+00
    0.50968E+04         0.25765E+04         0.00000E+00
    0.00000E+00         0.00000E+00         0.00000E+00
 
    0.29127E+04         0.51668E+04         0.00000E+00
    0.51668E+04         0.27018E+04         0.00000E+00
    0.00000E+00         0.00000E+00         0.00000E+00
 
    0.26800E+04         0.52315E+04         0.00000E+00
    0.52315E+04         0.28288E+04         0.00000E+00
    0.00000E+00         0.00000E+00         0.00000E+00
 
    0.24428E+04         0.52908E+04         0.00000E+00
    0.52908E+04         0.29573E+04         0.00000E+00
    0.00000E+00         0.00000E+00         0.00000E+00
 
    0.22012E+04         0.53446E+04         0.00000E+00
    0.53446E+04         0.30871E+04         0.00000E+00
    0.00000E+00         0.00000E+00         0.00000E+00
 
    0.19554E+04         0.53929E+04         0.00000E+00
    0.53929E+04         0.32182E+04         0.00000E+00
    0.00000E+00         0.00000E+00         0.00000E+00
 
    0.17057E+04         0.54354E+04         0.00000E+00
    0.54354E+04         0.33505E+04         0.00000E+00
    0.00000E+00         0.00000E+00         0.00000E+00
 
    0.14522E+04         0.54723E+04         0.00000E+00
    0.54723E+04         0.34837E+04         0.00000E+00
    0.00000E+00         0.00000E+00         0.00000E+00
 
    0.11951E+04         0.55033E+04         0.00000E+00
    0.55033E+04         0.36177E+04         0.00000E+00
    0.00000E+00         0.00000E+00         0.00000E+00
 
    0.93463E+03         0.55284E+04         0.00000E+00
    0.55284E+04         0.37524E+04         0.00000E+00
    0.00000E+00         0.00000E+00         0.00000E+00
 
    0.67103E+03         0.55475E+04         0.00000E+00
    0.55475E+04         0.38876E+04         0.00000E+00
    0.00000E+00         0.00000E+00         0.00000E+00
 
    0.40450E+03         0.55605E+04         0.00000E+00
    0.55605E+04         0.40233E+04         0.00000E+00
    0.00000E+00         0.00000E+00         0.00000E+00
 
    0.13527E+03         0.55674E+04         0.00000E+00
    0.55674E+04         0.41592E+04         0.00000E+00
    0.00000E+00         0.00000E+00         0.00000E+00
 
    0.78214E+04         0.89934E+02         0.00000E+00
    0.89934E+02        -0.19938E+02         0.00000E+00
    0.00000E+00         0.00000E+00         0.00000E+00
 
    0.78582E+04         0.27246E+03         0.00000E+00
    0.27246E+03        -0.15521E+02         0.00000E+00
    0.00000E+00         0.00000E+00         0.00000E+00
 
    0.78861E+04         0.45568E+03         0.00000E+00
    0.45568E+03        -0.66483E+01         0.00000E+00
    0.00000E+00         0.00000E+00         0.00000E+00
 
    0.79051E+04         0.63940E+03         0.00000E+00
    0.63940E+03         0.66916E+01         0.00000E+00
    0.00000E+00         0.00000E+00         0.00000E+00
 
    0.79152E+04         0.82340E+03         0.00000E+00
    0.82340E+03         0.24506E+02         0.00000E+00
    0.00000E+00         0.00000E+00         0.00000E+00
 
    0.79164E+04         0.10075E+04         0.00000E+00
    0.10075E+04         0.46799E+02         0.00000E+00
    0.00000E+00         0.00000E+00         0.00000E+00
 
    0.79086E+04         0.11914E+04         0.00000E+00
    0.11914E+04         0.73567E+02         0.00000E+00
    0.00000E+00         0.00000E+00         0.00000E+00
 
    0.78919E+04         0.13751E+04         0.00000E+00
    0.13751E+04         0.10480E+03         0.00000E+00
    0.00000E+00         0.00000E+00         0.00000E+00
 
    0.78662E+04         0.15582E+04         0.00000E+00
    0.15582E+04         0.14049E+03         0.00000E+00
    0.00000E+00         0.00000E+00         0.00000E+00
 
    0.78316E+04         0.17405E+04         0.00000E+00
    0.17405E+04         0.18062E+03         0.00000E+00
    0.00000E+00         0.00000E+00         0.00000E+00
 
    0.77881E+04         0.19219E+04         0.00000E+00
    0.19219E+04         0.22517E+03         0.00000E+00
    0.00000E+00         0.00000E+00         0.00000E+00
 
    0.77358E+04         0.21022E+04         0.00000E+00
    0.21022E+04         0.27411E+03         0.00000E+00
    0.00000E+00         0.00000E+00         0.00000E+00
 
    0.76746E+04         0.22811E+04         0.00000E+00
    0.22811E+04         0.32740E+03         0.00000E+00
    0.00000E+00         0.00000E+00         0.00000E+00
 
    0.76046E+04         0.24584E+04         0.00000E+00
    0.24584E+04         0.38502E+03         0.00000E+00
    0.00000E+00         0.00000E+00         0.00000E+00
 
    0.75259E+04         0.26340E+04         0.00000E+00
    0.26340E+04         0.44691E+03         0.00000E+00
    0.00000E+00         0.00000E+00         0.00000E+00
 
    0.74384E+04         0.28076E+04         0.00000E+00
    0.28076E+04         0.51304E+03         0.00000E+00
    0.00000E+00         0.00000E+00         0.00000E+00
 
    0.73424E+04         0.29791E+04         0.00000E+00
    0.29791E+04         0.58335E+03         0.00000E+00
    0.00000E+00         0.00000E+00         0.00000E+00
 
    0.72378E+04         0.31482E+04         0.00000E+00
    0.31482E+04         0.65779E+03         0.00000E+00
    0.00000E+00         0.00000E+00         0.00000E+00
 
    0.71248E+04         0.33148E+04         0.00000E+00
    0.33148E+04         0.73629E+03         0.00000E+00
    0.00000E+00         0.00000E+00         0.00000E+00
 
    0.70033E+04         0.34787E+04         0.00000E+00
    0.34787E+04         0.81880E+03         0.00000E+00
    0.00000E+00         0.00000E+00         0.00000E+00
 
    0.68736E+04         0.36396E+04         0.00000E+00
    0.36396E+04         0.90524E+03         0.00000E+00
    0.00000E+00         0.00000E+00         0.00000E+00
 
    0.67357E+04         0.37974E+04         0.00000E+00
    0.37974E+04         0.99553E+03         0.00000E+00
    0.00000E+00         0.00000E+00         0.00000E+00
 
    0.65897E+04         0.39519E+04         0.00000E+00
    0.39519E+04         0.10896E+04         0.00000E+00
    0.00000E+00         0.00000E+00         0.00000E+00
 
    0.64357E+04         0.41029E+04         0.00000E+00
    0.41029E+04         0.11874E+04         0.00000E+00
    0.00000E+00         0.00000E+00         0.00000E+00
 
    0.62739E+04         0.42502E+04         0.00000E+00
    0.42502E+04         0.12888E+04         0.00000E+00
    0.00000E+00         0.00000E+00         0.00000E+00
 
    0.61044E+04         0.43938E+04         0.00000E+00
    0.43938E+04         0.13937E+04         0.00000E+00
    0.00000E+00         0.00000E+00         0.00000E+00
 
    0.59273E+04         0.45333E+04         0.00000E+00
    0.45333E+04         0.15020E+04         0.00000E+00
    0.00000E+00         0.00000E+00         0.00000E+00
 
    0.57427E+04         0.46686E+04         0.00000E+00
    0.46686E+04         0.16136E+04         0.00000E+00
    0.00000E+00         0.00000E+00         0.00000E+00
 
    0.55508E+04         0.47995E+04         0.00000E+00
    0.47995E+04         0.17285E+04         0.00000E+00
    0.00000E+00         0.00000E+00         0.00000E+00
 
    0.53518E+04         0.49259E+04         0.00000E+00
    0.49259E+04         0.18465E+04         0.00000E+00
    0.00000E+00         0.00000E+00         0.00000E+00
 
    0.51458E+04         0.50477E+04         0.00000E+00
    0.50477E+04         0.19674E+04         0.00000E+00
    0.00000E+00         0.00000E+00         0.00000E+00
 
    0.49329E+04         0.51646E+04         0.00000E+00
    0.51646E+04         0.20913E+04         0.00000E+00
    0.00000E+00         0.00000E+00         0.00000E+00
 
    0.47134E+04         0.52765E+04         0.00000E+00
    0.52765E+04         0.22179E+04         0.00000E+00
    0.00000E+00         0.00000E+00         0.00000E+00
 
    0.44874E+04         0.53833E+04         0.00000E+00
    0.53833E+04         0.23472E+04         0.00000E+00
    0.00000E+00         0.00000E+00         0.00000E+00
 
    0.42551E+04         0.54848E+04         0.00000E+00
    0.54848E+04         0.24790E+04         0.00000E+00
    0.00000E+00         0.00000E+00         0.00000E+00
 
    0.40167E+04         0.55809E+04         0.00000E+00
    0.55809E+04         0.26131E+04         0.00000E+00
    0.00000E+00         0.00000E+00         0.00000E+00
 
    0.37723E+04         0.56714E+04         0.00000E+00
    0.56714E+04         0.27496E+04         0.00000E+00
    0.00000E+00         0.00000E+00         0.00000E+00
 
    0.35223E+04         0.57562E+04         0.00000E+00
    0.57562E+04         0.28881E+04         0.00000E+00
    0.00000E+00         0.00000E+00         0.00000E+00
 
    0.32666E+04         0.58352E+04         0.00000E+00
    0.58352E+04         0.30287E+04         0.00000E+00
    0.00000E+00         0.00000E+00         0.00000E+00
 
    0.30057E+04         0.59082E+04         0.00000E+00
    0.59082E+04         0.31710E+04         0.00000E+00
    0.00000E+00         0.00000E+00         0.00000E+00
 
    0.27396E+04         0.59752E+04         0.00000E+00
    0.59752E+04         0.33151E+04         0.00000E+00
    0.00000E+00         0.00000E+00         0.00000E+00
 
    0.24687E+04         0.60360E+04         0.00000E+00
    0.60360E+04         0.34607E+04         0.00000E+00
    0.00000E+00         0.00000E+00         0.00000E+00
 
    0.21930E+04         0.60905E+04         0.00000E+00
    0.60905E+04         0.36077E+04         0.00000E+00
    0.00000E+00         0.00000E+00         0.00000E+00
 
    0.19129E+04         0.61386E+04         0.00000E+00
    0.61386E+04         0.37560E+04         0.00000E+00
    0.00000E+00         0.00000E+00         0.00000E+00
 
    0.16286E+04         0.61802E+04         0.00000E+00
    0.61802E+04         0.39053E+04         0.00000E+00
    0.00000E+00         0.00000E+00         0.00000E+00
 
    0.13402E+04         0.62152E+04         0.00000E+00
    0.62152E+04         0.40556E+04         0.00000E+00
    0.00000E+00         0.00000E+00         0.00000E+00
 
    0.10481E+04         0.62436E+04         0.00000E+00
    0.62436E+04         0.42067E+04         0.00000E+00
    0.00000E+00         0.00000E+00         0.00000E+00
 
    0.75253E+03         0.62652E+04         0.00000E+00
    0.62652E+04         0.43584E+04         0.00000E+00
    0.00000E+00         0.00000E+00         0.00000E+00
 
    0.45363E+03         0.62800E+04         0.00000E+00
    0.62800E+04         0.45105E+04         0.00000E+00
    0.00000E+00         0.00000E+00         0.00000E+00
 
    0.15169E+03         0.62878E+04         0.00000E+00
    0.62878E+04         0.46629E+04         0.00000E+00
    0.00000E+00         0.00000E+00         0.00000E+00
 
    0.87849E+04         0.10157E+03         0.00000E+00
    0.10157E+03        -0.24496E+02         0.00000E+00
    0.00000E+00         0.00000E+00         0.00000E+00
 
    0.88259E+04         0.30767E+03         0.00000E+00
    0.30767E+03        -0.19534E+02         0.00000E+00
    0.00000E+00         0.00000E+00         0.00000E+00
 
    0.88570E+04         0.51455E+03         0.00000E+00
    0.51455E+03        -0.95683E+01         0.00000E+00
    0.00000E+00         0.00000E+00         0.00000E+00
 
    0.88781E+04         0.72197E+03         0.00000E+00
    0.72197E+03         0.54142E+01         0.00000E+00
    0.00000E+00         0.00000E+00         0.00000E+00
 
    0.88891E+04         0.92971E+03         0.00000E+00
    0.92971E+03         0.25422E+02         0.00000E+00
    0.00000E+00         0.00000E+00         0.00000E+00
 
    0.88901E+04         0.11375E+04         0.00000E+00
    0.11375E+04         0.50457E+02         0.00000E+00
    0.00000E+00         0.00000E+00         0.00000E+00
 
    0.88811E+04         0.13452E+04         0.00000E+00
    0.13452E+04         0.80516E+02         0.00000E+00
    0.00000E+00         0.00000E+00         0.00000E+00
 
    0.88621E+04         0.15525E+04         0.00000E+00
    0.15525E+04         0.11559E+03         0.00000E+00
    0.00000E+00         0.00000E+00         0.00000E+00
 
    0.88330E+04         0.17591E+04         0.00000E+00
    0.17591E+04         0.15567E+03         0.00000E+00
    0.00000E+00         0.00000E+00         0.00000E+00
 
    0.87939E+04         0.19650E+04         0.00000E+00
    0.19650E+04         0.20073E+03         0.00000E+00
    0.00000E+00         0.00000E+00         0.00000E+00
 
    0.87448E+04         0.21697E+04         0.00000E+00
    0.21697E+04         0.25074E+03         0.00000E+00
    0.00000E+00         0.00000E+00         0.00000E+00
 
    0.86858E+04         0.23731E+04         0.00000E+00
    0.23731E+04         0.30569E+03         0.00000E+00
    0.00000E+00         0.00000E+00         0.00000E+00
 
    0.86168E+04         0.25750E+04         0.00000E+00
    0.25750E+04         0.36552E+03         0.00000E+00
    0.00000E+00         0.00000E+00         0.00000E+00
 
    0.85380E+04         0.27752E+04         0.00000E+00
    0.27752E+04         0.43020E+03         0.00000E+00
    0.00000E+00         0.00000E+00         0.00000E+00
 
    0.84494E+04         0.29733E+04         0.00000E+00
    0.29733E+04         0.49969E+03         0.00000E+00
    0.00000E+00         0.00000E+00         0.00000E+00
 
    0.83510E+04         0.31693E+04         0.00000E+00
    0.31693E+04         0.57392E+03         0.00000E+00
    0.00000E+00         0.00000E+00         0.00000E+00
 
    0.82430E+04         0.33628E+04         0.00000E+00
    0.33628E+04         0.65284E+03         0.00000E+00
    0.00000E+00         0.00000E+00         0.00000E+00
 
    0.81254E+04         0.35536E+04         0.00000E+00
    0.35536E+04         0.73640E+03         0.00000E+00
    0.00000E+00         0.00000E+00         0.00000E+00
 
    0.79982E+04         0.37416E+04         0.00000E+00
    0.37416E+04         0.82452E+03         0.00000E+00
    0.00000E+00         0.00000E+00         0.00000E+00
 
    0.78617E+04         0.39264E+04         0.00000E+00
    0.39264E+04         0.91712E+03         0.00000E+00
    0.00000E+00         0.00000E+00         0.00000E+00
 
    0.77159E+04         0.41080E+04         0.00000E+00
    0.41080E+04         0.10141E+04         0.00000E+00
    0.00000E+00         0.00000E+00         0.00000E+00
 
    0.75610E+04         0.42860E+04         0.00000E+00
    0.42860E+04         0.11155E+04         0.00000E+00
    0.00000E+00         0.00000E+00         0.00000E+00
 
    0.73969E+04         0.44603E+04         0.00000E+00
    0.44603E+04         0.12211E+04         0.00000E+00
    0.00000E+00         0.00000E+00         0.00000E+00
 
    0.72239E+04         0.46307E+04         0.00000E+00
    0.46307E+04         0.13308E+04         0.00000E+00
    0.00000E+00         0.00000E+00         0.00000E+00
 
    0.70422E+04         0.47969E+04         0.00000E+00
    0.47969E+04         0.14446E+04         0.00000E+00
    0.00000E+00         0.00000E+00         0.00000E+00
 
    0.68517E+04         0.49588E+04         0.00000E+00
    0.49588E+04         0.15623E+04         0.00000E+00
    0.00000E+00         0.00000E+00         0.00000E+00
 
    0.66528E+04         0.51162E+04         0.00000E+00
    0.51162E+04         0.16838E+04         0.00000E+00
    0.00000E+00         0.00000E+00         0.00000E+00
 
    0.64455E+04         0.52688E+04         0.00000E+00
    0.52688E+04         0.18091E+04         0.00000E+00
    0.00000E+00         0.00000E+00         0.00000E+00
 
    0.62300E+04         0.54166E+04         0.00000E+00
    0.54166E+04         0.19380E+04         0.00000E+00
    0.00000E+00         0.00000E+00         0.00000E+00
 
    0.60066E+04         0.55592E+04         0.00000E+00
    0.55592E+04         0.20704E+04         0.00000E+00
    0.00000E+00         0.00000E+00         0.00000E+00
 
    0.57752E+04         0.56965E+04         0.00000E+00
    0.56965E+04         0.22061E+04         0.00000E+00
    0.00000E+00         0.00000E+00         0.00000E+00
 
    0.55363E+04         0.58284E+04         0.00000E+00
    0.58284E+04         0.23451E+04         0.00000E+00
    0.00000E+00         0.00000E+00         0.00000E+00
 
    0.52898E+04         0.59547E+04         0.00000E+00
    0.59547E+04         0.24872E+04         0.00000E+00
    0.00000E+00         0.00000E+00         0.00000E+00
 
    0.50361E+04         0.60751E+04         0.00000E+00
    0.60751E+04         0.26322E+04         0.00000E+00
    0.00000E+00         0.00000E+00         0.00000E+00
 
    0.47753E+04         0.61896E+04         0.00000E+00
    0.61896E+04         0.27801E+04         0.00000E+00
    0.00000E+00         0.00000E+00         0.00000E+00
 
    0.45077E+04         0.62980E+04         0.00000E+00
    0.62980E+04         0.29307E+04         0.00000E+00
    0.00000E+00         0.00000E+00         0.00000E+00
 
    0.42334E+04         0.64001E+04         0.00000E+00
    0.64001E+04         0.30837E+04         0.00000E+00
    0.00000E+00         0.00000E+00         0.00000E+00
 
    0.39527E+04         0.64958E+04         0.00000E+00
    0.64958E+04         0.32392E+04         0.00000E+00
    0.00000E+00         0.00000E+00         0.00000E+00
 
    0.36658E+04         0.65849E+04         0.00000E+00
    0.65849E+04         0.33969E+04         0.00000E+00
    0.00000E+00         0.00000E+00         0.00000E+00
 
    0.33729E+04         0.66673E+04         0.00000E+00
    0.66673E+04         0.35566E+04         0.00000E+00
    0.00000E+00         0.00000E+00         0.00000E+00
 
    0.30743E+04         0.67429E+04         0.00000E+00
    0.67429E+04         0.37183E+04         0.00000E+00
    0.00000E+00         0.00000E+00         0.00000E+00
 
    0.27702E+04         0.68115E+04         0.00000E+00
    0.68115E+04         0.38816E+04         0.00000E+00
    0.00000E+00         0.00000E+00         0.00000E+00
 
    0.24609E+04         0.68730E+04         0.00000E+00
    0.68730E+04         0.40466E+04         0.00000E+00
    0.00000E+00         0.00000E+00         0.00000E+00
 
    0.21465E+04         0.69273E+04         0.00000E+00
    0.69273E+04         0.42129E+04         0.00000E+00
    0.00000E+00         0.00000E+00         0.00000E+00
 
    0.18275E+04         0.69743E+04         0.00000E+00
    0.69743E+04         0.43805E+04         0.00000E+00
    0.00000E+00         0.00000E+00         0.00000E+00
 
    0.15039E+04         0.70138E+04         0.00000E+00
    0.70138E+04         0.45491E+04         0.00000E+00
    0.00000E+00         0.00000E+00         0.00000E+00
 
    0.11761E+04         0.70459E+04         0.00000E+00
    0.70459E+04         0.47186E+04         0.00000E+00
    0.00000E+00         0.00000E+00         0.00000E+00
 
    0.84441E+03         0.70703E+04         0.00000E+00
    0.70703E+04         0.48888E+04         0.00000E+00
    0.00000E+00         0.00000E+00         0.00000E+00
 
    0.50902E+03         0.70870E+04         0.00000E+00
    0.70870E+04         0.50595E+04         0.00000E+00
    0.00000E+00         0.00000E+00         0.00000E+00
 
    0.17022E+03         0.70960E+04         0.00000E+00
    0.70960E+04         0.52305E+04         0.00000E+00
    0.00000E+00         0.00000E+00         0.00000E+00
 
    0.98722E+04         0.11464E+03         0.00000E+00
    0.11464E+03        -0.30075E+02         0.00000E+00
    0.00000E+00         0.00000E+00         0.00000E+00
 
    0.99179E+04         0.34723E+03         0.00000E+00
    0.34723E+03        -0.24498E+02         0.00000E+00
    0.00000E+00         0.00000E+00         0.00000E+00
 
    0.99524E+04         0.58068E+03         0.00000E+00
    0.58068E+03        -0.13299E+02         0.00000E+00
    0.00000E+00         0.00000E+00         0.00000E+00
 
    0.99758E+04         0.81474E+03         0.00000E+00
    0.81474E+03         0.35374E+01         0.00000E+00
    0.00000E+00         0.00000E+00         0.00000E+00
 
    0.99878E+04         0.10491E+04         0.00000E+00
    0.10491E+04         0.26019E+02         0.00000E+00
    0.00000E+00         0.00000E+00         0.00000E+00
 
    0.99886E+04         0.12836E+04         0.00000E+00
    0.12836E+04         0.54148E+02         0.00000E+00
    0.00000E+00         0.00000E+00         0.00000E+00
 
    0.99782E+04         0.15179E+04         0.00000E+00
    0.15179E+04         0.87920E+02         0.00000E+00
    0.00000E+00         0.00000E+00         0.00000E+00
 
    0.99564E+04         0.17517E+04         0.00000E+00
    0.17517E+04         0.12733E+03         0.00000E+00
    0.00000E+00         0.00000E+00         0.00000E+00
 
    0.99234E+04         0.19849E+04         0.00000E+00
    0.19849E+04         0.17235E+03         0.00000E+00
    0.00000E+00         0.00000E+00         0.00000E+00
 
    0.98792E+04         0.22171E+04         0.00000E+00
    0.22171E+04         0.22297E+03         0.00000E+00
    0.00000E+00         0.00000E+00         0.00000E+00
 
    0.98237E+04         0.24480E+04         0.00000E+00
    0.24480E+04         0.27915E+03         0.00000E+00
    0.00000E+00         0.00000E+00         0.00000E+00
 
    0.97571E+04         0.26775E+04         0.00000E+00
    0.26775E+04         0.34087E+03         0.00000E+00
    0.00000E+00         0.00000E+00         0.00000E+00
 
    0.96794E+04         0.29052E+04         0.00000E+00
    0.29052E+04         0.40807E+03         0.00000E+00
    0.00000E+00         0.00000E+00         0.00000E+00
 
    0.95906E+04         0.31309E+04         0.00000E+00
    0.31309E+04         0.48072E+03         0.00000E+00
    0.00000E+00         0.00000E+00         0.00000E+00
 
    0.94907E+04         0.33544E+04         0.00000E+00
    0.33544E+04         0.55876E+03         0.00000E+00
    0.00000E+00         0.00000E+00         0.00000E+00
 
    0.93800E+04         0.35753E+04         0.00000E+00
    0.35753E+04         0.64213E+03         0.00000E+00
    0.00000E+00         0.00000E+00         0.00000E+00
 
    0.92584E+04         0.37935E+04         0.00000E+00
    0.37935E+04         0.73077E+03         0.00000E+00
    0.00000E+00         0.00000E+00         0.00000E+00
 
    0.91260E+04         0.40087E+04         0.00000E+00
    0.40087E+04         0.82460E+03         0.00000E+00
    0.00000E+00         0.00000E+00         0.00000E+00
 
    0.89830E+04         0.42207E+04         0.00000E+00
    0.42207E+04         0.92355E+03         0.00000E+00
    0.00000E+00         0.00000E+00         0.00000E+00
 
    0.88295E+04         0.44291E+04         0.00000E+00
    0.44291E+04         0.10275E+04         0.00000E+00
    0.00000E+00         0.00000E+00         0.00000E+00
 
    0.86655E+04         0.46338E+04         0.00000E+00
    0.46338E+04         0.11365E+04         0.00000E+00
    0.00000E+00         0.00000E+00         0.00000E+00
 
    0.84913E+04         0.48346E+04         0.00000E+00
    0.48346E+04         0.12503E+04         0.00000E+00
    0.00000E+00         0.00000E+00         0.00000E+00
 
    0.83069E+04         0.50311E+04         0.00000E+00
    0.50311E+04         0.13688E+04         0.00000E+00
    0.00000E+00         0.00000E+00         0.00000E+00
 
    0.81124E+04         0.52232E+04         0.00000E+00
    0.52232E+04         0.14920E+04         0.00000E+00
    0.00000E+00         0.00000E+00         0.00000E+00
 
    0.79081E+04         0.54106E+04         0.00000E+00
    0.54106E+04         0.16197E+04         0.00000E+00
    0.00000E+00         0.00000E+00         0.00000E+00
 
    0.76941E+04         0.55931E+04         0.00000E+00
    0.55931E+04         0.17519E+04         0.00000E+00
    0.00000E+00         0.00000E+00         0.00000E+00
 
    0.74705E+04         0.57705E+04         0.00000E+00
    0.57705E+04         0.18884E+04         0.00000E+00
    0.00000E+00         0.00000E+00         0.00000E+00
 
    0.72376E+04         0.59426E+04         0.00000E+00
    0.59426E+04         0.20290E+04         0.00000E+00
    0.00000E+00         0.00000E+00         0.00000E+00
 
    0.69956E+04         0.61092E+04         0.00000E+00
    0.61092E+04         0.21737E+04         0.00000E+00
    0.00000E+00         0.00000E+00         0.00000E+00
 
    0.67445E+04         0.62699E+04         0.00000E+00
    0.62699E+04         0.23223E+04         0.00000E+00
    0.00000E+00         0.00000E+00         0.00000E+00
 
    0.64846E+04         0.64248E+04         0.00000E+00
    0.64248E+04         0.24747E+04         0.00000E+00
    0.00000E+00         0.00000E+00         0.00000E+00
 
    0.62162E+04         0.65735E+04         0.00000E+00
    0.65735E+04         0.26308E+04         0.00000E+00
    0.00000E+00         0.00000E+00         0.00000E+00
 
    0.59394E+04         0.67158E+04         0.00000E+00
    0.67158E+04         0.27902E+04         0.00000E+00
    0.00000E+00         0.00000E+00         0.00000E+00
 
    0.56544E+04         0.68516E+04         0.00000E+00
    0.68516E+04         0.29531E+04         0.00000E+00
    0.00000E+00         0.00000E+00         0.00000E+00
 
    0.53615E+04         0.69807E+04         0.00000E+00
    0.69807E+04         0.31191E+04         0.00000E+00
    0.00000E+00         0.00000E+00         0.00000E+00
 
    0.50610E+04         0.71028E+04         0.00000E+00
    0.71028E+04         0.32881E+04         0.00000E+00
    0.00000E+00         0.00000E+00         0.00000E+00
 
    0.47529E+04         0.72179E+04         0.00000E+00
    0.72179E+04         0.34599E+04         0.00000E+00
    0.00000E+00         0.00000E+00         0.00000E+00
 
    0.44377E+04         0.73258E+04         0.00000E+00
    0.73258E+04         0.36344E+04         0.00000E+00
    0.00000E+00         0.00000E+00         0.00000E+00
 
    0.41156E+04         0.74263E+04         0.00000E+00
    0.74263E+04         0.38114E+04         0.00000E+00
    0.00000E+00         0.00000E+00         0.00000E+00
 
    0.37867E+04         0.75192E+04         0.00000E+00
    0.75192E+04         0.39907E+04         0.00000E+00
    0.00000E+00         0.00000E+00         0.00000E+00
 
    0.34514E+04         0.76044E+04         0.00000E+00
    0.76044E+04         0.41721E+04         0.00000E+00
    0.00000E+00         0.00000E+00         0.00000E+00
 
    0.31100E+04         0.76818E+04         0.00000E+00
    0.76818E+04         0.43555E+04         0.00000E+00
    0.00000E+00         0.00000E+00         0.00000E+00
 
    0.27627E+04         0.77512E+04         0.00000E+00
    0.77512E+04         0.45407E+04         0.00000E+00
    0.00000E+00         0.00000E+00         0.00000E+00
 
    0.24098E+04         0.78124E+04         0.00000E+00
    0.78124E+04         0.47274E+04         0.00000E+00
    0.00000E+00         0.00000E+00         0.00000E+00
 
    0.20516E+04         0.78654E+04         0.00000E+00
    0.78654E+04         0.49155E+04         0.00000E+00
    0.00000E+00         0.00000E+00         0.00000E+00
 
    0.16883E+04         0.79101E+04         0.00000E+00
    0.79101E+04         0.51048E+04         0.00000E+00
    0.00000E+00         0.00000E+00         0.00000E+00
 
    0.13203E+04         0.79463E+04         0.00000E+00
    0.79463E+04         0.52950E+04         0.00000E+00
    0.00000E+00         0.00000E+00         0.00000E+00
 
    0.94794E+03         0.79739E+04         0.00000E+00
    0.79739E+04         0.54861E+04         0.00000E+00
    0.00000E+00         0.00000E+00         0.00000E+00
 
    0.57142E+03         0.79928E+04         0.00000E+00
    0.79928E+04         0.56777E+04         0.00000E+00
    0.00000E+00         0.00000E+00         0.00000E+00
 
    0.19108E+03         0.80030E+04         0.00000E+00
    0.80030E+04         0.58696E+04         0.00000E+00
    0.00000E+00         0.00000E+00         0.00000E+00
 
    0.11098E+05         0.12934E+03         0.00000E+00
    0.12934E+03        -0.36900E+02         0.00000E+00
    0.00000E+00         0.00000E+00         0.00000E+00
 
    0.11149E+05         0.39170E+03         0.00000E+00
    0.39170E+03        -0.30629E+02         0.00000E+00
    0.00000E+00         0.00000E+00         0.00000E+00
 
    0.11188E+05         0.65502E+03         0.00000E+00
    0.65502E+03        -0.18039E+02         0.00000E+00
    0.00000E+00         0.00000E+00         0.00000E+00
 
    0.11214E+05         0.91900E+03         0.00000E+00
    0.91900E+03         0.88708E+00         0.00000E+00
    0.00000E+00         0.00000E+00         0.00000E+00
 
    0.11227E+05         0.11833E+04         0.00000E+00
    0.11833E+04         0.26158E+02         0.00000E+00
    0.00000E+00         0.00000E+00         0.00000E+00
 
    0.11227E+05         0.14478E+04         0.00000E+00
    0.14478E+04         0.57775E+02         0.00000E+00
    0.00000E+00         0.00000E+00         0.00000E+00
 
    0.11215E+05         0.17120E+04         0.00000E+00
    0.17120E+04         0.95733E+02         0.00000E+00
    0.00000E+00         0.00000E+00         0.00000E+00
 
    0.11190E+05         0.19756E+04         0.00000E+00
    0.19756E+04         0.14002E+03         0.00000E+00
    0.00000E+00         0.00000E+00         0.00000E+00
 
    0.11153E+05         0.22385E+04         0.00000E+00
    0.22385E+04         0.19062E+03         0.00000E+00
    0.00000E+00         0.00000E+00         0.00000E+00
 
    0.11103E+05         0.25003E+04         0.00000E+00
    0.25003E+04         0.24750E+03         0.00000E+00
    0.00000E+00         0.00000E+00         0.00000E+00
 
    0.11040E+05         0.27607E+04         0.00000E+00
    0.27607E+04         0.31064E+03         0.00000E+00
    0.00000E+00         0.00000E+00         0.00000E+00
 
    0.10965E+05         0.30193E+04         0.00000E+00
    0.30193E+04         0.37998E+03         0.00000E+00
    0.00000E+00         0.00000E+00         0.00000E+00
 
    0.10877E+05         0.32760E+04         0.00000E+00
    0.32760E+04         0.45550E+03         0.00000E+00
    0.00000E+00         0.00000E+00         0.00000E+00
 
    0.10777E+05         0.35305E+04         0.00000E+00
    0.35305E+04         0.53712E+03         0.00000E+00
    0.00000E+00         0.00000E+00         0.00000E+00
 
    0.10664E+05         0.37824E+04         0.00000E+00
    0.37824E+04         0.62480E+03         0.00000E+00
    0.00000E+00         0.00000E+00         0.00000E+00
 
    0.10540E+05         0.40314E+04         0.00000E+00
    0.40314E+04         0.71846E+03         0.00000E+00
    0.00000E+00         0.00000E+00         0.00000E+00
 
    0.10403E+05         0.42774E+04         0.00000E+00
    0.42774E+04         0.81804E+03         0.00000E+00
    0.00000E+00         0.00000E+00         0.00000E+00
 
    0.10254E+05         0.45199E+04         0.00000E+00
    0.45199E+04         0.92345E+03         0.00000E+00
    0.00000E+00         0.00000E+00         0.00000E+00
 
    0.10093E+05         0.47588E+04         0.00000E+00
    0.47588E+04         0.10346E+04         0.00000E+00
    0.00000E+00         0.00000E+00         0.00000E+00
 
    0.99199E+04         0.49937E+04         0.00000E+00
    0.49937E+04         0.11514E+04         0.00000E+00
    0.00000E+00         0.00000E+00         0.00000E+00
 
    0.97354E+04         0.52244E+04         0.00000E+00
    0.52244E+04         0.12738E+04         0.00000E+00
    0.00000E+00         0.00000E+00         0.00000E+00
 
    0.95394E+04         0.54506E+04         0.00000E+00
    0.54506E+04         0.14016E+04         0.00000E+00
    0.00000E+00         0.00000E+00         0.00000E+00
 
    0.93320E+04         0.56721E+04         0.00000E+00
    0.56721E+04         0.15347E+04         0.00000E+00
    0.00000E+00         0.00000E+00         0.00000E+00
 
    0.91133E+04         0.58885E+04         0.00000E+00
    0.58885E+04         0.16731E+04         0.00000E+00
    0.00000E+00         0.00000E+00         0.00000E+00
 
    0.88836E+04         0.60997E+04         0.00000E+00
    0.60997E+04         0.18166E+04         0.00000E+00
    0.00000E+00         0.00000E+00         0.00000E+00
 
    0.86430E+04         0.63054E+04         0.00000E+00
    0.63054E+04         0.19650E+04         0.00000E+00
    0.00000E+00         0.00000E+00         0.00000E+00
 
    0.83917E+04         0.65053E+04         0.00000E+00
    0.65053E+04         0.21183E+04         0.00000E+00
    0.00000E+00         0.00000E+00         0.00000E+00
 
    0.81299E+04         0.66992E+04         0.00000E+00
    0.66992E+04         0.22762E+04         0.00000E+00
    0.00000E+00         0.00000E+00         0.00000E+00
 
    0.78578E+04         0.68868E+04         0.00000E+00
    0.68868E+04         0.24387E+04         0.00000E+00
    0.00000E+00         0.00000E+00         0.00000E+00
 
    0.75756E+04         0.70680E+04         0.00000E+00
    0.70680E+04         0.26056E+04         0.00000E+00
    0.00000E+00         0.00000E+00         0.00000E+00
 
    0.72836E+04         0.72424E+04         0.00000E+00
    0.72424E+04         0.27767E+04         0.00000E+00
    0.00000E+00         0.00000E+00         0.00000E+00
 
    0.69819E+04         0.74099E+04         0.00000E+00
    0.74099E+04         0.29519E+04         0.00000E+00
    0.00000E+00         0.00000E+00         0.00000E+00
 
    0.66709E+04         0.75703E+04         0.00000E+00
    0.75703E+04         0.31310E+04         0.00000E+00
    0.00000E+00         0.00000E+00         0.00000E+00
 
    0.63507E+04         0.77233E+04         0.00000E+00
    0.77233E+04         0.33139E+04         0.00000E+00
    0.00000E+00         0.00000E+00         0.00000E+00
 
    0.60217E+04         0.78687E+04         0.00000E+00
    0.78687E+04         0.35002E+04         0.00000E+00
    0.00000E+00         0.00000E+00         0.00000E+00
 
    0.56840E+04         0.80064E+04         0.00000E+00
    0.80064E+04         0.36900E+04         0.00000E+00
    0.00000E+00         0.00000E+00         0.00000E+00
 
    0.53380E+04         0.81361E+04         0.00000E+00
    0.81361E+04         0.38829E+04         0.00000E+00
    0.00000E+00         0.00000E+00         0.00000E+00
 
    0.49839E+04         0.82577E+04         0.00000E+00
    0.82577E+04         0.40789E+04         0.00000E+00
    0.00000E+00         0.00000E+00         0.00000E+00
 
    0.46220E+04         0.83709E+04         0.00000E+00
    0.83709E+04         0.42776E+04         0.00000E+00
    0.00000E+00         0.00000E+00         0.00000E+00
 
    0.42526E+04         0.84756E+04         0.00000E+00
    0.84756E+04         0.44789E+04         0.00000E+00
    0.00000E+00         0.00000E+00         0.00000E+00
 
    0.38761E+04         0.85716E+04         0.00000E+00
    0.85716E+04         0.46827E+04         0.00000E+00
    0.00000E+00         0.00000E+00         0.00000E+00
 
    0.34926E+04         0.86588E+04         0.00000E+00
    0.86588E+04         0.48886E+04         0.00000E+00
    0.00000E+00         0.00000E+00         0.00000E+00
 
    0.31025E+04         0.87371E+04         0.00000E+00
    0.87371E+04         0.50965E+04         0.00000E+00
    0.00000E+00         0.00000E+00         0.00000E+00
 
    0.27062E+04         0.88061E+04         0.00000E+00
    0.88061E+04         0.53061E+04         0.00000E+00
    0.00000E+00         0.00000E+00         0.00000E+00
 
    0.23039E+04         0.88659E+04         0.00000E+00
    0.88659E+04         0.55174E+04         0.00000E+00
    0.00000E+00         0.00000E+00         0.00000E+00
 
    0.18959E+04         0.89163E+04         0.00000E+00
    0.89163E+04         0.57299E+04         0.00000E+00
    0.00000E+00         0.00000E+00         0.00000E+00
 
    0.14827E+04         0.89572E+04         0.00000E+00
    0.89572E+04         0.59435E+04         0.00000E+00
    0.00000E+00         0.00000E+00         0.00000E+00
 
    0.10645E+04         0.89884E+04         0.00000E+00
    0.89884E+04         0.61580E+04         0.00000E+00
    0.00000E+00         0.00000E+00         0.00000E+00
 
    0.64167E+03         0.90098E+04         0.00000E+00
    0.90098E+04         0.63732E+04         0.00000E+00
    0.00000E+00         0.00000E+00         0.00000E+00
 
    0.21457E+03         0.90214E+04         0.00000E+00
    0.90214E+04         0.65887E+04         0.00000E+00
    0.00000E+00         0.00000E+00         0.00000E+00
 
    0.12481E+05         0.14587E+03         0.00000E+00
    0.14587E+03        -0.45246E+02         0.00000E+00
    0.00000E+00         0.00000E+00         0.00000E+00
 
    0.12537E+05         0.44171E+03         0.00000E+00
    0.44171E+03        -0.38194E+02         0.00000E+00
    0.00000E+00         0.00000E+00         0.00000E+00
 
    0.12580E+05         0.73860E+03         0.00000E+00
    0.73860E+03        -0.24035E+02         0.00000E+00
    0.00000E+00         0.00000E+00         0.00000E+00
 
    0.12609E+05         0.10362E+04         0.00000E+00
    0.10362E+04        -0.27539E+01         0.00000E+00
    0.00000E+00         0.00000E+00         0.00000E+00
 
    0.12623E+05         0.13342E+04         0.00000E+00
    0.13342E+04         0.25660E+02         0.00000E+00
    0.00000E+00         0.00000E+00         0.00000E+00
 
    0.12623E+05         0.16323E+04         0.00000E+00
    0.16323E+04         0.61208E+02         0.00000E+00
    0.00000E+00         0.00000E+00         0.00000E+00
 
    0.12609E+05         0.19301E+04         0.00000E+00
    0.19301E+04         0.10388E+03         0.00000E+00
    0.00000E+00         0.00000E+00         0.00000E+00
 
    0.12580E+05         0.22273E+04         0.00000E+00
    0.22273E+04         0.15367E+03         0.00000E+00
    0.00000E+00         0.00000E+00         0.00000E+00
 
    0.12538E+05         0.25236E+04         0.00000E+00
    0.25236E+04         0.21055E+03         0.00000E+00
    0.00000E+00         0.00000E+00         0.00000E+00
 
    0.12481E+05         0.28186E+04         0.00000E+00
    0.28186E+04         0.27449E+03         0.00000E+00
    0.00000E+00         0.00000E+00         0.00000E+00
 
    0.12410E+05         0.31120E+04         0.00000E+00
    0.31120E+04         0.34546E+03         0.00000E+00
    0.00000E+00         0.00000E+00         0.00000E+00
 
    0.12325E+05         0.34035E+04         0.00000E+00
    0.34035E+04         0.42340E+03         0.00000E+00
    0.00000E+00         0.00000E+00         0.00000E+00
 
    0.12226E+05         0.36928E+04         0.00000E+00
    0.36928E+04         0.50827E+03         0.00000E+00
    0.00000E+00         0.00000E+00         0.00000E+00
 
    0.12113E+05         0.39795E+04         0.00000E+00
    0.39795E+04         0.60000E+03         0.00000E+00
    0.00000E+00         0.00000E+00         0.00000E+00
 
    0.11986E+05         0.42633E+04         0.00000E+00
    0.42633E+04         0.69854E+03         0.00000E+00
    0.00000E+00         0.00000E+00         0.00000E+00
 
    0.11846E+05         0.45439E+04         0.00000E+00
    0.45439E+04         0.80379E+03         0.00000E+00
    0.00000E+00         0.00000E+00         0.00000E+00
 
    0.11691E+05         0.48210E+04         0.00000E+00
    0.48210E+04         0.91568E+03         0.00000E+00
    0.00000E+00         0.00000E+00         0.00000E+00
 
    0.11523E+05         0.50942E+04         0.00000E+00
    0.50942E+04         0.10341E+04         0.00000E+00
    0.00000E+00         0.00000E+00         0.00000E+00
 
    0.11342E+05         0.53633E+04         0.00000E+00
    0.53633E+04         0.11590E+04         0.00000E+00
    0.00000E+00         0.00000E+00         0.00000E+00
 
    0.11148E+05         0.56280E+04         0.00000E+00
    0.56280E+04         0.12903E+04         0.00000E+00
    0.00000E+00         0.00000E+00         0.00000E+00
 
    0.10940E+05         0.58878E+04         0.00000E+00
    0.58878E+04         0.14277E+04         0.00000E+00
    0.00000E+00         0.00000E+00         0.00000E+00
 
    0.10720E+05         0.61426E+04         0.00000E+00
    0.61426E+04         0.15713E+04         0.00000E+00
    0.00000E+00         0.00000E+00         0.00000E+00
 
    0.10486E+05         0.63921E+04         0.00000E+00
    0.63921E+04         0.17209E+04         0.00000E+00
    0.00000E+00         0.00000E+00         0.00000E+00
 
    0.10240E+05         0.66359E+04         0.00000E+00
    0.66359E+04         0.18764E+04         0.00000E+00
    0.00000E+00         0.00000E+00         0.00000E+00
 
    0.99818E+04         0.68737E+04         0.00000E+00
    0.68737E+04         0.20375E+04         0.00000E+00
    0.00000E+00         0.00000E+00         0.00000E+00
 
    0.97112E+04         0.71054E+04         0.00000E+00
    0.71054E+04         0.22043E+04         0.00000E+00
    0.00000E+00         0.00000E+00         0.00000E+00
 
    0.94286E+04         0.73305E+04         0.00000E+00
    0.73305E+04         0.23764E+04         0.00000E+00
    0.00000E+00         0.00000E+00         0.00000E+00
 
    0.91342E+04         0.75489E+04         0.00000E+00
    0.75489E+04         0.25539E+04         0.00000E+00
    0.00000E+00         0.00000E+00         0.00000E+00
 
    0.88283E+04         0.77602E+04         0.00000E+00
    0.77602E+04         0.27364E+04         0.00000E+00
    0.00000E+00         0.00000E+00         0.00000E+00
 
    0.85111E+04         0.79642E+04         0.00000E+00
    0.79642E+04         0.29238E+04         0.00000E+00
    0.00000E+00         0.00000E+00         0.00000E+00
 
    0.81829E+04         0.81607E+04         0.00000E+00
    0.81607E+04         0.31160E+04         0.00000E+00
    0.00000E+00         0.00000E+00         0.00000E+00
 
    0.78438E+04         0.83494E+04         0.00000E+00
    0.83494E+04         0.33128E+04         0.00000E+00
    0.00000E+00         0.00000E+00         0.00000E+00
 
    0.74942E+04         0.85300E+04         0.00000E+00
    0.85300E+04         0.35140E+04         0.00000E+00
    0.00000E+00         0.00000E+00         0.00000E+00
 
    0.71344E+04         0.87023E+04         0.00000E+00
    0.87023E+04         0.37193E+04         0.00000E+00
    0.00000E+00         0.00000E+00         0.00000E+00
 
    0.67646E+04         0.88661E+04         0.00000E+00
    0.88661E+04         0.39287E+04         0.00000E+00
    0.00000E+00         0.00000E+00         0.00000E+00
 
    0.63852E+04         0.90211E+04         0.00000E+00
    0.90211E+04         0.41418E+04         0.00000E+00
    0.00000E+00         0.00000E+00         0.00000E+00
 
    0.59964E+04         0.91672E+04         0.00000E+00
    0.91672E+04         0.43585E+04         0.00000E+00
    0.00000E+00         0.00000E+00         0.00000E+00
 
    0.55985E+04         0.93041E+04         0.00000E+00
    0.93041E+04         0.45785E+04         0.00000E+00
    0.00000E+00         0.00000E+00         0.00000E+00
 
    0.51920E+04         0.94316E+04         0.00000E+00
    0.94316E+04         0.48017E+04         0.00000E+00
    0.00000E+00         0.00000E+00         0.00000E+00
 
    0.47770E+04         0.95496E+04         0.00000E+00
    0.95496E+04         0.50278E+04         0.00000E+00
    0.00000E+00         0.00000E+00         0.00000E+00
 
    0.43539E+04         0.96578E+04         0.00000E+00
    0.96578E+04         0.52566E+04         0.00000E+00
    0.00000E+00         0.00000E+00         0.00000E+00
 
    0.39231E+04         0.97560E+04         0.00000E+00
    0.97560E+04         0.54879E+04         0.00000E+00
    0.00000E+00         0.00000E+00         0.00000E+00
 
    0.34849E+04         0.98442E+04         0.00000E+00
    0.98442E+04         0.57213E+04         0.00000E+00
    0.00000E+00         0.00000E+00         0.00000E+00
 
    0.30397E+04         0.99220E+04         0.00000E+00
    0.99220E+04         0.59568E+04         0.00000E+00
    0.00000E+00         0.00000E+00         0.00000E+00
 
    0.25877E+04         0.99894E+04         0.00000E+00
    0.99894E+04         0.61940E+04         0.00000E+00
    0.00000E+00         0.00000E+00         0.00000E+00
 
    0.21295E+04         0.10046E+05         0.00000E+00
    0.10046E+05         0.64327E+04         0.00000E+00
    0.00000E+00         0.00000E+00         0.00000E+00
 
    0.16654E+04         0.10092E+05         0.00000E+00
    0.10092E+05         0.66726E+04         0.00000E+00
    0.00000E+00         0.00000E+00         0.00000E+00
 
    0.11956E+04         0.10128E+05         0.00000E+00
    0.10128E+05         0.69135E+04         0.00000E+00
    0.00000E+00         0.00000E+00         0.00000E+00
 
    0.72072E+03         0.10152E+05         0.00000E+00
    0.10152E+05         0.71552E+04         0.00000E+00
    0.00000E+00         0.00000E+00         0.00000E+00
 
    0.24101E+03         0.10165E+05         0.00000E+00
    0.10165E+05         0.73973E+04         0.00000E+00
    0.00000E+00         0.00000E+00         0.00000E+00
 
    0.14038E+05         0.16447E+03         0.00000E+00
    0.16447E+03        -0.55450E+02         0.00000E+00
    0.00000E+00         0.00000E+00         0.00000E+00
 
    0.14102E+05         0.49795E+03         0.00000E+00
    0.49795E+03        -0.47516E+02         0.00000E+00
    0.00000E+00         0.00000E+00         0.00000E+00
 
    0.14149E+05         0.83260E+03         0.00000E+00
    0.83260E+03        -0.31591E+02         0.00000E+00
    0.00000E+00         0.00000E+00         0.00000E+00
 
    0.14180E+05         0.11680E+04         0.00000E+00
    0.11680E+04        -0.76551E+01         0.00000E+00
    0.00000E+00         0.00000E+00         0.00000E+00
 
    0.14196E+05         0.15039E+04         0.00000E+00
    0.15039E+04         0.24300E+02         0.00000E+00
    0.00000E+00         0.00000E+00         0.00000E+00
 
    0.14195E+05         0.18398E+04         0.00000E+00
    0.18398E+04         0.64275E+02         0.00000E+00
    0.00000E+00         0.00000E+00         0.00000E+00
 
    0.14179E+05         0.21754E+04         0.00000E+00
    0.21754E+04         0.11226E+03         0.00000E+00
    0.00000E+00         0.00000E+00         0.00000E+00
 
    0.14146E+05         0.25103E+04         0.00000E+00
    0.25103E+04         0.16825E+03         0.00000E+00
    0.00000E+00         0.00000E+00         0.00000E+00
 
    0.14098E+05         0.28441E+04         0.00000E+00
    0.28441E+04         0.23220E+03         0.00000E+00
    0.00000E+00         0.00000E+00         0.00000E+00
 
    0.14033E+05         0.31765E+04         0.00000E+00
    0.31765E+04         0.30409E+03         0.00000E+00
    0.00000E+00         0.00000E+00         0.00000E+00
 
    0.13953E+05         0.35070E+04         0.00000E+00
    0.35070E+04         0.38387E+03         0.00000E+00
    0.00000E+00         0.00000E+00         0.00000E+00
 
    0.13857E+05         0.38354E+04         0.00000E+00
    0.38354E+04         0.47149E+03         0.00000E+00
    0.00000E+00         0.00000E+00         0.00000E+00
 
    0.13745E+05         0.41612E+04         0.00000E+00
    0.41612E+04         0.56689E+03         0.00000E+00
    0.00000E+00         0.00000E+00         0.00000E+00
 
    0.13617E+05         0.44842E+04         0.00000E+00
    0.44842E+04         0.67000E+03         0.00000E+00
    0.00000E+00         0.00000E+00         0.00000E+00
 
    0.13474E+05         0.48038E+04         0.00000E+00
    0.48038E+04         0.78075E+03         0.00000E+00
    0.00000E+00         0.00000E+00         0.00000E+00
 
    0.13316E+05         0.51199E+04         0.00000E+00
    0.51199E+04         0.89905E+03         0.00000E+00
    0.00000E+00         0.00000E+00         0.00000E+00
 
    0.13142E+05         0.54319E+04         0.00000E+00
    0.54319E+04         0.10248E+04         0.00000E+00
    0.00000E+00         0.00000E+00         0.00000E+00
 
    0.12953E+05         0.57396E+04         0.00000E+00
    0.57396E+04         0.11579E+04         0.00000E+00
    0.00000E+00         0.00000E+00         0.00000E+00
 
    0.12749E+05         0.60427E+04         0.00000E+00
    0.60427E+04         0.12983E+04         0.00000E+00
    0.00000E+00         0.00000E+00         0.00000E+00
 
    0.12530E+05         0.63406E+04         0.00000E+00
    0.63406E+04         0.14458E+04         0.00000E+00
    0.00000E+00         0.00000E+00         0.00000E+00
 
    0.12296E+05         0.66333E+04         0.00000E+00
    0.66333E+04         0.16002E+04         0.00000E+00
    0.00000E+00         0.00000E+00         0.00000E+00
 
    0.12048E+05         0.69202E+04         0.00000E+00
    0.69202E+04         0.17616E+04         0.00000E+00
    0.00000E+00         0.00000E+00         0.00000E+00
 
    0.11785E+05         0.72010E+04         0.00000E+00
    0.72010E+04         0.19297E+04         0.00000E+00
    0.00000E+00         0.00000E+00         0.00000E+00
 
    0.11508E+05         0.74755E+04         0.00000E+00
    0.74755E+04         0.21043E+04         0.00000E+00
    0.00000E+00         0.00000E+00         0.00000E+00
 
    0.11218E+05         0.77433E+04         0.00000E+00
    0.77433E+04         0.22854E+04         0.00000E+00
    0.00000E+00         0.00000E+00         0.00000E+00
 
    0.10913E+05         0.80041E+04         0.00000E+00
    0.80041E+04         0.24727E+04         0.00000E+00
    0.00000E+00         0.00000E+00         0.00000E+00
 
    0.10595E+05         0.82576E+04         0.00000E+00
    0.82576E+04         0.26662E+04         0.00000E+00
    0.00000E+00         0.00000E+00         0.00000E+00
 
    0.10264E+05         0.85034E+04         0.00000E+00
    0.85034E+04         0.28655E+04         0.00000E+00
    0.00000E+00         0.00000E+00         0.00000E+00
 
    0.99204E+04         0.87413E+04         0.00000E+00
    0.87413E+04         0.30705E+04         0.00000E+00
    0.00000E+00         0.00000E+00         0.00000E+00
 
    0.95637E+04         0.89710E+04         0.00000E+00
    0.89710E+04         0.32811E+04         0.00000E+00
    0.00000E+00         0.00000E+00         0.00000E+00
 
    0.91946E+04         0.91922E+04         0.00000E+00
    0.91922E+04         0.34970E+04         0.00000E+00
    0.00000E+00         0.00000E+00         0.00000E+00
 
    0.88135E+04         0.94045E+04         0.00000E+00
    0.94045E+04         0.37181E+04         0.00000E+00
    0.00000E+00         0.00000E+00         0.00000E+00
 
    0.84205E+04         0.96079E+04         0.00000E+00
    0.96079E+04         0.39440E+04         0.00000E+00
    0.00000E+00         0.00000E+00         0.00000E+00
 
    0.80160E+04         0.98019E+04         0.00000E+00
    0.98019E+04         0.41747E+04         0.00000E+00
    0.00000E+00         0.00000E+00         0.00000E+00
 
    0.76004E+04         0.99862E+04         0.00000E+00
    0.99862E+04         0.44098E+04         0.00000E+00
    0.00000E+00         0.00000E+00         0.00000E+00
 
    0.71740E+04         0.10161E+05         0.00000E+00
    0.10161E+05         0.46492E+04         0.00000E+00
    0.00000E+00         0.00000E+00         0.00000E+00
 
    0.67370E+04         0.10325E+05         0.00000E+00
    0.10325E+05         0.48926E+04         0.00000E+00
    0.00000E+00         0.00000E+00         0.00000E+00
 
    0.62899E+04         0.10479E+05         0.00000E+00
    0.10479E+05         0.51397E+04         0.00000E+00
    0.00000E+00         0.00000E+00         0.00000E+00
 
    0.58330E+04         0.10623E+05         0.00000E+00
    0.10623E+05         0.53904E+04         0.00000E+00
    0.00000E+00         0.00000E+00         0.00000E+00
 
    0.53667E+04         0.10756E+05         0.00000E+00
    0.10756E+05         0.56444E+04         0.00000E+00
    0.00000E+00         0.00000E+00         0.00000E+00
 
    0.48913E+04         0.10878E+05         0.00000E+00
    0.10878E+05         0.59014E+04         0.00000E+00
    0.00000E+00         0.00000E+00         0.00000E+00
 
    0.44073E+04         0.10988E+05         0.00000E+00
    0.10988E+05         0.61611E+04         0.00000E+00
    0.00000E+00         0.00000E+00         0.00000E+00
 
    0.39150E+04         0.11088E+05         0.00000E+00
    0.11088E+05         0.64234E+04         0.00000E+00
    0.00000E+00         0.00000E+00         0.00000E+00
 
    0.34147E+04         0.11175E+05         0.00000E+00
    0.11175E+05         0.66879E+04         0.00000E+00
    0.00000E+00         0.00000E+00         0.00000E+00
 
    0.29070E+04         0.11251E+05         0.00000E+00
    0.11251E+05         0.69543E+04         0.00000E+00
    0.00000E+00         0.00000E+00         0.00000E+00
 
    0.23923E+04         0.11315E+05         0.00000E+00
    0.11315E+05         0.72224E+04         0.00000E+00
    0.00000E+00         0.00000E+00         0.00000E+00
 
    0.18708E+04         0.11367E+05         0.00000E+00
    0.11367E+05         0.74919E+04         0.00000E+00
    0.00000E+00         0.00000E+00         0.00000E+00
 
    0.13431E+04         0.11407E+05         0.00000E+00
    0.11407E+05         0.77625E+04         0.00000E+00
    0.00000E+00         0.00000E+00         0.00000E+00
 
    0.80962E+03         0.11435E+05         0.00000E+00
    0.11435E+05         0.80339E+04         0.00000E+00
    0.00000E+00         0.00000E+00         0.00000E+00
 
    0.27073E+03         0.11450E+05         0.00000E+00
    0.11450E+05         0.83059E+04         0.00000E+00
    0.00000E+00         0.00000E+00         0.00000E+00
 
    0.15793E+05         0.18539E+03         0.00000E+00
    0.18539E+03        -0.67918E+02         0.00000E+00
    0.00000E+00         0.00000E+00         0.00000E+00
 
    0.15863E+05         0.56122E+03         0.00000E+00
    0.56122E+03        -0.58991E+02         0.00000E+00
    0.00000E+00         0.00000E+00         0.00000E+00
 
    0.15916E+05         0.93833E+03         0.00000E+00
    0.93833E+03        -0.41075E+02         0.00000E+00
    0.00000E+00         0.00000E+00         0.00000E+00
 
    0.15950E+05         0.13163E+04         0.00000E+00
    0.13163E+04        -0.14151E+02         0.00000E+00
    0.00000E+00         0.00000E+00         0.00000E+00
 
    0.15967E+05         0.16947E+04         0.00000E+00
    0.16947E+04         0.21792E+02         0.00000E+00
    0.00000E+00         0.00000E+00         0.00000E+00
 
    0.15966E+05         0.20732E+04         0.00000E+00
    0.20732E+04         0.66753E+02         0.00000E+00
    0.00000E+00         0.00000E+00         0.00000E+00
 
    0.15946E+05         0.24512E+04         0.00000E+00
    0.24512E+04         0.12072E+03         0.00000E+00
    0.00000E+00         0.00000E+00         0.00000E+00
 
    0.15909E+05         0.28284E+04         0.00000E+00
    0.28284E+04         0.18368E+03         0.00000E+00
    0.00000E+00         0.00000E+00         0.00000E+00
 
    0.15854E+05         0.32044E+04         0.00000E+00
    0.32044E+04         0.25559E+03         0.00000E+00
    0.00000E+00         0.00000E+00         0.00000E+00
 
    0.15781E+05         0.35788E+04         0.00000E+00
    0.35788E+04         0.33643E+03         0.00000E+00
    0.00000E+00         0.00000E+00         0.00000E+00
 
    0.15690E+05         0.39511E+04         0.00000E+00
    0.39511E+04         0.42613E+03         0.00000E+00
    0.00000E+00         0.00000E+00         0.00000E+00
 
    0.15581E+05         0.43209E+04         0.00000E+00
    0.43209E+04         0.52464E+03         0.00000E+00
    0.00000E+00         0.00000E+00         0.00000E+00
 
    0.15455E+05         0.46878E+04         0.00000E+00
    0.46878E+04         0.63189E+03         0.00000E+00
    0.00000E+00         0.00000E+00         0.00000E+00
 
    0.15311E+05         0.50515E+04         0.00000E+00
    0.50515E+04         0.74781E+03         0.00000E+00
    0.00000E+00         0.00000E+00         0.00000E+00
 
    0.15149E+05         0.54114E+04         0.00000E+00
    0.54114E+04         0.87231E+03         0.00000E+00
    0.00000E+00         0.00000E+00         0.00000E+00
 
    0.14971E+05         0.57672E+04         0.00000E+00
    0.57672E+04         0.10053E+04         0.00000E+00
    0.00000E+00         0.00000E+00         0.00000E+00
 
    0.14775E+05         0.61186E+04         0.00000E+00
    0.61186E+04         0.11466E+04         0.00000E+00
    0.00000E+00         0.00000E+00         0.00000E+00
 
    0.14561E+05         0.64650E+04         0.00000E+00
    0.64650E+04         0.12962E+04         0.00000E+00
    0.00000E+00         0.00000E+00         0.00000E+00
 
    0.14331E+05         0.68061E+04         0.00000E+00
    0.68061E+04         0.14540E+04         0.00000E+00
    0.00000E+00         0.00000E+00         0.00000E+00
 
    0.14085E+05         0.71415E+04         0.00000E+00
    0.71415E+04         0.16197E+04         0.00000E+00
    0.00000E+00         0.00000E+00         0.00000E+00
 
    0.13822E+05         0.74709E+04         0.00000E+00
    0.74709E+04         0.17934E+04         0.00000E+00
    0.00000E+00         0.00000E+00         0.00000E+00
 
    0.13542E+05         0.77939E+04         0.00000E+00
    0.77939E+04         0.19747E+04         0.00000E+00
    0.00000E+00         0.00000E+00         0.00000E+00
 
    0.13246E+05         0.81100E+04         0.00000E+00
    0.81100E+04         0.21635E+04         0.00000E+00
    0.00000E+00         0.00000E+00         0.00000E+00
 
    0.12935E+05         0.84189E+04         0.00000E+00
    0.84189E+04         0.23598E+04         0.00000E+00
    0.00000E+00         0.00000E+00         0.00000E+00
 
    0.12608E+05         0.87204E+04         0.00000E+00
    0.87204E+04         0.25633E+04         0.00000E+00
    0.00000E+00         0.00000E+00         0.00000E+00
 
    0.12265E+05         0.90139E+04         0.00000E+00
    0.90139E+04         0.27737E+04         0.00000E+00
    0.00000E+00         0.00000E+00         0.00000E+00
 
    0.11908E+05         0.92991E+04         0.00000E+00
    0.92991E+04         0.29911E+04         0.00000E+00
    0.00000E+00         0.00000E+00         0.00000E+00
 
    0.11535E+05         0.95758E+04         0.00000E+00
    0.95758E+04         0.32150E+04         0.00000E+00
    0.00000E+00         0.00000E+00         0.00000E+00
 
    0.11149E+05         0.98435E+04         0.00000E+00
    0.98435E+04         0.34454E+04         0.00000E+00
    0.00000E+00         0.00000E+00         0.00000E+00
 
    0.10747E+05         0.10102E+05         0.00000E+00
    0.10102E+05         0.36819E+04         0.00000E+00
    0.00000E+00         0.00000E+00         0.00000E+00
 
    0.10332E+05         0.10351E+05         0.00000E+00
    0.10351E+05         0.39245E+04         0.00000E+00
    0.00000E+00         0.00000E+00         0.00000E+00
 
    0.99039E+04         0.10590E+05         0.00000E+00
    0.10590E+05         0.41728E+04         0.00000E+00
    0.00000E+00         0.00000E+00         0.00000E+00
 
    0.94621E+04         0.10819E+05         0.00000E+00
    0.10819E+05         0.44267E+04         0.00000E+00
    0.00000E+00         0.00000E+00         0.00000E+00
 
    0.90074E+04         0.11037E+05         0.00000E+00
    0.11037E+05         0.46858E+04         0.00000E+00
    0.00000E+00         0.00000E+00         0.00000E+00
 
    0.85402E+04         0.11245E+05         0.00000E+00
    0.11245E+05         0.49499E+04         0.00000E+00
    0.00000E+00         0.00000E+00         0.00000E+00
 
    0.80609E+04         0.11441E+05         0.00000E+00
    0.11441E+05         0.52188E+04         0.00000E+00
    0.00000E+00         0.00000E+00         0.00000E+00
 
    0.75698E+04         0.11626E+05         0.00000E+00
    0.11626E+05         0.54922E+04         0.00000E+00
    0.00000E+00         0.00000E+00         0.00000E+00
 
    0.70673E+04         0.11800E+05         0.00000E+00
    0.11800E+05         0.57698E+04         0.00000E+00
    0.00000E+00         0.00000E+00         0.00000E+00
 
    0.65538E+04         0.11961E+05         0.00000E+00
    0.11961E+05         0.60514E+04         0.00000E+00
    0.00000E+00         0.00000E+00         0.00000E+00
 
    0.60298E+04         0.12111E+05         0.00000E+00
    0.12111E+05         0.63367E+04         0.00000E+00
    0.00000E+00         0.00000E+00         0.00000E+00
 
    0.54956E+04         0.12248E+05         0.00000E+00
    0.12248E+05         0.66254E+04         0.00000E+00
    0.00000E+00         0.00000E+00         0.00000E+00
 
    0.49517E+04         0.12373E+05         0.00000E+00
    0.12373E+05         0.69172E+04         0.00000E+00
    0.00000E+00         0.00000E+00         0.00000E+00
 
    0.43985E+04         0.12484E+05         0.00000E+00
    0.12484E+05         0.72117E+04         0.00000E+00
    0.00000E+00         0.00000E+00         0.00000E+00
 
    0.38364E+04         0.12583E+05         0.00000E+00
    0.12583E+05         0.75088E+04         0.00000E+00
    0.00000E+00         0.00000E+00         0.00000E+00
 
    0.32660E+04         0.12669E+05         0.00000E+00
    0.12669E+05         0.78081E+04         0.00000E+00
    0.00000E+00         0.00000E+00         0.00000E+00
 
    0.26876E+04         0.12741E+05         0.00000E+00
    0.12741E+05         0.81092E+04         0.00000E+00
    0.00000E+00         0.00000E+00         0.00000E+00
 
    0.21018E+04         0.12800E+05         0.00000E+00
    0.12800E+05         0.84120E+04         0.00000E+00
    0.00000E+00         0.00000E+00         0.00000E+00
 
    0.15089E+04         0.12845E+05         0.00000E+00
    0.12845E+05         0.87160E+04         0.00000E+00
    0.00000E+00         0.00000E+00         0.00000E+00
 
    0.90954E+03         0.12876E+05         0.00000E+00
    0.12876E+05         0.90209E+04         0.00000E+00
    0.00000E+00         0.00000E+00         0.00000E+00
 
    0.30415E+03         0.12893E+05         0.00000E+00
    0.12893E+05         0.93264E+04         0.00000E+00
    0.00000E+00         0.00000E+00         0.00000E+00
 
    0.17769E+05         0.20895E+03         0.00000E+00
    0.20895E+03        -0.83147E+02         0.00000E+00
    0.00000E+00         0.00000E+00         0.00000E+00
 
    0.17848E+05         0.63241E+03         0.00000E+00
    0.63241E+03        -0.73102E+02         0.00000E+00
    0.00000E+00         0.00000E+00         0.00000E+00
 
    0.17906E+05         0.10573E+04         0.00000E+00
    0.10573E+04        -0.52945E+02         0.00000E+00
    0.00000E+00         0.00000E+00         0.00000E+00
 
    0.17944E+05         0.14831E+04         0.00000E+00
    0.14831E+04        -0.22655E+02         0.00000E+00
    0.00000E+00         0.00000E+00         0.00000E+00
 
    0.17961E+05         0.19094E+04         0.00000E+00
    0.19094E+04         0.17778E+02         0.00000E+00
    0.00000E+00         0.00000E+00         0.00000E+00
 
    0.17959E+05         0.23356E+04         0.00000E+00
    0.23356E+04         0.68351E+02         0.00000E+00
    0.00000E+00         0.00000E+00         0.00000E+00
 
    0.17936E+05         0.27614E+04         0.00000E+00
    0.27614E+04         0.12905E+03         0.00000E+00
    0.00000E+00         0.00000E+00         0.00000E+00
 
    0.17893E+05         0.31863E+04         0.00000E+00
    0.31863E+04         0.19986E+03         0.00000E+00
    0.00000E+00         0.00000E+00         0.00000E+00
 
    0.17831E+05         0.36097E+04         0.00000E+00
    0.36097E+04         0.28073E+03         0.00000E+00
    0.00000E+00         0.00000E+00         0.00000E+00
 
    0.17748E+05         0.40312E+04         0.00000E+00
    0.40312E+04         0.37163E+03         0.00000E+00
    0.00000E+00         0.00000E+00         0.00000E+00
 
    0.17644E+05         0.44504E+04         0.00000E+00
    0.44504E+04         0.47249E+03         0.00000E+00
    0.00000E+00         0.00000E+00         0.00000E+00
 
    0.17521E+05         0.48668E+04         0.00000E+00
    0.48668E+04         0.58326E+03         0.00000E+00
    0.00000E+00         0.00000E+00         0.00000E+00
 
    0.17379E+05         0.52799E+04         0.00000E+00
    0.52799E+04         0.70385E+03         0.00000E+00
    0.00000E+00         0.00000E+00         0.00000E+00
 
    0.17216E+05         0.56892E+04         0.00000E+00
    0.56892E+04         0.83417E+03         0.00000E+00
    0.00000E+00         0.00000E+00         0.00000E+00
 
    0.17034E+05         0.60944E+04         0.00000E+00
    0.60944E+04         0.97412E+03         0.00000E+00
    0.00000E+00         0.00000E+00         0.00000E+00
 
    0.16832E+05         0.64949E+04         0.00000E+00
    0.64949E+04         0.11236E+04         0.00000E+00
    0.00000E+00         0.00000E+00         0.00000E+00
 
    0.16611E+05         0.68903E+04         0.00000E+00
    0.68903E+04         0.12825E+04         0.00000E+00
    0.00000E+00         0.00000E+00         0.00000E+00
 
    0.16371E+05         0.72802E+04         0.00000E+00
    0.72802E+04         0.14507E+04         0.00000E+00
    0.00000E+00         0.00000E+00         0.00000E+00
 
    0.16112E+05         0.76641E+04         0.00000E+00
    0.76641E+04         0.16280E+04         0.00000E+00
    0.00000E+00         0.00000E+00         0.00000E+00
 
    0.15834E+05         0.80416E+04         0.00000E+00
    0.80416E+04         0.18142E+04         0.00000E+00
    0.00000E+00         0.00000E+00         0.00000E+00
 
    0.15537E+05         0.84123E+04         0.00000E+00
    0.84123E+04         0.20093E+04         0.00000E+00
    0.00000E+00         0.00000E+00         0.00000E+00
 
    0.15223E+05         0.87757E+04         0.00000E+00
    0.87757E+04         0.22131E+04         0.00000E+00
    0.00000E+00         0.00000E+00         0.00000E+00
 
    0.14890E+05         0.91314E+04         0.00000E+00
    0.91314E+04         0.24253E+04         0.00000E+00
    0.00000E+00         0.00000E+00         0.00000E+00
 
    0.14539E+05         0.94790E+04         0.00000E+00
    0.94790E+04         0.26459E+04         0.00000E+00
    0.00000E+00         0.00000E+00         0.00000E+00
 
    0.14171E+05         0.98182E+04         0.00000E+00
    0.98182E+04         0.28745E+04         0.00000E+00
    0.00000E+00         0.00000E+00         0.00000E+00
 
    0.13786E+05         0.10148E+05         0.00000E+00
    0.10148E+05         0.31110E+04         0.00000E+00
    0.00000E+00         0.00000E+00         0.00000E+00
 
    0.13383E+05         0.10469E+05         0.00000E+00
    0.10469E+05         0.33552E+04         0.00000E+00
    0.00000E+00         0.00000E+00         0.00000E+00
 
    0.12965E+05         0.10781E+05         0.00000E+00
    0.10781E+05         0.36068E+04         0.00000E+00
    0.00000E+00         0.00000E+00         0.00000E+00
 
    0.12529E+05         0.11082E+05         0.00000E+00
    0.11082E+05         0.38656E+04         0.00000E+00
    0.00000E+00         0.00000E+00         0.00000E+00
 
    0.12078E+05         0.11373E+05         0.00000E+00
    0.11373E+05         0.41314E+04         0.00000E+00
    0.00000E+00         0.00000E+00         0.00000E+00
 
    0.11612E+05         0.11653E+05         0.00000E+00
    0.11653E+05         0.44039E+04         0.00000E+00
    0.00000E+00         0.00000E+00         0.00000E+00
 
    0.11130E+05         0.11922E+05         0.00000E+00
    0.11922E+05         0.46829E+04         0.00000E+00
    0.00000E+00         0.00000E+00         0.00000E+00
 
    0.10633E+05         0.12179E+05         0.00000E+00
    0.12179E+05         0.49680E+04         0.00000E+00
    0.00000E+00         0.00000E+00         0.00000E+00
 
    0.10122E+05         0.12425E+05         0.00000E+00
    0.12425E+05         0.52591E+04         0.00000E+00
    0.00000E+00         0.00000E+00         0.00000E+00
 
    0.95965E+04         0.12658E+05         0.00000E+00
    0.12658E+05         0.55558E+04         0.00000E+00
    0.00000E+00         0.00000E+00         0.00000E+00
 
    0.90577E+04         0.12879E+05         0.00000E+00
    0.12879E+05         0.58579E+04         0.00000E+00
    0.00000E+00         0.00000E+00         0.00000E+00
 
    0.85057E+04         0.13087E+05         0.00000E+00
    0.13087E+05         0.61650E+04         0.00000E+00
    0.00000E+00         0.00000E+00         0.00000E+00
 
    0.79409E+04         0.13283E+05         0.00000E+00
    0.13283E+05         0.64768E+04         0.00000E+00
    0.00000E+00         0.00000E+00         0.00000E+00
 
    0.73638E+04         0.13464E+05         0.00000E+00
    0.13464E+05         0.67932E+04         0.00000E+00
    0.00000E+00         0.00000E+00         0.00000E+00
 
    0.67749E+04         0.13633E+05         0.00000E+00
    0.13633E+05         0.71136E+04         0.00000E+00
    0.00000E+00         0.00000E+00         0.00000E+00
 
    0.61746E+04         0.13787E+05         0.00000E+00
    0.13787E+05         0.74379E+04         0.00000E+00
    0.00000E+00         0.00000E+00         0.00000E+00
 
    0.55634E+04         0.13927E+05         0.00000E+00
    0.13927E+05         0.77656E+04         0.00000E+00
    0.00000E+00         0.00000E+00         0.00000E+00
 
    0.49418E+04         0.14053E+05         0.00000E+00
    0.14053E+05         0.80965E+04         0.00000E+00
    0.00000E+00         0.00000E+00         0.00000E+00
 
    0.43102E+04         0.14165E+05         0.00000E+00
    0.14165E+05         0.84302E+04         0.00000E+00
    0.00000E+00         0.00000E+00         0.00000E+00
 
    0.36693E+04         0.14261E+05         0.00000E+00
    0.14261E+05         0.87664E+04         0.00000E+00
    0.00000E+00         0.00000E+00         0.00000E+00
 
    0.30195E+04         0.14342E+05         0.00000E+00
    0.14342E+05         0.91047E+04         0.00000E+00
    0.00000E+00         0.00000E+00         0.00000E+00
 
    0.23612E+04         0.14409E+05         0.00000E+00
    0.14409E+05         0.94447E+04         0.00000E+00
    0.00000E+00         0.00000E+00         0.00000E+00
 
    0.16952E+04         0.14459E+05         0.00000E+00
    0.14459E+05         0.97862E+04         0.00000E+00
    0.00000E+00         0.00000E+00         0.00000E+00
 
    0.10218E+04         0.14495E+05         0.00000E+00
    0.14495E+05         0.10129E+05         0.00000E+00
    0.00000E+00         0.00000E+00         0.00000E+00
 
    0.34169E+03         0.14514E+05         0.00000E+00
    0.14514E+05         0.10472E+05         0.00000E+00
    0.00000E+00         0.00000E+00         0.00000E+00
 
    0.19995E+05         0.23546E+03         0.00000E+00
    0.23546E+03        -0.10174E+03         0.00000E+00
    0.00000E+00         0.00000E+00         0.00000E+00
 
    0.20082E+05         0.71251E+03         0.00000E+00
    0.71251E+03        -0.90437E+02         0.00000E+00
    0.00000E+00         0.00000E+00         0.00000E+00
 
    0.20146E+05         0.11911E+04         0.00000E+00
    0.11911E+04        -0.67756E+02         0.00000E+00
    0.00000E+00         0.00000E+00         0.00000E+00
 
    0.20187E+05         0.16707E+04         0.00000E+00
    0.16707E+04        -0.33678E+02         0.00000E+00
    0.00000E+00         0.00000E+00         0.00000E+00
 
    0.20206E+05         0.21508E+04         0.00000E+00
    0.21508E+04         0.11808E+02         0.00000E+00
    0.00000E+00         0.00000E+00         0.00000E+00
 
    0.20202E+05         0.26309E+04         0.00000E+00
    0.26309E+04         0.68696E+02         0.00000E+00
    0.00000E+00         0.00000E+00         0.00000E+00
 
    0.20176E+05         0.31103E+04         0.00000E+00
    0.31103E+04         0.13697E+03         0.00000E+00
    0.00000E+00         0.00000E+00         0.00000E+00
 
    0.20127E+05         0.35887E+04         0.00000E+00
    0.35887E+04         0.21661E+03         0.00000E+00
    0.00000E+00         0.00000E+00         0.00000E+00
 
    0.20055E+05         0.40654E+04         0.00000E+00
    0.40654E+04         0.30756E+03         0.00000E+00
    0.00000E+00         0.00000E+00         0.00000E+00
 
    0.19960E+05         0.45400E+04         0.00000E+00
    0.45400E+04         0.40978E+03         0.00000E+00
    0.00000E+00         0.00000E+00         0.00000E+00
 
    0.19844E+05         0.50118E+04         0.00000E+00
    0.50118E+04         0.52320E+03         0.00000E+00
    0.00000E+00         0.00000E+00         0.00000E+00
 
    0.19704E+05         0.54805E+04         0.00000E+00
    0.54805E+04         0.64774E+03         0.00000E+00
    0.00000E+00         0.00000E+00         0.00000E+00
 
    0.19543E+05         0.59455E+04         0.00000E+00
    0.59455E+04         0.78332E+03         0.00000E+00
    0.00000E+00         0.00000E+00         0.00000E+00
 
    0.19359E+05         0.64062E+04         0.00000E+00
    0.64062E+04         0.92984E+03         0.00000E+00
    0.00000E+00         0.00000E+00         0.00000E+00
 
    0.19153E+05         0.68622E+04         0.00000E+00
    0.68622E+04         0.10872E+04         0.00000E+00
    0.00000E+00         0.00000E+00         0.00000E+00
 
    0.18926E+05         0.73129E+04         0.00000E+00
    0.73129E+04         0.12552E+04         0.00000E+00
    0.00000E+00         0.00000E+00         0.00000E+00
 
    0.18676E+05         0.77578E+04         0.00000E+00
    0.77578E+04         0.14338E+04         0.00000E+00
    0.00000E+00         0.00000E+00         0.00000E+00
 
    0.18405E+05         0.81965E+04         0.00000E+00
    0.81965E+04         0.16228E+04         0.00000E+00
    0.00000E+00         0.00000E+00         0.00000E+00
 
    0.18113E+05         0.86285E+04         0.00000E+00
    0.86285E+04         0.18221E+04         0.00000E+00
    0.00000E+00         0.00000E+00         0.00000E+00
 
    0.17800E+05         0.90532E+04         0.00000E+00
    0.90532E+04         0.20315E+04         0.00000E+00
    0.00000E+00         0.00000E+00         0.00000E+00
 
    0.17466E+05         0.94702E+04         0.00000E+00
    0.94702E+04         0.22507E+04         0.00000E+00
    0.00000E+00         0.00000E+00         0.00000E+00
 
    0.17112E+05         0.98790E+04         0.00000E+00
    0.98790E+04         0.24797E+04         0.00000E+00
    0.00000E+00         0.00000E+00         0.00000E+00
 
    0.16737E+05         0.10279E+05         0.00000E+00
    0.10279E+05         0.27182E+04         0.00000E+00
    0.00000E+00         0.00000E+00         0.00000E+00
 
    0.16342E+05         0.10670E+05         0.00000E+00
    0.10670E+05         0.29660E+04         0.00000E+00
    0.00000E+00         0.00000E+00         0.00000E+00
 
    0.15928E+05         0.11052E+05         0.00000E+00
    0.11052E+05         0.32229E+04         0.00000E+00
    0.00000E+00         0.00000E+00         0.00000E+00
 
    0.15495E+05         0.11423E+05         0.00000E+00
    0.11423E+05         0.34886E+04         0.00000E+00
    0.00000E+00         0.00000E+00         0.00000E+00
 
    0.15042E+05         0.11784E+05         0.00000E+00
    0.11784E+05         0.37630E+04         0.00000E+00
    0.00000E+00         0.00000E+00         0.00000E+00
 
    0.14571E+05         0.12134E+05         0.00000E+00
    0.12134E+05         0.40457E+04         0.00000E+00
    0.00000E+00         0.00000E+00         0.00000E+00
 
    0.14081E+05         0.12473E+05         0.00000E+00
    0.12473E+05         0.43364E+04         0.00000E+00
    0.00000E+00         0.00000E+00         0.00000E+00
 
    0.13574E+05         0.12800E+05         0.00000E+00
    0.12800E+05         0.46350E+04         0.00000E+00
    0.00000E+00         0.00000E+00         0.00000E+00
 
    0.13049E+05         0.13115E+05         0.00000E+00
    0.13115E+05         0.49412E+04         0.00000E+00
    0.00000E+00         0.00000E+00         0.00000E+00
 
    0.12507E+05         0.13417E+05         0.00000E+00
    0.13417E+05         0.52545E+04         0.00000E+00
    0.00000E+00         0.00000E+00         0.00000E+00
 
    0.11948E+05         0.13707E+05         0.00000E+00
    0.13707E+05         0.55749E+04         0.00000E+00
    0.00000E+00         0.00000E+00         0.00000E+00
 
    0.11374E+05         0.13983E+05         0.00000E+00
    0.13983E+05         0.59018E+04         0.00000E+00
    0.00000E+00         0.00000E+00         0.00000E+00
 
    0.10783E+05         0.14246E+05         0.00000E+00
    0.14246E+05         0.62351E+04         0.00000E+00
    0.00000E+00         0.00000E+00         0.00000E+00
 
    0.10178E+05         0.14494E+05         0.00000E+00
    0.14494E+05         0.65744E+04         0.00000E+00
    0.00000E+00         0.00000E+00         0.00000E+00
 
    0.95571E+04         0.14729E+05         0.00000E+00
    0.14729E+05         0.69194E+04         0.00000E+00
    0.00000E+00         0.00000E+00         0.00000E+00
 
    0.89223E+04         0.14948E+05         0.00000E+00
    0.14948E+05         0.72697E+04         0.00000E+00
    0.00000E+00         0.00000E+00         0.00000E+00
 
    0.82738E+04         0.15153E+05         0.00000E+00
    0.15153E+05         0.76250E+04         0.00000E+00
    0.00000E+00         0.00000E+00         0.00000E+00
 
    0.76119E+04         0.15342E+05         0.00000E+00
    0.15342E+05         0.79849E+04         0.00000E+00
    0.00000E+00         0.00000E+00         0.00000E+00
 
    0.69373E+04         0.15516E+05         0.00000E+00
    0.15516E+05         0.83492E+04         0.00000E+00
    0.00000E+00         0.00000E+00         0.00000E+00
 
    0.62505E+04         0.15674E+05         0.00000E+00
    0.15674E+05         0.87173E+04         0.00000E+00
    0.00000E+00         0.00000E+00         0.00000E+00
 
    0.55520E+04         0.15816E+05         0.00000E+00
    0.15816E+05         0.90889E+04         0.00000E+00
    0.00000E+00         0.00000E+00         0.00000E+00
 
    0.48424E+04         0.15941E+05         0.00000E+00
    0.15941E+05         0.94638E+04         0.00000E+00
    0.00000E+00         0.00000E+00         0.00000E+00
 
    0.41223E+04         0.16049E+05         0.00000E+00
    0.16049E+05         0.98414E+04         0.00000E+00
    0.00000E+00         0.00000E+00         0.00000E+00
 
    0.33922E+04         0.16141E+05         0.00000E+00
    0.16141E+05         0.10221E+05         0.00000E+00
    0.00000E+00         0.00000E+00         0.00000E+00
 
    0.26527E+04         0.16216E+05         0.00000E+00
    0.16216E+05         0.10603E+05         0.00000E+00
    0.00000E+00         0.00000E+00         0.00000E+00
 
    0.19044E+04         0.16273E+05         0.00000E+00
    0.16273E+05         0.10987E+05         0.00000E+00
    0.00000E+00         0.00000E+00         0.00000E+00
 
    0.11479E+04         0.16313E+05         0.00000E+00
    0.16313E+05         0.11372E+05         0.00000E+00
    0.00000E+00         0.00000E+00         0.00000E+00
 
    0.38386E+03         0.16335E+05         0.00000E+00
    0.16335E+05         0.11757E+05         0.00000E+00
    0.00000E+00         0.00000E+00         0.00000E+00
 
    0.22500E+05         0.26529E+03         0.00000E+00
    0.26529E+03        -0.12443E+03         0.00000E+00
    0.00000E+00         0.00000E+00         0.00000E+00
 
    0.22596E+05         0.80265E+03         0.00000E+00
    0.80265E+03        -0.11171E+03         0.00000E+00
    0.00000E+00         0.00000E+00         0.00000E+00
 
    0.22667E+05         0.13417E+04         0.00000E+00
    0.13417E+04        -0.86192E+02         0.00000E+00
    0.00000E+00         0.00000E+00         0.00000E+00
 
    0.22712E+05         0.18818E+04         0.00000E+00
    0.18818E+04        -0.47850E+02         0.00000E+00
    0.00000E+00         0.00000E+00         0.00000E+00
 
    0.22732E+05         0.24224E+04         0.00000E+00
    0.24224E+04         0.33211E+01         0.00000E+00
    0.00000E+00         0.00000E+00         0.00000E+00
 
    0.22726E+05         0.29629E+04         0.00000E+00
    0.29629E+04         0.67315E+02         0.00000E+00
    0.00000E+00         0.00000E+00         0.00000E+00
 
    0.22695E+05         0.35027E+04         0.00000E+00
    0.35027E+04         0.14411E+03         0.00000E+00
    0.00000E+00         0.00000E+00         0.00000E+00
 
    0.22639E+05         0.40413E+04         0.00000E+00
    0.40413E+04         0.23368E+03         0.00000E+00
    0.00000E+00         0.00000E+00         0.00000E+00
 
    0.22557E+05         0.45779E+04         0.00000E+00
    0.45779E+04         0.33597E+03         0.00000E+00
    0.00000E+00         0.00000E+00         0.00000E+00
 
    0.22450E+05         0.51120E+04         0.00000E+00
    0.51120E+04         0.45092E+03         0.00000E+00
    0.00000E+00         0.00000E+00         0.00000E+00
 
    0.22317E+05         0.56431E+04         0.00000E+00
    0.56431E+04         0.57846E+03         0.00000E+00
    0.00000E+00         0.00000E+00         0.00000E+00
 
    0.22159E+05         0.61706E+04         0.00000E+00
    0.61706E+04         0.71849E+03         0.00000E+00
    0.00000E+00         0.00000E+00         0.00000E+00
 
    0.21976E+05         0.66938E+04         0.00000E+00
    0.66938E+04         0.87093E+03         0.00000E+00
    0.00000E+00         0.00000E+00         0.00000E+00
 
    0.21769E+05         0.72122E+04         0.00000E+00
    0.72122E+04         0.10356E+04         0.00000E+00
    0.00000E+00         0.00000E+00         0.00000E+00
 
    0.21536E+05         0.77252E+04         0.00000E+00
    0.77252E+04         0.12125E+04         0.00000E+00
    0.00000E+00         0.00000E+00         0.00000E+00
 
    0.21279E+05         0.82323E+04         0.00000E+00
    0.82323E+04         0.14014E+04         0.00000E+00
    0.00000E+00         0.00000E+00         0.00000E+00
 
    0.20998E+05         0.87329E+04         0.00000E+00
    0.87329E+04         0.16022E+04         0.00000E+00
    0.00000E+00         0.00000E+00         0.00000E+00
 
    0.20693E+05         0.92264E+04         0.00000E+00
    0.92264E+04         0.18146E+04         0.00000E+00
    0.00000E+00         0.00000E+00         0.00000E+00
 
    0.20363E+05         0.97123E+04         0.00000E+00
    0.97123E+04         0.20386E+04         0.00000E+00
    0.00000E+00         0.00000E+00         0.00000E+00
 
    0.20011E+05         0.10190E+05         0.00000E+00
    0.10190E+05         0.22738E+04         0.00000E+00
    0.00000E+00         0.00000E+00         0.00000E+00
 
    0.19634E+05         0.10659E+05         0.00000E+00
    0.10659E+05         0.25203E+04         0.00000E+00
    0.00000E+00         0.00000E+00         0.00000E+00
 
    0.19235E+05         0.11119E+05         0.00000E+00
    0.11119E+05         0.27776E+04         0.00000E+00
    0.00000E+00         0.00000E+00         0.00000E+00
 
    0.18813E+05         0.11569E+05         0.00000E+00
    0.11569E+05         0.30456E+04         0.00000E+00
    0.00000E+00         0.00000E+00         0.00000E+00
 
    0.18369E+05         0.12009E+05         0.00000E+00
    0.12009E+05         0.33240E+04         0.00000E+00
    0.00000E+00         0.00000E+00         0.00000E+00
 
    0.17903E+05         0.12438E+05         0.00000E+00
    0.12438E+05         0.36126E+04         0.00000E+00
    0.00000E+00         0.00000E+00         0.00000E+00
 
    0.17415E+05         0.12855E+05         0.00000E+00
    0.12855E+05         0.39112E+04         0.00000E+00
    0.00000E+00         0.00000E+00         0.00000E+00
 
    0.16905E+05         0.13261E+05         0.00000E+00
    0.13261E+05         0.42194E+04         0.00000E+00
    0.00000E+00         0.00000E+00         0.00000E+00
 
    0.16375E+05         0.13655E+05         0.00000E+00
    0.13655E+05         0.45370E+04         0.00000E+00
    0.00000E+00         0.00000E+00         0.00000E+00
 
    0.15824E+05         0.14036E+05         0.00000E+00
    0.14036E+05         0.48636E+04         0.00000E+00
    0.00000E+00         0.00000E+00         0.00000E+00
 
    0.15254E+05         0.14404E+05         0.00000E+00
    0.14404E+05         0.51990E+04         0.00000E+00
    0.00000E+00         0.00000E+00         0.00000E+00
 
    0.14663E+05         0.14758E+05         0.00000E+00
    0.14758E+05         0.55429E+04         0.00000E+00
    0.00000E+00         0.00000E+00         0.00000E+00
 
    0.14054E+05         0.15098E+05         0.00000E+00
    0.15098E+05         0.58949E+04         0.00000E+00
    0.00000E+00         0.00000E+00         0.00000E+00
 
    0.13426E+05         0.15423E+05         0.00000E+00
    0.15423E+05         0.62547E+04         0.00000E+00
    0.00000E+00         0.00000E+00         0.00000E+00
 
    0.12780E+05         0.15734E+05         0.00000E+00
    0.15734E+05         0.66220E+04         0.00000E+00
    0.00000E+00         0.00000E+00         0.00000E+00
 
    0.12116E+05         0.16029E+05         0.00000E+00
    0.16029E+05         0.69964E+04         0.00000E+00
    0.00000E+00         0.00000E+00         0.00000E+00
 
    0.11435E+05         0.16309E+05         0.00000E+00
    0.16309E+05         0.73775E+04         0.00000E+00
    0.00000E+00         0.00000E+00         0.00000E+00
 
    0.10738E+05         0.16572E+05         0.00000E+00
    0.16572E+05         0.77649E+04         0.00000E+00
    0.00000E+00         0.00000E+00         0.00000E+00
 
    0.10024E+05         0.16819E+05         0.00000E+00
    0.16819E+05         0.81584E+04         0.00000E+00
    0.00000E+00         0.00000E+00         0.00000E+00
 
    0.92956E+04         0.17049E+05         0.00000E+00
    0.17049E+05         0.85574E+04         0.00000E+00
    0.00000E+00         0.00000E+00         0.00000E+00
 
    0.85518E+04         0.17262E+05         0.00000E+00
    0.17262E+05         0.89617E+04         0.00000E+00
    0.00000E+00         0.00000E+00         0.00000E+00
 
    0.77938E+04         0.17458E+05         0.00000E+00
    0.17458E+05         0.93707E+04         0.00000E+00
    0.00000E+00         0.00000E+00         0.00000E+00
 
    0.70221E+04         0.17635E+05         0.00000E+00
    0.17635E+05         0.97842E+04         0.00000E+00
    0.00000E+00         0.00000E+00         0.00000E+00
 
    0.62373E+04         0.17795E+05         0.00000E+00
    0.17795E+05         0.10202E+05         0.00000E+00
    0.00000E+00         0.00000E+00         0.00000E+00
 
    0.54400E+04         0.17936E+05         0.00000E+00
    0.17936E+05         0.10623E+05         0.00000E+00
    0.00000E+00         0.00000E+00         0.00000E+00
 
    0.46309E+04         0.18058E+05         0.00000E+00
    0.18058E+05         0.11047E+05         0.00000E+00
    0.00000E+00         0.00000E+00         0.00000E+00
 
    0.38107E+04         0.18162E+05         0.00000E+00
    0.18162E+05         0.11474E+05         0.00000E+00
    0.00000E+00         0.00000E+00         0.00000E+00
 
    0.29799E+04         0.18246E+05         0.00000E+00
    0.18246E+05         0.11903E+05         0.00000E+00
    0.00000E+00         0.00000E+00         0.00000E+00
 
    0.21393E+04         0.18311E+05         0.00000E+00
    0.18311E+05         0.12333E+05         0.00000E+00
    0.00000E+00         0.00000E+00         0.00000E+00
 
    0.12895E+04         0.18356E+05         0.00000E+00
    0.18356E+05         0.12766E+05         0.00000E+00
    0.00000E+00         0.00000E+00         0.00000E+00
 
    0.43120E+03         0.18381E+05         0.00000E+00
    0.18381E+05         0.13199E+05         0.00000E+00
    0.00000E+00         0.00000E+00         0.00000E+00
 
    0.25320E+05         0.29888E+03         0.00000E+00
    0.29888E+03        -0.15212E+03         0.00000E+00
    0.00000E+00         0.00000E+00         0.00000E+00
 
    0.25426E+05         0.90409E+03         0.00000E+00
    0.90409E+03        -0.13780E+03         0.00000E+00
    0.00000E+00         0.00000E+00         0.00000E+00
 
    0.25504E+05         0.15111E+04         0.00000E+00
    0.15111E+04        -0.10908E+03         0.00000E+00
    0.00000E+00         0.00000E+00         0.00000E+00
 
    0.25553E+05         0.21193E+04         0.00000E+00
    0.21193E+04        -0.65946E+02         0.00000E+00
    0.00000E+00         0.00000E+00         0.00000E+00
 
    0.25574E+05         0.27280E+04         0.00000E+00
    0.27280E+04        -0.83795E+01         0.00000E+00
    0.00000E+00         0.00000E+00         0.00000E+00
 
    0.25566E+05         0.33365E+04         0.00000E+00
    0.33365E+04         0.63606E+02         0.00000E+00
    0.00000E+00         0.00000E+00         0.00000E+00
 
    0.25530E+05         0.39441E+04         0.00000E+00
    0.39441E+04         0.14999E+03         0.00000E+00
    0.00000E+00         0.00000E+00         0.00000E+00
 
    0.25465E+05         0.45503E+04         0.00000E+00
    0.45503E+04         0.25072E+03         0.00000E+00
    0.00000E+00         0.00000E+00         0.00000E+00
 
    0.25371E+05         0.51542E+04         0.00000E+00
    0.51542E+04         0.36575E+03         0.00000E+00
    0.00000E+00         0.00000E+00         0.00000E+00
 
    0.25249E+05         0.57553E+04         0.00000E+00
    0.57553E+04         0.49502E+03         0.00000E+00
    0.00000E+00         0.00000E+00         0.00000E+00
 
    0.25098E+05         0.63530E+04         0.00000E+00
    0.63530E+04         0.63842E+03         0.00000E+00
    0.00000E+00         0.00000E+00         0.00000E+00
 
    0.24919E+05         0.69464E+04         0.00000E+00
    0.69464E+04         0.79587E+03         0.00000E+00
    0.00000E+00         0.00000E+00         0.00000E+00
 
    0.24713E+05         0.75351E+04         0.00000E+00
    0.75351E+04         0.96724E+03         0.00000E+00
    0.00000E+00         0.00000E+00         0.00000E+00
 
    0.24478E+05         0.81183E+04         0.00000E+00
    0.81183E+04         0.11524E+04         0.00000E+00
    0.00000E+00         0.00000E+00         0.00000E+00
 
    0.24215E+05         0.86954E+04         0.00000E+00
    0.86954E+04         0.13512E+04         0.00000E+00
    0.00000E+00         0.00000E+00         0.00000E+00
 
    0.23925E+05         0.92658E+04         0.00000E+00
    0.92658E+04         0.15635E+04         0.00000E+00
    0.00000E+00         0.00000E+00         0.00000E+00
 
    0.23608E+05         0.98289E+04         0.00000E+00
    0.98289E+04         0.17892E+04         0.00000E+00
    0.00000E+00         0.00000E+00         0.00000E+00
 
    0.23263E+05         0.10384E+05         0.00000E+00
    0.10384E+05         0.20279E+04         0.00000E+00
    0.00000E+00         0.00000E+00         0.00000E+00
 
    0.22892E+05         0.10930E+05         0.00000E+00
    0.10930E+05         0.22796E+04         0.00000E+00
    0.00000E+00         0.00000E+00         0.00000E+00
 
    0.22494E+05         0.11468E+05         0.00000E+00
    0.11468E+05         0.25440E+04         0.00000E+00
    0.00000E+00         0.00000E+00         0.00000E+00
 
    0.22070E+05         0.11995E+05         0.00000E+00
    0.11995E+05         0.28209E+04         0.00000E+00
    0.00000E+00         0.00000E+00         0.00000E+00
 
    0.21621E+05         0.12512E+05         0.00000E+00
    0.12512E+05         0.31100E+04         0.00000E+00
    0.00000E+00         0.00000E+00         0.00000E+00
 
    0.21146E+05         0.13018E+05         0.00000E+00
    0.13018E+05         0.34112E+04         0.00000E+00
    0.00000E+00         0.00000E+00         0.00000E+00
 
    0.20645E+05         0.13512E+05         0.00000E+00
    0.13512E+05         0.37240E+04         0.00000E+00
    0.00000E+00         0.00000E+00         0.00000E+00
 
    0.20120E+05         0.13995E+05         0.00000E+00
    0.13995E+05         0.40482E+04         0.00000E+00
    0.00000E+00         0.00000E+00         0.00000E+00
 
    0.19571E+05         0.14464E+05         0.00000E+00
    0.14464E+05         0.43836E+04         0.00000E+00
    0.00000E+00         0.00000E+00         0.00000E+00
 
    0.18998E+05         0.14921E+05         0.00000E+00
    0.14921E+05         0.47298E+04         0.00000E+00
    0.00000E+00         0.00000E+00         0.00000E+00
 
    0.18402E+05         0.15363E+05         0.00000E+00
    0.15363E+05         0.50866E+04         0.00000E+00
    0.00000E+00         0.00000E+00         0.00000E+00
 
    0.17782E+05         0.15792E+05         0.00000E+00
    0.15792E+05         0.54535E+04         0.00000E+00
    0.00000E+00         0.00000E+00         0.00000E+00
 
    0.17140E+05         0.16205E+05         0.00000E+00
    0.16205E+05         0.58303E+04         0.00000E+00
    0.00000E+00         0.00000E+00         0.00000E+00
 
    0.16477E+05         0.16603E+05         0.00000E+00
    0.16603E+05         0.62165E+04         0.00000E+00
    0.00000E+00         0.00000E+00         0.00000E+00
 
    0.15791E+05         0.16985E+05         0.00000E+00
    0.16985E+05         0.66119E+04         0.00000E+00
    0.00000E+00         0.00000E+00         0.00000E+00
 
    0.15085E+05         0.17351E+05         0.00000E+00
    0.17351E+05         0.70160E+04         0.00000E+00
    0.00000E+00         0.00000E+00         0.00000E+00
 
    0.14359E+05         0.17700E+05         0.00000E+00
    0.17700E+05         0.74284E+04         0.00000E+00
    0.00000E+00         0.00000E+00         0.00000E+00
 
    0.13613E+05         0.18032E+05         0.00000E+00
    0.18032E+05         0.78489E+04         0.00000E+00
    0.00000E+00         0.00000E+00         0.00000E+00
 
    0.12847E+05         0.18347E+05         0.00000E+00
    0.18347E+05         0.82769E+04         0.00000E+00
    0.00000E+00         0.00000E+00         0.00000E+00
 
    0.12064E+05         0.18643E+05         0.00000E+00
    0.18643E+05         0.87120E+04         0.00000E+00
    0.00000E+00         0.00000E+00         0.00000E+00
 
    0.11262E+05         0.18921E+05         0.00000E+00
    0.18921E+05         0.91539E+04         0.00000E+00
    0.00000E+00         0.00000E+00         0.00000E+00
 
    0.10443E+05         0.19179E+05         0.00000E+00
    0.19179E+05         0.96020E+04         0.00000E+00
    0.00000E+00         0.00000E+00         0.00000E+00
 
    0.96069E+04         0.19419E+05         0.00000E+00
    0.19419E+05         0.10056E+05         0.00000E+00
    0.00000E+00         0.00000E+00         0.00000E+00
 
    0.87552E+04         0.19639E+05         0.00000E+00
    0.19639E+05         0.10515E+05         0.00000E+00
    0.00000E+00         0.00000E+00         0.00000E+00
 
    0.78881E+04         0.19838E+05         0.00000E+00
    0.19838E+05         0.10980E+05         0.00000E+00
    0.00000E+00         0.00000E+00         0.00000E+00
 
    0.70064E+04         0.20018E+05         0.00000E+00
    0.20018E+05         0.11448E+05         0.00000E+00
    0.00000E+00         0.00000E+00         0.00000E+00
 
    0.61107E+04         0.20177E+05         0.00000E+00
    0.20177E+05         0.11921E+05         0.00000E+00
    0.00000E+00         0.00000E+00         0.00000E+00
 
    0.52018E+04         0.20315E+05         0.00000E+00
    0.20315E+05         0.12398E+05         0.00000E+00
    0.00000E+00         0.00000E+00         0.00000E+00
 
    0.42804E+04         0.20431E+05         0.00000E+00
    0.20431E+05         0.12877E+05         0.00000E+00
    0.00000E+00         0.00000E+00         0.00000E+00
 
    0.33472E+04         0.20526E+05         0.00000E+00
    0.20526E+05         0.13359E+05         0.00000E+00
    0.00000E+00         0.00000E+00         0.00000E+00
 
    0.24029E+04         0.20599E+05         0.00000E+00
    0.20599E+05         0.13843E+05         0.00000E+00
    0.00000E+00         0.00000E+00         0.00000E+00
 
    0.14484E+04         0.20650E+05         0.00000E+00
    0.20650E+05         0.14328E+05         0.00000E+00
    0.00000E+00         0.00000E+00         0.00000E+00
 
    0.48432E+03         0.20679E+05         0.00000E+00
    0.20679E+05         0.14814E+05         0.00000E+00
    0.00000E+00         0.00000E+00         0.00000E+00
 
    0.28493E+05         0.33670E+03         0.00000E+00
    0.33670E+03        -0.18588E+03         0.00000E+00
    0.00000E+00         0.00000E+00         0.00000E+00
 
    0.28610E+05         0.10182E+04         0.00000E+00
    0.10182E+04        -0.16977E+03         0.00000E+00
    0.00000E+00         0.00000E+00         0.00000E+00
 
    0.28696E+05         0.17018E+04         0.00000E+00
    0.17018E+04        -0.13745E+03         0.00000E+00
    0.00000E+00         0.00000E+00         0.00000E+00
 
    0.28750E+05         0.23865E+04         0.00000E+00
    0.23865E+04        -0.88919E+02         0.00000E+00
    0.00000E+00         0.00000E+00         0.00000E+00
 
    0.28771E+05         0.30717E+04         0.00000E+00
    0.30717E+04        -0.24160E+02         0.00000E+00
    0.00000E+00         0.00000E+00         0.00000E+00
 
    0.28760E+05         0.37567E+04         0.00000E+00
    0.37567E+04         0.56812E+02         0.00000E+00
    0.00000E+00         0.00000E+00         0.00000E+00
 
    0.28717E+05         0.44406E+04         0.00000E+00
    0.44406E+04         0.15397E+03         0.00000E+00
    0.00000E+00         0.00000E+00         0.00000E+00
 
    0.28642E+05         0.51227E+04         0.00000E+00
    0.51227E+04         0.26726E+03         0.00000E+00
    0.00000E+00         0.00000E+00         0.00000E+00
 
    0.28535E+05         0.58023E+04         0.00000E+00
    0.58023E+04         0.39661E+03         0.00000E+00
    0.00000E+00         0.00000E+00         0.00000E+00
 
    0.28396E+05         0.64787E+04         0.00000E+00
    0.64787E+04         0.54196E+03         0.00000E+00
    0.00000E+00         0.00000E+00         0.00000E+00
 
    0.28225E+05         0.71511E+04         0.00000E+00
    0.71511E+04         0.70320E+03         0.00000E+00
    0.00000E+00         0.00000E+00         0.00000E+00
 
    0.28022E+05         0.78187E+04         0.00000E+00
    0.78187E+04         0.88021E+03         0.00000E+00
    0.00000E+00         0.00000E+00         0.00000E+00
 
    0.27788E+05         0.84809E+04         0.00000E+00
    0.84809E+04         0.10729E+04         0.00000E+00
    0.00000E+00         0.00000E+00         0.00000E+00
 
    0.27522E+05         0.91369E+04         0.00000E+00
    0.91369E+04         0.12810E+04         0.00000E+00
    0.00000E+00         0.00000E+00         0.00000E+00
 
    0.27226E+05         0.97859E+04         0.00000E+00
    0.97859E+04         0.15045E+04         0.00000E+00
    0.00000E+00         0.00000E+00         0.00000E+00
 
    0.26898E+05         0.10427E+05         0.00000E+00
    0.10427E+05         0.17431E+04         0.00000E+00
    0.00000E+00         0.00000E+00         0.00000E+00
 
    0.26540E+05         0.11061E+05         0.00000E+00
    0.11061E+05         0.19967E+04         0.00000E+00
    0.00000E+00         0.00000E+00         0.00000E+00
 
    0.26151E+05         0.11685E+05         0.00000E+00
    0.11685E+05         0.22650E+04         0.00000E+00
    0.00000E+00         0.00000E+00         0.00000E+00
 
    0.25733E+05         0.12299E+05         0.00000E+00
    0.12299E+05         0.25478E+04         0.00000E+00
    0.00000E+00         0.00000E+00         0.00000E+00
 
    0.25284E+05         0.12903E+05         0.00000E+00
    0.12903E+05         0.28449E+04         0.00000E+00
    0.00000E+00         0.00000E+00         0.00000E+00
 
    0.24807E+05         0.13496E+05         0.00000E+00
    0.13496E+05         0.31560E+04         0.00000E+00
    0.00000E+00         0.00000E+00         0.00000E+00
 
    0.24300E+05         0.14077E+05         0.00000E+00
    0.14077E+05         0.34808E+04         0.00000E+00
    0.00000E+00         0.00000E+00         0.00000E+00
 
    0.23765E+05         0.14646E+05         0.00000E+00
    0.14646E+05         0.38191E+04         0.00000E+00
    0.00000E+00         0.00000E+00         0.00000E+00
 
    0.23202E+05         0.15202E+05         0.00000E+00
    0.15202E+05         0.41705E+04         0.00000E+00
    0.00000E+00         0.00000E+00         0.00000E+00
 
    0.22611E+05         0.15744E+05         0.00000E+00
    0.15744E+05         0.45347E+04         0.00000E+00
    0.00000E+00         0.00000E+00         0.00000E+00
 
    0.21993E+05         0.16272E+05         0.00000E+00
    0.16272E+05         0.49115E+04         0.00000E+00
    0.00000E+00         0.00000E+00         0.00000E+00
 
    0.21348E+05         0.16785E+05         0.00000E+00
    0.16785E+05         0.53003E+04         0.00000E+00
    0.00000E+00         0.00000E+00         0.00000E+00
 
    0.20677E+05         0.17282E+05         0.00000E+00
    0.17282E+05         0.57010E+04         0.00000E+00
    0.00000E+00         0.00000E+00         0.00000E+00
 
    0.19980E+05         0.17763E+05         0.00000E+00
    0.17763E+05         0.61131E+04         0.00000E+00
    0.00000E+00         0.00000E+00         0.00000E+00
 
    0.19258E+05         0.18228E+05         0.00000E+00
    0.18228E+05         0.65362E+04         0.00000E+00
    0.00000E+00         0.00000E+00         0.00000E+00
 
    0.18512E+05         0.18675E+05         0.00000E+00
    0.18675E+05         0.69700E+04         0.00000E+00
    0.00000E+00         0.00000E+00         0.00000E+00
 
    0.17741E+05         0.19105E+05         0.00000E+00
    0.19105E+05         0.74140E+04         0.00000E+00
    0.00000E+00         0.00000E+00         0.00000E+00
 
    0.16947E+05         0.19516E+05         0.00000E+00
    0.19516E+05         0.78678E+04         0.00000E+00
    0.00000E+00         0.00000E+00         0.00000E+00
 
    0.16131E+05         0.19909E+05         0.00000E+00
    0.19909E+05         0.83310E+04         0.00000E+00
    0.00000E+00         0.00000E+00         0.00000E+00
 
    0.15292E+05         0.20282E+05         0.00000E+00
    0.20282E+05         0.88031E+04         0.00000E+00
    0.00000E+00         0.00000E+00         0.00000E+00
 
    0.14432E+05         0.20635E+05         0.00000E+00
    0.20635E+05         0.92837E+04         0.00000E+00
    0.00000E+00         0.00000E+00         0.00000E+00
 
    0.13551E+05         0.20968E+05         0.00000E+00
    0.20968E+05         0.97723E+04         0.00000E+00
    0.00000E+00         0.00000E+00         0.00000E+00
 
    0.12650E+05         0.21280E+05         0.00000E+00
    0.21280E+05         0.10268E+05         0.00000E+00
    0.00000E+00         0.00000E+00         0.00000E+00
 
    0.11730E+05         0.21571E+05         0.00000E+00
    0.21571E+05         0.10772E+05         0.00000E+00
    0.00000E+00         0.00000E+00         0.00000E+00
 
    0.10791E+05         0.21840E+05         0.00000E+00
    0.21840E+05         0.11281E+05         0.00000E+00
    0.00000E+00         0.00000E+00         0.00000E+00
 
    0.98339E+04         0.22088E+05         0.00000E+00
    0.22088E+05         0.11797E+05         0.00000E+00
    0.00000E+00         0.00000E+00         0.00000E+00
 
    0.88598E+04         0.22312E+05         0.00000E+00
    0.22312E+05         0.12318E+05         0.00000E+00
    0.00000E+00         0.00000E+00         0.00000E+00
 
    0.78693E+04         0.22514E+05         0.00000E+00
    0.22514E+05         0.12845E+05         0.00000E+00
    0.00000E+00         0.00000E+00         0.00000E+00
 
    0.68632E+04         0.22693E+05         0.00000E+00
    0.22693E+05         0.13376E+05         0.00000E+00
    0.00000E+00         0.00000E+00         0.00000E+00
 
    0.58423E+04         0.22848E+05         0.00000E+00
    0.22848E+05         0.13910E+05         0.00000E+00
    0.00000E+00         0.00000E+00         0.00000E+00
 
    0.48073E+04         0.22979E+05         0.00000E+00
    0.22979E+05         0.14449E+05         0.00000E+00
    0.00000E+00         0.00000E+00         0.00000E+00
 
    0.37592E+04         0.23086E+05         0.00000E+00
    0.23086E+05         0.14990E+05         0.00000E+00
    0.00000E+00         0.00000E+00         0.00000E+00
 
    0.26987E+04         0.23169E+05         0.00000E+00
    0.23169E+05         0.15533E+05         0.00000E+00
    0.00000E+00         0.00000E+00         0.00000E+00
 
    0.16266E+04         0.23227E+05         0.00000E+00
    0.23227E+05         0.16078E+05         0.00000E+00
    0.00000E+00         0.00000E+00         0.00000E+00
 
    0.54392E+03         0.23260E+05         0.00000E+00
    0.23260E+05         0.16624E+05         0.00000E+00
    0.00000E+00         0.00000E+00         0.00000E+00
 
    0.32063E+05         0.37926E+03         0.00000E+00
    0.37926E+03        -0.22703E+03         0.00000E+00
    0.00000E+00         0.00000E+00         0.00000E+00
 
    0.32193E+05         0.11467E+04         0.00000E+00
    0.11467E+04        -0.20890E+03         0.00000E+00
    0.00000E+00         0.00000E+00         0.00000E+00
 
    0.32287E+05         0.19162E+04         0.00000E+00
    0.19162E+04        -0.17254E+03         0.00000E+00
    0.00000E+00         0.00000E+00         0.00000E+00
 
    0.32345E+05         0.26871E+04         0.00000E+00
    0.26871E+04        -0.11794E+03         0.00000E+00
    0.00000E+00         0.00000E+00         0.00000E+00
 
    0.32366E+05         0.34584E+04         0.00000E+00
    0.34584E+04        -0.45092E+02         0.00000E+00
    0.00000E+00         0.00000E+00         0.00000E+00
 
    0.32352E+05         0.42292E+04         0.00000E+00
    0.42292E+04         0.45983E+02         0.00000E+00
    0.00000E+00         0.00000E+00         0.00000E+00
 
    0.32301E+05         0.49989E+04         0.00000E+00
    0.49989E+04         0.15525E+03         0.00000E+00
    0.00000E+00         0.00000E+00         0.00000E+00
 
    0.32214E+05         0.57664E+04         0.00000E+00
    0.57664E+04         0.28265E+03         0.00000E+00
    0.00000E+00         0.00000E+00         0.00000E+00
 
    0.32092E+05         0.65311E+04         0.00000E+00
    0.65311E+04         0.42810E+03         0.00000E+00
    0.00000E+00         0.00000E+00         0.00000E+00
 
    0.31933E+05         0.72920E+04         0.00000E+00
    0.72920E+04         0.59152E+03         0.00000E+00
    0.00000E+00         0.00000E+00         0.00000E+00
 
    0.31739E+05         0.80483E+04         0.00000E+00
    0.80483E+04         0.77279E+03         0.00000E+00
    0.00000E+00         0.00000E+00         0.00000E+00
 
    0.31509E+05         0.87993E+04         0.00000E+00
    0.87993E+04         0.97177E+03         0.00000E+00
    0.00000E+00         0.00000E+00         0.00000E+00
 
    0.31244E+05         0.95440E+04         0.00000E+00
    0.95440E+04         0.11883E+04         0.00000E+00
    0.00000E+00         0.00000E+00         0.00000E+00
 
    0.30943E+05         0.10282E+05         0.00000E+00
    0.10282E+05         0.14223E+04         0.00000E+00
    0.00000E+00         0.00000E+00         0.00000E+00
 
    0.30608E+05         0.11012E+05         0.00000E+00
    0.11012E+05         0.16734E+04         0.00000E+00
    0.00000E+00         0.00000E+00         0.00000E+00
 
    0.30238E+05         0.11733E+05         0.00000E+00
    0.11733E+05         0.19416E+04         0.00000E+00
    0.00000E+00         0.00000E+00         0.00000E+00
 
    0.29833E+05         0.12445E+05         0.00000E+00
    0.12445E+05         0.22265E+04         0.00000E+00
    0.00000E+00         0.00000E+00         0.00000E+00
 
    0.29395E+05         0.13146E+05         0.00000E+00
    0.13146E+05         0.25280E+04         0.00000E+00
    0.00000E+00         0.00000E+00         0.00000E+00
 
    0.28923E+05         0.13837E+05         0.00000E+00
    0.13837E+05         0.28458E+04         0.00000E+00
    0.00000E+00         0.00000E+00         0.00000E+00
 
    0.28418E+05         0.14516E+05         0.00000E+00
    0.14516E+05         0.31795E+04         0.00000E+00
    0.00000E+00         0.00000E+00         0.00000E+00
 
    0.27879E+05         0.15182E+05         0.00000E+00
    0.15182E+05         0.35290E+04         0.00000E+00
    0.00000E+00         0.00000E+00         0.00000E+00
 
    0.27309E+05         0.15836E+05         0.00000E+00
    0.15836E+05         0.38939E+04         0.00000E+00
    0.00000E+00         0.00000E+00         0.00000E+00
 
    0.26706E+05         0.16475E+05         0.00000E+00
    0.16475E+05         0.42738E+04         0.00000E+00
    0.00000E+00         0.00000E+00         0.00000E+00
 
    0.26072E+05         0.17099E+05         0.00000E+00
    0.17099E+05         0.46685E+04         0.00000E+00
    0.00000E+00         0.00000E+00         0.00000E+00
 
    0.25407E+05         0.17709E+05         0.00000E+00
    0.17709E+05         0.50776E+04         0.00000E+00
    0.00000E+00         0.00000E+00         0.00000E+00
 
    0.24711E+05         0.18302E+05         0.00000E+00
    0.18302E+05         0.55007E+04         0.00000E+00
    0.00000E+00         0.00000E+00         0.00000E+00
 
    0.23985E+05         0.18878E+05         0.00000E+00
    0.18878E+05         0.59374E+04         0.00000E+00
    0.00000E+00         0.00000E+00         0.00000E+00
 
    0.23230E+05         0.19437E+05         0.00000E+00
    0.19437E+05         0.63874E+04         0.00000E+00
    0.00000E+00         0.00000E+00         0.00000E+00
 
    0.22447E+05         0.19978E+05         0.00000E+00
    0.19978E+05         0.68501E+04         0.00000E+00
    0.00000E+00         0.00000E+00         0.00000E+00
 
    0.21635E+05         0.20500E+05         0.00000E+00
    0.20500E+05         0.73252E+04         0.00000E+00
    0.00000E+00         0.00000E+00         0.00000E+00
 
    0.20795E+05         0.21002E+05         0.00000E+00
    0.21002E+05         0.78123E+04         0.00000E+00
    0.00000E+00         0.00000E+00         0.00000E+00
 
    0.19929E+05         0.21485E+05         0.00000E+00
    0.21485E+05         0.83108E+04         0.00000E+00
    0.00000E+00         0.00000E+00         0.00000E+00
 
    0.19037E+05         0.21947E+05         0.00000E+00
    0.21947E+05         0.88203E+04         0.00000E+00
    0.00000E+00         0.00000E+00         0.00000E+00
 
    0.18119E+05         0.22388E+05         0.00000E+00
    0.22388E+05         0.93403E+04         0.00000E+00
    0.00000E+00         0.00000E+00         0.00000E+00
 
    0.17176E+05         0.22807E+05         0.00000E+00
    0.22807E+05         0.98704E+04         0.00000E+00
    0.00000E+00         0.00000E+00         0.00000E+00
 
    0.16210E+05         0.23204E+05         0.00000E+00
    0.23204E+05         0.10410E+05         0.00000E+00
    0.00000E+00         0.00000E+00         0.00000E+00
 
    0.15220E+05         0.23578E+05         0.00000E+00
    0.23578E+05         0.10958E+05         0.00000E+00
    0.00000E+00         0.00000E+00         0.00000E+00
 
    0.14208E+05         0.23929E+05         0.00000E+00
    0.23929E+05         0.11515E+05         0.00000E+00
    0.00000E+00         0.00000E+00         0.00000E+00
 
    0.13174E+05         0.24256E+05         0.00000E+00
    0.24256E+05         0.12080E+05         0.00000E+00
    0.00000E+00         0.00000E+00         0.00000E+00
 
    0.12119E+05         0.24559E+05         0.00000E+00
    0.24559E+05         0.12653E+05         0.00000E+00
    0.00000E+00         0.00000E+00         0.00000E+00
 
    0.11044E+05         0.24837E+05         0.00000E+00
    0.24837E+05         0.13232E+05         0.00000E+00
    0.00000E+00         0.00000E+00         0.00000E+00
 
    0.99496E+04         0.25090E+05         0.00000E+00
    0.25090E+05         0.13817E+05         0.00000E+00
    0.00000E+00         0.00000E+00         0.00000E+00
 
    0.88371E+04         0.25317E+05         0.00000E+00
    0.25317E+05         0.14408E+05         0.00000E+00
    0.00000E+00         0.00000E+00         0.00000E+00
 
    0.77071E+04         0.25518E+05         0.00000E+00
    0.25518E+05         0.15004E+05         0.00000E+00
    0.00000E+00         0.00000E+00         0.00000E+00
 
    0.65605E+04         0.25693E+05         0.00000E+00
    0.25693E+05         0.15604E+05         0.00000E+00
    0.00000E+00         0.00000E+00         0.00000E+00
 
    0.53982E+04         0.25841E+05         0.00000E+00
    0.25841E+05         0.16208E+05         0.00000E+00
    0.00000E+00         0.00000E+00         0.00000E+00
 
    0.42212E+04         0.25961E+05         0.00000E+00
    0.25961E+05         0.16816E+05         0.00000E+00
    0.00000E+00         0.00000E+00         0.00000E+00
 
    0.30303E+04         0.26055E+05         0.00000E+00
    0.26055E+05         0.17426E+05         0.00000E+00
    0.00000E+00         0.00000E+00         0.00000E+00
 
    0.18265E+04         0.26120E+05         0.00000E+00
    0.26120E+05         0.18038E+05         0.00000E+00
    0.00000E+00         0.00000E+00         0.00000E+00
 
    0.61075E+03         0.26158E+05         0.00000E+00
    0.26158E+05         0.18651E+05         0.00000E+00
    0.00000E+00         0.00000E+00         0.00000E+00
 
    0.36079E+05         0.42718E+03         0.00000E+00
    0.42718E+03        -0.27717E+03         0.00000E+00
    0.00000E+00         0.00000E+00         0.00000E+00
 
    0.36222E+05         0.12912E+04         0.00000E+00
    0.12912E+04        -0.25676E+03         0.00000E+00
    0.00000E+00         0.00000E+00         0.00000E+00
 
    0.36325E+05         0.21576E+04         0.00000E+00
    0.21576E+04        -0.21586E+03         0.00000E+00
    0.00000E+00         0.00000E+00         0.00000E+00
 
    0.36387E+05         0.30252E+04         0.00000E+00
    0.30252E+04        -0.15444E+03         0.00000E+00
    0.00000E+00         0.00000E+00         0.00000E+00
 
    0.36409E+05         0.38933E+04         0.00000E+00
    0.38933E+04        -0.72499E+02         0.00000E+00
    0.00000E+00         0.00000E+00         0.00000E+00
 
    0.36390E+05         0.47607E+04         0.00000E+00
    0.47607E+04         0.29929E+02         0.00000E+00
    0.00000E+00         0.00000E+00         0.00000E+00
 
    0.36330E+05         0.56267E+04         0.00000E+00
    0.56267E+04         0.15280E+03         0.00000E+00
    0.00000E+00         0.00000E+00         0.00000E+00
 
    0.36230E+05         0.64903E+04         0.00000E+00
    0.64903E+04         0.29605E+03         0.00000E+00
    0.00000E+00         0.00000E+00         0.00000E+00
 
    0.36089E+05         0.73504E+04         0.00000E+00
    0.73504E+04         0.45959E+03         0.00000E+00
    0.00000E+00         0.00000E+00         0.00000E+00
 
    0.35908E+05         0.82063E+04         0.00000E+00
    0.82063E+04         0.64331E+03         0.00000E+00
    0.00000E+00         0.00000E+00         0.00000E+00
 
    0.35687E+05         0.90569E+04         0.00000E+00
    0.90569E+04         0.84707E+03         0.00000E+00
    0.00000E+00         0.00000E+00         0.00000E+00
 
    0.35426E+05         0.99014E+04         0.00000E+00
    0.99014E+04         0.10707E+04         0.00000E+00
    0.00000E+00         0.00000E+00         0.00000E+00
 
    0.35126E+05         0.10739E+05         0.00000E+00
    0.10739E+05         0.13141E+04         0.00000E+00
    0.00000E+00         0.00000E+00         0.00000E+00
 
    0.34786E+05         0.11568E+05         0.00000E+00
    0.11568E+05         0.15770E+04         0.00000E+00
    0.00000E+00         0.00000E+00         0.00000E+00
 
    0.34407E+05         0.12389E+05         0.00000E+00
    0.12389E+05         0.18592E+04         0.00000E+00
    0.00000E+00         0.00000E+00         0.00000E+00
 
    0.33988E+05         0.13200E+05         0.00000E+00
    0.13200E+05         0.21605E+04         0.00000E+00
    0.00000E+00         0.00000E+00         0.00000E+00
 
    0.33532E+05         0.14000E+05         0.00000E+00
    0.14000E+05         0.24807E+04         0.00000E+00
    0.00000E+00         0.00000E+00         0.00000E+00
 
    0.33037E+05         0.14788E+05         0.00000E+00
    0.14788E+05         0.28194E+04         0.00000E+00
    0.00000E+00         0.00000E+00         0.00000E+00
 
    0.32505E+05         0.15565E+05         0.00000E+00
    0.15565E+05         0.31763E+04         0.00000E+00
    0.00000E+00         0.00000E+00         0.00000E+00
 
    0.31935E+05         0.16328E+05         0.00000E+00
    0.16328E+05         0.35512E+04         0.00000E+00
    0.00000E+00         0.00000E+00         0.00000E+00
 
    0.31328E+05         0.17077E+05         0.00000E+00
    0.17077E+05         0.39438E+04         0.00000E+00
    0.00000E+00         0.00000E+00         0.00000E+00
 
    0.30686E+05         0.17811E+05         0.00000E+00
    0.17811E+05         0.43536E+04         0.00000E+00
    0.00000E+00         0.00000E+00         0.00000E+00
 
    0.30007E+05         0.18529E+05         0.00000E+00
    0.18529E+05         0.47803E+04         0.00000E+00
    0.00000E+00         0.00000E+00         0.00000E+00
 
    0.29293E+05         0.19231E+05         0.00000E+00
    0.19231E+05         0.52235E+04         0.00000E+00
    0.00000E+00         0.00000E+00         0.00000E+00
 
    0.28544E+05         0.19915E+05         0.00000E+00
    0.19915E+05         0.56829E+04         0.00000E+00
    0.00000E+00         0.00000E+00         0.00000E+00
 
    0.27761E+05         0.20581E+05         0.00000E+00
    0.20581E+05         0.61580E+04         0.00000E+00
    0.00000E+00         0.00000E+00         0.00000E+00
 
    0.26945E+05         0.21229E+05         0.00000E+00
    0.21229E+05         0.66483E+04         0.00000E+00
    0.00000E+00         0.00000E+00         0.00000E+00
 
    0.26095E+05         0.21856E+05         0.00000E+00
    0.21856E+05         0.71535E+04         0.00000E+00
    0.00000E+00         0.00000E+00         0.00000E+00
 
    0.25214E+05         0.22464E+05         0.00000E+00
    0.22464E+05         0.76730E+04         0.00000E+00
    0.00000E+00         0.00000E+00         0.00000E+00
 
    0.24301E+05         0.23050E+05         0.00000E+00
    0.23050E+05         0.82064E+04         0.00000E+00
    0.00000E+00         0.00000E+00         0.00000E+00
 
    0.23357E+05         0.23615E+05         0.00000E+00
    0.23615E+05         0.87531E+04         0.00000E+00
    0.00000E+00         0.00000E+00         0.00000E+00
 
    0.22383E+05         0.24157E+05         0.00000E+00
    0.24157E+05         0.93128E+04         0.00000E+00
    0.00000E+00         0.00000E+00         0.00000E+00
 
    0.21380E+05         0.24676E+05         0.00000E+00
    0.24676E+05         0.98847E+04         0.00000E+00
    0.00000E+00         0.00000E+00         0.00000E+00
 
    0.20349E+05         0.25172E+05         0.00000E+00
    0.25172E+05         0.10468E+05         0.00000E+00
    0.00000E+00         0.00000E+00         0.00000E+00
 
    0.19290E+05         0.25643E+05         0.00000E+00
    0.25643E+05         0.11063E+05         0.00000E+00
    0.00000E+00         0.00000E+00         0.00000E+00
 
    0.18203E+05         0.26089E+05         0.00000E+00
    0.26089E+05         0.11669E+05         0.00000E+00
    0.00000E+00         0.00000E+00         0.00000E+00
 
    0.17091E+05         0.26509E+05         0.00000E+00
    0.26509E+05         0.12285E+05         0.00000E+00
    0.00000E+00         0.00000E+00         0.00000E+00
 
    0.15954E+05         0.26903E+05         0.00000E+00
    0.26903E+05         0.12910E+05         0.00000E+00
    0.00000E+00         0.00000E+00         0.00000E+00
 
    0.14792E+05         0.27271E+05         0.00000E+00
    0.27271E+05         0.13544E+05         0.00000E+00
    0.00000E+00         0.00000E+00         0.00000E+00
 
    0.13608E+05         0.27611E+05         0.00000E+00
    0.27611E+05         0.14186E+05         0.00000E+00
    0.00000E+00         0.00000E+00         0.00000E+00
 
    0.12400E+05         0.27923E+05         0.00000E+00
    0.27923E+05         0.14836E+05         0.00000E+00
    0.00000E+00         0.00000E+00         0.00000E+00
 
    0.11171E+05         0.28207E+05         0.00000E+00
    0.28207E+05         0.15493E+05         0.00000E+00
    0.00000E+00         0.00000E+00         0.00000E+00
 
    0.99220E+04         0.28463E+05         0.00000E+00
    0.28463E+05         0.16156E+05         0.00000E+00
    0.00000E+00         0.00000E+00         0.00000E+00
 
    0.86531E+04         0.28689E+05         0.00000E+00
    0.28689E+05         0.16825E+05         0.00000E+00
    0.00000E+00         0.00000E+00         0.00000E+00
 
    0.73656E+04         0.28886E+05         0.00000E+00
    0.28886E+05         0.17499E+05         0.00000E+00
    0.00000E+00         0.00000E+00         0.00000E+00
 
    0.60606E+04         0.29052E+05         0.00000E+00
    0.29052E+05         0.18177E+05         0.00000E+00
    0.00000E+00         0.00000E+00         0.00000E+00
 
    0.47391E+04         0.29189E+05         0.00000E+00
    0.29189E+05         0.18859E+05         0.00000E+00
    0.00000E+00         0.00000E+00         0.00000E+00
 
    0.34020E+04         0.29294E+05         0.00000E+00
    0.29294E+05         0.19544E+05         0.00000E+00
    0.00000E+00         0.00000E+00         0.00000E+00
 
    0.20505E+04         0.29369E+05         0.00000E+00
    0.29369E+05         0.20231E+05         0.00000E+00
    0.00000E+00         0.00000E+00         0.00000E+00
 
    0.68566E+03         0.29412E+05         0.00000E+00
    0.29412E+05         0.20919E+05         0.00000E+00
    0.00000E+00         0.00000E+00         0.00000E+00
 
    0.40597E+05         0.48111E+03         0.00000E+00
    0.48111E+03        -0.33823E+03         0.00000E+00
    0.00000E+00         0.00000E+00         0.00000E+00
 
    0.40754E+05         0.14539E+04         0.00000E+00
    0.14539E+04        -0.31527E+03         0.00000E+00
    0.00000E+00         0.00000E+00         0.00000E+00
 
    0.40866E+05         0.24290E+04         0.00000E+00
    0.24290E+04        -0.26926E+03         0.00000E+00
    0.00000E+00         0.00000E+00         0.00000E+00
 
    0.40932E+05         0.34055E+04         0.00000E+00
    0.34055E+04        -0.20017E+03         0.00000E+00
    0.00000E+00         0.00000E+00         0.00000E+00
 
    0.40953E+05         0.43824E+04         0.00000E+00
    0.43824E+04        -0.10801E+03         0.00000E+00
    0.00000E+00         0.00000E+00         0.00000E+00
 
    0.40928E+05         0.53584E+04         0.00000E+00
    0.53584E+04         0.71711E+01         0.00000E+00
    0.00000E+00         0.00000E+00         0.00000E+00
 
    0.40858E+05         0.63327E+04         0.00000E+00
    0.63327E+04         0.14533E+03         0.00000E+00
    0.00000E+00         0.00000E+00         0.00000E+00
 
    0.40742E+05         0.73041E+04         0.00000E+00
    0.73041E+04         0.30639E+03         0.00000E+00
    0.00000E+00         0.00000E+00         0.00000E+00
 
    0.40581E+05         0.82715E+04         0.00000E+00
    0.82715E+04         0.49023E+03         0.00000E+00
    0.00000E+00         0.00000E+00         0.00000E+00
 
    0.40374E+05         0.92341E+04         0.00000E+00
    0.92341E+04         0.69673E+03         0.00000E+00
    0.00000E+00         0.00000E+00         0.00000E+00
 
    0.40123E+05         0.10191E+05         0.00000E+00
    0.10191E+05         0.92575E+03         0.00000E+00
    0.00000E+00         0.00000E+00         0.00000E+00
 
    0.39827E+05         0.11140E+05         0.00000E+00
    0.11140E+05         0.11771E+04         0.00000E+00
    0.00000E+00         0.00000E+00         0.00000E+00
 
    0.39486E+05         0.12082E+05         0.00000E+00
    0.12082E+05         0.14506E+04         0.00000E+00
    0.00000E+00         0.00000E+00         0.00000E+00
 
    0.39101E+05         0.13014E+05         0.00000E+00
    0.13014E+05         0.17460E+04         0.00000E+00
    0.00000E+00         0.00000E+00         0.00000E+00
 
    0.38672E+05         0.13936E+05         0.00000E+00
    0.13936E+05         0.20631E+04         0.00000E+00
    0.00000E+00         0.00000E+00         0.00000E+00
 
    0.38199E+05         0.14848E+05         0.00000E+00
    0.14848E+05         0.24016E+04         0.00000E+00
    0.00000E+00         0.00000E+00         0.00000E+00
 
    0.37684E+05         0.15747E+05         0.00000E+00
    0.15747E+05         0.27612E+04         0.00000E+00
    0.00000E+00         0.00000E+00         0.00000E+00
 
    0.37126E+05         0.16633E+05         0.00000E+00
    0.16633E+05         0.31416E+04         0.00000E+00
    0.00000E+00         0.00000E+00         0.00000E+00
 
    0.36525E+05         0.17505E+05         0.00000E+00
    0.17505E+05         0.35425E+04         0.00000E+00
    0.00000E+00         0.00000E+00         0.00000E+00
 
    0.35883E+05         0.18362E+05         0.00000E+00
    0.18362E+05         0.39636E+04         0.00000E+00
    0.00000E+00         0.00000E+00         0.00000E+00
 
    0.35199E+05         0.19204E+05         0.00000E+00
    0.19204E+05         0.44044E+04         0.00000E+00
    0.00000E+00         0.00000E+00         0.00000E+00
 
    0.34475E+05         0.20028E+05         0.00000E+00
    0.20028E+05         0.48645E+04         0.00000E+00
    0.00000E+00         0.00000E+00         0.00000E+00
 
    0.33710E+05         0.20835E+05         0.00000E+00
    0.20835E+05         0.53437E+04         0.00000E+00
    0.00000E+00         0.00000E+00         0.00000E+00
 
    0.32906E+05         0.21623E+05         0.00000E+00
    0.21623E+05         0.58413E+04         0.00000E+00
    0.00000E+00         0.00000E+00         0.00000E+00
 
    0.32063E+05         0.22392E+05         0.00000E+00
    0.22392E+05         0.63570E+04         0.00000E+00
    0.00000E+00         0.00000E+00         0.00000E+00
 
    0.31182E+05         0.23140E+05         0.00000E+00
    0.23140E+05         0.68904E+04         0.00000E+00
    0.00000E+00         0.00000E+00         0.00000E+00
 
    0.30264E+05         0.23868E+05         0.00000E+00
    0.23868E+05         0.74408E+04         0.00000E+00
    0.00000E+00         0.00000E+00         0.00000E+00
 
    0.29309E+05         0.24573E+05         0.00000E+00
    0.24573E+05         0.80079E+04         0.00000E+00
    0.00000E+00         0.00000E+00         0.00000E+00
 
    0.28317E+05         0.25255E+05         0.00000E+00
    0.25255E+05         0.85910E+04         0.00000E+00
    0.00000E+00         0.00000E+00         0.00000E+00
 
    0.27291E+05         0.25913E+05         0.00000E+00
    0.25913E+05         0.91897E+04         0.00000E+00
    0.00000E+00         0.00000E+00         0.00000E+00
 
    0.26230E+05         0.26548E+05         0.00000E+00
    0.26548E+05         0.98033E+04         0.00000E+00
    0.00000E+00         0.00000E+00         0.00000E+00
 
    0.25135E+05         0.27156E+05         0.00000E+00
    0.27156E+05         0.10431E+05         0.00000E+00
    0.00000E+00         0.00000E+00         0.00000E+00
 
    0.24008E+05         0.27739E+05         0.00000E+00
    0.27739E+05         0.11073E+05         0.00000E+00
    0.00000E+00         0.00000E+00         0.00000E+00
 
    0.22849E+05         0.28296E+05         0.00000E+00
    0.28296E+05         0.11728E+05         0.00000E+00
    0.00000E+00         0.00000E+00         0.00000E+00
 
    0.21658E+05         0.28825E+05         0.00000E+00
    0.28825E+05         0.12396E+05         0.00000E+00
    0.00000E+00         0.00000E+00         0.00000E+00
 
    0.20438E+05         0.29325E+05         0.00000E+00
    0.29325E+05         0.13076E+05         0.00000E+00
    0.00000E+00         0.00000E+00         0.00000E+00
 
    0.19189E+05         0.29798E+05         0.00000E+00
    0.29798E+05         0.13766E+05         0.00000E+00
    0.00000E+00         0.00000E+00         0.00000E+00
 
    0.17911E+05         0.30240E+05         0.00000E+00
    0.30240E+05         0.14468E+05         0.00000E+00
    0.00000E+00         0.00000E+00         0.00000E+00
 
    0.16607E+05         0.30653E+05         0.00000E+00
    0.30653E+05         0.15179E+05         0.00000E+00
    0.00000E+00         0.00000E+00         0.00000E+00
 
    0.15276E+05         0.31035E+05         0.00000E+00
    0.31035E+05         0.15900E+05         0.00000E+00
    0.00000E+00         0.00000E+00         0.00000E+00
 
    0.13920E+05         0.31387E+05         0.00000E+00
    0.31387E+05         0.16629E+05         0.00000E+00
    0.00000E+00         0.00000E+00         0.00000E+00
 
    0.12541E+05         0.31706E+05         0.00000E+00
    0.31706E+05         0.17366E+05         0.00000E+00
    0.00000E+00         0.00000E+00         0.00000E+00
 
    0.11138E+05         0.31993E+05         0.00000E+00
    0.31993E+05         0.18111E+05         0.00000E+00
    0.00000E+00         0.00000E+00         0.00000E+00
 
    0.97132E+04         0.32248E+05         0.00000E+00
    0.32248E+05         0.18861E+05         0.00000E+00
    0.00000E+00         0.00000E+00         0.00000E+00
 
    0.82678E+04         0.32469E+05         0.00000E+00
    0.32469E+05         0.19617E+05         0.00000E+00
    0.00000E+00         0.00000E+00         0.00000E+00
 
    0.68028E+04         0.32657E+05         0.00000E+00
    0.32657E+05         0.20379E+05         0.00000E+00
    0.00000E+00         0.00000E+00         0.00000E+00
 
    0.53193E+04         0.32811E+05         0.00000E+00
    0.32811E+05         0.21144E+05         0.00000E+00
    0.00000E+00         0.00000E+00         0.00000E+00
 
    0.38185E+04         0.32930E+05         0.00000E+00
    0.32930E+05         0.21912E+05         0.00000E+00
    0.00000E+00         0.00000E+00         0.00000E+00
 
    0.23015E+04         0.33015E+05         0.00000E+00
    0.33015E+05         0.22683E+05         0.00000E+00
    0.00000E+00         0.00000E+00         0.00000E+00
 
    0.76958E+03         0.33064E+05         0.00000E+00
    0.33064E+05         0.23456E+05         0.00000E+00
    0.00000E+00         0.00000E+00         0.00000E+00
 
    0.45677E+05         0.54182E+03         0.00000E+00
    0.54182E+03        -0.41258E+03         0.00000E+00
    0.00000E+00         0.00000E+00         0.00000E+00
 
    0.45850E+05         0.16368E+04         0.00000E+00
    0.16368E+04        -0.38674E+03         0.00000E+00
    0.00000E+00         0.00000E+00         0.00000E+00
 
    0.45971E+05         0.27344E+04         0.00000E+00
    0.27344E+04        -0.33498E+03         0.00000E+00
    0.00000E+00         0.00000E+00         0.00000E+00
 
    0.46042E+05         0.38333E+04         0.00000E+00
    0.38333E+04        -0.25727E+03         0.00000E+00
    0.00000E+00         0.00000E+00         0.00000E+00
 
    0.46061E+05         0.49324E+04         0.00000E+00
    0.49324E+04        -0.15364E+03         0.00000E+00
    0.00000E+00         0.00000E+00         0.00000E+00
 
    0.46029E+05         0.60305E+04         0.00000E+00
    0.60305E+04        -0.24130E+02         0.00000E+00
    0.00000E+00         0.00000E+00         0.00000E+00
 
    0.45946E+05         0.71264E+04         0.00000E+00
    0.71264E+04         0.13120E+03         0.00000E+00
    0.00000E+00         0.00000E+00         0.00000E+00
 
    0.45811E+05         0.82189E+04         0.00000E+00
    0.82189E+04         0.31224E+03         0.00000E+00
    0.00000E+00         0.00000E+00         0.00000E+00
 
    0.45626E+05         0.93069E+04         0.00000E+00
    0.93069E+04         0.51888E+03         0.00000E+00
    0.00000E+00         0.00000E+00         0.00000E+00
 
    0.45390E+05         0.10389E+05         0.00000E+00
    0.10389E+05         0.75097E+03         0.00000E+00
    0.00000E+00         0.00000E+00         0.00000E+00
 
    0.45104E+05         0.11465E+05         0.00000E+00
    0.11465E+05         0.10083E+04         0.00000E+00
    0.00000E+00         0.00000E+00         0.00000E+00
 
    0.44768E+05         0.12532E+05         0.00000E+00
    0.12532E+05         0.12908E+04         0.00000E+00
    0.00000E+00         0.00000E+00         0.00000E+00
 
    0.44381E+05         0.13590E+05         0.00000E+00
    0.13590E+05         0.15980E+04         0.00000E+00
    0.00000E+00         0.00000E+00         0.00000E+00
 
    0.43945E+05         0.14638E+05         0.00000E+00
    0.14638E+05         0.19299E+04         0.00000E+00
    0.00000E+00         0.00000E+00         0.00000E+00
 
    0.43460E+05         0.15675E+05         0.00000E+00
    0.15675E+05         0.22861E+04         0.00000E+00
    0.00000E+00         0.00000E+00         0.00000E+00
 
    0.42926E+05         0.16699E+05         0.00000E+00
    0.16699E+05         0.26663E+04         0.00000E+00
    0.00000E+00         0.00000E+00         0.00000E+00
 
    0.42343E+05         0.17709E+05         0.00000E+00
    0.17709E+05         0.30701E+04         0.00000E+00
    0.00000E+00         0.00000E+00         0.00000E+00
 
    0.41713E+05         0.18704E+05         0.00000E+00
    0.18704E+05         0.34973E+04         0.00000E+00
    0.00000E+00         0.00000E+00         0.00000E+00
 
    0.41036E+05         0.19684E+05         0.00000E+00
    0.19684E+05         0.39475E+04         0.00000E+00
    0.00000E+00         0.00000E+00         0.00000E+00
 
    0.40311E+05         0.20647E+05         0.00000E+00
    0.20647E+05         0.44203E+04         0.00000E+00
    0.00000E+00         0.00000E+00         0.00000E+00
 
    0.39541E+05         0.21592E+05         0.00000E+00
    0.21592E+05         0.49152E+04         0.00000E+00
    0.00000E+00         0.00000E+00         0.00000E+00
 
    0.38725E+05         0.22518E+05         0.00000E+00
    0.22518E+05         0.54318E+04         0.00000E+00
    0.00000E+00         0.00000E+00         0.00000E+00
 
    0.37864E+05         0.23424E+05         0.00000E+00
    0.23424E+05         0.59696E+04         0.00000E+00
    0.00000E+00         0.00000E+00         0.00000E+00
 
    0.36959E+05         0.24310E+05         0.00000E+00
    0.24310E+05         0.65282E+04         0.00000E+00
    0.00000E+00         0.00000E+00         0.00000E+00
 
    0.36010E+05         0.25173E+05         0.00000E+00
    0.25173E+05         0.71071E+04         0.00000E+00
    0.00000E+00         0.00000E+00         0.00000E+00
 
    0.35019E+05         0.26013E+05         0.00000E+00
    0.26013E+05         0.77057E+04         0.00000E+00
    0.00000E+00         0.00000E+00         0.00000E+00
 
    0.33985E+05         0.26829E+05         0.00000E+00
    0.26829E+05         0.83234E+04         0.00000E+00
    0.00000E+00         0.00000E+00         0.00000E+00
 
    0.32911E+05         0.27621E+05         0.00000E+00
    0.27621E+05         0.89598E+04         0.00000E+00
    0.00000E+00         0.00000E+00         0.00000E+00
 
    0.31796E+05         0.28387E+05         0.00000E+00
    0.28387E+05         0.96141E+04         0.00000E+00
    0.00000E+00         0.00000E+00         0.00000E+00
 
    0.30642E+05         0.29126E+05         0.00000E+00
    0.29126E+05         0.10286E+05         0.00000E+00
    0.00000E+00         0.00000E+00         0.00000E+00
 
    0.29449E+05         0.29838E+05         0.00000E+00
    0.29838E+05         0.10974E+05         0.00000E+00
    0.00000E+00         0.00000E+00         0.00000E+00
 
    0.28219E+05         0.30522E+05         0.00000E+00
    0.30522E+05         0.11679E+05         0.00000E+00
    0.00000E+00         0.00000E+00         0.00000E+00
 
    0.26952E+05         0.31176E+05         0.00000E+00
    0.31176E+05         0.12399E+05         0.00000E+00
    0.00000E+00         0.00000E+00         0.00000E+00
 
    0.25650E+05         0.31801E+05         0.00000E+00
    0.31801E+05         0.13134E+05         0.00000E+00
    0.00000E+00         0.00000E+00         0.00000E+00
 
    0.24313E+05         0.32395E+05         0.00000E+00
    0.32395E+05         0.13883E+05         0.00000E+00
    0.00000E+00         0.00000E+00         0.00000E+00
 
    0.22942E+05         0.32957E+05         0.00000E+00
    0.32957E+05         0.14646E+05         0.00000E+00
    0.00000E+00         0.00000E+00         0.00000E+00
 
    0.21539E+05         0.33487E+05         0.00000E+00
    0.33487E+05         0.15421E+05         0.00000E+00
    0.00000E+00         0.00000E+00         0.00000E+00
 
    0.20104E+05         0.33985E+05         0.00000E+00
    0.33985E+05         0.16208E+05         0.00000E+00
    0.00000E+00         0.00000E+00         0.00000E+00
 
    0.18639E+05         0.34448E+05         0.00000E+00
    0.34448E+05         0.17006E+05         0.00000E+00
    0.00000E+00         0.00000E+00         0.00000E+00
 
    0.17145E+05         0.34878E+05         0.00000E+00
    0.34878E+05         0.17814E+05         0.00000E+00
    0.00000E+00         0.00000E+00         0.00000E+00
 
    0.15623E+05         0.35273E+05         0.00000E+00
    0.35273E+05         0.18632E+05         0.00000E+00
    0.00000E+00         0.00000E+00         0.00000E+00
 
    0.14074E+05         0.35632E+05         0.00000E+00
    0.35632E+05         0.19459E+05         0.00000E+00
    0.00000E+00         0.00000E+00         0.00000E+00
 
    0.12500E+05         0.35955E+05         0.00000E+00
    0.35955E+05         0.20294E+05         0.00000E+00
    0.00000E+00         0.00000E+00         0.00000E+00
 
    0.10901E+05         0.36241E+05         0.00000E+00
    0.36241E+05         0.21136E+05         0.00000E+00
    0.00000E+00         0.00000E+00         0.00000E+00
 
    0.92783E+04         0.36490E+05         0.00000E+00
    0.36490E+05         0.21985E+05         0.00000E+00
    0.00000E+00         0.00000E+00         0.00000E+00
 
    0.76341E+04         0.36702E+05         0.00000E+00
    0.36702E+05         0.22838E+05         0.00000E+00
    0.00000E+00         0.00000E+00         0.00000E+00
 
    0.59692E+04         0.36875E+05         0.00000E+00
    0.36875E+05         0.23697E+05         0.00000E+00
    0.00000E+00         0.00000E+00         0.00000E+00
 
    0.42850E+04         0.37010E+05         0.00000E+00
    0.37010E+05         0.24559E+05         0.00000E+00
    0.00000E+00         0.00000E+00         0.00000E+00
 
    0.25826E+04         0.37106E+05         0.00000E+00
    0.37106E+05         0.25424E+05         0.00000E+00
    0.00000E+00         0.00000E+00         0.00000E+00
 
    0.86356E+03         0.37163E+05         0.00000E+00
    0.37163E+05         0.26291E+05         0.00000E+00
    0.00000E+00         0.00000E+00         0.00000E+00
 
    0.51389E+05         0.61015E+03         0.00000E+00
    0.61015E+03        -0.50304E+03         0.00000E+00
    0.00000E+00         0.00000E+00         0.00000E+00
 
    0.51578E+05         0.18427E+04         0.00000E+00
    0.18427E+04        -0.47398E+03         0.00000E+00
    0.00000E+00         0.00000E+00         0.00000E+00
 
    0.51710E+05         0.30778E+04         0.00000E+00
    0.30778E+04        -0.41576E+03         0.00000E+00
    0.00000E+00         0.00000E+00         0.00000E+00
 
    0.51784E+05         0.43143E+04         0.00000E+00
    0.43143E+04        -0.32838E+03         0.00000E+00
    0.00000E+00         0.00000E+00         0.00000E+00
 
    0.51800E+05         0.55508E+04         0.00000E+00
    0.55508E+04        -0.21186E+03         0.00000E+00
    0.00000E+00         0.00000E+00         0.00000E+00
 
    0.51759E+05         0.67860E+04         0.00000E+00
    0.67860E+04        -0.66252E+02         0.00000E+00
    0.00000E+00         0.00000E+00         0.00000E+00
 
    0.51661E+05         0.80186E+04         0.00000E+00
    0.80186E+04         0.10835E+03         0.00000E+00
    0.00000E+00         0.00000E+00         0.00000E+00
 
    0.51505E+05         0.92472E+04         0.00000E+00
    0.92472E+04         0.31183E+03         0.00000E+00
    0.00000E+00         0.00000E+00         0.00000E+00
 
    0.51292E+05         0.10470E+05         0.00000E+00
    0.10470E+05         0.54406E+03         0.00000E+00
    0.00000E+00         0.00000E+00         0.00000E+00
 
    0.51023E+05         0.11687E+05         0.00000E+00
    0.11687E+05         0.80484E+03         0.00000E+00
    0.00000E+00         0.00000E+00         0.00000E+00
 
    0.50697E+05         0.12896E+05         0.00000E+00
    0.12896E+05         0.10940E+04         0.00000E+00
    0.00000E+00         0.00000E+00         0.00000E+00
 
    0.50314E+05         0.14096E+05         0.00000E+00
    0.14096E+05         0.14113E+04         0.00000E+00
    0.00000E+00         0.00000E+00         0.00000E+00
 
    0.49876E+05         0.15285E+05         0.00000E+00
    0.15285E+05         0.17564E+04         0.00000E+00
    0.00000E+00         0.00000E+00         0.00000E+00
 
    0.49382E+05         0.16462E+05         0.00000E+00
    0.16462E+05         0.21292E+04         0.00000E+00
    0.00000E+00         0.00000E+00         0.00000E+00
 
    0.48833E+05         0.17627E+05         0.00000E+00
    0.17627E+05         0.25292E+04         0.00000E+00
    0.00000E+00         0.00000E+00         0.00000E+00
 
    0.48229E+05         0.18777E+05         0.00000E+00
    0.18777E+05         0.29561E+04         0.00000E+00
    0.00000E+00         0.00000E+00         0.00000E+00
 
    0.47571E+05         0.19912E+05         0.00000E+00
    0.19912E+05         0.34096E+04         0.00000E+00
    0.00000E+00         0.00000E+00         0.00000E+00
 
    0.46860E+05         0.21030E+05         0.00000E+00
    0.21030E+05         0.38893E+04         0.00000E+00
    0.00000E+00         0.00000E+00         0.00000E+00
 
    0.46095E+05         0.22131E+05         0.00000E+00
    0.22131E+05         0.43946E+04         0.00000E+00
    0.00000E+00         0.00000E+00         0.00000E+00
 
    0.45278E+05         0.23212E+05         0.00000E+00
    0.23212E+05         0.49253E+04         0.00000E+00
    0.00000E+00         0.00000E+00         0.00000E+00
 
    0.44410E+05         0.24273E+05         0.00000E+00
    0.24273E+05         0.54808E+04         0.00000E+00
    0.00000E+00         0.00000E+00         0.00000E+00
 
    0.43491E+05         0.25313E+05         0.00000E+00
    0.25313E+05         0.60606E+04         0.00000E+00
    0.00000E+00         0.00000E+00         0.00000E+00
 
    0.42521E+05         0.26331E+05         0.00000E+00
    0.26331E+05         0.66643E+04         0.00000E+00
    0.00000E+00         0.00000E+00         0.00000E+00
 
    0.41502E+05         0.27324E+05         0.00000E+00
    0.27324E+05         0.72911E+04         0.00000E+00
    0.00000E+00         0.00000E+00         0.00000E+00
 
    0.40434E+05         0.28293E+05         0.00000E+00
    0.28293E+05         0.79407E+04         0.00000E+00
    0.00000E+00         0.00000E+00         0.00000E+00
 
    0.39319E+05         0.29237E+05         0.00000E+00
    0.29237E+05         0.86123E+04         0.00000E+00
    0.00000E+00         0.00000E+00         0.00000E+00
 
    0.38156E+05         0.30153E+05         0.00000E+00
    0.30153E+05         0.93054E+04         0.00000E+00
    0.00000E+00         0.00000E+00         0.00000E+00
 
    0.36948E+05         0.31042E+05         0.00000E+00
    0.31042E+05         0.10019E+05         0.00000E+00
    0.00000E+00         0.00000E+00         0.00000E+00
 
    0.35695E+05         0.31901E+05         0.00000E+00
    0.31901E+05         0.10753E+05         0.00000E+00
    0.00000E+00         0.00000E+00         0.00000E+00
 
    0.34397E+05         0.32731E+05         0.00000E+00
    0.32731E+05         0.11507E+05         0.00000E+00
    0.00000E+00         0.00000E+00         0.00000E+00
 
    0.33057E+05         0.33530E+05         0.00000E+00
    0.33530E+05         0.12279E+05         0.00000E+00
    0.00000E+00         0.00000E+00         0.00000E+00
 
    0.31674E+05         0.34297E+05         0.00000E+00
    0.34297E+05         0.13070E+05         0.00000E+00
    0.00000E+00         0.00000E+00         0.00000E+00
 
    0.30251E+05         0.35032E+05         0.00000E+00
    0.35032E+05         0.13877E+05         0.00000E+00
    0.00000E+00         0.00000E+00         0.00000E+00
 
    0.28788E+05         0.35733E+05         0.00000E+00
    0.35733E+05         0.14702E+05         0.00000E+00
    0.00000E+00         0.00000E+00         0.00000E+00
 
    0.27286E+05         0.36400E+05         0.00000E+00
    0.36400E+05         0.15542E+05         0.00000E+00
    0.00000E+00         0.00000E+00         0.00000E+00
 
    0.25746E+05         0.37031E+05         0.00000E+00
    0.37031E+05         0.16397E+05         0.00000E+00
    0.00000E+00         0.00000E+00         0.00000E+00
 
    0.24171E+05         0.37626E+05         0.00000E+00
    0.37626E+05         0.17266E+05         0.00000E+00
    0.00000E+00         0.00000E+00         0.00000E+00
 
    0.22560E+05         0.38185E+05         0.00000E+00
    0.38185E+05         0.18149E+05         0.00000E+00
    0.00000E+00         0.00000E+00         0.00000E+00
 
    0.20915E+05         0.38705E+05         0.00000E+00
    0.38705E+05         0.19044E+05         0.00000E+00
    0.00000E+00         0.00000E+00         0.00000E+00
 
    0.19238E+05         0.39188E+05         0.00000E+00
    0.39188E+05         0.19951E+05         0.00000E+00
    0.00000E+00         0.00000E+00         0.00000E+00
 
    0.17530E+05         0.39631E+05         0.00000E+00
    0.39631E+05         0.20868E+05         0.00000E+00
    0.00000E+00         0.00000E+00         0.00000E+00
 
    0.15791E+05         0.40035E+05         0.00000E+00
    0.40035E+05         0.21795E+05         0.00000E+00
    0.00000E+00         0.00000E+00         0.00000E+00
 
    0.14024E+05         0.40398E+05         0.00000E+00
    0.40398E+05         0.22732E+05         0.00000E+00
    0.00000E+00         0.00000E+00         0.00000E+00
 
    0.12230E+05         0.40720E+05         0.00000E+00
    0.40720E+05         0.23676E+05         0.00000E+00
    0.00000E+00         0.00000E+00         0.00000E+00
 
    0.10409E+05         0.41000E+05         0.00000E+00
    0.41000E+05         0.24627E+05         0.00000E+00
    0.00000E+00         0.00000E+00         0.00000E+00
 
    0.85646E+04         0.41239E+05         0.00000E+00
    0.41239E+05         0.25585E+05         0.00000E+00
    0.00000E+00         0.00000E+00         0.00000E+00
 
    0.66967E+04         0.41435E+05         0.00000E+00
    0.41435E+05         0.26548E+05         0.00000E+00
    0.00000E+00         0.00000E+00         0.00000E+00
 
    0.48071E+04         0.41587E+05         0.00000E+00
    0.41587E+05         0.27515E+05         0.00000E+00
    0.00000E+00         0.00000E+00         0.00000E+00
 
    0.28973E+04         0.41696E+05         0.00000E+00
    0.41696E+05         0.28485E+05         0.00000E+00
    0.00000E+00         0.00000E+00         0.00000E+00
 
    0.96876E+03         0.41761E+05         0.00000E+00
    0.41761E+05         0.29458E+05         0.00000E+00
    0.00000E+00         0.00000E+00         0.00000E+00
 
    0.57811E+05         0.68705E+03         0.00000E+00
    0.68705E+03        -0.61308E+03         0.00000E+00
    0.00000E+00         0.00000E+00         0.00000E+00
 
    0.58017E+05         0.20742E+04         0.00000E+00
    0.20742E+04        -0.58039E+03         0.00000E+00
    0.00000E+00         0.00000E+00         0.00000E+00
 
    0.58158E+05         0.34641E+04         0.00000E+00
    0.34641E+04        -0.51492E+03         0.00000E+00
    0.00000E+00         0.00000E+00         0.00000E+00
 
    0.58235E+05         0.48552E+04         0.00000E+00
    0.48552E+04        -0.41666E+03         0.00000E+00
    0.00000E+00         0.00000E+00         0.00000E+00
 
    0.58248E+05         0.62461E+04         0.00000E+00
    0.62461E+04        -0.28567E+03         0.00000E+00
    0.00000E+00         0.00000E+00         0.00000E+00
 
    0.58196E+05         0.76353E+04         0.00000E+00
    0.76353E+04        -0.12201E+03         0.00000E+00
    0.00000E+00         0.00000E+00         0.00000E+00
 
    0.58079E+05         0.90213E+04         0.00000E+00
    0.90213E+04         0.74222E+02         0.00000E+00
    0.00000E+00         0.00000E+00         0.00000E+00
 
    0.57899E+05         0.10403E+05         0.00000E+00
    0.10403E+05         0.30288E+03         0.00000E+00
    0.00000E+00         0.00000E+00         0.00000E+00
 
    0.57654E+05         0.11778E+05         0.00000E+00
    0.11778E+05         0.56380E+03         0.00000E+00
    0.00000E+00         0.00000E+00         0.00000E+00
 
    0.57345E+05         0.13145E+05         0.00000E+00
    0.13145E+05         0.85678E+03         0.00000E+00
    0.00000E+00         0.00000E+00         0.00000E+00
 
    0.56974E+05         0.14504E+05         0.00000E+00
    0.14504E+05         0.11816E+04         0.00000E+00
    0.00000E+00         0.00000E+00         0.00000E+00
 
    0.56539E+05         0.15852E+05         0.00000E+00
    0.15852E+05         0.15379E+04         0.00000E+00
    0.00000E+00         0.00000E+00         0.00000E+00
 
    0.56041E+05         0.17188E+05         0.00000E+00
    0.17188E+05         0.19256E+04         0.00000E+00
    0.00000E+00         0.00000E+00         0.00000E+00
 
    0.55481E+05         0.18511E+05         0.00000E+00
    0.18511E+05         0.23441E+04         0.00000E+00
    0.00000E+00         0.00000E+00         0.00000E+00
 
    0.54860E+05         0.19819E+05         0.00000E+00
    0.19819E+05         0.27932E+04         0.00000E+00
    0.00000E+00         0.00000E+00         0.00000E+00
 
    0.54177E+05         0.21111E+05         0.00000E+00
    0.21111E+05         0.32725E+04         0.00000E+00
    0.00000E+00         0.00000E+00         0.00000E+00
 
    0.53434E+05         0.22386E+05         0.00000E+00
    0.22386E+05         0.37816E+04         0.00000E+00
    0.00000E+00         0.00000E+00         0.00000E+00
 
    0.52631E+05         0.23641E+05         0.00000E+00
    0.23641E+05         0.43200E+04         0.00000E+00
    0.00000E+00         0.00000E+00         0.00000E+00
 
    0.51768E+05         0.24877E+05         0.00000E+00
    0.24877E+05         0.48872E+04         0.00000E+00
    0.00000E+00         0.00000E+00         0.00000E+00
 
    0.50847E+05         0.26091E+05         0.00000E+00
    0.26091E+05         0.54828E+04         0.00000E+00
    0.00000E+00         0.00000E+00         0.00000E+00
 
    0.49868E+05         0.27282E+05         0.00000E+00
    0.27282E+05         0.61061E+04         0.00000E+00
    0.00000E+00         0.00000E+00         0.00000E+00
 
    0.48832E+05         0.28449E+05         0.00000E+00
    0.28449E+05         0.67567E+04         0.00000E+00
    0.00000E+00         0.00000E+00         0.00000E+00
 
    0.47740E+05         0.29591E+05         0.00000E+00
    0.29591E+05         0.74339E+04         0.00000E+00
    0.00000E+00         0.00000E+00         0.00000E+00
 
    0.46593E+05         0.30707E+05         0.00000E+00
    0.30707E+05         0.81372E+04         0.00000E+00
    0.00000E+00         0.00000E+00         0.00000E+00
 
    0.45391E+05         0.31794E+05         0.00000E+00
    0.31794E+05         0.88658E+04         0.00000E+00
    0.00000E+00         0.00000E+00         0.00000E+00
 
    0.44136E+05         0.32853E+05         0.00000E+00
    0.32853E+05         0.96192E+04         0.00000E+00
    0.00000E+00         0.00000E+00         0.00000E+00
 
    0.42829E+05         0.33881E+05         0.00000E+00
    0.33881E+05         0.10397E+05         0.00000E+00
    0.00000E+00         0.00000E+00         0.00000E+00
 
    0.41470E+05         0.34878E+05         0.00000E+00
    0.34878E+05         0.11197E+05         0.00000E+00
    0.00000E+00         0.00000E+00         0.00000E+00
 
    0.40061E+05         0.35843E+05         0.00000E+00
    0.35843E+05         0.12021E+05         0.00000E+00
    0.00000E+00         0.00000E+00         0.00000E+00
 
    0.38603E+05         0.36774E+05         0.00000E+00
    0.36774E+05         0.12866E+05         0.00000E+00
    0.00000E+00         0.00000E+00         0.00000E+00
 
    0.37096E+05         0.37671E+05         0.00000E+00
    0.37671E+05         0.13732E+05         0.00000E+00
    0.00000E+00         0.00000E+00         0.00000E+00
 
    0.35543E+05         0.38532E+05         0.00000E+00
    0.38532E+05         0.14618E+05         0.00000E+00
    0.00000E+00         0.00000E+00         0.00000E+00
 
    0.33944E+05         0.39356E+05         0.00000E+00
    0.39356E+05         0.15524E+05         0.00000E+00
    0.00000E+00         0.00000E+00         0.00000E+00
 
    0.32301E+05         0.40143E+05         0.00000E+00
    0.40143E+05         0.16448E+05         0.00000E+00
    0.00000E+00         0.00000E+00         0.00000E+00
 
    0.30614E+05         0.40891E+05         0.00000E+00
    0.40891E+05         0.17390E+05         0.00000E+00
    0.00000E+00         0.00000E+00         0.00000E+00
 
    0.28886E+05         0.41599E+05         0.00000E+00
    0.41599E+05         0.18349E+05         0.00000E+00
    0.00000E+00         0.00000E+00         0.00000E+00
 
    0.27117E+05         0.42267E+05         0.00000E+00
    0.42267E+05         0.19323E+05         0.00000E+00
    0.00000E+00         0.00000E+00         0.00000E+00
 
    0.25309E+05         0.42894E+05         0.00000E+00
    0.42894E+05         0.20313E+05         0.00000E+00
    0.00000E+00         0.00000E+00         0.00000E+00
 
    0.23463E+05         0.43479E+05         0.00000E+00
    0.43479E+05         0.21316E+05         0.00000E+00
    0.00000E+00         0.00000E+00         0.00000E+00
 
    0.21581E+05         0.44020E+05         0.00000E+00
    0.44020E+05         0.22333E+05         0.00000E+00
    0.00000E+00         0.00000E+00         0.00000E+00
 
    0.19663E+05         0.44518E+05         0.00000E+00
    0.44518E+05         0.23361E+05         0.00000E+00
    0.00000E+00         0.00000E+00         0.00000E+00
 
    0.17713E+05         0.44972E+05         0.00000E+00
    0.44972E+05         0.24401E+05         0.00000E+00
    0.00000E+00         0.00000E+00         0.00000E+00
 
    0.15730E+05         0.45380E+05         0.00000E+00
    0.45380E+05         0.25451E+05         0.00000E+00
    0.00000E+00         0.00000E+00         0.00000E+00
 
    0.13717E+05         0.45742E+05         0.00000E+00
    0.45742E+05         0.26509E+05         0.00000E+00
    0.00000E+00         0.00000E+00         0.00000E+00
 
    0.11675E+05         0.46058E+05         0.00000E+00
    0.46058E+05         0.27576E+05         0.00000E+00
    0.00000E+00         0.00000E+00         0.00000E+00
 
    0.96057E+04         0.46327E+05         0.00000E+00
    0.46327E+05         0.28650E+05         0.00000E+00
    0.00000E+00         0.00000E+00         0.00000E+00
 
    0.75105E+04         0.46547E+05         0.00000E+00
    0.46547E+05         0.29729E+05         0.00000E+00
    0.00000E+00         0.00000E+00         0.00000E+00
 
    0.53912E+04         0.46720E+05         0.00000E+00
    0.46720E+05         0.30814E+05         0.00000E+00
    0.00000E+00         0.00000E+00         0.00000E+00
 
    0.32493E+04         0.46844E+05         0.00000E+00
    0.46844E+05         0.31902E+05         0.00000E+00
    0.00000E+00         0.00000E+00         0.00000E+00
 
    0.10864E+04         0.46918E+05         0.00000E+00
    0.46918E+05         0.32992E+05         0.00000E+00
    0.00000E+00         0.00000E+00         0.00000E+00
 
    0.65028E+05         0.77358E+03         0.00000E+00
    0.77358E+03        -0.74687E+03         0.00000E+00
    0.00000E+00         0.00000E+00         0.00000E+00
 
    0.65252E+05         0.23346E+04         0.00000E+00
    0.23346E+04        -0.71010E+03         0.00000E+00
    0.00000E+00         0.00000E+00         0.00000E+00
 
    0.65404E+05         0.38983E+04         0.00000E+00
    0.38983E+04        -0.63648E+03         0.00000E+00
    0.00000E+00         0.00000E+00         0.00000E+00
 
    0.65483E+05         0.54633E+04         0.00000E+00
    0.54633E+04        -0.52603E+03         0.00000E+00
    0.00000E+00         0.00000E+00         0.00000E+00
 
    0.65490E+05         0.70276E+04         0.00000E+00
    0.70276E+04        -0.37880E+03         0.00000E+00
    0.00000E+00         0.00000E+00         0.00000E+00
 
    0.65424E+05         0.85898E+04         0.00000E+00
    0.85898E+04        -0.19487E+03         0.00000E+00
    0.00000E+00         0.00000E+00         0.00000E+00
 
    0.65286E+05         0.10148E+05         0.00000E+00
    0.10148E+05         0.25628E+02         0.00000E+00
    0.00000E+00         0.00000E+00         0.00000E+00
 
    0.65076E+05         0.11701E+05         0.00000E+00
    0.11701E+05         0.28253E+03         0.00000E+00
    0.00000E+00         0.00000E+00         0.00000E+00
 
    0.64794E+05         0.13247E+05         0.00000E+00
    0.13247E+05         0.57563E+03         0.00000E+00
    0.00000E+00         0.00000E+00         0.00000E+00
 
    0.64441E+05         0.14783E+05         0.00000E+00
    0.14783E+05         0.90470E+03         0.00000E+00
    0.00000E+00         0.00000E+00         0.00000E+00
 
    0.64017E+05         0.16310E+05         0.00000E+00
    0.16310E+05         0.12695E+04         0.00000E+00
    0.00000E+00         0.00000E+00         0.00000E+00
 
    0.63522E+05         0.17824E+05         0.00000E+00
    0.17824E+05         0.16696E+04         0.00000E+00
    0.00000E+00         0.00000E+00         0.00000E+00
 
    0.62957E+05         0.19325E+05         0.00000E+00
    0.19325E+05         0.21048E+04         0.00000E+00
    0.00000E+00         0.00000E+00         0.00000E+00
 
    0.62322E+05         0.20811E+05         0.00000E+00
    0.20811E+05         0.25747E+04         0.00000E+00
    0.00000E+00         0.00000E+00         0.00000E+00
 
    0.61618E+05         0.22280E+05         0.00000E+00
    0.22280E+05         0.30788E+04         0.00000E+00
    0.00000E+00         0.00000E+00         0.00000E+00
 
    0.60846E+05         0.23731E+05         0.00000E+00
    0.23731E+05         0.36168E+04         0.00000E+00
    0.00000E+00         0.00000E+00         0.00000E+00
 
    0.60006E+05         0.25162E+05         0.00000E+00
    0.25162E+05         0.41881E+04         0.00000E+00
    0.00000E+00         0.00000E+00         0.00000E+00
 
    0.59099E+05         0.26572E+05         0.00000E+00
    0.26572E+05         0.47922E+04         0.00000E+00
    0.00000E+00         0.00000E+00         0.00000E+00
 
    0.58126E+05         0.27958E+05         0.00000E+00
    0.27958E+05         0.54287E+04         0.00000E+00
    0.00000E+00         0.00000E+00         0.00000E+00
 
    0.57087E+05         0.29321E+05         0.00000E+00
    0.29321E+05         0.60968E+04         0.00000E+00
    0.00000E+00         0.00000E+00         0.00000E+00
 
    0.55984E+05         0.30658E+05         0.00000E+00
    0.30658E+05         0.67961E+04         0.00000E+00
    0.00000E+00         0.00000E+00         0.00000E+00
 
    0.54817E+05         0.31968E+05         0.00000E+00
    0.31968E+05         0.75258E+04         0.00000E+00
    0.00000E+00         0.00000E+00         0.00000E+00
 
    0.53587E+05         0.33249E+05         0.00000E+00
    0.33249E+05         0.82854E+04         0.00000E+00
    0.00000E+00         0.00000E+00         0.00000E+00
 
    0.52296E+05         0.34501E+05         0.00000E+00
    0.34501E+05         0.90741E+04         0.00000E+00
    0.00000E+00         0.00000E+00         0.00000E+00
 
    0.50943E+05         0.35721E+05         0.00000E+00
    0.35721E+05         0.98912E+04         0.00000E+00
    0.00000E+00         0.00000E+00         0.00000E+00
 
    0.49531E+05         0.36908E+05         0.00000E+00
    0.36908E+05         0.10736E+05         0.00000E+00
    0.00000E+00         0.00000E+00         0.00000E+00
 
    0.48061E+05         0.38062E+05         0.00000E+00
    0.38062E+05         0.11608E+05         0.00000E+00
    0.00000E+00         0.00000E+00         0.00000E+00
 
    0.46533E+05         0.39180E+05         0.00000E+00
    0.39180E+05         0.12505E+05         0.00000E+00
    0.00000E+00         0.00000E+00         0.00000E+00
 
    0.44949E+05         0.40263E+05         0.00000E+00
    0.40263E+05         0.13428E+05         0.00000E+00
    0.00000E+00         0.00000E+00         0.00000E+00
 
    0.43310E+05         0.41307E+05         0.00000E+00
    0.41307E+05         0.14376E+05         0.00000E+00
    0.00000E+00         0.00000E+00         0.00000E+00
 
    0.41618E+05         0.42313E+05         0.00000E+00
    0.42313E+05         0.15347E+05         0.00000E+00
    0.00000E+00         0.00000E+00         0.00000E+00
 
    0.39873E+05         0.43279E+05         0.00000E+00
    0.43279E+05         0.16340E+05         0.00000E+00
    0.00000E+00         0.00000E+00         0.00000E+00
 
    0.38077E+05         0.44203E+05         0.00000E+00
    0.44203E+05         0.17355E+05         0.00000E+00
    0.00000E+00         0.00000E+00         0.00000E+00
 
    0.36232E+05         0.45086E+05         0.00000E+00
    0.45086E+05         0.18391E+05         0.00000E+00
    0.00000E+00         0.00000E+00         0.00000E+00
 
    0.34339E+05         0.45925E+05         0.00000E+00
    0.45925E+05         0.19447E+05         0.00000E+00
    0.00000E+00         0.00000E+00         0.00000E+00
 
    0.32398E+05         0.46720E+05         0.00000E+00
    0.46720E+05         0.20522E+05         0.00000E+00
    0.00000E+00         0.00000E+00         0.00000E+00
 
    0.30413E+05         0.47470E+05         0.00000E+00
    0.47470E+05         0.21614E+05         0.00000E+00
    0.00000E+00         0.00000E+00         0.00000E+00
 
    0.28384E+05         0.48173E+05         0.00000E+00
    0.48173E+05         0.22723E+05         0.00000E+00
    0.00000E+00         0.00000E+00         0.00000E+00
 
    0.26313E+05         0.48829E+05         0.00000E+00
    0.48829E+05         0.23847E+05         0.00000E+00
    0.00000E+00         0.00000E+00         0.00000E+00
 
    0.24201E+05         0.49437E+05         0.00000E+00
    0.49437E+05         0.24987E+05         0.00000E+00
    0.00000E+00         0.00000E+00         0.00000E+00
 
    0.22050E+05         0.49996E+05         0.00000E+00
    0.49996E+05         0.26139E+05         0.00000E+00
    0.00000E+00         0.00000E+00         0.00000E+00
 
    0.19862E+05         0.50506E+05         0.00000E+00
    0.50506E+05         0.27305E+05         0.00000E+00
    0.00000E+00         0.00000E+00         0.00000E+00
 
    0.17638E+05         0.50965E+05         0.00000E+00
    0.50965E+05         0.28481E+05         0.00000E+00
    0.00000E+00         0.00000E+00         0.00000E+00
 
    0.15381E+05         0.51372E+05         0.00000E+00
    0.51372E+05         0.29667E+05         0.00000E+00
    0.00000E+00         0.00000E+00         0.00000E+00
 
    0.13090E+05         0.51727E+05         0.00000E+00
    0.51727E+05         0.30863E+05         0.00000E+00
    0.00000E+00         0.00000E+00         0.00000E+00
 
    0.10770E+05         0.52030E+05         0.00000E+00
    0.52030E+05         0.32066E+05         0.00000E+00
    0.00000E+00         0.00000E+00         0.00000E+00
 
    0.84207E+04         0.52279E+05         0.00000E+00
    0.52279E+05         0.33276E+05         0.00000E+00
    0.00000E+00         0.00000E+00         0.00000E+00
 
    0.60444E+04         0.52474E+05         0.00000E+00
    0.52474E+05         0.34492E+05         0.00000E+00
    0.00000E+00         0.00000E+00         0.00000E+00
 
    0.36429E+04         0.52615E+05         0.00000E+00
    0.52615E+05         0.35711E+05         0.00000E+00
    0.00000E+00         0.00000E+00         0.00000E+00
 
    0.12180E+04         0.52701E+05         0.00000E+00
    0.52701E+05         0.36934E+05         0.00000E+00
    0.00000E+00         0.00000E+00         0.00000E+00
 
    0.73139E+05         0.87094E+03         0.00000E+00
    0.87094E+03        -0.90947E+03         0.00000E+00
    0.00000E+00         0.00000E+00         0.00000E+00
 
    0.73381E+05         0.26274E+04         0.00000E+00
    0.26274E+04        -0.86812E+03         0.00000E+00
    0.00000E+00         0.00000E+00         0.00000E+00
 
    0.73542E+05         0.43866E+04         0.00000E+00
    0.43866E+04        -0.78536E+03         0.00000E+00
    0.00000E+00         0.00000E+00         0.00000E+00
 
    0.73622E+05         0.61467E+04         0.00000E+00
    0.61467E+04        -0.66121E+03         0.00000E+00
    0.00000E+00         0.00000E+00         0.00000E+00
 
    0.73621E+05         0.79059E+04         0.00000E+00
    0.79059E+04        -0.49575E+03         0.00000E+00
    0.00000E+00         0.00000E+00         0.00000E+00
 
    0.73538E+05         0.96623E+04         0.00000E+00
    0.96623E+04        -0.28909E+03         0.00000E+00
    0.00000E+00         0.00000E+00         0.00000E+00
 
    0.73375E+05         0.11414E+05         0.00000E+00
    0.11414E+05        -0.41390E+02         0.00000E+00
    0.00000E+00         0.00000E+00         0.00000E+00
 
    0.73130E+05         0.13159E+05         0.00000E+00
    0.13159E+05         0.24716E+03         0.00000E+00
    0.00000E+00         0.00000E+00         0.00000E+00
 
    0.72806E+05         0.14896E+05         0.00000E+00
    0.14896E+05         0.57634E+03         0.00000E+00
    0.00000E+00         0.00000E+00         0.00000E+00
 
    0.72401E+05         0.16623E+05         0.00000E+00
    0.16623E+05         0.94585E+03         0.00000E+00
    0.00000E+00         0.00000E+00         0.00000E+00
 
    0.71917E+05         0.18338E+05         0.00000E+00
    0.18338E+05         0.13554E+04         0.00000E+00
    0.00000E+00         0.00000E+00         0.00000E+00
 
    0.71353E+05         0.20039E+05         0.00000E+00
    0.20039E+05         0.18046E+04         0.00000E+00
    0.00000E+00         0.00000E+00         0.00000E+00
 
    0.70712E+05         0.21724E+05         0.00000E+00
    0.21724E+05         0.22931E+04         0.00000E+00
    0.00000E+00         0.00000E+00         0.00000E+00
 
    0.69992E+05         0.23393E+05         0.00000E+00
    0.23393E+05         0.28204E+04         0.00000E+00
    0.00000E+00         0.00000E+00         0.00000E+00
 
    0.69195E+05         0.25042E+05         0.00000E+00
    0.25042E+05         0.33862E+04         0.00000E+00
    0.00000E+00         0.00000E+00         0.00000E+00
 
    0.68321E+05         0.26671E+05         0.00000E+00
    0.26671E+05         0.39898E+04         0.00000E+00
    0.00000E+00         0.00000E+00         0.00000E+00
 
    0.67372E+05         0.28277E+05         0.00000E+00
    0.28277E+05         0.46307E+04         0.00000E+00
    0.00000E+00         0.00000E+00         0.00000E+00
 
    0.66348E+05         0.29859E+05         0.00000E+00
    0.29859E+05         0.53084E+04         0.00000E+00
    0.00000E+00         0.00000E+00         0.00000E+00
 
    0.65249E+05         0.31415E+05         0.00000E+00
    0.31415E+05         0.60222E+04         0.00000E+00
    0.00000E+00         0.00000E+00         0.00000E+00
 
    0.64078E+05         0.32944E+05         0.00000E+00
    0.32944E+05         0.67716E+04         0.00000E+00
    0.00000E+00         0.00000E+00         0.00000E+00
 
    0.62834E+05         0.34444E+05         0.00000E+00
    0.34444E+05         0.75558E+04         0.00000E+00
    0.00000E+00         0.00000E+00         0.00000E+00
 
    0.61519E+05         0.35914E+05         0.00000E+00
    0.35914E+05         0.83741E+04         0.00000E+00
    0.00000E+00         0.00000E+00         0.00000E+00
 
    0.60134E+05         0.37351E+05         0.00000E+00
    0.37351E+05         0.92257E+04         0.00000E+00
    0.00000E+00         0.00000E+00         0.00000E+00
 
    0.58680E+05         0.38754E+05         0.00000E+00
    0.38754E+05         0.10110E+05         0.00000E+00
    0.00000E+00         0.00000E+00         0.00000E+00
 
    0.57159E+05         0.40123E+05         0.00000E+00
    0.40123E+05         0.11026E+05         0.00000E+00
    0.00000E+00         0.00000E+00         0.00000E+00
 
    0.55570E+05         0.41455E+05         0.00000E+00
    0.41455E+05         0.11973E+05         0.00000E+00
    0.00000E+00         0.00000E+00         0.00000E+00
 
    0.53917E+05         0.42749E+05         0.00000E+00
    0.42749E+05         0.12950E+05         0.00000E+00
    0.00000E+00         0.00000E+00         0.00000E+00
 
    0.52199E+05         0.44003E+05         0.00000E+00
    0.44003E+05         0.13956E+05         0.00000E+00
    0.00000E+00         0.00000E+00         0.00000E+00
 
    0.50419E+05         0.45217E+05         0.00000E+00
    0.45217E+05         0.14990E+05         0.00000E+00
    0.00000E+00         0.00000E+00         0.00000E+00
 
    0.48578E+05         0.46388E+05         0.00000E+00
    0.46388E+05         0.16052E+05         0.00000E+00
    0.00000E+00         0.00000E+00         0.00000E+00
 
    0.46677E+05         0.47516E+05         0.00000E+00
    0.47516E+05         0.17140E+05         0.00000E+00
    0.00000E+00         0.00000E+00         0.00000E+00
 
    0.44717E+05         0.48599E+05         0.00000E+00
    0.48599E+05         0.18253E+05         0.00000E+00
    0.00000E+00         0.00000E+00         0.00000E+00
 
    0.42701E+05         0.49635E+05         0.00000E+00
    0.49635E+05         0.19391E+05         0.00000E+00
    0.00000E+00         0.00000E+00         0.00000E+00
 
    0.40629E+05         0.50625E+05         0.00000E+00
    0.50625E+05         0.20552E+05         0.00000E+00
    0.00000E+00         0.00000E+00         0.00000E+00
 
    0.38504E+05         0.51566E+05         0.00000E+00
    0.51566E+05         0.21734E+05         0.00000E+00
    0.00000E+00         0.00000E+00         0.00000E+00
 
    0.36327E+05         0.52458E+05         0.00000E+00
    0.52458E+05         0.22938E+05         0.00000E+00
    0.00000E+00         0.00000E+00         0.00000E+00
 
    0.34099E+05         0.53299E+05         0.00000E+00
    0.53299E+05         0.24162E+05         0.00000E+00
    0.00000E+00         0.00000E+00         0.00000E+00
 
    0.31822E+05         0.54088E+05         0.00000E+00
    0.54088E+05         0.25404E+05         0.00000E+00
    0.00000E+00         0.00000E+00         0.00000E+00
 
    0.29499E+05         0.54824E+05         0.00000E+00
    0.54824E+05         0.26664E+05         0.00000E+00
    0.00000E+00         0.00000E+00         0.00000E+00
 
    0.27130E+05         0.55507E+05         0.00000E+00
    0.55507E+05         0.27940E+05         0.00000E+00
    0.00000E+00         0.00000E+00         0.00000E+00
 
    0.24718E+05         0.56135E+05         0.00000E+00
    0.56135E+05         0.29232E+05         0.00000E+00
    0.00000E+00         0.00000E+00         0.00000E+00
 
    0.22264E+05         0.56707E+05         0.00000E+00
    0.56707E+05         0.30537E+05         0.00000E+00
    0.00000E+00         0.00000E+00         0.00000E+00
 
    0.19771E+05         0.57222E+05         0.00000E+00
    0.57222E+05         0.31855E+05         0.00000E+00
    0.00000E+00         0.00000E+00         0.00000E+00
 
    0.17240E+05         0.57680E+05         0.00000E+00
    0.57680E+05         0.33184E+05         0.00000E+00
    0.00000E+00         0.00000E+00         0.00000E+00
 
    0.14672E+05         0.58080E+05         0.00000E+00
    0.58080E+05         0.34524E+05         0.00000E+00
    0.00000E+00         0.00000E+00         0.00000E+00
 
    0.12071E+05         0.58421E+05         0.00000E+00
    0.58421E+05         0.35872E+05         0.00000E+00
    0.00000E+00         0.00000E+00         0.00000E+00
 
    0.94378E+04         0.58703E+05         0.00000E+00
    0.58703E+05         0.37228E+05         0.00000E+00
    0.00000E+00         0.00000E+00         0.00000E+00
 
    0.67743E+04         0.58924E+05         0.00000E+00
    0.58924E+05         0.38590E+05         0.00000E+00
    0.00000E+00         0.00000E+00         0.00000E+00
 
    0.40827E+04         0.59084E+05         0.00000E+00
    0.59084E+05         0.39956E+05         0.00000E+00
    0.00000E+00         0.00000E+00         0.00000E+00
 
    0.13651E+04         0.59182E+05         0.00000E+00
    0.59182E+05         0.41326E+05         0.00000E+00
    0.00000E+00         0.00000E+00         0.00000E+00
 
    0.82251E+05         0.98047E+03         0.00000E+00
    0.98047E+03        -0.11070E+04         0.00000E+00
    0.00000E+00         0.00000E+00         0.00000E+00
 
    0.82512E+05         0.29565E+04         0.00000E+00
    0.29565E+04        -0.10605E+04         0.00000E+00
    0.00000E+00         0.00000E+00         0.00000E+00
 
    0.82682E+05         0.49353E+04         0.00000E+00
    0.49353E+04        -0.96746E+03         0.00000E+00
    0.00000E+00         0.00000E+00         0.00000E+00
 
    0.82761E+05         0.69147E+04         0.00000E+00
    0.69147E+04        -0.82796E+03         0.00000E+00
    0.00000E+00         0.00000E+00         0.00000E+00
 
    0.82748E+05         0.88926E+04         0.00000E+00
    0.88926E+04        -0.64207E+03         0.00000E+00
    0.00000E+00         0.00000E+00         0.00000E+00
 
    0.82645E+05         0.10867E+05         0.00000E+00
    0.10867E+05        -0.40993E+03         0.00000E+00
    0.00000E+00         0.00000E+00         0.00000E+00
 
    0.82451E+05         0.12836E+05         0.00000E+00
    0.12836E+05        -0.13173E+03         0.00000E+00
    0.00000E+00         0.00000E+00         0.00000E+00
 
    0.82166E+05         0.14797E+05         0.00000E+00
    0.14797E+05         0.19230E+03         0.00000E+00
    0.00000E+00         0.00000E+00         0.00000E+00
 
    0.81792E+05         0.16748E+05         0.00000E+00
    0.16748E+05         0.56188E+03         0.00000E+00
    0.00000E+00         0.00000E+00         0.00000E+00
 
    0.81328E+05         0.18688E+05         0.00000E+00
    0.18688E+05         0.97669E+03         0.00000E+00
    0.00000E+00         0.00000E+00         0.00000E+00
 
    0.80775E+05         0.20614E+05         0.00000E+00
    0.20614E+05         0.14364E+04         0.00000E+00
    0.00000E+00         0.00000E+00         0.00000E+00
 
    0.80133E+05         0.22524E+05         0.00000E+00
    0.22524E+05         0.19405E+04         0.00000E+00
    0.00000E+00         0.00000E+00         0.00000E+00
 
    0.79404E+05         0.24417E+05         0.00000E+00
    0.24417E+05         0.24886E+04         0.00000E+00
    0.00000E+00         0.00000E+00         0.00000E+00
 
    0.78587E+05         0.26289E+05         0.00000E+00
    0.26289E+05         0.30803E+04         0.00000E+00
    0.00000E+00         0.00000E+00         0.00000E+00
 
    0.77684E+05         0.28141E+05         0.00000E+00
    0.28141E+05         0.37149E+04         0.00000E+00
    0.00000E+00         0.00000E+00         0.00000E+00
 
    0.76696E+05         0.29968E+05         0.00000E+00
    0.29968E+05         0.43919E+04         0.00000E+00
    0.00000E+00         0.00000E+00         0.00000E+00
 
    0.75622E+05         0.31771E+05         0.00000E+00
    0.31771E+05         0.51108E+04         0.00000E+00
    0.00000E+00         0.00000E+00         0.00000E+00
 
    0.74465E+05         0.33546E+05         0.00000E+00
    0.33546E+05         0.58707E+04         0.00000E+00
    0.00000E+00         0.00000E+00         0.00000E+00
 
    0.73226E+05         0.35292E+05         0.00000E+00
    0.35292E+05         0.66711E+04         0.00000E+00
    0.00000E+00         0.00000E+00         0.00000E+00
 
    0.71904E+05         0.37007E+05         0.00000E+00
    0.37007E+05         0.75113E+04         0.00000E+00
    0.00000E+00         0.00000E+00         0.00000E+00
 
    0.70502E+05         0.38689E+05         0.00000E+00
    0.38689E+05         0.83903E+04         0.00000E+00
    0.00000E+00         0.00000E+00         0.00000E+00
 
    0.69021E+05         0.40337E+05         0.00000E+00
    0.40337E+05         0.93076E+04         0.00000E+00
    0.00000E+00         0.00000E+00         0.00000E+00
 
    0.67462E+05         0.41949E+05         0.00000E+00
    0.41949E+05         0.10262E+05         0.00000E+00
    0.00000E+00         0.00000E+00         0.00000E+00
 
    0.65825E+05         0.43523E+05         0.00000E+00
    0.43523E+05         0.11253E+05         0.00000E+00
    0.00000E+00         0.00000E+00         0.00000E+00
 
    0.64113E+05         0.45057E+05         0.00000E+00
    0.45057E+05         0.12279E+05         0.00000E+00
    0.00000E+00         0.00000E+00         0.00000E+00
 
    0.62327E+05         0.46550E+05         0.00000E+00
    0.46550E+05         0.13341E+05         0.00000E+00
    0.00000E+00         0.00000E+00         0.00000E+00
 
    0.60468E+05         0.48001E+05         0.00000E+00
    0.48001E+05         0.14435E+05         0.00000E+00
    0.00000E+00         0.00000E+00         0.00000E+00
 
    0.58537E+05         0.49407E+05         0.00000E+00
    0.49407E+05         0.15562E+05         0.00000E+00
    0.00000E+00         0.00000E+00         0.00000E+00
 
    0.56537E+05         0.50767E+05         0.00000E+00
    0.50767E+05         0.16721E+05         0.00000E+00
    0.00000E+00         0.00000E+00         0.00000E+00
 
    0.54468E+05         0.52080E+05         0.00000E+00
    0.52080E+05         0.17910E+05         0.00000E+00
    0.00000E+00         0.00000E+00         0.00000E+00
 
    0.52333E+05         0.53344E+05         0.00000E+00
    0.53344E+05         0.19129E+05         0.00000E+00
    0.00000E+00         0.00000E+00         0.00000E+00
 
    0.50133E+05         0.54558E+05         0.00000E+00
    0.54558E+05         0.20376E+05         0.00000E+00
    0.00000E+00         0.00000E+00         0.00000E+00
 
    0.47870E+05         0.55721E+05         0.00000E+00
    0.55721E+05         0.21650E+05         0.00000E+00
    0.00000E+00         0.00000E+00         0.00000E+00
 
    0.45544E+05         0.56830E+05         0.00000E+00
    0.56830E+05         0.22950E+05         0.00000E+00
    0.00000E+00         0.00000E+00         0.00000E+00
 
    0.43160E+05         0.57885E+05         0.00000E+00
    0.57885E+05         0.24275E+05         0.00000E+00
    0.00000E+00         0.00000E+00         0.00000E+00
 
    0.40717E+05         0.58885E+05         0.00000E+00
    0.58885E+05         0.25623E+05         0.00000E+00
    0.00000E+00         0.00000E+00         0.00000E+00
 
    0.38218E+05         0.59828E+05         0.00000E+00
    0.59828E+05         0.26993E+05         0.00000E+00
    0.00000E+00         0.00000E+00         0.00000E+00
 
    0.35665E+05         0.60713E+05         0.00000E+00
    0.60713E+05         0.28384E+05         0.00000E+00
    0.00000E+00         0.00000E+00         0.00000E+00
 
    0.33059E+05         0.61539E+05         0.00000E+00
    0.61539E+05         0.29795E+05         0.00000E+00
    0.00000E+00         0.00000E+00         0.00000E+00
 
    0.30403E+05         0.62305E+05         0.00000E+00
    0.62305E+05         0.31224E+05         0.00000E+00
    0.00000E+00         0.00000E+00         0.00000E+00
 
    0.27699E+05         0.63010E+05         0.00000E+00
    0.63010E+05         0.32670E+05         0.00000E+00
    0.00000E+00         0.00000E+00         0.00000E+00
 
    0.24948E+05         0.63652E+05         0.00000E+00
    0.63652E+05         0.34132E+05         0.00000E+00
    0.00000E+00         0.00000E+00         0.00000E+00
 
    0.22153E+05         0.64231E+05         0.00000E+00
    0.64231E+05         0.35608E+05         0.00000E+00
    0.00000E+00         0.00000E+00         0.00000E+00
 
    0.19316E+05         0.64746E+05         0.00000E+00
    0.64746E+05         0.37097E+05         0.00000E+00
    0.00000E+00         0.00000E+00         0.00000E+00
 
    0.16439E+05         0.65197E+05         0.00000E+00
    0.65197E+05         0.38597E+05         0.00000E+00
    0.00000E+00         0.00000E+00         0.00000E+00
 
    0.13524E+05         0.65581E+05         0.00000E+00
    0.65581E+05         0.40107E+05         0.00000E+00
    0.00000E+00         0.00000E+00         0.00000E+00
 
    0.10574E+05         0.65898E+05         0.00000E+00
    0.65898E+05         0.41625E+05         0.00000E+00
    0.00000E+00         0.00000E+00         0.00000E+00
 
    0.75895E+04         0.66149E+05         0.00000E+00
    0.66149E+05         0.43150E+05         0.00000E+00
    0.00000E+00         0.00000E+00         0.00000E+00
 
    0.45739E+04         0.66331E+05         0.00000E+00
    0.66331E+05         0.44681E+05         0.00000E+00
    0.00000E+00         0.00000E+00         0.00000E+00
 
    0.15293E+04         0.66444E+05         0.00000E+00
    0.66444E+05         0.46216E+05         0.00000E+00
    0.00000E+00         0.00000E+00         0.00000E+00
 
    0.92485E+05         0.11037E+04         0.00000E+00
    0.11037E+04        -0.13468E+04         0.00000E+00
    0.00000E+00         0.00000E+00         0.00000E+00
 
    0.92765E+05         0.33265E+04         0.00000E+00
    0.33265E+04        -0.12945E+04         0.00000E+00
    0.00000E+00         0.00000E+00         0.00000E+00
 
    0.92942E+05         0.55519E+04         0.00000E+00
    0.55519E+04        -0.11900E+04         0.00000E+00
    0.00000E+00         0.00000E+00         0.00000E+00
 
    0.93018E+05         0.77776E+04         0.00000E+00
    0.77776E+04        -0.10333E+04         0.00000E+00
    0.00000E+00         0.00000E+00         0.00000E+00
 
    0.92991E+05         0.10001E+05         0.00000E+00
    0.10001E+05        -0.82447E+03         0.00000E+00
    0.00000E+00         0.00000E+00         0.00000E+00
 
    0.92862E+05         0.12220E+05         0.00000E+00
    0.12220E+05        -0.56378E+03         0.00000E+00
    0.00000E+00         0.00000E+00         0.00000E+00
 
    0.92632E+05         0.14432E+05         0.00000E+00
    0.14432E+05        -0.25142E+03         0.00000E+00
    0.00000E+00         0.00000E+00         0.00000E+00
 
    0.92300E+05         0.16636E+05         0.00000E+00
    0.16636E+05         0.11234E+03         0.00000E+00
    0.00000E+00         0.00000E+00         0.00000E+00
 
    0.91868E+05         0.18827E+05         0.00000E+00
    0.18827E+05         0.52716E+03         0.00000E+00
    0.00000E+00         0.00000E+00         0.00000E+00
 
    0.91335E+05         0.21006E+05         0.00000E+00
    0.21006E+05         0.99268E+03         0.00000E+00
    0.00000E+00         0.00000E+00         0.00000E+00
 
    0.90703E+05         0.23168E+05         0.00000E+00
    0.23168E+05         0.15085E+04         0.00000E+00
    0.00000E+00         0.00000E+00         0.00000E+00
 
    0.89972E+05         0.25313E+05         0.00000E+00
    0.25313E+05         0.20740E+04         0.00000E+00
    0.00000E+00         0.00000E+00         0.00000E+00
 
    0.89142E+05         0.27437E+05         0.00000E+00
    0.27437E+05         0.26889E+04         0.00000E+00
    0.00000E+00         0.00000E+00         0.00000E+00
 
    0.88216E+05         0.29539E+05         0.00000E+00
    0.29539E+05         0.33525E+04         0.00000E+00
    0.00000E+00         0.00000E+00         0.00000E+00
 
    0.87192E+05         0.31616E+05         0.00000E+00
    0.31616E+05         0.40641E+04         0.00000E+00
    0.00000E+00         0.00000E+00         0.00000E+00
 
    0.86074E+05         0.33666E+05         0.00000E+00
    0.33666E+05         0.48233E+04         0.00000E+00
    0.00000E+00         0.00000E+00         0.00000E+00
 
    0.84860E+05         0.35688E+05         0.00000E+00
    0.35688E+05         0.56292E+04         0.00000E+00
    0.00000E+00         0.00000E+00         0.00000E+00
 
    0.83553E+05         0.37679E+05         0.00000E+00
    0.37679E+05         0.64811E+04         0.00000E+00
    0.00000E+00         0.00000E+00         0.00000E+00
 
    0.82154E+05         0.39637E+05         0.00000E+00
    0.39637E+05         0.73782E+04         0.00000E+00
    0.00000E+00         0.00000E+00         0.00000E+00
 
    0.80664E+05         0.41560E+05         0.00000E+00
    0.41560E+05         0.83197E+04         0.00000E+00
    0.00000E+00         0.00000E+00         0.00000E+00
 
    0.79083E+05         0.43446E+05         0.00000E+00
    0.43446E+05         0.93048E+04         0.00000E+00
    0.00000E+00         0.00000E+00         0.00000E+00
 
    0.77414E+05         0.45294E+05         0.00000E+00
    0.45294E+05         0.10332E+05         0.00000E+00
    0.00000E+00         0.00000E+00         0.00000E+00
 
    0.75658E+05         0.47101E+05         0.00000E+00
    0.47101E+05         0.11402E+05         0.00000E+00
    0.00000E+00         0.00000E+00         0.00000E+00
 
    0.73816E+05         0.48865E+05         0.00000E+00
    0.48865E+05         0.12512E+05         0.00000E+00
    0.00000E+00         0.00000E+00         0.00000E+00
 
    0.71890E+05         0.50584E+05         0.00000E+00
    0.50584E+05         0.13662E+05         0.00000E+00
    0.00000E+00         0.00000E+00         0.00000E+00
 
    0.69882E+05         0.52258E+05         0.00000E+00
    0.52258E+05         0.14850E+05         0.00000E+00
    0.00000E+00         0.00000E+00         0.00000E+00
 
    0.67792E+05         0.53883E+05         0.00000E+00
    0.53883E+05         0.16076E+05         0.00000E+00
    0.00000E+00         0.00000E+00         0.00000E+00
 
    0.65622E+05         0.55459E+05         0.00000E+00
    0.55459E+05         0.17338E+05         0.00000E+00
    0.00000E+00         0.00000E+00         0.00000E+00
 
    0.63375E+05         0.56984E+05         0.00000E+00
    0.56984E+05         0.18636E+05         0.00000E+00
    0.00000E+00         0.00000E+00         0.00000E+00
 
    0.61052E+05         0.58455E+05         0.00000E+00
    0.58455E+05         0.19968E+05         0.00000E+00
    0.00000E+00         0.00000E+00         0.00000E+00
 
    0.58654E+05         0.59871E+05         0.00000E+00
    0.59871E+05         0.21332E+05         0.00000E+00
    0.00000E+00         0.00000E+00         0.00000E+00
 
    0.56185E+05         0.61232E+05         0.00000E+00
    0.61232E+05         0.22728E+05         0.00000E+00
    0.00000E+00         0.00000E+00         0.00000E+00
 
    0.53644E+05         0.62534E+05         0.00000E+00
    0.62534E+05         0.24154E+05         0.00000E+00
    0.00000E+00         0.00000E+00         0.00000E+00
 
    0.51036E+05         0.63778E+05         0.00000E+00
    0.63778E+05         0.25609E+05         0.00000E+00
    0.00000E+00         0.00000E+00         0.00000E+00
 
    0.48360E+05         0.64960E+05         0.00000E+00
    0.64960E+05         0.27092E+05         0.00000E+00
    0.00000E+00         0.00000E+00         0.00000E+00
 
    0.45620E+05         0.66081E+05         0.00000E+00
    0.66081E+05         0.28601E+05         0.00000E+00
    0.00000E+00         0.00000E+00         0.00000E+00
 
    0.42818E+05         0.67138E+05         0.00000E+00
    0.67138E+05         0.30135E+05         0.00000E+00
    0.00000E+00         0.00000E+00         0.00000E+00
 
    0.39955E+05         0.68130E+05         0.00000E+00
    0.68130E+05         0.31692E+05         0.00000E+00
    0.00000E+00         0.00000E+00         0.00000E+00
 
    0.37035E+05         0.69057E+05         0.00000E+00
    0.69057E+05         0.33272E+05         0.00000E+00
    0.00000E+00         0.00000E+00         0.00000E+00
 
    0.34058E+05         0.69916E+05         0.00000E+00
    0.69916E+05         0.34871E+05         0.00000E+00
    0.00000E+00         0.00000E+00         0.00000E+00
 
    0.31027E+05         0.70707E+05         0.00000E+00
    0.70707E+05         0.36490E+05         0.00000E+00
    0.00000E+00         0.00000E+00         0.00000E+00
 
    0.27945E+05         0.71428E+05         0.00000E+00
    0.71428E+05         0.38126E+05         0.00000E+00
    0.00000E+00         0.00000E+00         0.00000E+00
 
    0.24813E+05         0.72079E+05         0.00000E+00
    0.72079E+05         0.39778E+05         0.00000E+00
    0.00000E+00         0.00000E+00         0.00000E+00
 
    0.21635E+05         0.72658E+05         0.00000E+00
    0.72658E+05         0.41444E+05         0.00000E+00
    0.00000E+00         0.00000E+00         0.00000E+00
 
    0.18412E+05         0.73164E+05         0.00000E+00
    0.73164E+05         0.43124E+05         0.00000E+00
    0.00000E+00         0.00000E+00         0.00000E+00
 
    0.15147E+05         0.73597E+05         0.00000E+00
    0.73597E+05         0.44814E+05         0.00000E+00
    0.00000E+00         0.00000E+00         0.00000E+00
 
    0.11842E+05         0.73956E+05         0.00000E+00
    0.73956E+05         0.46514E+05         0.00000E+00
    0.00000E+00         0.00000E+00         0.00000E+00
 
    0.84993E+04         0.74239E+05         0.00000E+00
    0.74239E+05         0.48221E+05         0.00000E+00
    0.00000E+00         0.00000E+00         0.00000E+00
 
    0.51221E+04         0.74447E+05         0.00000E+00
    0.74447E+05         0.49935E+05         0.00000E+00
    0.00000E+00         0.00000E+00         0.00000E+00
 
    0.17126E+04         0.74578E+05         0.00000E+00
    0.74578E+05         0.51654E+05         0.00000E+00
    0.00000E+00         0.00000E+00         0.00000E+00
 
    0.10398E+06         0.12422E+04         0.00000E+00
    0.12422E+04        -0.16378E+04         0.00000E+00
    0.00000E+00         0.00000E+00         0.00000E+00
 
    0.10427E+06         0.37423E+04         0.00000E+00
    0.37423E+04        -0.15791E+04         0.00000E+00
    0.00000E+00         0.00000E+00         0.00000E+00
 
    0.10446E+06         0.62447E+04         0.00000E+00
    0.62447E+04        -0.14617E+04         0.00000E+00
    0.00000E+00         0.00000E+00         0.00000E+00
 
    0.10453E+06         0.87467E+04         0.00000E+00
    0.87467E+04        -0.12856E+04         0.00000E+00
    0.00000E+00         0.00000E+00         0.00000E+00
 
    0.10448E+06         0.11246E+05         0.00000E+00
    0.11246E+05        -0.10512E+04         0.00000E+00
    0.00000E+00         0.00000E+00         0.00000E+00
 
    0.10432E+06         0.13739E+05         0.00000E+00
    0.13739E+05        -0.75851E+03         0.00000E+00
    0.00000E+00         0.00000E+00         0.00000E+00
 
    0.10405E+06         0.16224E+05         0.00000E+00
    0.16224E+05        -0.40789E+03         0.00000E+00
    0.00000E+00         0.00000E+00         0.00000E+00
 
    0.10366E+06         0.18699E+05         0.00000E+00
    0.18699E+05         0.33508E+00         0.00000E+00
    0.00000E+00         0.00000E+00         0.00000E+00
 
    0.10316E+06         0.21160E+05         0.00000E+00
    0.21160E+05         0.46579E+03         0.00000E+00
    0.00000E+00         0.00000E+00         0.00000E+00
 
    0.10255E+06         0.23606E+05         0.00000E+00
    0.23606E+05         0.98803E+03         0.00000E+00
    0.00000E+00         0.00000E+00         0.00000E+00
 
    0.10183E+06         0.26033E+05         0.00000E+00
    0.26033E+05         0.15666E+04         0.00000E+00
    0.00000E+00         0.00000E+00         0.00000E+00
 
    0.10099E+06         0.28440E+05         0.00000E+00
    0.28440E+05         0.22009E+04         0.00000E+00
    0.00000E+00         0.00000E+00         0.00000E+00
 
    0.10005E+06         0.30824E+05         0.00000E+00
    0.30824E+05         0.28903E+04         0.00000E+00
    0.00000E+00         0.00000E+00         0.00000E+00
 
    0.98997E+05         0.33182E+05         0.00000E+00
    0.33182E+05         0.36343E+04         0.00000E+00
    0.00000E+00         0.00000E+00         0.00000E+00
 
    0.97837E+05         0.35512E+05         0.00000E+00
    0.35512E+05         0.44320E+04         0.00000E+00
    0.00000E+00         0.00000E+00         0.00000E+00
 
    0.96570E+05         0.37811E+05         0.00000E+00
    0.37811E+05         0.52829E+04         0.00000E+00
    0.00000E+00         0.00000E+00         0.00000E+00
 
    0.95198E+05         0.40079E+05         0.00000E+00
    0.40079E+05         0.61860E+04         0.00000E+00
    0.00000E+00         0.00000E+00         0.00000E+00
 
    0.93722E+05         0.42311E+05         0.00000E+00
    0.42311E+05         0.71406E+04         0.00000E+00
    0.00000E+00         0.00000E+00         0.00000E+00
 
    0.92142E+05         0.44506E+05         0.00000E+00
    0.44506E+05         0.81457E+04         0.00000E+00
    0.00000E+00         0.00000E+00         0.00000E+00
 
    0.90461E+05         0.46662E+05         0.00000E+00
    0.46662E+05         0.92004E+04         0.00000E+00
    0.00000E+00         0.00000E+00         0.00000E+00
 
    0.88680E+05         0.48776E+05         0.00000E+00
    0.48776E+05         0.10304E+05         0.00000E+00
    0.00000E+00         0.00000E+00         0.00000E+00
 
    0.86800E+05         0.50846E+05         0.00000E+00
    0.50846E+05         0.11455E+05         0.00000E+00
    0.00000E+00         0.00000E+00         0.00000E+00
 
    0.84822E+05         0.52871E+05         0.00000E+00
    0.52871E+05         0.12652E+05         0.00000E+00
    0.00000E+00         0.00000E+00         0.00000E+00
 
    0.82750E+05         0.54848E+05         0.00000E+00
    0.54848E+05         0.13895E+05         0.00000E+00
    0.00000E+00         0.00000E+00         0.00000E+00
 
    0.80583E+05         0.56774E+05         0.00000E+00
    0.56774E+05         0.15183E+05         0.00000E+00
    0.00000E+00         0.00000E+00         0.00000E+00
 
    0.78324E+05         0.58649E+05         0.00000E+00
    0.58649E+05         0.16513E+05         0.00000E+00
    0.00000E+00         0.00000E+00         0.00000E+00
 
    0.75975E+05         0.60470E+05         0.00000E+00
    0.60470E+05         0.17885E+05         0.00000E+00
    0.00000E+00         0.00000E+00         0.00000E+00
 
    0.73538E+05         0.62235E+05         0.00000E+00
    0.62235E+05         0.19298E+05         0.00000E+00
    0.00000E+00         0.00000E+00         0.00000E+00
 
    0.71014E+05         0.63943E+05         0.00000E+00
    0.63943E+05         0.20751E+05         0.00000E+00
    0.00000E+00         0.00000E+00         0.00000E+00
 
    0.68405E+05         0.65591E+05         0.00000E+00
    0.65591E+05         0.22241E+05         0.00000E+00
    0.00000E+00         0.00000E+00         0.00000E+00
 
    0.65714E+05         0.67177E+05         0.00000E+00
    0.67177E+05         0.23768E+05         0.00000E+00
    0.00000E+00         0.00000E+00         0.00000E+00
 
    0.62942E+05         0.68701E+05         0.00000E+00
    0.68701E+05         0.25330E+05         0.00000E+00
    0.00000E+00         0.00000E+00         0.00000E+00
 
    0.60092E+05         0.70160E+05         0.00000E+00
    0.70160E+05         0.26926E+05         0.00000E+00
    0.00000E+00         0.00000E+00         0.00000E+00
 
    0.57166E+05         0.71553E+05         0.00000E+00
    0.71553E+05         0.28554E+05         0.00000E+00
    0.00000E+00         0.00000E+00         0.00000E+00
 
    0.54166E+05         0.72878E+05         0.00000E+00
    0.72878E+05         0.30213E+05         0.00000E+00
    0.00000E+00         0.00000E+00         0.00000E+00
 
    0.51094E+05         0.74134E+05         0.00000E+00
    0.74134E+05         0.31902E+05         0.00000E+00
    0.00000E+00         0.00000E+00         0.00000E+00
 
    0.47953E+05         0.75318E+05         0.00000E+00
    0.75318E+05         0.33618E+05         0.00000E+00
    0.00000E+00         0.00000E+00         0.00000E+00
 
    0.44744E+05         0.76431E+05         0.00000E+00
    0.76431E+05         0.35360E+05         0.00000E+00
    0.00000E+00         0.00000E+00         0.00000E+00
 
    0.41471E+05         0.77469E+05         0.00000E+00
    0.77469E+05         0.37127E+05         0.00000E+00
    0.00000E+00         0.00000E+00         0.00000E+00
 
    0.38135E+05         0.78433E+05         0.00000E+00
    0.78433E+05         0.38916E+05         0.00000E+00
    0.00000E+00         0.00000E+00         0.00000E+00
 
    0.34740E+05         0.79320E+05         0.00000E+00
    0.79320E+05         0.40727E+05         0.00000E+00
    0.00000E+00         0.00000E+00         0.00000E+00
 
    0.31288E+05         0.80130E+05         0.00000E+00
    0.80130E+05         0.42558E+05         0.00000E+00
    0.00000E+00         0.00000E+00         0.00000E+00
 
    0.27780E+05         0.80860E+05         0.00000E+00
    0.80860E+05         0.44406E+05         0.00000E+00
    0.00000E+00         0.00000E+00         0.00000E+00
 
    0.24221E+05         0.81511E+05         0.00000E+00
    0.81511E+05         0.46270E+05         0.00000E+00
    0.00000E+00         0.00000E+00         0.00000E+00
 
    0.20612E+05         0.82081E+05         0.00000E+00
    0.82081E+05         0.48149E+05         0.00000E+00
    0.00000E+00         0.00000E+00         0.00000E+00
 
    0.16956E+05         0.82569E+05         0.00000E+00
    0.82569E+05         0.50040E+05         0.00000E+00
    0.00000E+00         0.00000E+00         0.00000E+00
 
    0.13256E+05         0.82974E+05         0.00000E+00
    0.82974E+05         0.51942E+05         0.00000E+00
    0.00000E+00         0.00000E+00         0.00000E+00
 
    0.95140E+04         0.83295E+05         0.00000E+00
    0.83295E+05         0.53853E+05         0.00000E+00
    0.00000E+00         0.00000E+00         0.00000E+00
 
    0.57335E+04         0.83532E+05         0.00000E+00
    0.83532E+05         0.55771E+05         0.00000E+00
    0.00000E+00         0.00000E+00         0.00000E+00
 
    0.19169E+04         0.83683E+05         0.00000E+00
    0.83683E+05         0.57695E+05         0.00000E+00
    0.00000E+00         0.00000E+00         0.00000E+00
 
    0.11688E+06         0.13980E+04         0.00000E+00
    0.13980E+04        -0.19909E+04         0.00000E+00
    0.00000E+00         0.00000E+00         0.00000E+00
 
    0.11719E+06         0.42095E+04         0.00000E+00
    0.42095E+04        -0.19249E+04         0.00000E+00
    0.00000E+00         0.00000E+00         0.00000E+00
 
    0.11738E+06         0.70228E+04         0.00000E+00
    0.70228E+04        -0.17930E+04         0.00000E+00
    0.00000E+00         0.00000E+00         0.00000E+00
 
    0.11744E+06         0.98349E+04         0.00000E+00
    0.98349E+04        -0.15954E+04         0.00000E+00
    0.00000E+00         0.00000E+00         0.00000E+00
 
    0.11737E+06         0.12643E+05         0.00000E+00
    0.12643E+05        -0.13322E+04         0.00000E+00
    0.00000E+00         0.00000E+00         0.00000E+00
 
    0.11717E+06         0.15444E+05         0.00000E+00
    0.15444E+05        -0.10037E+04         0.00000E+00
    0.00000E+00         0.00000E+00         0.00000E+00
 
    0.11684E+06         0.18236E+05         0.00000E+00
    0.18236E+05        -0.61027E+03         0.00000E+00
    0.00000E+00         0.00000E+00         0.00000E+00
 
    0.11639E+06         0.21014E+05         0.00000E+00
    0.21014E+05        -0.15230E+03         0.00000E+00
    0.00000E+00         0.00000E+00         0.00000E+00
 
    0.11581E+06         0.23777E+05         0.00000E+00
    0.23777E+05         0.36977E+03         0.00000E+00
    0.00000E+00         0.00000E+00         0.00000E+00
 
    0.11511E+06         0.26522E+05         0.00000E+00
    0.26522E+05         0.95543E+03         0.00000E+00
    0.00000E+00         0.00000E+00         0.00000E+00
 
    0.11428E+06         0.29246E+05         0.00000E+00
    0.29246E+05         0.16041E+04         0.00000E+00
    0.00000E+00         0.00000E+00         0.00000E+00
 
    0.11333E+06         0.31947E+05         0.00000E+00
    0.31947E+05         0.23152E+04         0.00000E+00
    0.00000E+00         0.00000E+00         0.00000E+00
 
    0.11226E+06         0.34620E+05         0.00000E+00
    0.34620E+05         0.30879E+04         0.00000E+00
    0.00000E+00         0.00000E+00         0.00000E+00
 
    0.11106E+06         0.37265E+05         0.00000E+00
    0.37265E+05         0.39217E+04         0.00000E+00
    0.00000E+00         0.00000E+00         0.00000E+00
 
    0.10975E+06         0.39878E+05         0.00000E+00
    0.39878E+05         0.48156E+04         0.00000E+00
    0.00000E+00         0.00000E+00         0.00000E+00
 
    0.10831E+06         0.42456E+05         0.00000E+00
    0.42456E+05         0.57688E+04         0.00000E+00
    0.00000E+00         0.00000E+00         0.00000E+00
 
    0.10676E+06         0.44998E+05         0.00000E+00
    0.44998E+05         0.67805E+04         0.00000E+00
    0.00000E+00         0.00000E+00         0.00000E+00
 
    0.10509E+06         0.47500E+05         0.00000E+00
    0.47500E+05         0.78496E+04         0.00000E+00
    0.00000E+00         0.00000E+00         0.00000E+00
 
    0.10331E+06         0.49960E+05         0.00000E+00
    0.49960E+05         0.89752E+04         0.00000E+00
    0.00000E+00         0.00000E+00         0.00000E+00
 
    0.10141E+06         0.52375E+05         0.00000E+00
    0.52375E+05         0.10156E+05         0.00000E+00
    0.00000E+00         0.00000E+00         0.00000E+00
 
    0.99406E+05         0.54744E+05         0.00000E+00
    0.54744E+05         0.11391E+05         0.00000E+00
    0.00000E+00         0.00000E+00         0.00000E+00
 
    0.97288E+05         0.57063E+05         0.00000E+00
    0.57063E+05         0.12680E+05         0.00000E+00
    0.00000E+00         0.00000E+00         0.00000E+00
 
    0.95062E+05         0.59331E+05         0.00000E+00
    0.59331E+05         0.14020E+05         0.00000E+00
    0.00000E+00         0.00000E+00         0.00000E+00
 
    0.92729E+05         0.61545E+05         0.00000E+00
    0.61545E+05         0.15411E+05         0.00000E+00
    0.00000E+00         0.00000E+00         0.00000E+00
 
    0.90293E+05         0.63703E+05         0.00000E+00
    0.63703E+05         0.16852E+05         0.00000E+00
    0.00000E+00         0.00000E+00         0.00000E+00
 
    0.87753E+05         0.65802E+05         0.00000E+00
    0.65802E+05         0.18341E+05         0.00000E+00
    0.00000E+00         0.00000E+00         0.00000E+00
 
    0.85114E+05         0.67841E+05         0.00000E+00
    0.67841E+05         0.19876E+05         0.00000E+00
    0.00000E+00         0.00000E+00         0.00000E+00
 
    0.82376E+05         0.69817E+05         0.00000E+00
    0.69817E+05         0.21457E+05         0.00000E+00
    0.00000E+00         0.00000E+00         0.00000E+00
 
    0.79541E+05         0.71729E+05         0.00000E+00
    0.71729E+05         0.23082E+05         0.00000E+00
    0.00000E+00         0.00000E+00         0.00000E+00
 
    0.76613E+05         0.73575E+05         0.00000E+00
    0.73575E+05         0.24749E+05         0.00000E+00
    0.00000E+00         0.00000E+00         0.00000E+00
 
    0.73593E+05         0.75351E+05         0.00000E+00
    0.75351E+05         0.26456E+05         0.00000E+00
    0.00000E+00         0.00000E+00         0.00000E+00
 
    0.70484E+05         0.77057E+05         0.00000E+00
    0.77057E+05         0.28204E+05         0.00000E+00
    0.00000E+00         0.00000E+00         0.00000E+00
 
    0.67287E+05         0.78691E+05         0.00000E+00
    0.78691E+05         0.29989E+05         0.00000E+00
    0.00000E+00         0.00000E+00         0.00000E+00
 
    0.64006E+05         0.80251E+05         0.00000E+00
    0.80251E+05         0.31809E+05         0.00000E+00
    0.00000E+00         0.00000E+00         0.00000E+00
 
    0.60642E+05         0.81735E+05         0.00000E+00
    0.81735E+05         0.33665E+05         0.00000E+00
    0.00000E+00         0.00000E+00         0.00000E+00
 
    0.57199E+05         0.83141E+05         0.00000E+00
    0.83141E+05         0.35553E+05         0.00000E+00
    0.00000E+00         0.00000E+00         0.00000E+00
 
    0.53679E+05         0.84468E+05         0.00000E+00
    0.84468E+05         0.37472E+05         0.00000E+00
    0.00000E+00         0.00000E+00         0.00000E+00
 
    0.50084E+05         0.85714E+05         0.00000E+00
    0.85714E+05         0.39420E+05         0.00000E+00
    0.00000E+00         0.00000E+00         0.00000E+00
 
    0.46418E+05         0.86878E+05         0.00000E+00
    0.86878E+05         0.41395E+05         0.00000E+00
    0.00000E+00         0.00000E+00         0.00000E+00
 
    0.42682E+05         0.87959E+05         0.00000E+00
    0.87959E+05         0.43397E+05         0.00000E+00
    0.00000E+00         0.00000E+00         0.00000E+00
 
    0.38880E+05         0.88954E+05         0.00000E+00
    0.88954E+05         0.45422E+05         0.00000E+00
    0.00000E+00         0.00000E+00         0.00000E+00
 
    0.35014E+05         0.89862E+05         0.00000E+00
    0.89862E+05         0.47468E+05         0.00000E+00
    0.00000E+00         0.00000E+00         0.00000E+00
 
    0.31088E+05         0.90683E+05         0.00000E+00
    0.90683E+05         0.49535E+05         0.00000E+00
    0.00000E+00         0.00000E+00         0.00000E+00
 
    0.27104E+05         0.91414E+05         0.00000E+00
    0.91414E+05         0.51620E+05         0.00000E+00
    0.00000E+00         0.00000E+00         0.00000E+00
 
    0.23064E+05         0.92056E+05         0.00000E+00
    0.92056E+05         0.53721E+05         0.00000E+00
    0.00000E+00         0.00000E+00         0.00000E+00
 
    0.18973E+05         0.92606E+05         0.00000E+00
    0.92606E+05         0.55836E+05         0.00000E+00
    0.00000E+00         0.00000E+00         0.00000E+00
 
    0.14832E+05         0.93063E+05         0.00000E+00
    0.93063E+05         0.57963E+05         0.00000E+00
    0.00000E+00         0.00000E+00         0.00000E+00
 
    0.10645E+05         0.93427E+05         0.00000E+00
    0.93427E+05         0.60100E+05         0.00000E+00
    0.00000E+00         0.00000E+00         0.00000E+00
 
    0.64148E+04         0.93697E+05         0.00000E+00
    0.93697E+05         0.62246E+05         0.00000E+00
    0.00000E+00         0.00000E+00         0.00000E+00
 
    0.21447E+04         0.93872E+05         0.00000E+00
    0.93872E+05         0.64398E+05         0.00000E+00
    0.00000E+00         0.00000E+00         0.00000E+00
 
    0.13135E+06         0.15731E+04         0.00000E+00
    0.15731E+04        -0.24189E+04         0.00000E+00
    0.00000E+00         0.00000E+00         0.00000E+00
 
    0.13168E+06         0.47342E+04         0.00000E+00
    0.47342E+04        -0.23448E+04         0.00000E+00
    0.00000E+00         0.00000E+00         0.00000E+00
 
    0.13187E+06         0.78964E+04         0.00000E+00
    0.78964E+04        -0.21967E+04         0.00000E+00
    0.00000E+00         0.00000E+00         0.00000E+00
 
    0.13191E+06         0.11056E+05         0.00000E+00
    0.11056E+05        -0.19749E+04         0.00000E+00
    0.00000E+00         0.00000E+00         0.00000E+00
 
    0.13181E+06         0.14211E+05         0.00000E+00
    0.14211E+05        -0.16795E+04         0.00000E+00
    0.00000E+00         0.00000E+00         0.00000E+00
 
    0.13157E+06         0.17357E+05         0.00000E+00
    0.17357E+05        -0.13110E+04         0.00000E+00
    0.00000E+00         0.00000E+00         0.00000E+00
 
    0.13118E+06         0.20491E+05         0.00000E+00
    0.20491E+05        -0.86975E+03         0.00000E+00
    0.00000E+00         0.00000E+00         0.00000E+00
 
    0.13065E+06         0.23611E+05         0.00000E+00
    0.23611E+05        -0.35617E+03         0.00000E+00
    0.00000E+00         0.00000E+00         0.00000E+00
 
    0.12998E+06         0.26712E+05         0.00000E+00
    0.26712E+05         0.22917E+03         0.00000E+00
    0.00000E+00         0.00000E+00         0.00000E+00
 
    0.12917E+06         0.29792E+05         0.00000E+00
    0.29792E+05         0.88569E+03         0.00000E+00
    0.00000E+00         0.00000E+00         0.00000E+00
 
    0.12823E+06         0.32848E+05         0.00000E+00
    0.32848E+05         0.16127E+04         0.00000E+00
    0.00000E+00         0.00000E+00         0.00000E+00
 
    0.12714E+06         0.35876E+05         0.00000E+00
    0.35876E+05         0.24095E+04         0.00000E+00
    0.00000E+00         0.00000E+00         0.00000E+00
 
    0.12592E+06         0.38875E+05         0.00000E+00
    0.38875E+05         0.32753E+04         0.00000E+00
    0.00000E+00         0.00000E+00         0.00000E+00
 
    0.12456E+06         0.41840E+05         0.00000E+00
    0.41840E+05         0.42092E+04         0.00000E+00
    0.00000E+00         0.00000E+00         0.00000E+00
 
    0.12307E+06         0.44769E+05         0.00000E+00
    0.44769E+05         0.52104E+04         0.00000E+00
    0.00000E+00         0.00000E+00         0.00000E+00
 
    0.12144E+06         0.47658E+05         0.00000E+00
    0.47658E+05         0.62778E+04         0.00000E+00
    0.00000E+00         0.00000E+00         0.00000E+00
 
    0.11969E+06         0.50506E+05         0.00000E+00
    0.50506E+05         0.74105E+04         0.00000E+00
    0.00000E+00         0.00000E+00         0.00000E+00
 
    0.11780E+06         0.53309E+05         0.00000E+00
    0.53309E+05         0.86073E+04         0.00000E+00
    0.00000E+00         0.00000E+00         0.00000E+00
 
    0.11579E+06         0.56065E+05         0.00000E+00
    0.56065E+05         0.98672E+04         0.00000E+00
    0.00000E+00         0.00000E+00         0.00000E+00
 
    0.11365E+06         0.58770E+05         0.00000E+00
    0.58770E+05         0.11189E+05         0.00000E+00
    0.00000E+00         0.00000E+00         0.00000E+00
 
    0.11139E+06         0.61423E+05         0.00000E+00
    0.61423E+05         0.12571E+05         0.00000E+00
    0.00000E+00         0.00000E+00         0.00000E+00
 
    0.10900E+06         0.64020E+05         0.00000E+00
    0.64020E+05         0.14013E+05         0.00000E+00
    0.00000E+00         0.00000E+00         0.00000E+00
 
    0.10650E+06         0.66559E+05         0.00000E+00
    0.66559E+05         0.15512E+05         0.00000E+00
    0.00000E+00         0.00000E+00         0.00000E+00
 
    0.10387E+06         0.69038E+05         0.00000E+00
    0.69038E+05         0.17068E+05         0.00000E+00
    0.00000E+00         0.00000E+00         0.00000E+00
 
    0.10113E+06         0.71453E+05         0.00000E+00
    0.71453E+05         0.18680E+05         0.00000E+00
    0.00000E+00         0.00000E+00         0.00000E+00
 
    0.98277E+05         0.73803E+05         0.00000E+00
    0.73803E+05         0.20345E+05         0.00000E+00
    0.00000E+00         0.00000E+00         0.00000E+00
 
    0.95311E+05         0.76085E+05         0.00000E+00
    0.76085E+05         0.22062E+05         0.00000E+00
    0.00000E+00         0.00000E+00         0.00000E+00
 
    0.92236E+05         0.78298E+05         0.00000E+00
    0.78298E+05         0.23829E+05         0.00000E+00
    0.00000E+00         0.00000E+00         0.00000E+00
 
    0.89055E+05         0.80437E+05         0.00000E+00
    0.80437E+05         0.25646E+05         0.00000E+00
    0.00000E+00         0.00000E+00         0.00000E+00
 
    0.85768E+05         0.82502E+05         0.00000E+00
    0.82502E+05         0.27509E+05         0.00000E+00
    0.00000E+00         0.00000E+00         0.00000E+00
 
    0.82380E+05         0.84491E+05         0.00000E+00
    0.84491E+05         0.29418E+05         0.00000E+00
    0.00000E+00         0.00000E+00         0.00000E+00
 
    0.78893E+05         0.86400E+05         0.00000E+00
    0.86400E+05         0.31371E+05         0.00000E+00
    0.00000E+00         0.00000E+00         0.00000E+00
 
    0.75309E+05         0.88229E+05         0.00000E+00
    0.88229E+05         0.33366E+05         0.00000E+00
    0.00000E+00         0.00000E+00         0.00000E+00
 
    0.71631E+05         0.89975E+05         0.00000E+00
    0.89975E+05         0.35402E+05         0.00000E+00
    0.00000E+00         0.00000E+00         0.00000E+00
 
    0.67862E+05         0.91636E+05         0.00000E+00
    0.91636E+05         0.37475E+05         0.00000E+00
    0.00000E+00         0.00000E+00         0.00000E+00
 
    0.64004E+05         0.93210E+05         0.00000E+00
    0.93210E+05         0.39585E+05         0.00000E+00
    0.00000E+00         0.00000E+00         0.00000E+00
 
    0.60061E+05         0.94696E+05         0.00000E+00
    0.94696E+05         0.41730E+05         0.00000E+00
    0.00000E+00         0.00000E+00         0.00000E+00
 
    0.56036E+05         0.96092E+05         0.00000E+00
    0.96092E+05         0.43907E+05         0.00000E+00
    0.00000E+00         0.00000E+00         0.00000E+00
 
    0.51930E+05         0.97396E+05         0.00000E+00
    0.97396E+05         0.46115E+05         0.00000E+00
    0.00000E+00         0.00000E+00         0.00000E+00
 
    0.47748E+05         0.98607E+05         0.00000E+00
    0.98607E+05         0.48351E+05         0.00000E+00
    0.00000E+00         0.00000E+00         0.00000E+00
 
    0.43492E+05         0.99723E+05         0.00000E+00
    0.99723E+05         0.50614E+05         0.00000E+00
    0.00000E+00         0.00000E+00         0.00000E+00
 
    0.39166E+05         0.10074E+06         0.00000E+00
    0.10074E+06         0.52902E+05         0.00000E+00
    0.00000E+00         0.00000E+00         0.00000E+00
 
    0.34772E+05         0.10166E+06         0.00000E+00
    0.10166E+06         0.55211E+05         0.00000E+00
    0.00000E+00         0.00000E+00         0.00000E+00
 
    0.30314E+05         0.10249E+06         0.00000E+00
    0.10249E+06         0.57541E+05         0.00000E+00
    0.00000E+00         0.00000E+00         0.00000E+00
 
    0.25795E+05         0.10321E+06         0.00000E+00
    0.10321E+06         0.59890E+05         0.00000E+00
    0.00000E+00         0.00000E+00         0.00000E+00
 
    0.21218E+05         0.10383E+06         0.00000E+00
    0.10383E+06         0.62254E+05         0.00000E+00
    0.00000E+00         0.00000E+00         0.00000E+00
 
    0.16587E+05         0.10434E+06         0.00000E+00
    0.10434E+06         0.64631E+05         0.00000E+00
    0.00000E+00         0.00000E+00         0.00000E+00
 
    0.11904E+05         0.10476E+06         0.00000E+00
    0.10476E+06         0.67021E+05         0.00000E+00
    0.00000E+00         0.00000E+00         0.00000E+00
 
    0.71734E+04         0.10507E+06         0.00000E+00
    0.10507E+06         0.69419E+05         0.00000E+00
    0.00000E+00         0.00000E+00         0.00000E+00
 
    0.23983E+04         0.10527E+06         0.00000E+00
    0.10527E+06         0.71825E+05         0.00000E+00
    0.00000E+00         0.00000E+00         0.00000E+00
 
    0.14759E+06         0.17698E+04         0.00000E+00
    0.17698E+04        -0.29376E+04         0.00000E+00
    0.00000E+00         0.00000E+00         0.00000E+00
 
    0.14794E+06         0.53233E+04         0.00000E+00
    0.53233E+04        -0.28544E+04         0.00000E+00
    0.00000E+00         0.00000E+00         0.00000E+00
 
    0.14812E+06         0.88769E+04         0.00000E+00
    0.88769E+04        -0.26882E+04         0.00000E+00
    0.00000E+00         0.00000E+00         0.00000E+00
 
    0.14814E+06         0.12427E+05         0.00000E+00
    0.12427E+05        -0.24393E+04         0.00000E+00
    0.00000E+00         0.00000E+00         0.00000E+00
 
    0.14800E+06         0.15970E+05         0.00000E+00
    0.15970E+05        -0.21080E+04         0.00000E+00
    0.00000E+00         0.00000E+00         0.00000E+00
 
    0.14770E+06         0.19503E+05         0.00000E+00
    0.19503E+05        -0.16947E+04         0.00000E+00
    0.00000E+00         0.00000E+00         0.00000E+00
 
    0.14724E+06         0.23021E+05         0.00000E+00
    0.23021E+05        -0.12000E+04         0.00000E+00
    0.00000E+00         0.00000E+00         0.00000E+00
 
    0.14662E+06         0.26522E+05         0.00000E+00
    0.26522E+05        -0.62430E+03         0.00000E+00
    0.00000E+00         0.00000E+00         0.00000E+00
 
    0.14584E+06         0.30001E+05         0.00000E+00
    0.30001E+05         0.31701E+02         0.00000E+00
    0.00000E+00         0.00000E+00         0.00000E+00
 
    0.14491E+06         0.33456E+05         0.00000E+00
    0.33456E+05         0.76731E+03         0.00000E+00
    0.00000E+00         0.00000E+00         0.00000E+00
 
    0.14382E+06         0.36883E+05         0.00000E+00
    0.36883E+05         0.15817E+04         0.00000E+00
    0.00000E+00         0.00000E+00         0.00000E+00
 
    0.14258E+06         0.40279E+05         0.00000E+00
    0.40279E+05         0.24742E+04         0.00000E+00
    0.00000E+00         0.00000E+00         0.00000E+00
 
    0.14119E+06         0.43640E+05         0.00000E+00
    0.43640E+05         0.34437E+04         0.00000E+00
    0.00000E+00         0.00000E+00         0.00000E+00
 
    0.13965E+06         0.46962E+05         0.00000E+00
    0.46962E+05         0.44894E+04         0.00000E+00
    0.00000E+00         0.00000E+00         0.00000E+00
 
    0.13796E+06         0.50244E+05         0.00000E+00
    0.50244E+05         0.56101E+04         0.00000E+00
    0.00000E+00         0.00000E+00         0.00000E+00
 
    0.13612E+06         0.53482E+05         0.00000E+00
    0.53482E+05         0.68048E+04         0.00000E+00
    0.00000E+00         0.00000E+00         0.00000E+00
 
    0.13413E+06         0.56671E+05         0.00000E+00
    0.56671E+05         0.80723E+04         0.00000E+00
    0.00000E+00         0.00000E+00         0.00000E+00
 
    0.13200E+06         0.59811E+05         0.00000E+00
    0.59811E+05         0.94114E+04         0.00000E+00
    0.00000E+00         0.00000E+00         0.00000E+00
 
    0.12973E+06         0.62896E+05         0.00000E+00
    0.62896E+05         0.10821E+05         0.00000E+00
    0.00000E+00         0.00000E+00         0.00000E+00
 
    0.12731E+06         0.65925E+05         0.00000E+00
    0.65925E+05         0.12299E+05         0.00000E+00
    0.00000E+00         0.00000E+00         0.00000E+00
 
    0.12476E+06         0.68894E+05         0.00000E+00
    0.68894E+05         0.13845E+05         0.00000E+00
    0.00000E+00         0.00000E+00         0.00000E+00
 
    0.12207E+06         0.71801E+05         0.00000E+00
    0.71801E+05         0.15457E+05         0.00000E+00
    0.00000E+00         0.00000E+00         0.00000E+00
 
    0.11925E+06         0.74643E+05         0.00000E+00
    0.74643E+05         0.17134E+05         0.00000E+00
    0.00000E+00         0.00000E+00         0.00000E+00
 
    0.11630E+06         0.77416E+05         0.00000E+00
    0.77416E+05         0.18873E+05         0.00000E+00
    0.00000E+00         0.00000E+00         0.00000E+00
 
    0.11322E+06         0.80119E+05         0.00000E+00
    0.80119E+05         0.20675E+05         0.00000E+00
    0.00000E+00         0.00000E+00         0.00000E+00
 
    0.11001E+06         0.82748E+05         0.00000E+00
    0.82748E+05         0.22535E+05         0.00000E+00
    0.00000E+00         0.00000E+00         0.00000E+00
 
    0.10668E+06         0.85302E+05         0.00000E+00
    0.85302E+05         0.24454E+05         0.00000E+00
    0.00000E+00         0.00000E+00         0.00000E+00
 
    0.10323E+06         0.87776E+05         0.00000E+00
    0.87776E+05         0.26429E+05         0.00000E+00
    0.00000E+00         0.00000E+00         0.00000E+00
 
    0.99659E+05         0.90170E+05         0.00000E+00
    0.90170E+05         0.28459E+05         0.00000E+00
    0.00000E+00         0.00000E+00         0.00000E+00
 
    0.95973E+05         0.92480E+05         0.00000E+00
    0.92480E+05         0.30541E+05         0.00000E+00
    0.00000E+00         0.00000E+00         0.00000E+00
 
    0.92173E+05         0.94704E+05         0.00000E+00
    0.94704E+05         0.32674E+05         0.00000E+00
    0.00000E+00         0.00000E+00         0.00000E+00
 
    0.88263E+05         0.96840E+05         0.00000E+00
    0.96840E+05         0.34856E+05         0.00000E+00
    0.00000E+00         0.00000E+00         0.00000E+00
 
    0.84246E+05         0.98886E+05         0.00000E+00
    0.98886E+05         0.37085E+05         0.00000E+00
    0.00000E+00         0.00000E+00         0.00000E+00
 
    0.80125E+05         0.10084E+06         0.00000E+00
    0.10084E+06         0.39358E+05         0.00000E+00
    0.00000E+00         0.00000E+00         0.00000E+00
 
    0.75903E+05         0.10270E+06         0.00000E+00
    0.10270E+06         0.41674E+05         0.00000E+00
    0.00000E+00         0.00000E+00         0.00000E+00
 
    0.71583E+05         0.10446E+06         0.00000E+00
    0.10446E+06         0.44031E+05         0.00000E+00
    0.00000E+00         0.00000E+00         0.00000E+00
 
    0.67168E+05         0.10612E+06         0.00000E+00
    0.10612E+06         0.46426E+05         0.00000E+00
    0.00000E+00         0.00000E+00         0.00000E+00
 
    0.62662E+05         0.10769E+06         0.00000E+00
    0.10769E+06         0.48858E+05         0.00000E+00
    0.00000E+00         0.00000E+00         0.00000E+00
 
    0.58067E+05         0.10915E+06         0.00000E+00
    0.10915E+06         0.51324E+05         0.00000E+00
    0.00000E+00         0.00000E+00         0.00000E+00
 
    0.53387E+05         0.11050E+06         0.00000E+00
    0.11050E+06         0.53822E+05         0.00000E+00
    0.00000E+00         0.00000E+00         0.00000E+00
 
    0.48626E+05         0.11175E+06         0.00000E+00
    0.11175E+06         0.56349E+05         0.00000E+00
    0.00000E+00         0.00000E+00         0.00000E+00
 
    0.43787E+05         0.11290E+06         0.00000E+00
    0.11290E+06         0.58904E+05         0.00000E+00
    0.00000E+00         0.00000E+00         0.00000E+00
 
    0.38872E+05         0.11393E+06         0.00000E+00
    0.11393E+06         0.61484E+05         0.00000E+00
    0.00000E+00         0.00000E+00         0.00000E+00
 
    0.33887E+05         0.11486E+06         0.00000E+00
    0.11486E+06         0.64086E+05         0.00000E+00
    0.00000E+00         0.00000E+00         0.00000E+00
 
    0.28834E+05         0.11567E+06         0.00000E+00
    0.11567E+06         0.66709E+05         0.00000E+00
    0.00000E+00         0.00000E+00         0.00000E+00
 
    0.23717E+05         0.11637E+06         0.00000E+00
    0.11637E+06         0.69350E+05         0.00000E+00
    0.00000E+00         0.00000E+00         0.00000E+00
 
    0.18539E+05         0.11695E+06         0.00000E+00
    0.11695E+06         0.72006E+05         0.00000E+00
    0.00000E+00         0.00000E+00         0.00000E+00
 
    0.13305E+05         0.11742E+06         0.00000E+00
    0.11742E+06         0.74676E+05         0.00000E+00
    0.00000E+00         0.00000E+00         0.00000E+00
 
    0.80174E+04         0.11777E+06         0.00000E+00
    0.11777E+06         0.77356E+05         0.00000E+00
    0.00000E+00         0.00000E+00         0.00000E+00
 
    0.26804E+04         0.11800E+06         0.00000E+00
    0.11800E+06         0.80044E+05         0.00000E+00
    0.00000E+00         0.00000E+00         0.00000E+00
 
    0.16580E+06         0.19909E+04         0.00000E+00
    0.19909E+04        -0.35659E+04         0.00000E+00
    0.00000E+00         0.00000E+00         0.00000E+00
 
    0.16615E+06         0.59845E+04         0.00000E+00
    0.59845E+04        -0.34725E+04         0.00000E+00
    0.00000E+00         0.00000E+00         0.00000E+00
 
    0.16632E+06         0.99770E+04         0.00000E+00
    0.99770E+04        -0.32860E+04         0.00000E+00
    0.00000E+00         0.00000E+00         0.00000E+00
 
    0.16631E+06         0.13964E+05         0.00000E+00
    0.13964E+05        -0.30068E+04         0.00000E+00
    0.00000E+00         0.00000E+00         0.00000E+00
 
    0.16612E+06         0.17943E+05         0.00000E+00
    0.17943E+05        -0.26354E+04         0.00000E+00
    0.00000E+00         0.00000E+00         0.00000E+00
 
    0.16575E+06         0.21908E+05         0.00000E+00
    0.21908E+05        -0.21722E+04         0.00000E+00
    0.00000E+00         0.00000E+00         0.00000E+00
 
    0.16521E+06         0.25856E+05         0.00000E+00
    0.25856E+05        -0.16177E+04         0.00000E+00
    0.00000E+00         0.00000E+00         0.00000E+00
 
    0.16448E+06         0.29784E+05         0.00000E+00
    0.29784E+05        -0.97268E+03         0.00000E+00
    0.00000E+00         0.00000E+00         0.00000E+00
 
    0.16358E+06         0.33686E+05         0.00000E+00
    0.33686E+05        -0.23785E+03         0.00000E+00
    0.00000E+00         0.00000E+00         0.00000E+00
 
    0.16251E+06         0.37560E+05         0.00000E+00
    0.37560E+05         0.58596E+03         0.00000E+00
    0.00000E+00         0.00000E+00         0.00000E+00
 
    0.16127E+06         0.41402E+05         0.00000E+00
    0.41402E+05         0.14979E+04         0.00000E+00
    0.00000E+00         0.00000E+00         0.00000E+00
 
    0.15985E+06         0.45208E+05         0.00000E+00
    0.45208E+05         0.24969E+04         0.00000E+00
    0.00000E+00         0.00000E+00         0.00000E+00
 
    0.15826E+06         0.48973E+05         0.00000E+00
    0.48973E+05         0.35821E+04         0.00000E+00
    0.00000E+00         0.00000E+00         0.00000E+00
 
    0.15651E+06         0.52696E+05         0.00000E+00
    0.52696E+05         0.47522E+04         0.00000E+00
    0.00000E+00         0.00000E+00         0.00000E+00
 
    0.15459E+06         0.56372E+05         0.00000E+00
    0.56372E+05         0.60060E+04         0.00000E+00
    0.00000E+00         0.00000E+00         0.00000E+00
 
    0.15250E+06         0.59997E+05         0.00000E+00
    0.59997E+05         0.73424E+04         0.00000E+00
    0.00000E+00         0.00000E+00         0.00000E+00
 
    0.15025E+06         0.63568E+05         0.00000E+00
    0.63568E+05         0.87601E+04         0.00000E+00
    0.00000E+00         0.00000E+00         0.00000E+00
 
    0.14784E+06         0.67082E+05         0.00000E+00
    0.67082E+05         0.10257E+05         0.00000E+00
    0.00000E+00         0.00000E+00         0.00000E+00
 
    0.14528E+06         0.70536E+05         0.00000E+00
    0.70536E+05         0.11833E+05         0.00000E+00
    0.00000E+00         0.00000E+00         0.00000E+00
 
    0.14256E+06         0.73925E+05         0.00000E+00
    0.73925E+05         0.13486E+05         0.00000E+00
    0.00000E+00         0.00000E+00         0.00000E+00
 
    0.13968E+06         0.77247E+05         0.00000E+00
    0.77247E+05         0.15214E+05         0.00000E+00
    0.00000E+00         0.00000E+00         0.00000E+00
 
    0.13665E+06         0.80499E+05         0.00000E+00
    0.80499E+05         0.17015E+05         0.00000E+00
    0.00000E+00         0.00000E+00         0.00000E+00
 
    0.13348E+06         0.83678E+05         0.00000E+00
    0.83678E+05         0.18889E+05         0.00000E+00
    0.00000E+00         0.00000E+00         0.00000E+00
 
    0.13016E+06         0.86780E+05         0.00000E+00
    0.86780E+05         0.20833E+05         0.00000E+00
    0.00000E+00         0.00000E+00         0.00000E+00
 
    0.12670E+06         0.89802E+05         0.00000E+00
    0.89802E+05         0.22845E+05         0.00000E+00
    0.00000E+00         0.00000E+00         0.00000E+00
 
    0.12309E+06         0.92743E+05         0.00000E+00
    0.92743E+05         0.24923E+05         0.00000E+00
    0.00000E+00         0.00000E+00         0.00000E+00
 
    0.11935E+06         0.95598E+05         0.00000E+00
    0.95598E+05         0.27066E+05         0.00000E+00
    0.00000E+00         0.00000E+00         0.00000E+00
 
    0.11548E+06         0.98365E+05         0.00000E+00
    0.98365E+05         0.29272E+05         0.00000E+00
    0.00000E+00         0.00000E+00         0.00000E+00
 
    0.11147E+06         0.10104E+06         0.00000E+00
    0.10104E+06         0.31539E+05         0.00000E+00
    0.00000E+00         0.00000E+00         0.00000E+00
 
    0.10734E+06         0.10362E+06         0.00000E+00
    0.10362E+06         0.33864E+05         0.00000E+00
    0.00000E+00         0.00000E+00         0.00000E+00
 
    0.10308E+06         0.10611E+06         0.00000E+00
    0.10611E+06         0.36245E+05         0.00000E+00
    0.00000E+00         0.00000E+00         0.00000E+00
 
    0.98695E+05         0.10850E+06         0.00000E+00
    0.10850E+06         0.38681E+05         0.00000E+00
    0.00000E+00         0.00000E+00         0.00000E+00
 
    0.94195E+05         0.11079E+06         0.00000E+00
    0.11079E+06         0.41169E+05         0.00000E+00
    0.00000E+00         0.00000E+00         0.00000E+00
 
    0.89579E+05         0.11297E+06         0.00000E+00
    0.11297E+06         0.43706E+05         0.00000E+00
    0.00000E+00         0.00000E+00         0.00000E+00
 
    0.84851E+05         0.11505E+06         0.00000E+00
    0.11505E+06         0.46292E+05         0.00000E+00
    0.00000E+00         0.00000E+00         0.00000E+00
 
    0.80015E+05         0.11702E+06         0.00000E+00
    0.11702E+06         0.48922E+05         0.00000E+00
    0.00000E+00         0.00000E+00         0.00000E+00
 
    0.75075E+05         0.11888E+06         0.00000E+00
    0.11888E+06         0.51596E+05         0.00000E+00
    0.00000E+00         0.00000E+00         0.00000E+00
 
    0.70033E+05         0.12063E+06         0.00000E+00
    0.12063E+06         0.54310E+05         0.00000E+00
    0.00000E+00         0.00000E+00         0.00000E+00
 
    0.64893E+05         0.12227E+06         0.00000E+00
    0.12227E+06         0.57062E+05         0.00000E+00
    0.00000E+00         0.00000E+00         0.00000E+00
 
    0.59659E+05         0.12379E+06         0.00000E+00
    0.12379E+06         0.59850E+05         0.00000E+00
    0.00000E+00         0.00000E+00         0.00000E+00
 
    0.54335E+05         0.12519E+06         0.00000E+00
    0.12519E+06         0.62671E+05         0.00000E+00
    0.00000E+00         0.00000E+00         0.00000E+00
 
    0.48924E+05         0.12647E+06         0.00000E+00
    0.12647E+06         0.65522E+05         0.00000E+00
    0.00000E+00         0.00000E+00         0.00000E+00
 
    0.43431E+05         0.12763E+06         0.00000E+00
    0.12763E+06         0.68402E+05         0.00000E+00
    0.00000E+00         0.00000E+00         0.00000E+00
 
    0.37859E+05         0.12867E+06         0.00000E+00
    0.12867E+06         0.71307E+05         0.00000E+00
    0.00000E+00         0.00000E+00         0.00000E+00
 
    0.32212E+05         0.12958E+06         0.00000E+00
    0.12958E+06         0.74235E+05         0.00000E+00
    0.00000E+00         0.00000E+00         0.00000E+00
 
    0.26494E+05         0.13037E+06         0.00000E+00
    0.13037E+06         0.77183E+05         0.00000E+00
    0.00000E+00         0.00000E+00         0.00000E+00
 
    0.20710E+05         0.13103E+06         0.00000E+00
    0.13103E+06         0.80149E+05         0.00000E+00
    0.00000E+00         0.00000E+00         0.00000E+00
 
    0.14862E+05         0.13156E+06         0.00000E+00
    0.13156E+06         0.83129E+05         0.00000E+00
    0.00000E+00         0.00000E+00         0.00000E+00
 
    0.89553E+04         0.13196E+06         0.00000E+00
    0.13196E+06         0.86122E+05         0.00000E+00
    0.00000E+00         0.00000E+00         0.00000E+00
 
    0.29939E+04         0.13224E+06         0.00000E+00
    0.13224E+06         0.89124E+05         0.00000E+00
    0.00000E+00         0.00000E+00         0.00000E+00
 
    0.18622E+06         0.22391E+04         0.00000E+00
    0.22391E+04        -0.43264E+04         0.00000E+00
    0.00000E+00         0.00000E+00         0.00000E+00
 
    0.18657E+06         0.67263E+04         0.00000E+00
    0.67263E+04        -0.42216E+04         0.00000E+00
    0.00000E+00         0.00000E+00         0.00000E+00
 
    0.18672E+06         0.11211E+05         0.00000E+00
    0.11211E+05        -0.40125E+04         0.00000E+00
    0.00000E+00         0.00000E+00         0.00000E+00
 
    0.18667E+06         0.15688E+05         0.00000E+00
    0.15688E+05        -0.36996E+04         0.00000E+00
    0.00000E+00         0.00000E+00         0.00000E+00
 
    0.18641E+06         0.20154E+05         0.00000E+00
    0.20154E+05        -0.32833E+04         0.00000E+00
    0.00000E+00         0.00000E+00         0.00000E+00
 
    0.18596E+06         0.24603E+05         0.00000E+00
    0.24603E+05        -0.27643E+04         0.00000E+00
    0.00000E+00         0.00000E+00         0.00000E+00
 
    0.18531E+06         0.29032E+05         0.00000E+00
    0.29032E+05        -0.21432E+04         0.00000E+00
    0.00000E+00         0.00000E+00         0.00000E+00
 
    0.18446E+06         0.33437E+05         0.00000E+00
    0.33437E+05        -0.14209E+04         0.00000E+00
    0.00000E+00         0.00000E+00         0.00000E+00
 
    0.18342E+06         0.37812E+05         0.00000E+00
    0.37812E+05        -0.59822E+03         0.00000E+00
    0.00000E+00         0.00000E+00         0.00000E+00
 
    0.18218E+06         0.42155E+05         0.00000E+00
    0.42155E+05         0.32389E+03         0.00000E+00
    0.00000E+00         0.00000E+00         0.00000E+00
 
    0.18076E+06         0.46460E+05         0.00000E+00
    0.46460E+05         0.13444E+04         0.00000E+00
    0.00000E+00         0.00000E+00         0.00000E+00
 
    0.17913E+06         0.50723E+05         0.00000E+00
    0.50723E+05         0.24621E+04         0.00000E+00
    0.00000E+00         0.00000E+00         0.00000E+00
 
    0.17733E+06         0.54941E+05         0.00000E+00
    0.54941E+05         0.36759E+04         0.00000E+00
    0.00000E+00         0.00000E+00         0.00000E+00
 
    0.17533E+06         0.59109E+05         0.00000E+00
    0.59109E+05         0.49845E+04         0.00000E+00
    0.00000E+00         0.00000E+00         0.00000E+00
 
    0.17315E+06         0.63224E+05         0.00000E+00
    0.63224E+05         0.63866E+04         0.00000E+00
    0.00000E+00         0.00000E+00         0.00000E+00
 
    0.17078E+06         0.67282E+05         0.00000E+00
    0.67282E+05         0.78806E+04         0.00000E+00
    0.00000E+00         0.00000E+00         0.00000E+00
 
    0.16824E+06         0.71279E+05         0.00000E+00
    0.71279E+05         0.94651E+04         0.00000E+00
    0.00000E+00         0.00000E+00         0.00000E+00
 
    0.16552E+06         0.75210E+05         0.00000E+00
    0.75210E+05         0.11138E+05         0.00000E+00
    0.00000E+00         0.00000E+00         0.00000E+00
 
    0.16262E+06         0.79073E+05         0.00000E+00
    0.79073E+05         0.12899E+05         0.00000E+00
    0.00000E+00         0.00000E+00         0.00000E+00
 
    0.15955E+06         0.82864E+05         0.00000E+00
    0.82864E+05         0.14745E+05         0.00000E+00
    0.00000E+00         0.00000E+00         0.00000E+00
 
    0.15631E+06         0.86580E+05         0.00000E+00
    0.86580E+05         0.16675E+05         0.00000E+00
    0.00000E+00         0.00000E+00         0.00000E+00
 
    0.15290E+06         0.90216E+05         0.00000E+00
    0.90216E+05         0.18687E+05         0.00000E+00
    0.00000E+00         0.00000E+00         0.00000E+00
 
    0.14933E+06         0.93770E+05         0.00000E+00
    0.93770E+05         0.20779E+05         0.00000E+00
    0.00000E+00         0.00000E+00         0.00000E+00
 
    0.14560E+06         0.97237E+05         0.00000E+00
    0.97237E+05         0.22950E+05         0.00000E+00
    0.00000E+00         0.00000E+00         0.00000E+00
 
    0.14170E+06         0.10062E+06         0.00000E+00
    0.10062E+06         0.25196E+05         0.00000E+00
    0.00000E+00         0.00000E+00         0.00000E+00
 
    0.13766E+06         0.10390E+06         0.00000E+00
    0.10390E+06         0.27516E+05         0.00000E+00
    0.00000E+00         0.00000E+00         0.00000E+00
 
    0.13346E+06         0.10709E+06         0.00000E+00
    0.10709E+06         0.29908E+05         0.00000E+00
    0.00000E+00         0.00000E+00         0.00000E+00
 
    0.12911E+06         0.11018E+06         0.00000E+00
    0.11018E+06         0.32370E+05         0.00000E+00
    0.00000E+00         0.00000E+00         0.00000E+00
 
    0.12462E+06         0.11318E+06         0.00000E+00
    0.11318E+06         0.34899E+05         0.00000E+00
    0.00000E+00         0.00000E+00         0.00000E+00
 
    0.11998E+06         0.11606E+06         0.00000E+00
    0.11606E+06         0.37493E+05         0.00000E+00
    0.00000E+00         0.00000E+00         0.00000E+00
 
    0.11521E+06         0.11884E+06         0.00000E+00
    0.11884E+06         0.40150E+05         0.00000E+00
    0.00000E+00         0.00000E+00         0.00000E+00
 
    0.11030E+06         0.12151E+06         0.00000E+00
    0.12151E+06         0.42867E+05         0.00000E+00
    0.00000E+00         0.00000E+00         0.00000E+00
 
    0.10526E+06         0.12407E+06         0.00000E+00
    0.12407E+06         0.45643E+05         0.00000E+00
    0.00000E+00         0.00000E+00         0.00000E+00
 
    0.10009E+06         0.12651E+06         0.00000E+00
    0.12651E+06         0.48473E+05         0.00000E+00
    0.00000E+00         0.00000E+00         0.00000E+00
 
    0.94800E+05         0.12883E+06         0.00000E+00
    0.12883E+06         0.51357E+05         0.00000E+00
    0.00000E+00         0.00000E+00         0.00000E+00
 
    0.89390E+05         0.13104E+06         0.00000E+00
    0.13104E+06         0.54291E+05         0.00000E+00
    0.00000E+00         0.00000E+00         0.00000E+00
 
    0.83863E+05         0.13312E+06         0.00000E+00
    0.13312E+06         0.57273E+05         0.00000E+00
    0.00000E+00         0.00000E+00         0.00000E+00
 
    0.78224E+05         0.13507E+06         0.00000E+00
    0.13507E+06         0.60300E+05         0.00000E+00
    0.00000E+00         0.00000E+00         0.00000E+00
 
    0.72478E+05         0.13690E+06         0.00000E+00
    0.13690E+06         0.63370E+05         0.00000E+00
    0.00000E+00         0.00000E+00         0.00000E+00
 
    0.66628E+05         0.13861E+06         0.00000E+00
    0.13861E+06         0.66479E+05         0.00000E+00
    0.00000E+00         0.00000E+00         0.00000E+00
 
    0.60678E+05         0.14018E+06         0.00000E+00
    0.14018E+06         0.69626E+05         0.00000E+00
    0.00000E+00         0.00000E+00         0.00000E+00
 
    0.54632E+05         0.14161E+06         0.00000E+00
    0.14161E+06         0.72806E+05         0.00000E+00
    0.00000E+00         0.00000E+00         0.00000E+00
 
    0.48495E+05         0.14292E+06         0.00000E+00
    0.14292E+06         0.76018E+05         0.00000E+00
    0.00000E+00         0.00000E+00         0.00000E+00
 
    0.42271E+05         0.14408E+06         0.00000E+00
    0.14408E+06         0.79259E+05         0.00000E+00
    0.00000E+00         0.00000E+00         0.00000E+00
 
    0.35964E+05         0.14511E+06         0.00000E+00
    0.14511E+06         0.82525E+05         0.00000E+00
    0.00000E+00         0.00000E+00         0.00000E+00
 
    0.29579E+05         0.14600E+06         0.00000E+00
    0.14600E+06         0.85814E+05         0.00000E+00
    0.00000E+00         0.00000E+00         0.00000E+00
 
    0.23120E+05         0.14674E+06         0.00000E+00
    0.14674E+06         0.89123E+05         0.00000E+00
    0.00000E+00         0.00000E+00         0.00000E+00
 
    0.16591E+05         0.14735E+06         0.00000E+00
    0.14735E+06         0.92448E+05         0.00000E+00
    0.00000E+00         0.00000E+00         0.00000E+00
 
    0.99967E+04         0.14781E+06         0.00000E+00
    0.14781E+06         0.95788E+05         0.00000E+00
    0.00000E+00         0.00000E+00         0.00000E+00
 
    0.33420E+04         0.14812E+06         0.00000E+00
    0.14812E+06         0.99139E+05         0.00000E+00
    0.00000E+00         0.00000E+00         0.00000E+00
 
    0.20909E+06         0.25177E+04         0.00000E+00
    0.25177E+04        -0.52466E+04         0.00000E+00
    0.00000E+00         0.00000E+00         0.00000E+00
 
    0.20943E+06         0.75581E+04         0.00000E+00
    0.75581E+04        -0.51291E+04         0.00000E+00
    0.00000E+00         0.00000E+00         0.00000E+00
 
    0.20955E+06         0.12594E+05         0.00000E+00
    0.12594E+05        -0.48947E+04         0.00000E+00
    0.00000E+00         0.00000E+00         0.00000E+00
 
    0.20945E+06         0.17619E+05         0.00000E+00
    0.17619E+05        -0.45441E+04         0.00000E+00
    0.00000E+00         0.00000E+00         0.00000E+00
 
    0.20912E+06         0.22630E+05         0.00000E+00
    0.22630E+05        -0.40778E+04         0.00000E+00
    0.00000E+00         0.00000E+00         0.00000E+00
 
    0.20857E+06         0.27622E+05         0.00000E+00
    0.27622E+05        -0.34966E+04         0.00000E+00
    0.00000E+00         0.00000E+00         0.00000E+00
 
    0.20779E+06         0.32589E+05         0.00000E+00
    0.32589E+05        -0.28013E+04         0.00000E+00
    0.00000E+00         0.00000E+00         0.00000E+00
 
    0.20680E+06         0.37526E+05         0.00000E+00
    0.37526E+05        -0.19929E+04         0.00000E+00
    0.00000E+00         0.00000E+00         0.00000E+00
 
    0.20559E+06         0.42430E+05         0.00000E+00
    0.42430E+05        -0.10724E+04         0.00000E+00
    0.00000E+00         0.00000E+00         0.00000E+00
 
    0.20416E+06         0.47295E+05         0.00000E+00
    0.47295E+05        -0.40874E+02         0.00000E+00
    0.00000E+00         0.00000E+00         0.00000E+00
 
    0.20252E+06         0.52117E+05         0.00000E+00
    0.52117E+05         0.11004E+04         0.00000E+00
    0.00000E+00         0.00000E+00         0.00000E+00
 
    0.20066E+06         0.56891E+05         0.00000E+00
    0.56891E+05         0.23502E+04         0.00000E+00
    0.00000E+00         0.00000E+00         0.00000E+00
 
    0.19860E+06         0.61613E+05         0.00000E+00
    0.61613E+05         0.37071E+04         0.00000E+00
    0.00000E+00         0.00000E+00         0.00000E+00
 
    0.19633E+06         0.66279E+05         0.00000E+00
    0.66279E+05         0.51696E+04         0.00000E+00
    0.00000E+00         0.00000E+00         0.00000E+00
 
    0.19385E+06         0.70883E+05         0.00000E+00
    0.70883E+05         0.67363E+04         0.00000E+00
    0.00000E+00         0.00000E+00         0.00000E+00
 
    0.19117E+06         0.75423E+05         0.00000E+00
    0.75423E+05         0.84053E+04         0.00000E+00
    0.00000E+00         0.00000E+00         0.00000E+00
 
    0.18829E+06         0.79893E+05         0.00000E+00
    0.79893E+05         0.10175E+05         0.00000E+00
    0.00000E+00         0.00000E+00         0.00000E+00
 
    0.18522E+06         0.84290E+05         0.00000E+00
    0.84290E+05         0.12044E+05         0.00000E+00
    0.00000E+00         0.00000E+00         0.00000E+00
 
    0.18195E+06         0.88609E+05         0.00000E+00
    0.88609E+05         0.14010E+05         0.00000E+00
    0.00000E+00         0.00000E+00         0.00000E+00
 
    0.17848E+06         0.92847E+05         0.00000E+00
    0.92847E+05         0.16071E+05         0.00000E+00
    0.00000E+00         0.00000E+00         0.00000E+00
 
    0.17483E+06         0.96999E+05         0.00000E+00
    0.96999E+05         0.18225E+05         0.00000E+00
    0.00000E+00         0.00000E+00         0.00000E+00
 
    0.17099E+06         0.10106E+06         0.00000E+00
    0.10106E+06         0.20471E+05         0.00000E+00
    0.00000E+00         0.00000E+00         0.00000E+00
 
    0.16697E+06         0.10503E+06         0.00000E+00
    0.10503E+06         0.22805E+05         0.00000E+00
    0.00000E+00         0.00000E+00         0.00000E+00
 
    0.16278E+06         0.10891E+06         0.00000E+00
    0.10891E+06         0.25226E+05         0.00000E+00
    0.00000E+00         0.00000E+00         0.00000E+00
 
    0.15840E+06         0.11268E+06         0.00000E+00
    0.11268E+06         0.27732E+05         0.00000E+00
    0.00000E+00         0.00000E+00         0.00000E+00
 
    0.15386E+06         0.11635E+06         0.00000E+00
    0.11635E+06         0.30320E+05         0.00000E+00
    0.00000E+00         0.00000E+00         0.00000E+00
 
    0.14915E+06         0.11992E+06         0.00000E+00
    0.11992E+06         0.32988E+05         0.00000E+00
    0.00000E+00         0.00000E+00         0.00000E+00
 
    0.14427E+06         0.12337E+06         0.00000E+00
    0.12337E+06         0.35733E+05         0.00000E+00
    0.00000E+00         0.00000E+00         0.00000E+00
 
    0.13923E+06         0.12671E+06         0.00000E+00
    0.12671E+06         0.38553E+05         0.00000E+00
    0.00000E+00         0.00000E+00         0.00000E+00
 
    0.13404E+06         0.12993E+06         0.00000E+00
    0.12993E+06         0.41445E+05         0.00000E+00
    0.00000E+00         0.00000E+00         0.00000E+00
 
    0.12869E+06         0.13304E+06         0.00000E+00
    0.13304E+06         0.44407E+05         0.00000E+00
    0.00000E+00         0.00000E+00         0.00000E+00
 
    0.12319E+06         0.13602E+06         0.00000E+00
    0.13602E+06         0.47437E+05         0.00000E+00
    0.00000E+00         0.00000E+00         0.00000E+00
 
    0.11755E+06         0.13888E+06         0.00000E+00
    0.13888E+06         0.50530E+05         0.00000E+00
    0.00000E+00         0.00000E+00         0.00000E+00
 
    0.11177E+06         0.14160E+06         0.00000E+00
    0.14160E+06         0.53686E+05         0.00000E+00
    0.00000E+00         0.00000E+00         0.00000E+00
 
    0.10585E+06         0.14420E+06         0.00000E+00
    0.14420E+06         0.56900E+05         0.00000E+00
    0.00000E+00         0.00000E+00         0.00000E+00
 
    0.99800E+05         0.14666E+06         0.00000E+00
    0.14666E+06         0.60170E+05         0.00000E+00
    0.00000E+00         0.00000E+00         0.00000E+00
 
    0.93621E+05         0.14899E+06         0.00000E+00
    0.14899E+06         0.63494E+05         0.00000E+00
    0.00000E+00         0.00000E+00         0.00000E+00
 
    0.87319E+05         0.15118E+06         0.00000E+00
    0.15118E+06         0.66867E+05         0.00000E+00
    0.00000E+00         0.00000E+00         0.00000E+00
 
    0.80898E+05         0.15322E+06         0.00000E+00
    0.15322E+06         0.70288E+05         0.00000E+00
    0.00000E+00         0.00000E+00         0.00000E+00
 
    0.74362E+05         0.15513E+06         0.00000E+00
    0.15513E+06         0.73754E+05         0.00000E+00
    0.00000E+00         0.00000E+00         0.00000E+00
 
    0.67717E+05         0.15689E+06         0.00000E+00
    0.15689E+06         0.77260E+05         0.00000E+00
    0.00000E+00         0.00000E+00         0.00000E+00
 
    0.60965E+05         0.15850E+06         0.00000E+00
    0.15850E+06         0.80805E+05         0.00000E+00
    0.00000E+00         0.00000E+00         0.00000E+00
 
    0.54114E+05         0.15996E+06         0.00000E+00
    0.15996E+06         0.84385E+05         0.00000E+00
    0.00000E+00         0.00000E+00         0.00000E+00
 
    0.47166E+05         0.16127E+06         0.00000E+00
    0.16127E+06         0.87997E+05         0.00000E+00
    0.00000E+00         0.00000E+00         0.00000E+00
 
    0.40126E+05         0.16243E+06         0.00000E+00
    0.16243E+06         0.91638E+05         0.00000E+00
    0.00000E+00         0.00000E+00         0.00000E+00
 
    0.33000E+05         0.16343E+06         0.00000E+00
    0.16343E+06         0.95305E+05         0.00000E+00
    0.00000E+00         0.00000E+00         0.00000E+00
 
    0.25793E+05         0.16427E+06         0.00000E+00
    0.16427E+06         0.98994E+05         0.00000E+00
    0.00000E+00         0.00000E+00         0.00000E+00
 
    0.18508E+05         0.16496E+06         0.00000E+00
    0.16496E+06         0.10270E+06         0.00000E+00
    0.00000E+00         0.00000E+00         0.00000E+00
 
    0.11152E+05         0.16549E+06         0.00000E+00
    0.16549E+06         0.10643E+06         0.00000E+00
    0.00000E+00         0.00000E+00         0.00000E+00
 
    0.37280E+04         0.16585E+06         0.00000E+00
    0.16585E+06         0.11016E+06         0.00000E+00
    0.00000E+00         0.00000E+00         0.00000E+00
 
    0.23470E+06         0.28304E+04         0.00000E+00
    0.28304E+04        -0.63593E+04         0.00000E+00
    0.00000E+00         0.00000E+00         0.00000E+00
 
    0.23503E+06         0.84906E+04         0.00000E+00
    0.84906E+04        -0.62276E+04         0.00000E+00
    0.00000E+00         0.00000E+00         0.00000E+00
 
    0.23511E+06         0.14143E+05         0.00000E+00
    0.14143E+05        -0.59650E+04         0.00000E+00
    0.00000E+00         0.00000E+00         0.00000E+00
 
    0.23493E+06         0.19783E+05         0.00000E+00
    0.19783E+05        -0.55724E+04         0.00000E+00
    0.00000E+00         0.00000E+00         0.00000E+00
 
    0.23450E+06         0.25404E+05         0.00000E+00
    0.25404E+05        -0.50504E+04         0.00000E+00
    0.00000E+00         0.00000E+00         0.00000E+00
 
    0.23383E+06         0.31001E+05         0.00000E+00
    0.31001E+05        -0.43999E+04         0.00000E+00
    0.00000E+00         0.00000E+00         0.00000E+00
 
    0.23291E+06         0.36568E+05         0.00000E+00
    0.36568E+05        -0.36221E+04         0.00000E+00
    0.00000E+00         0.00000E+00         0.00000E+00
 
    0.23175E+06         0.42101E+05         0.00000E+00
    0.42101E+05        -0.27179E+04         0.00000E+00
    0.00000E+00         0.00000E+00         0.00000E+00
 
    0.23034E+06         0.47595E+05         0.00000E+00
    0.47595E+05        -0.16886E+04         0.00000E+00
    0.00000E+00         0.00000E+00         0.00000E+00
 
    0.22869E+06         0.53043E+05         0.00000E+00
    0.53043E+05        -0.53541E+03         0.00000E+00
    0.00000E+00         0.00000E+00         0.00000E+00
 
    0.22680E+06         0.58442E+05         0.00000E+00
    0.58442E+05         0.74014E+03         0.00000E+00
    0.00000E+00         0.00000E+00         0.00000E+00
 
    0.22468E+06         0.63785E+05         0.00000E+00
    0.63785E+05         0.21366E+04         0.00000E+00
    0.00000E+00         0.00000E+00         0.00000E+00
 
    0.22233E+06         0.69069E+05         0.00000E+00
    0.69069E+05         0.36524E+04         0.00000E+00
    0.00000E+00         0.00000E+00         0.00000E+00
 
    0.21974E+06         0.74288E+05         0.00000E+00
    0.74288E+05         0.52858E+04         0.00000E+00
    0.00000E+00         0.00000E+00         0.00000E+00
 
    0.21693E+06         0.79438E+05         0.00000E+00
    0.79438E+05         0.70351E+04         0.00000E+00
    0.00000E+00         0.00000E+00         0.00000E+00
 
    0.21389E+06         0.84514E+05         0.00000E+00
    0.84514E+05         0.88985E+04         0.00000E+00
    0.00000E+00         0.00000E+00         0.00000E+00
 
    0.21063E+06         0.89511E+05         0.00000E+00
    0.89511E+05         0.10874E+05         0.00000E+00
    0.00000E+00         0.00000E+00         0.00000E+00
 
    0.20715E+06         0.94425E+05         0.00000E+00
    0.94425E+05         0.12959E+05         0.00000E+00
    0.00000E+00         0.00000E+00         0.00000E+00
 
    0.20346E+06         0.99251E+05         0.00000E+00
    0.99251E+05         0.15153E+05         0.00000E+00
    0.00000E+00         0.00000E+00         0.00000E+00
 
    0.19955E+06         0.10399E+06         0.00000E+00
    0.10399E+06         0.17452E+05         0.00000E+00
    0.00000E+00         0.00000E+00         0.00000E+00
 
    0.19544E+06         0.10862E+06         0.00000E+00
    0.10862E+06         0.19855E+05         0.00000E+00
    0.00000E+00         0.00000E+00         0.00000E+00
 
    0.19112E+06         0.11316E+06         0.00000E+00
    0.11316E+06         0.22359E+05         0.00000E+00
    0.00000E+00         0.00000E+00         0.00000E+00
 
    0.18660E+06         0.11760E+06         0.00000E+00
    0.11760E+06         0.24961E+05         0.00000E+00
    0.00000E+00         0.00000E+00         0.00000E+00
 
    0.18188E+06         0.12192E+06         0.00000E+00
    0.12192E+06         0.27661E+05         0.00000E+00
    0.00000E+00         0.00000E+00         0.00000E+00
 
    0.17697E+06         0.12614E+06         0.00000E+00
    0.12614E+06         0.30454E+05         0.00000E+00
    0.00000E+00         0.00000E+00         0.00000E+00
 
    0.17187E+06         0.13023E+06         0.00000E+00
    0.13023E+06         0.33338E+05         0.00000E+00
    0.00000E+00         0.00000E+00         0.00000E+00
 
    0.16658E+06         0.13421E+06         0.00000E+00
    0.13421E+06         0.36311E+05         0.00000E+00
    0.00000E+00         0.00000E+00         0.00000E+00
 
    0.16111E+06         0.13807E+06         0.00000E+00
    0.13807E+06         0.39370E+05         0.00000E+00
    0.00000E+00         0.00000E+00         0.00000E+00
 
    0.15546E+06         0.14180E+06         0.00000E+00
    0.14180E+06         0.42511E+05         0.00000E+00
    0.00000E+00         0.00000E+00         0.00000E+00
 
    0.14964E+06         0.14539E+06         0.00000E+00
    0.14539E+06         0.45734E+05         0.00000E+00
    0.00000E+00         0.00000E+00         0.00000E+00
 
    0.14366E+06         0.14886E+06         0.00000E+00
    0.14886E+06         0.49033E+05         0.00000E+00
    0.00000E+00         0.00000E+00         0.00000E+00
 
    0.13750E+06         0.15219E+06         0.00000E+00
    0.15219E+06         0.52407E+05         0.00000E+00
    0.00000E+00         0.00000E+00         0.00000E+00
 
    0.13119E+06         0.15537E+06         0.00000E+00
    0.15537E+06         0.55853E+05         0.00000E+00
    0.00000E+00         0.00000E+00         0.00000E+00
 
    0.12473E+06         0.15842E+06         0.00000E+00
    0.15842E+06         0.59367E+05         0.00000E+00
    0.00000E+00         0.00000E+00         0.00000E+00
 
    0.11811E+06         0.16132E+06         0.00000E+00
    0.16132E+06         0.62947E+05         0.00000E+00
    0.00000E+00         0.00000E+00         0.00000E+00
 
    0.11135E+06         0.16407E+06         0.00000E+00
    0.16407E+06         0.66589E+05         0.00000E+00
    0.00000E+00         0.00000E+00         0.00000E+00
 
    0.10444E+06         0.16667E+06         0.00000E+00
    0.16667E+06         0.70290E+05         0.00000E+00
    0.00000E+00         0.00000E+00         0.00000E+00
 
    0.97405E+05         0.16912E+06         0.00000E+00
    0.16912E+06         0.74046E+05         0.00000E+00
    0.00000E+00         0.00000E+00         0.00000E+00
 
    0.90234E+05         0.17141E+06         0.00000E+00
    0.17141E+06         0.77856E+05         0.00000E+00
    0.00000E+00         0.00000E+00         0.00000E+00
 
    0.82938E+05         0.17354E+06         0.00000E+00
    0.17354E+06         0.81715E+05         0.00000E+00
    0.00000E+00         0.00000E+00         0.00000E+00
 
    0.75520E+05         0.17550E+06         0.00000E+00
    0.17550E+06         0.85620E+05         0.00000E+00
    0.00000E+00         0.00000E+00         0.00000E+00
 
    0.67986E+05         0.17731E+06         0.00000E+00
    0.17731E+06         0.89568E+05         0.00000E+00
    0.00000E+00         0.00000E+00         0.00000E+00
 
    0.60341E+05         0.17895E+06         0.00000E+00
    0.17895E+06         0.93555E+05         0.00000E+00
    0.00000E+00         0.00000E+00         0.00000E+00
 
    0.52590E+05         0.18042E+06         0.00000E+00
    0.18042E+06         0.97578E+05         0.00000E+00
    0.00000E+00         0.00000E+00         0.00000E+00
 
    0.44738E+05         0.18172E+06         0.00000E+00
    0.18172E+06         0.10163E+06         0.00000E+00
    0.00000E+00         0.00000E+00         0.00000E+00
 
    0.36791E+05         0.18285E+06         0.00000E+00
    0.18285E+06         0.10572E+06         0.00000E+00
    0.00000E+00         0.00000E+00         0.00000E+00
 
    0.28754E+05         0.18381E+06         0.00000E+00
    0.18381E+06         0.10983E+06         0.00000E+00
    0.00000E+00         0.00000E+00         0.00000E+00
 
    0.20632E+05         0.18459E+06         0.00000E+00
    0.18459E+06         0.11396E+06         0.00000E+00
    0.00000E+00         0.00000E+00         0.00000E+00
 
    0.12431E+05         0.18519E+06         0.00000E+00
    0.18519E+06         0.11811E+06         0.00000E+00
    0.00000E+00         0.00000E+00         0.00000E+00
 
    0.41555E+04         0.18562E+06         0.00000E+00
    0.18562E+06         0.12227E+06         0.00000E+00
    0.00000E+00         0.00000E+00         0.00000E+00
 
    0.26337E+06         0.31810E+04         0.00000E+00
    0.31810E+04        -0.77040E+04         0.00000E+00
    0.00000E+00         0.00000E+00         0.00000E+00
 
    0.26367E+06         0.95351E+04         0.00000E+00
    0.95351E+04        -0.75565E+04         0.00000E+00
    0.00000E+00         0.00000E+00         0.00000E+00
 
    0.26368E+06         0.15878E+05         0.00000E+00
    0.15878E+05        -0.72625E+04         0.00000E+00
    0.00000E+00         0.00000E+00         0.00000E+00
 
    0.26342E+06         0.22204E+05         0.00000E+00
    0.22204E+05        -0.68231E+04         0.00000E+00
    0.00000E+00         0.00000E+00         0.00000E+00
 
    0.26287E+06         0.28507E+05         0.00000E+00
    0.28507E+05        -0.62391E+04         0.00000E+00
    0.00000E+00         0.00000E+00         0.00000E+00
 
    0.26205E+06         0.34780E+05         0.00000E+00
    0.34780E+05        -0.55117E+04         0.00000E+00
    0.00000E+00         0.00000E+00         0.00000E+00
 
    0.26096E+06         0.41018E+05         0.00000E+00
    0.41018E+05        -0.46420E+04         0.00000E+00
    0.00000E+00         0.00000E+00         0.00000E+00
 
    0.25959E+06         0.47216E+05         0.00000E+00
    0.47216E+05        -0.36314E+04         0.00000E+00
    0.00000E+00         0.00000E+00         0.00000E+00
 
    0.25796E+06         0.53367E+05         0.00000E+00
    0.53367E+05        -0.24812E+04         0.00000E+00
    0.00000E+00         0.00000E+00         0.00000E+00
 
    0.25605E+06         0.59466E+05         0.00000E+00
    0.59466E+05        -0.11930E+04         0.00000E+00
    0.00000E+00         0.00000E+00         0.00000E+00
 
    0.25388E+06         0.65507E+05         0.00000E+00
    0.65507E+05         0.23156E+03         0.00000E+00
    0.00000E+00         0.00000E+00         0.00000E+00
 
    0.25145E+06         0.71484E+05         0.00000E+00
    0.71484E+05         0.17908E+04         0.00000E+00
    0.00000E+00         0.00000E+00         0.00000E+00
 
    0.24877E+06         0.77393E+05         0.00000E+00
    0.77393E+05         0.34828E+04         0.00000E+00
    0.00000E+00         0.00000E+00         0.00000E+00
 
    0.24582E+06         0.83229E+05         0.00000E+00
    0.83229E+05         0.53057E+04         0.00000E+00
    0.00000E+00         0.00000E+00         0.00000E+00
 
    0.24263E+06         0.88985E+05         0.00000E+00
    0.88985E+05         0.72575E+04         0.00000E+00
    0.00000E+00         0.00000E+00         0.00000E+00
 
    0.23918E+06         0.94657E+05         0.00000E+00
    0.94657E+05         0.93360E+04         0.00000E+00
    0.00000E+00         0.00000E+00         0.00000E+00
 
    0.23549E+06         0.10024E+06         0.00000E+00
    0.10024E+06         0.11539E+05         0.00000E+00
    0.00000E+00         0.00000E+00         0.00000E+00
 
    0.23156E+06         0.10573E+06         0.00000E+00
    0.10573E+06         0.13864E+05         0.00000E+00
    0.00000E+00         0.00000E+00         0.00000E+00
 
    0.22739E+06         0.11112E+06         0.00000E+00
    0.11112E+06         0.16310E+05         0.00000E+00
    0.00000E+00         0.00000E+00         0.00000E+00
 
    0.22298E+06         0.11641E+06         0.00000E+00
    0.11641E+06         0.18872E+05         0.00000E+00
    0.00000E+00         0.00000E+00         0.00000E+00
 
    0.21835E+06         0.12158E+06         0.00000E+00
    0.12158E+06         0.21550E+05         0.00000E+00
    0.00000E+00         0.00000E+00         0.00000E+00
 
    0.21348E+06         0.12665E+06         0.00000E+00
    0.12665E+06         0.24340E+05         0.00000E+00
    0.00000E+00         0.00000E+00         0.00000E+00
 
    0.20840E+06         0.13160E+06         0.00000E+00
    0.13160E+06         0.27239E+05         0.00000E+00
    0.00000E+00         0.00000E+00         0.00000E+00
 
    0.20310E+06         0.13642E+06         0.00000E+00
    0.13642E+06         0.30246E+05         0.00000E+00
    0.00000E+00         0.00000E+00         0.00000E+00
 
    0.19758E+06         0.14113E+06         0.00000E+00
    0.14113E+06         0.33357E+05         0.00000E+00
    0.00000E+00         0.00000E+00         0.00000E+00
 
    0.19186E+06         0.14570E+06         0.00000E+00
    0.14570E+06         0.36568E+05         0.00000E+00
    0.00000E+00         0.00000E+00         0.00000E+00
 
    0.18593E+06         0.15014E+06         0.00000E+00
    0.15014E+06         0.39878E+05         0.00000E+00
    0.00000E+00         0.00000E+00         0.00000E+00
 
    0.17980E+06         0.15444E+06         0.00000E+00
    0.15444E+06         0.43283E+05         0.00000E+00
    0.00000E+00         0.00000E+00         0.00000E+00
 
    0.17347E+06         0.15859E+06         0.00000E+00
    0.15859E+06         0.46781E+05         0.00000E+00
    0.00000E+00         0.00000E+00         0.00000E+00
 
    0.16696E+06         0.16261E+06         0.00000E+00
    0.16261E+06         0.50367E+05         0.00000E+00
    0.00000E+00         0.00000E+00         0.00000E+00
 
    0.16026E+06         0.16647E+06         0.00000E+00
    0.16647E+06         0.54040E+05         0.00000E+00
    0.00000E+00         0.00000E+00         0.00000E+00
 
    0.15338E+06         0.17019E+06         0.00000E+00
    0.17019E+06         0.57795E+05         0.00000E+00
    0.00000E+00         0.00000E+00         0.00000E+00
 
    0.14632E+06         0.17374E+06         0.00000E+00
    0.17374E+06         0.61629E+05         0.00000E+00
    0.00000E+00         0.00000E+00         0.00000E+00
 
    0.13909E+06         0.17714E+06         0.00000E+00
    0.17714E+06         0.65539E+05         0.00000E+00
    0.00000E+00         0.00000E+00         0.00000E+00
 
    0.13170E+06         0.18038E+06         0.00000E+00
    0.18038E+06         0.69522E+05         0.00000E+00
    0.00000E+00         0.00000E+00         0.00000E+00
 
    0.12414E+06         0.18345E+06         0.00000E+00
    0.18345E+06         0.73574E+05         0.00000E+00
    0.00000E+00         0.00000E+00         0.00000E+00
 
    0.11643E+06         0.18635E+06         0.00000E+00
    0.18635E+06         0.77692E+05         0.00000E+00
    0.00000E+00         0.00000E+00         0.00000E+00
 
    0.10858E+06         0.18908E+06         0.00000E+00
    0.18908E+06         0.81872E+05         0.00000E+00
    0.00000E+00         0.00000E+00         0.00000E+00
 
    0.10057E+06         0.19164E+06         0.00000E+00
    0.19164E+06         0.86110E+05         0.00000E+00
    0.00000E+00         0.00000E+00         0.00000E+00
 
    0.92434E+05         0.19402E+06         0.00000E+00
    0.19402E+06         0.90404E+05         0.00000E+00
    0.00000E+00         0.00000E+00         0.00000E+00
 
    0.84159E+05         0.19623E+06         0.00000E+00
    0.19623E+06         0.94749E+05         0.00000E+00
    0.00000E+00         0.00000E+00         0.00000E+00
 
    0.75758E+05         0.19825E+06         0.00000E+00
    0.19825E+06         0.99141E+05         0.00000E+00
    0.00000E+00         0.00000E+00         0.00000E+00
 
    0.67234E+05         0.20009E+06         0.00000E+00
    0.20009E+06         0.10358E+06         0.00000E+00
    0.00000E+00         0.00000E+00         0.00000E+00
 
    0.58593E+05         0.20174E+06         0.00000E+00
    0.20174E+06         0.10805E+06         0.00000E+00
    0.00000E+00         0.00000E+00         0.00000E+00
 
    0.49842E+05         0.20320E+06         0.00000E+00
    0.20320E+06         0.11257E+06         0.00000E+00
    0.00000E+00         0.00000E+00         0.00000E+00
 
    0.40986E+05         0.20448E+06         0.00000E+00
    0.20448E+06         0.11711E+06         0.00000E+00
    0.00000E+00         0.00000E+00         0.00000E+00
 
    0.32031E+05         0.20556E+06         0.00000E+00
    0.20556E+06         0.12169E+06         0.00000E+00
    0.00000E+00         0.00000E+00         0.00000E+00
 
    0.22982E+05         0.20645E+06         0.00000E+00
    0.20645E+06         0.12629E+06         0.00000E+00
    0.00000E+00         0.00000E+00         0.00000E+00
 
    0.13846E+05         0.20714E+06         0.00000E+00
    0.20714E+06         0.13091E+06         0.00000E+00
    0.00000E+00         0.00000E+00         0.00000E+00
 
    0.46286E+04         0.20764E+06         0.00000E+00
    0.20764E+06         0.13555E+06         0.00000E+00
    0.00000E+00         0.00000E+00         0.00000E+00
 
    0.29545E+06         0.35740E+04         0.00000E+00
    0.35740E+04        -0.93282E+04         0.00000E+00
    0.00000E+00         0.00000E+00         0.00000E+00
 
    0.29569E+06         0.10704E+05         0.00000E+00
    0.10704E+05        -0.91630E+04         0.00000E+00
    0.00000E+00         0.00000E+00         0.00000E+00
 
    0.29562E+06         0.17819E+05         0.00000E+00
    0.17819E+05        -0.88342E+04         0.00000E+00
    0.00000E+00         0.00000E+00         0.00000E+00
 
    0.29524E+06         0.24912E+05         0.00000E+00
    0.24912E+05        -0.83427E+04         0.00000E+00
    0.00000E+00         0.00000E+00         0.00000E+00
 
    0.29455E+06         0.31976E+05         0.00000E+00
    0.31976E+05        -0.76899E+04         0.00000E+00
    0.00000E+00         0.00000E+00         0.00000E+00
 
    0.29356E+06         0.39005E+05         0.00000E+00
    0.39005E+05        -0.68769E+04         0.00000E+00
    0.00000E+00         0.00000E+00         0.00000E+00
 
    0.29225E+06         0.45991E+05         0.00000E+00
    0.45991E+05        -0.59053E+04         0.00000E+00
    0.00000E+00         0.00000E+00         0.00000E+00
 
    0.29065E+06         0.52930E+05         0.00000E+00
    0.52930E+05        -0.47765E+04         0.00000E+00
    0.00000E+00         0.00000E+00         0.00000E+00
 
    0.28875E+06         0.59813E+05         0.00000E+00
    0.59813E+05        -0.34923E+04         0.00000E+00
    0.00000E+00         0.00000E+00         0.00000E+00
 
    0.28655E+06         0.66636E+05         0.00000E+00
    0.66636E+05        -0.20544E+04         0.00000E+00
    0.00000E+00         0.00000E+00         0.00000E+00
 
    0.28405E+06         0.73393E+05         0.00000E+00
    0.73393E+05        -0.46472E+03         0.00000E+00
    0.00000E+00         0.00000E+00         0.00000E+00
 
    0.28127E+06         0.80076E+05         0.00000E+00
    0.80076E+05         0.12748E+04         0.00000E+00
    0.00000E+00         0.00000E+00         0.00000E+00
 
    0.27820E+06         0.86681E+05         0.00000E+00
    0.86681E+05         0.31619E+04         0.00000E+00
    0.00000E+00         0.00000E+00         0.00000E+00
 
    0.27485E+06         0.93201E+05         0.00000E+00
    0.93201E+05         0.51946E+04         0.00000E+00
    0.00000E+00         0.00000E+00         0.00000E+00
 
    0.27122E+06         0.99631E+05         0.00000E+00
    0.99631E+05         0.73704E+04         0.00000E+00
    0.00000E+00         0.00000E+00         0.00000E+00
 
    0.26731E+06         0.10597E+06         0.00000E+00
    0.10597E+06         0.96869E+04         0.00000E+00
    0.00000E+00         0.00000E+00         0.00000E+00
 
    0.26313E+06         0.11220E+06         0.00000E+00
    0.11220E+06         0.12142E+05         0.00000E+00
    0.00000E+00         0.00000E+00         0.00000E+00
 
    0.25868E+06         0.11833E+06         0.00000E+00
    0.11833E+06         0.14732E+05         0.00000E+00
    0.00000E+00         0.00000E+00         0.00000E+00
 
    0.25398E+06         0.12434E+06         0.00000E+00
    0.12434E+06         0.17456E+05         0.00000E+00
    0.00000E+00         0.00000E+00         0.00000E+00
 
    0.24901E+06         0.13024E+06         0.00000E+00
    0.13024E+06         0.20310E+05         0.00000E+00
    0.00000E+00         0.00000E+00         0.00000E+00
 
    0.24379E+06         0.13602E+06         0.00000E+00
    0.13602E+06         0.23291E+05         0.00000E+00
    0.00000E+00         0.00000E+00         0.00000E+00
 
    0.23831E+06         0.14167E+06         0.00000E+00
    0.14167E+06         0.26397E+05         0.00000E+00
    0.00000E+00         0.00000E+00         0.00000E+00
 
    0.23260E+06         0.14719E+06         0.00000E+00
    0.14719E+06         0.29624E+05         0.00000E+00
    0.00000E+00         0.00000E+00         0.00000E+00
 
    0.22664E+06         0.15257E+06         0.00000E+00
    0.15257E+06         0.32969E+05         0.00000E+00
    0.00000E+00         0.00000E+00         0.00000E+00
 
    0.22045E+06         0.15781E+06         0.00000E+00
    0.15781E+06         0.36430E+05         0.00000E+00
    0.00000E+00         0.00000E+00         0.00000E+00
 
    0.21403E+06         0.16291E+06         0.00000E+00
    0.16291E+06         0.40003E+05         0.00000E+00
    0.00000E+00         0.00000E+00         0.00000E+00
 
    0.20738E+06         0.16785E+06         0.00000E+00
    0.16785E+06         0.43685E+05         0.00000E+00
    0.00000E+00         0.00000E+00         0.00000E+00
 
    0.20051E+06         0.17265E+06         0.00000E+00
    0.17265E+06         0.47473E+05         0.00000E+00
    0.00000E+00         0.00000E+00         0.00000E+00
 
    0.19343E+06         0.17728E+06         0.00000E+00
    0.17728E+06         0.51362E+05         0.00000E+00
    0.00000E+00         0.00000E+00         0.00000E+00
 
    0.18614E+06         0.18176E+06         0.00000E+00
    0.18176E+06         0.55350E+05         0.00000E+00
    0.00000E+00         0.00000E+00         0.00000E+00
 
    0.17864E+06         0.18607E+06         0.00000E+00
    0.18607E+06         0.59433E+05         0.00000E+00
    0.00000E+00         0.00000E+00         0.00000E+00
 
    0.17095E+06         0.19021E+06         0.00000E+00
    0.19021E+06         0.63608E+05         0.00000E+00
    0.00000E+00         0.00000E+00         0.00000E+00
 
    0.16306E+06         0.19417E+06         0.00000E+00
    0.19417E+06         0.67871E+05         0.00000E+00
    0.00000E+00         0.00000E+00         0.00000E+00
 
    0.15499E+06         0.19796E+06         0.00000E+00
    0.19796E+06         0.72217E+05         0.00000E+00
    0.00000E+00         0.00000E+00         0.00000E+00
 
    0.14673E+06         0.20157E+06         0.00000E+00
    0.20157E+06         0.76645E+05         0.00000E+00
    0.00000E+00         0.00000E+00         0.00000E+00
 
    0.13830E+06         0.20500E+06         0.00000E+00
    0.20500E+06         0.81149E+05         0.00000E+00
    0.00000E+00         0.00000E+00         0.00000E+00
 
    0.12970E+06         0.20824E+06         0.00000E+00
    0.20824E+06         0.85726E+05         0.00000E+00
    0.00000E+00         0.00000E+00         0.00000E+00
 
    0.12094E+06         0.21129E+06         0.00000E+00
    0.21129E+06         0.90372E+05         0.00000E+00
    0.00000E+00         0.00000E+00         0.00000E+00
 
    0.11201E+06         0.21415E+06         0.00000E+00
    0.21415E+06         0.95083E+05         0.00000E+00
    0.00000E+00         0.00000E+00         0.00000E+00
 
    0.10294E+06         0.21681E+06         0.00000E+00
    0.21681E+06         0.99856E+05         0.00000E+00
    0.00000E+00         0.00000E+00         0.00000E+00
 
    0.93713E+05         0.21928E+06         0.00000E+00
    0.21928E+06         0.10469E+06         0.00000E+00
    0.00000E+00         0.00000E+00         0.00000E+00
 
    0.84350E+05         0.22154E+06         0.00000E+00
    0.22154E+06         0.10957E+06         0.00000E+00
    0.00000E+00         0.00000E+00         0.00000E+00
 
    0.74854E+05         0.22360E+06         0.00000E+00
    0.22360E+06         0.11450E+06         0.00000E+00
    0.00000E+00         0.00000E+00         0.00000E+00
 
    0.65229E+05         0.22546E+06         0.00000E+00
    0.22546E+06         0.11948E+06         0.00000E+00
    0.00000E+00         0.00000E+00         0.00000E+00
 
    0.55483E+05         0.22710E+06         0.00000E+00
    0.22710E+06         0.12450E+06         0.00000E+00
    0.00000E+00         0.00000E+00         0.00000E+00
 
    0.45622E+05         0.22854E+06         0.00000E+00
    0.22854E+06         0.12955E+06         0.00000E+00
    0.00000E+00         0.00000E+00         0.00000E+00
 
    0.35652E+05         0.22977E+06         0.00000E+00
    0.22977E+06         0.13464E+06         0.00000E+00
    0.00000E+00         0.00000E+00         0.00000E+00
 
    0.25579E+05         0.23078E+06         0.00000E+00
    0.23078E+06         0.13975E+06         0.00000E+00
    0.00000E+00         0.00000E+00         0.00000E+00
 
    0.15410E+05         0.23157E+06         0.00000E+00
    0.23157E+06         0.14489E+06         0.00000E+00
    0.00000E+00         0.00000E+00         0.00000E+00
 
    0.51511E+04         0.23215E+06         0.00000E+00
    0.23215E+06         0.15005E+06         0.00000E+00
    0.00000E+00         0.00000E+00         0.00000E+00
 
    0.33130E+06         0.40143E+04         0.00000E+00
    0.40143E+04        -0.11289E+05         0.00000E+00
    0.00000E+00         0.00000E+00         0.00000E+00
 
    0.33147E+06         0.12013E+05         0.00000E+00
    0.12013E+05        -0.11104E+05         0.00000E+00
    0.00000E+00         0.00000E+00         0.00000E+00
 
    0.33129E+06         0.19990E+05         0.00000E+00
    0.19990E+05        -0.10736E+05         0.00000E+00
    0.00000E+00         0.00000E+00         0.00000E+00
 
    0.33077E+06         0.27939E+05         0.00000E+00
    0.27939E+05        -0.10187E+05         0.00000E+00
    0.00000E+00         0.00000E+00         0.00000E+00
 
    0.32990E+06         0.35853E+05         0.00000E+00
    0.35853E+05        -0.94578E+04         0.00000E+00
    0.00000E+00         0.00000E+00         0.00000E+00
 
    0.32869E+06         0.43723E+05         0.00000E+00
    0.43723E+05        -0.85500E+04         0.00000E+00
    0.00000E+00         0.00000E+00         0.00000E+00
 
    0.32715E+06         0.51544E+05         0.00000E+00
    0.51544E+05        -0.74654E+04         0.00000E+00
    0.00000E+00         0.00000E+00         0.00000E+00
 
    0.32526E+06         0.59308E+05         0.00000E+00
    0.59308E+05        -0.62058E+04         0.00000E+00
    0.00000E+00         0.00000E+00         0.00000E+00
 
    0.32305E+06         0.67007E+05         0.00000E+00
    0.67007E+05        -0.47731E+04         0.00000E+00
    0.00000E+00         0.00000E+00         0.00000E+00
 
    0.32050E+06         0.74636E+05         0.00000E+00
    0.74636E+05        -0.31695E+04         0.00000E+00
    0.00000E+00         0.00000E+00         0.00000E+00
 
    0.31764E+06         0.82188E+05         0.00000E+00
    0.82188E+05        -0.13971E+04         0.00000E+00
    0.00000E+00         0.00000E+00         0.00000E+00
 
    0.31445E+06         0.89656E+05         0.00000E+00
    0.89656E+05         0.54176E+03         0.00000E+00
    0.00000E+00         0.00000E+00         0.00000E+00
 
    0.31094E+06         0.97033E+05         0.00000E+00
    0.97033E+05         0.26447E+04         0.00000E+00
    0.00000E+00         0.00000E+00         0.00000E+00
 
    0.30712E+06         0.10431E+06         0.00000E+00
    0.10431E+06         0.49091E+04         0.00000E+00
    0.00000E+00         0.00000E+00         0.00000E+00
 
    0.30299E+06         0.11149E+06         0.00000E+00
    0.11149E+06         0.73324E+04         0.00000E+00
    0.00000E+00         0.00000E+00         0.00000E+00
 
    0.29856E+06         0.11856E+06         0.00000E+00
    0.11856E+06         0.99118E+04         0.00000E+00
    0.00000E+00         0.00000E+00         0.00000E+00
 
    0.29383E+06         0.12552E+06         0.00000E+00
    0.12552E+06         0.12645E+05         0.00000E+00
    0.00000E+00         0.00000E+00         0.00000E+00
 
    0.28880E+06         0.13235E+06         0.00000E+00
    0.13235E+06         0.15528E+05         0.00000E+00
    0.00000E+00         0.00000E+00         0.00000E+00
 
    0.28349E+06         0.13906E+06         0.00000E+00
    0.13906E+06         0.18558E+05         0.00000E+00
    0.00000E+00         0.00000E+00         0.00000E+00
 
    0.27788E+06         0.14564E+06         0.00000E+00
    0.14564E+06         0.21733E+05         0.00000E+00
    0.00000E+00         0.00000E+00         0.00000E+00
 
    0.27200E+06         0.15208E+06         0.00000E+00
    0.15208E+06         0.25049E+05         0.00000E+00
    0.00000E+00         0.00000E+00         0.00000E+00
 
    0.26585E+06         0.15838E+06         0.00000E+00
    0.15838E+06         0.28503E+05         0.00000E+00
    0.00000E+00         0.00000E+00         0.00000E+00
 
    0.25942E+06         0.16453E+06         0.00000E+00
    0.16453E+06         0.32091E+05         0.00000E+00
    0.00000E+00         0.00000E+00         0.00000E+00
 
    0.25273E+06         0.17052E+06         0.00000E+00
    0.17052E+06         0.35810E+05         0.00000E+00
    0.00000E+00         0.00000E+00         0.00000E+00
 
    0.24579E+06         0.17636E+06         0.00000E+00
    0.17636E+06         0.39657E+05         0.00000E+00
    0.00000E+00         0.00000E+00         0.00000E+00
 
    0.23858E+06         0.18204E+06         0.00000E+00
    0.18204E+06         0.43628E+05         0.00000E+00
    0.00000E+00         0.00000E+00         0.00000E+00
 
    0.23114E+06         0.18755E+06         0.00000E+00
    0.18755E+06         0.47720E+05         0.00000E+00
    0.00000E+00         0.00000E+00         0.00000E+00
 
    0.22345E+06         0.19289E+06         0.00000E+00
    0.19289E+06         0.51928E+05         0.00000E+00
    0.00000E+00         0.00000E+00         0.00000E+00
 
    0.21552E+06         0.19806E+06         0.00000E+00
    0.19806E+06         0.56248E+05         0.00000E+00
    0.00000E+00         0.00000E+00         0.00000E+00
 
    0.20737E+06         0.20304E+06         0.00000E+00
    0.20304E+06         0.60679E+05         0.00000E+00
    0.00000E+00         0.00000E+00         0.00000E+00
 
    0.19899E+06         0.20784E+06         0.00000E+00
    0.20784E+06         0.65214E+05         0.00000E+00
    0.00000E+00         0.00000E+00         0.00000E+00
 
    0.19039E+06         0.21245E+06         0.00000E+00
    0.21245E+06         0.69850E+05         0.00000E+00
    0.00000E+00         0.00000E+00         0.00000E+00
 
    0.18158E+06         0.21687E+06         0.00000E+00
    0.21687E+06         0.74584E+05         0.00000E+00
    0.00000E+00         0.00000E+00         0.00000E+00
 
    0.17257E+06         0.22109E+06         0.00000E+00
    0.22109E+06         0.79412E+05         0.00000E+00
    0.00000E+00         0.00000E+00         0.00000E+00
 
    0.16336E+06         0.22512E+06         0.00000E+00
    0.22512E+06         0.84328E+05         0.00000E+00
    0.00000E+00         0.00000E+00         0.00000E+00
 
    0.15395E+06         0.22894E+06         0.00000E+00
    0.22894E+06         0.89329E+05         0.00000E+00
    0.00000E+00         0.00000E+00         0.00000E+00
 
    0.14436E+06         0.23255E+06         0.00000E+00
    0.23255E+06         0.94412E+05         0.00000E+00
    0.00000E+00         0.00000E+00         0.00000E+00
 
    0.13459E+06         0.23596E+06         0.00000E+00
    0.23596E+06         0.99571E+05         0.00000E+00
    0.00000E+00         0.00000E+00         0.00000E+00
 
    0.12464E+06         0.23915E+06         0.00000E+00
    0.23915E+06         0.10480E+06         0.00000E+00
    0.00000E+00         0.00000E+00         0.00000E+00
 
    0.11453E+06         0.24213E+06         0.00000E+00
    0.24213E+06         0.11010E+06         0.00000E+00
    0.00000E+00         0.00000E+00         0.00000E+00
 
    0.10426E+06         0.24488E+06         0.00000E+00
    0.24488E+06         0.11547E+06         0.00000E+00
    0.00000E+00         0.00000E+00         0.00000E+00
 
    0.93837E+05         0.24742E+06         0.00000E+00
    0.24742E+06         0.12089E+06         0.00000E+00
    0.00000E+00         0.00000E+00         0.00000E+00
 
    0.83265E+05         0.24973E+06         0.00000E+00
    0.24973E+06         0.12637E+06         0.00000E+00
    0.00000E+00         0.00000E+00         0.00000E+00
 
    0.72554E+05         0.25181E+06         0.00000E+00
    0.25181E+06         0.13189E+06         0.00000E+00
    0.00000E+00         0.00000E+00         0.00000E+00
 
    0.61709E+05         0.25366E+06         0.00000E+00
    0.25366E+06         0.13747E+06         0.00000E+00
    0.00000E+00         0.00000E+00         0.00000E+00
 
    0.50738E+05         0.25529E+06         0.00000E+00
    0.25529E+06         0.14308E+06         0.00000E+00
    0.00000E+00         0.00000E+00         0.00000E+00
 
    0.39647E+05         0.25667E+06         0.00000E+00
    0.25667E+06         0.14874E+06         0.00000E+00
    0.00000E+00         0.00000E+00         0.00000E+00
 
    0.28444E+05         0.25783E+06         0.00000E+00
    0.25783E+06         0.15442E+06         0.00000E+00
    0.00000E+00         0.00000E+00         0.00000E+00
 
    0.17135E+05         0.25874E+06         0.00000E+00
    0.25874E+06         0.16013E+06         0.00000E+00
    0.00000E+00         0.00000E+00         0.00000E+00
 
    0.57276E+04         0.25941E+06         0.00000E+00
    0.25941E+06         0.16587E+06         0.00000E+00
    0.00000E+00         0.00000E+00         0.00000E+00
 
    0.37135E+06         0.45071E+04         0.00000E+00
    0.45071E+04        -0.13654E+05         0.00000E+00
    0.00000E+00         0.00000E+00         0.00000E+00
 
    0.37142E+06         0.13475E+05         0.00000E+00
    0.13475E+05        -0.13447E+05         0.00000E+00
    0.00000E+00         0.00000E+00         0.00000E+00
 
    0.37111E+06         0.22416E+05         0.00000E+00
    0.22416E+05        -0.13037E+05         0.00000E+00
    0.00000E+00         0.00000E+00         0.00000E+00
 
    0.37040E+06         0.31320E+05         0.00000E+00
    0.31320E+05        -0.12423E+05         0.00000E+00
    0.00000E+00         0.00000E+00         0.00000E+00
 
    0.36932E+06         0.40181E+05         0.00000E+00
    0.40181E+05        -0.11609E+05         0.00000E+00
    0.00000E+00         0.00000E+00         0.00000E+00
 
    0.36785E+06         0.48990E+05         0.00000E+00
    0.48990E+05        -0.10597E+05         0.00000E+00
    0.00000E+00         0.00000E+00         0.00000E+00
 
    0.36601E+06         0.57739E+05         0.00000E+00
    0.57739E+05        -0.93869E+04         0.00000E+00
    0.00000E+00         0.00000E+00         0.00000E+00
 
    0.36380E+06         0.66420E+05         0.00000E+00
    0.66420E+05        -0.79826E+04         0.00000E+00
    0.00000E+00         0.00000E+00         0.00000E+00
 
    0.36122E+06         0.75027E+05         0.00000E+00
    0.75027E+05        -0.63858E+04         0.00000E+00
    0.00000E+00         0.00000E+00         0.00000E+00
 
    0.35828E+06         0.83552E+05         0.00000E+00
    0.83552E+05        -0.45991E+04         0.00000E+00
    0.00000E+00         0.00000E+00         0.00000E+00
 
    0.35498E+06         0.91988E+05         0.00000E+00
    0.91988E+05        -0.26249E+04         0.00000E+00
    0.00000E+00         0.00000E+00         0.00000E+00
 
    0.35132E+06         0.10033E+06         0.00000E+00
    0.10033E+06        -0.46592E+03         0.00000E+00
    0.00000E+00         0.00000E+00         0.00000E+00
 
    0.34731E+06         0.10856E+06         0.00000E+00
    0.10856E+06         0.18750E+04         0.00000E+00
    0.00000E+00         0.00000E+00         0.00000E+00
 
    0.34296E+06         0.11669E+06         0.00000E+00
    0.11669E+06         0.43951E+04         0.00000E+00
    0.00000E+00         0.00000E+00         0.00000E+00
 
    0.33827E+06         0.12470E+06         0.00000E+00
    0.12470E+06         0.70913E+04         0.00000E+00
    0.00000E+00         0.00000E+00         0.00000E+00
 
    0.33324E+06         0.13258E+06         0.00000E+00
    0.13258E+06         0.99605E+04         0.00000E+00
    0.00000E+00         0.00000E+00         0.00000E+00
 
    0.32789E+06         0.14033E+06         0.00000E+00
    0.14033E+06         0.12999E+05         0.00000E+00
    0.00000E+00         0.00000E+00         0.00000E+00
 
    0.32220E+06         0.14795E+06         0.00000E+00
    0.14795E+06         0.16205E+05         0.00000E+00
    0.00000E+00         0.00000E+00         0.00000E+00
 
    0.31620E+06         0.15543E+06         0.00000E+00
    0.15543E+06         0.19573E+05         0.00000E+00
    0.00000E+00         0.00000E+00         0.00000E+00
 
    0.30989E+06         0.16276E+06         0.00000E+00
    0.16276E+06         0.23102E+05         0.00000E+00
    0.00000E+00         0.00000E+00         0.00000E+00
 
    0.30327E+06         0.16993E+06         0.00000E+00
    0.16993E+06         0.26786E+05         0.00000E+00
    0.00000E+00         0.00000E+00         0.00000E+00
 
    0.29634E+06         0.17694E+06         0.00000E+00
    0.17694E+06         0.30623E+05         0.00000E+00
    0.00000E+00         0.00000E+00         0.00000E+00
 
    0.28912E+06         0.18379E+06         0.00000E+00
    0.18379E+06         0.34608E+05         0.00000E+00
    0.00000E+00         0.00000E+00         0.00000E+00
 
    0.28161E+06         0.19047E+06         0.00000E+00
    0.19047E+06         0.38738E+05         0.00000E+00
    0.00000E+00         0.00000E+00         0.00000E+00
 
    0.27382E+06         0.19697E+06         0.00000E+00
    0.19697E+06         0.43009E+05         0.00000E+00
    0.00000E+00         0.00000E+00         0.00000E+00
 
    0.26575E+06         0.20329E+06         0.00000E+00
    0.20329E+06         0.47418E+05         0.00000E+00
    0.00000E+00         0.00000E+00         0.00000E+00
 
    0.25741E+06         0.20943E+06         0.00000E+00
    0.20943E+06         0.51959E+05         0.00000E+00
    0.00000E+00         0.00000E+00         0.00000E+00
 
    0.24880E+06         0.21537E+06         0.00000E+00
    0.21537E+06         0.56629E+05         0.00000E+00
    0.00000E+00         0.00000E+00         0.00000E+00
 
    0.23994E+06         0.22112E+06         0.00000E+00
    0.22112E+06         0.61424E+05         0.00000E+00
    0.00000E+00         0.00000E+00         0.00000E+00
 
    0.23082E+06         0.22667E+06         0.00000E+00
    0.22667E+06         0.66339E+05         0.00000E+00
    0.00000E+00         0.00000E+00         0.00000E+00
 
    0.22146E+06         0.23201E+06         0.00000E+00
    0.23201E+06         0.71371E+05         0.00000E+00
    0.00000E+00         0.00000E+00         0.00000E+00
 
    0.21186E+06         0.23714E+06         0.00000E+00
    0.23714E+06         0.76515E+05         0.00000E+00
    0.00000E+00         0.00000E+00         0.00000E+00
 
    0.20203E+06         0.24206E+06         0.00000E+00
    0.24206E+06         0.81766E+05         0.00000E+00
    0.00000E+00         0.00000E+00         0.00000E+00
 
    0.19197E+06         0.24677E+06         0.00000E+00
    0.24677E+06         0.87121E+05         0.00000E+00
    0.00000E+00         0.00000E+00         0.00000E+00
 
    0.18170E+06         0.25125E+06         0.00000E+00
    0.25125E+06         0.92574E+05         0.00000E+00
    0.00000E+00         0.00000E+00         0.00000E+00
 
    0.17122E+06         0.25551E+06         0.00000E+00
    0.25551E+06         0.98122E+05         0.00000E+00
    0.00000E+00         0.00000E+00         0.00000E+00
 
    0.16053E+06         0.25954E+06         0.00000E+00
    0.25954E+06         0.10376E+06         0.00000E+00
    0.00000E+00         0.00000E+00         0.00000E+00
 
    0.14965E+06         0.26334E+06         0.00000E+00
    0.26334E+06         0.10948E+06         0.00000E+00
    0.00000E+00         0.00000E+00         0.00000E+00
 
    0.13858E+06         0.26690E+06         0.00000E+00
    0.26690E+06         0.11528E+06         0.00000E+00
    0.00000E+00         0.00000E+00         0.00000E+00
 
    0.12732E+06         0.27022E+06         0.00000E+00
    0.27022E+06         0.12116E+06         0.00000E+00
    0.00000E+00         0.00000E+00         0.00000E+00
 
    0.11589E+06         0.27330E+06         0.00000E+00
    0.27330E+06         0.12711E+06         0.00000E+00
    0.00000E+00         0.00000E+00         0.00000E+00
 
    0.10429E+06         0.27614E+06         0.00000E+00
    0.27614E+06         0.13313E+06         0.00000E+00
    0.00000E+00         0.00000E+00         0.00000E+00
 
    0.92536E+05         0.27873E+06         0.00000E+00
    0.27873E+06         0.13920E+06         0.00000E+00
    0.00000E+00         0.00000E+00         0.00000E+00
 
    0.80625E+05         0.28107E+06         0.00000E+00
    0.28107E+06         0.14534E+06         0.00000E+00
    0.00000E+00         0.00000E+00         0.00000E+00
 
    0.68569E+05         0.28316E+06         0.00000E+00
    0.28316E+06         0.15152E+06         0.00000E+00
    0.00000E+00         0.00000E+00         0.00000E+00
 
    0.56374E+05         0.28499E+06         0.00000E+00
    0.28499E+06         0.15776E+06         0.00000E+00
    0.00000E+00         0.00000E+00         0.00000E+00
 
    0.44049E+05         0.28656E+06         0.00000E+00
    0.28656E+06         0.16403E+06         0.00000E+00
    0.00000E+00         0.00000E+00         0.00000E+00
 
    0.31600E+05         0.28787E+06         0.00000E+00
    0.28787E+06         0.17034E+06         0.00000E+00
    0.00000E+00         0.00000E+00         0.00000E+00
 
    0.19035E+05         0.28892E+06         0.00000E+00
    0.28892E+06         0.17668E+06         0.00000E+00
    0.00000E+00         0.00000E+00         0.00000E+00
 
    0.63625E+04         0.28971E+06         0.00000E+00
    0.28971E+06         0.18305E+06         0.00000E+00
    0.00000E+00         0.00000E+00         0.00000E+00
 
    0.41606E+06         0.50583E+04         0.00000E+00
    0.50583E+04        -0.16505E+05         0.00000E+00
    0.00000E+00         0.00000E+00         0.00000E+00
 
    0.41599E+06         0.15109E+05         0.00000E+00
    0.15109E+05        -0.16274E+05         0.00000E+00
    0.00000E+00         0.00000E+00         0.00000E+00
 
    0.41550E+06         0.25123E+05         0.00000E+00
    0.25123E+05        -0.15816E+05         0.00000E+00
    0.00000E+00         0.00000E+00         0.00000E+00
 
    0.41457E+06         0.35093E+05         0.00000E+00
    0.35093E+05        -0.15132E+05         0.00000E+00
    0.00000E+00         0.00000E+00         0.00000E+00
 
    0.41322E+06         0.45008E+05         0.00000E+00
    0.45008E+05        -0.14224E+05         0.00000E+00
    0.00000E+00         0.00000E+00         0.00000E+00
 
    0.41145E+06         0.54861E+05         0.00000E+00
    0.54861E+05        -0.13095E+05         0.00000E+00
    0.00000E+00         0.00000E+00         0.00000E+00
 
    0.40927E+06         0.64643E+05         0.00000E+00
    0.64643E+05        -0.11748E+05         0.00000E+00
    0.00000E+00         0.00000E+00         0.00000E+00
 
    0.40667E+06         0.74345E+05         0.00000E+00
    0.74345E+05        -0.10184E+05         0.00000E+00
    0.00000E+00         0.00000E+00         0.00000E+00
 
    0.40366E+06         0.83960E+05         0.00000E+00
    0.83960E+05        -0.84058E+04         0.00000E+00
    0.00000E+00         0.00000E+00         0.00000E+00
 
    0.40026E+06         0.93480E+05         0.00000E+00
    0.93480E+05        -0.64171E+04         0.00000E+00
    0.00000E+00         0.00000E+00         0.00000E+00
 
    0.39646E+06         0.10290E+06         0.00000E+00
    0.10290E+06        -0.42205E+04         0.00000E+00
    0.00000E+00         0.00000E+00         0.00000E+00
 
    0.39226E+06         0.11220E+06         0.00000E+00
    0.11220E+06        -0.18190E+04         0.00000E+00
    0.00000E+00         0.00000E+00         0.00000E+00
 
    0.38768E+06         0.12139E+06         0.00000E+00
    0.12139E+06         0.78407E+03         0.00000E+00
    0.00000E+00         0.00000E+00         0.00000E+00
 
    0.38273E+06         0.13045E+06         0.00000E+00
    0.13045E+06         0.35856E+04         0.00000E+00
    0.00000E+00         0.00000E+00         0.00000E+00
 
    0.37739E+06         0.13937E+06         0.00000E+00
    0.13937E+06         0.65820E+04         0.00000E+00
    0.00000E+00         0.00000E+00         0.00000E+00
 
    0.37169E+06         0.14816E+06         0.00000E+00
    0.14816E+06         0.97698E+04         0.00000E+00
    0.00000E+00         0.00000E+00         0.00000E+00
 
    0.36562E+06         0.15680E+06         0.00000E+00
    0.15680E+06         0.13145E+05         0.00000E+00
    0.00000E+00         0.00000E+00         0.00000E+00
 
    0.35920E+06         0.16528E+06         0.00000E+00
    0.16528E+06         0.16705E+05         0.00000E+00
    0.00000E+00         0.00000E+00         0.00000E+00
 
    0.35243E+06         0.17361E+06         0.00000E+00
    0.17361E+06         0.20445E+05         0.00000E+00
    0.00000E+00         0.00000E+00         0.00000E+00
 
    0.34531E+06         0.18177E+06         0.00000E+00
    0.18177E+06         0.24361E+05         0.00000E+00
    0.00000E+00         0.00000E+00         0.00000E+00
 
    0.33786E+06         0.18975E+06         0.00000E+00
    0.18975E+06         0.28450E+05         0.00000E+00
    0.00000E+00         0.00000E+00         0.00000E+00
 
    0.33007E+06         0.19756E+06         0.00000E+00
    0.19756E+06         0.32707E+05         0.00000E+00
    0.00000E+00         0.00000E+00         0.00000E+00
 
    0.32196E+06         0.20518E+06         0.00000E+00
    0.20518E+06         0.37128E+05         0.00000E+00
    0.00000E+00         0.00000E+00         0.00000E+00
 
    0.31353E+06         0.21261E+06         0.00000E+00
    0.21261E+06         0.41709E+05         0.00000E+00
    0.00000E+00         0.00000E+00         0.00000E+00
 
    0.30480E+06         0.21984E+06         0.00000E+00
    0.21984E+06         0.46446E+05         0.00000E+00
    0.00000E+00         0.00000E+00         0.00000E+00
 
    0.29575E+06         0.22687E+06         0.00000E+00
    0.22687E+06         0.51333E+05         0.00000E+00
    0.00000E+00         0.00000E+00         0.00000E+00
 
    0.28642E+06         0.23369E+06         0.00000E+00
    0.23369E+06         0.56368E+05         0.00000E+00
    0.00000E+00         0.00000E+00         0.00000E+00
 
    0.27679E+06         0.24030E+06         0.00000E+00
    0.24030E+06         0.61545E+05         0.00000E+00
    0.00000E+00         0.00000E+00         0.00000E+00
 
    0.26688E+06         0.24670E+06         0.00000E+00
    0.24670E+06         0.66859E+05         0.00000E+00
    0.00000E+00         0.00000E+00         0.00000E+00
 
    0.25670E+06         0.25287E+06         0.00000E+00
    0.25287E+06         0.72307E+05         0.00000E+00
    0.00000E+00         0.00000E+00         0.00000E+00
 
    0.24625E+06         0.25881E+06         0.00000E+00
    0.25881E+06         0.77883E+05         0.00000E+00
    0.00000E+00         0.00000E+00         0.00000E+00
 
    0.23554E+06         0.26452E+06         0.00000E+00
    0.26452E+06         0.83582E+05         0.00000E+00
    0.00000E+00         0.00000E+00         0.00000E+00
 
    0.22457E+06         0.26999E+06         0.00000E+00
    0.26999E+06         0.89401E+05         0.00000E+00
    0.00000E+00         0.00000E+00         0.00000E+00
 
    0.21336E+06         0.27523E+06         0.00000E+00
    0.27523E+06         0.95333E+05         0.00000E+00
    0.00000E+00         0.00000E+00         0.00000E+00
 
    0.20192E+06         0.28022E+06         0.00000E+00
    0.28022E+06         0.10137E+06         0.00000E+00
    0.00000E+00         0.00000E+00         0.00000E+00
 
    0.19024E+06         0.28496E+06         0.00000E+00
    0.28496E+06         0.10752E+06         0.00000E+00
    0.00000E+00         0.00000E+00         0.00000E+00
 
    0.17835E+06         0.28945E+06         0.00000E+00
    0.28945E+06         0.11377E+06         0.00000E+00
    0.00000E+00         0.00000E+00         0.00000E+00
 
    0.16623E+06         0.29368E+06         0.00000E+00
    0.29368E+06         0.12011E+06         0.00000E+00
    0.00000E+00         0.00000E+00         0.00000E+00
 
    0.15392E+06         0.29766E+06         0.00000E+00
    0.29766E+06         0.12653E+06         0.00000E+00
    0.00000E+00         0.00000E+00         0.00000E+00
 
    0.14140E+06         0.30137E+06         0.00000E+00
    0.30137E+06         0.13305E+06         0.00000E+00
    0.00000E+00         0.00000E+00         0.00000E+00
 
    0.12869E+06         0.30481E+06         0.00000E+00
    0.30481E+06         0.13964E+06         0.00000E+00
    0.00000E+00         0.00000E+00         0.00000E+00
 
    0.11580E+06         0.30799E+06         0.00000E+00
    0.30799E+06         0.14630E+06         0.00000E+00
    0.00000E+00         0.00000E+00         0.00000E+00
 
    0.10274E+06         0.31089E+06         0.00000E+00
    0.31089E+06         0.15304E+06         0.00000E+00
    0.00000E+00         0.00000E+00         0.00000E+00
 
    0.89506E+05         0.31351E+06         0.00000E+00
    0.31351E+06         0.15984E+06         0.00000E+00
    0.00000E+00         0.00000E+00         0.00000E+00
 
    0.76115E+05         0.31586E+06         0.00000E+00
    0.31586E+06         0.16669E+06         0.00000E+00
    0.00000E+00         0.00000E+00         0.00000E+00
 
    0.62574E+05         0.31793E+06         0.00000E+00
    0.31793E+06         0.17360E+06         0.00000E+00
    0.00000E+00         0.00000E+00         0.00000E+00
 
    0.48889E+05         0.31971E+06         0.00000E+00
    0.31971E+06         0.18056E+06         0.00000E+00
    0.00000E+00         0.00000E+00         0.00000E+00
 
    0.35070E+05         0.32121E+06         0.00000E+00
    0.32121E+06         0.18755E+06         0.00000E+00
    0.00000E+00         0.00000E+00         0.00000E+00
 
    0.21125E+05         0.32242E+06         0.00000E+00
    0.32242E+06         0.19459E+06         0.00000E+00
    0.00000E+00         0.00000E+00         0.00000E+00
 
    0.70606E+04         0.32334E+06         0.00000E+00
    0.32334E+06         0.20166E+06         0.00000E+00
    0.00000E+00         0.00000E+00         0.00000E+00
 
    0.46593E+06         0.56742E+04         0.00000E+00
    0.56742E+04        -0.19940E+05         0.00000E+00
    0.00000E+00         0.00000E+00         0.00000E+00
 
    0.46568E+06         0.16932E+05         0.00000E+00
    0.16932E+05        -0.19682E+05         0.00000E+00
    0.00000E+00         0.00000E+00         0.00000E+00
 
    0.46495E+06         0.28143E+05         0.00000E+00
    0.28143E+05        -0.19171E+05         0.00000E+00
    0.00000E+00         0.00000E+00         0.00000E+00
 
    0.46375E+06         0.39297E+05         0.00000E+00
    0.39297E+05        -0.18409E+05         0.00000E+00
    0.00000E+00         0.00000E+00         0.00000E+00
 
    0.46208E+06         0.50387E+05         0.00000E+00
    0.50387E+05        -0.17398E+05         0.00000E+00
    0.00000E+00         0.00000E+00         0.00000E+00
 
    0.45994E+06         0.61400E+05         0.00000E+00
    0.61400E+05        -0.16142E+05         0.00000E+00
    0.00000E+00         0.00000E+00         0.00000E+00
 
    0.45735E+06         0.72330E+05         0.00000E+00
    0.72330E+05        -0.14642E+05         0.00000E+00
    0.00000E+00         0.00000E+00         0.00000E+00
 
    0.45430E+06         0.83165E+05         0.00000E+00
    0.83165E+05        -0.12901E+05         0.00000E+00
    0.00000E+00         0.00000E+00         0.00000E+00
 
    0.45080E+06         0.93899E+05         0.00000E+00
    0.93899E+05        -0.10924E+05         0.00000E+00
    0.00000E+00         0.00000E+00         0.00000E+00
 
    0.44686E+06         0.10452E+06         0.00000E+00
    0.10452E+06        -0.87134E+04         0.00000E+00
    0.00000E+00         0.00000E+00         0.00000E+00
 
    0.44248E+06         0.11502E+06         0.00000E+00
    0.11502E+06        -0.62722E+04         0.00000E+00
    0.00000E+00         0.00000E+00         0.00000E+00
 
    0.43767E+06         0.12540E+06         0.00000E+00
    0.12540E+06        -0.36042E+04         0.00000E+00
    0.00000E+00         0.00000E+00         0.00000E+00
 
    0.43243E+06         0.13564E+06         0.00000E+00
    0.13564E+06        -0.71308E+03         0.00000E+00
    0.00000E+00         0.00000E+00         0.00000E+00
 
    0.42678E+06         0.14573E+06         0.00000E+00
    0.14573E+06         0.23975E+04         0.00000E+00
    0.00000E+00         0.00000E+00         0.00000E+00
 
    0.42072E+06         0.15568E+06         0.00000E+00
    0.15568E+06         0.57235E+04         0.00000E+00
    0.00000E+00         0.00000E+00         0.00000E+00
 
    0.41425E+06         0.16546E+06         0.00000E+00
    0.16546E+06         0.92610E+04         0.00000E+00
    0.00000E+00         0.00000E+00         0.00000E+00
 
    0.40738E+06         0.17508E+06         0.00000E+00
    0.17508E+06         0.13006E+05         0.00000E+00
    0.00000E+00         0.00000E+00         0.00000E+00
 
    0.40012E+06         0.18452E+06         0.00000E+00
    0.18452E+06         0.16954E+05         0.00000E+00
    0.00000E+00         0.00000E+00         0.00000E+00
 
    0.39248E+06         0.19378E+06         0.00000E+00
    0.19378E+06         0.21101E+05         0.00000E+00
    0.00000E+00         0.00000E+00         0.00000E+00
 
    0.38446E+06         0.20285E+06         0.00000E+00
    0.20285E+06         0.25443E+05         0.00000E+00
    0.00000E+00         0.00000E+00         0.00000E+00
 
    0.37607E+06         0.21173E+06         0.00000E+00
    0.21173E+06         0.29974E+05         0.00000E+00
    0.00000E+00         0.00000E+00         0.00000E+00
 
    0.36732E+06         0.22041E+06         0.00000E+00
    0.22041E+06         0.34692E+05         0.00000E+00
    0.00000E+00         0.00000E+00         0.00000E+00
 
    0.35822E+06         0.22888E+06         0.00000E+00
    0.22888E+06         0.39590E+05         0.00000E+00
    0.00000E+00         0.00000E+00         0.00000E+00
 
    0.34876E+06         0.23714E+06         0.00000E+00
    0.23714E+06         0.44664E+05         0.00000E+00
    0.00000E+00         0.00000E+00         0.00000E+00
 
    0.33897E+06         0.24518E+06         0.00000E+00
    0.24518E+06         0.49910E+05         0.00000E+00
    0.00000E+00         0.00000E+00         0.00000E+00
 
    0.32885E+06         0.25299E+06         0.00000E+00
    0.25299E+06         0.55322E+05         0.00000E+00
    0.00000E+00         0.00000E+00         0.00000E+00
 
    0.31840E+06         0.26057E+06         0.00000E+00
    0.26057E+06         0.60896E+05         0.00000E+00
    0.00000E+00         0.00000E+00         0.00000E+00
 
    0.30764E+06         0.26792E+06         0.00000E+00
    0.26792E+06         0.66627E+05         0.00000E+00
    0.00000E+00         0.00000E+00         0.00000E+00
 
    0.29657E+06         0.27502E+06         0.00000E+00
    0.27502E+06         0.72510E+05         0.00000E+00
    0.00000E+00         0.00000E+00         0.00000E+00
 
    0.28520E+06         0.28188E+06         0.00000E+00
    0.28188E+06         0.78539E+05         0.00000E+00
    0.00000E+00         0.00000E+00         0.00000E+00
 
    0.27355E+06         0.28848E+06         0.00000E+00
    0.28848E+06         0.84710E+05         0.00000E+00
    0.00000E+00         0.00000E+00         0.00000E+00
 
    0.26160E+06         0.29483E+06         0.00000E+00
    0.29483E+06         0.91017E+05         0.00000E+00
    0.00000E+00         0.00000E+00         0.00000E+00
 
    0.24939E+06         0.30092E+06         0.00000E+00
    0.30092E+06         0.97455E+05         0.00000E+00
    0.00000E+00         0.00000E+00         0.00000E+00
 
    0.23690E+06         0.30674E+06         0.00000E+00
    0.30674E+06         0.10402E+06         0.00000E+00
    0.00000E+00         0.00000E+00         0.00000E+00
 
    0.22416E+06         0.31229E+06         0.00000E+00
    0.31229E+06         0.11070E+06         0.00000E+00
    0.00000E+00         0.00000E+00         0.00000E+00
 
    0.21117E+06         0.31757E+06         0.00000E+00
    0.31757E+06         0.11750E+06         0.00000E+00
    0.00000E+00         0.00000E+00         0.00000E+00
 
    0.19793E+06         0.32257E+06         0.00000E+00
    0.32257E+06         0.12441E+06         0.00000E+00
    0.00000E+00         0.00000E+00         0.00000E+00
 
    0.18447E+06         0.32728E+06         0.00000E+00
    0.32728E+06         0.13143E+06         0.00000E+00
    0.00000E+00         0.00000E+00         0.00000E+00
 
    0.17078E+06         0.33171E+06         0.00000E+00
    0.33171E+06         0.13854E+06         0.00000E+00
    0.00000E+00         0.00000E+00         0.00000E+00
 
    0.15687E+06         0.33586E+06         0.00000E+00
    0.33586E+06         0.14575E+06         0.00000E+00
    0.00000E+00         0.00000E+00         0.00000E+00
 
    0.14276E+06         0.33970E+06         0.00000E+00
    0.33970E+06         0.15304E+06         0.00000E+00
    0.00000E+00         0.00000E+00         0.00000E+00
 
    0.12845E+06         0.34325E+06         0.00000E+00
    0.34325E+06         0.16042E+06         0.00000E+00
    0.00000E+00         0.00000E+00         0.00000E+00
 
    0.11394E+06         0.34650E+06         0.00000E+00
    0.34650E+06         0.16787E+06         0.00000E+00
    0.00000E+00         0.00000E+00         0.00000E+00
 
    0.99259E+05         0.34945E+06         0.00000E+00
    0.34945E+06         0.17540E+06         0.00000E+00
    0.00000E+00         0.00000E+00         0.00000E+00
 
    0.84401E+05         0.35210E+06         0.00000E+00
    0.35210E+06         0.18299E+06         0.00000E+00
    0.00000E+00         0.00000E+00         0.00000E+00
 
    0.69380E+05         0.35443E+06         0.00000E+00
    0.35443E+06         0.19064E+06         0.00000E+00
    0.00000E+00         0.00000E+00         0.00000E+00
 
    0.54203E+05         0.35645E+06         0.00000E+00
    0.35645E+06         0.19834E+06         0.00000E+00
    0.00000E+00         0.00000E+00         0.00000E+00
 
    0.38880E+05         0.35816E+06         0.00000E+00
    0.35816E+06         0.20609E+06         0.00000E+00
    0.00000E+00         0.00000E+00         0.00000E+00
 
    0.23418E+05         0.35956E+06         0.00000E+00
    0.35956E+06         0.21388E+06         0.00000E+00
    0.00000E+00         0.00000E+00         0.00000E+00
 
    0.78268E+04         0.36063E+06         0.00000E+00
    0.36063E+06         0.22172E+06         0.00000E+00
    0.00000E+00         0.00000E+00         0.00000E+00
 
    0.52149E+06         0.63619E+04         0.00000E+00
    0.63619E+04        -0.24075E+05         0.00000E+00
    0.00000E+00         0.00000E+00         0.00000E+00
 
    0.52101E+06         0.18964E+05         0.00000E+00
    0.18964E+05        -0.23788E+05         0.00000E+00
    0.00000E+00         0.00000E+00         0.00000E+00
 
    0.51999E+06         0.31506E+05         0.00000E+00
    0.31506E+05        -0.23219E+05         0.00000E+00
    0.00000E+00         0.00000E+00         0.00000E+00
 
    0.51845E+06         0.43979E+05         0.00000E+00
    0.43979E+05        -0.22371E+05         0.00000E+00
    0.00000E+00         0.00000E+00         0.00000E+00
 
    0.51639E+06         0.56372E+05         0.00000E+00
    0.56372E+05        -0.21246E+05         0.00000E+00
    0.00000E+00         0.00000E+00         0.00000E+00
 
    0.51382E+06         0.68675E+05         0.00000E+00
    0.68675E+05        -0.19848E+05         0.00000E+00
    0.00000E+00         0.00000E+00         0.00000E+00
 
    0.51074E+06         0.80878E+05         0.00000E+00
    0.80878E+05        -0.18181E+05         0.00000E+00
    0.00000E+00         0.00000E+00         0.00000E+00
 
    0.50716E+06         0.92970E+05         0.00000E+00
    0.92970E+05        -0.16248E+05         0.00000E+00
    0.00000E+00         0.00000E+00         0.00000E+00
 
    0.50308E+06         0.10494E+06         0.00000E+00
    0.10494E+06        -0.14052E+05         0.00000E+00
    0.00000E+00         0.00000E+00         0.00000E+00
 
    0.49852E+06         0.11679E+06         0.00000E+00
    0.11679E+06        -0.11597E+05         0.00000E+00
    0.00000E+00         0.00000E+00         0.00000E+00
 
    0.49348E+06         0.12849E+06         0.00000E+00
    0.12849E+06        -0.88874E+04         0.00000E+00
    0.00000E+00         0.00000E+00         0.00000E+00
 
    0.48796E+06         0.14005E+06         0.00000E+00
    0.14005E+06        -0.59272E+04         0.00000E+00
    0.00000E+00         0.00000E+00         0.00000E+00
 
    0.48197E+06         0.15145E+06         0.00000E+00
    0.15145E+06        -0.27203E+04         0.00000E+00
    0.00000E+00         0.00000E+00         0.00000E+00
 
    0.47553E+06         0.16269E+06         0.00000E+00
    0.16269E+06         0.72874E+03         0.00000E+00
    0.00000E+00         0.00000E+00         0.00000E+00
 
    0.46864E+06         0.17375E+06         0.00000E+00
    0.17375E+06         0.44157E+04         0.00000E+00
    0.00000E+00         0.00000E+00         0.00000E+00
 
    0.46130E+06         0.18464E+06         0.00000E+00
    0.18464E+06         0.83359E+04         0.00000E+00
    0.00000E+00         0.00000E+00         0.00000E+00
 
    0.45352E+06         0.19533E+06         0.00000E+00
    0.19533E+06         0.12485E+05         0.00000E+00
    0.00000E+00         0.00000E+00         0.00000E+00
 
    0.44532E+06         0.20583E+06         0.00000E+00
    0.20583E+06         0.16858E+05         0.00000E+00
    0.00000E+00         0.00000E+00         0.00000E+00
 
    0.43670E+06         0.21613E+06         0.00000E+00
    0.21613E+06         0.21450E+05         0.00000E+00
    0.00000E+00         0.00000E+00         0.00000E+00
 
    0.42767E+06         0.22621E+06         0.00000E+00
    0.22621E+06         0.26256E+05         0.00000E+00
    0.00000E+00         0.00000E+00         0.00000E+00
 
    0.41823E+06         0.23608E+06         0.00000E+00
    0.23608E+06         0.31272E+05         0.00000E+00
    0.00000E+00         0.00000E+00         0.00000E+00
 
    0.40840E+06         0.24572E+06         0.00000E+00
    0.24572E+06         0.36492E+05         0.00000E+00
    0.00000E+00         0.00000E+00         0.00000E+00
 
    0.39818E+06         0.25512E+06         0.00000E+00
    0.25512E+06         0.41910E+05         0.00000E+00
    0.00000E+00         0.00000E+00         0.00000E+00
 
    0.38758E+06         0.26429E+06         0.00000E+00
    0.26429E+06         0.47523E+05         0.00000E+00
    0.00000E+00         0.00000E+00         0.00000E+00
 
    0.37662E+06         0.27322E+06         0.00000E+00
    0.27322E+06         0.53325E+05         0.00000E+00
    0.00000E+00         0.00000E+00         0.00000E+00
 
    0.36529E+06         0.28189E+06         0.00000E+00
    0.28189E+06         0.59310E+05         0.00000E+00
    0.00000E+00         0.00000E+00         0.00000E+00
 
    0.35361E+06         0.29031E+06         0.00000E+00
    0.29031E+06         0.65472E+05         0.00000E+00
    0.00000E+00         0.00000E+00         0.00000E+00
 
    0.34159E+06         0.29847E+06         0.00000E+00
    0.29847E+06         0.71807E+05         0.00000E+00
    0.00000E+00         0.00000E+00         0.00000E+00
 
    0.32923E+06         0.30635E+06         0.00000E+00
    0.30635E+06         0.78310E+05         0.00000E+00
    0.00000E+00         0.00000E+00         0.00000E+00
 
    0.31655E+06         0.31397E+06         0.00000E+00
    0.31397E+06         0.84973E+05         0.00000E+00
    0.00000E+00         0.00000E+00         0.00000E+00
 
    0.30356E+06         0.32130E+06         0.00000E+00
    0.32130E+06         0.91793E+05         0.00000E+00
    0.00000E+00         0.00000E+00         0.00000E+00
 
    0.29025E+06         0.32835E+06         0.00000E+00
    0.32835E+06         0.98762E+05         0.00000E+00
    0.00000E+00         0.00000E+00         0.00000E+00
 
    0.27665E+06         0.33511E+06         0.00000E+00
    0.33511E+06         0.10588E+06         0.00000E+00
    0.00000E+00         0.00000E+00         0.00000E+00
 
    0.26276E+06         0.34158E+06         0.00000E+00
    0.34158E+06         0.11313E+06         0.00000E+00
    0.00000E+00         0.00000E+00         0.00000E+00
 
    0.24858E+06         0.34775E+06         0.00000E+00
    0.34775E+06         0.12051E+06         0.00000E+00
    0.00000E+00         0.00000E+00         0.00000E+00
 
    0.23414E+06         0.35362E+06         0.00000E+00
    0.35362E+06         0.12803E+06         0.00000E+00
    0.00000E+00         0.00000E+00         0.00000E+00
 
    0.21944E+06         0.35918E+06         0.00000E+00
    0.35918E+06         0.13566E+06         0.00000E+00
    0.00000E+00         0.00000E+00         0.00000E+00
 
    0.20448E+06         0.36444E+06         0.00000E+00
    0.36444E+06         0.14341E+06         0.00000E+00
    0.00000E+00         0.00000E+00         0.00000E+00
 
    0.18928E+06         0.36937E+06         0.00000E+00
    0.36937E+06         0.15127E+06         0.00000E+00
    0.00000E+00         0.00000E+00         0.00000E+00
 
    0.17384E+06         0.37399E+06         0.00000E+00
    0.37399E+06         0.15924E+06         0.00000E+00
    0.00000E+00         0.00000E+00         0.00000E+00
 
    0.15818E+06         0.37829E+06         0.00000E+00
    0.37829E+06         0.16730E+06         0.00000E+00
    0.00000E+00         0.00000E+00         0.00000E+00
 
    0.14231E+06         0.38226E+06         0.00000E+00
    0.38226E+06         0.17545E+06         0.00000E+00
    0.00000E+00         0.00000E+00         0.00000E+00
 
    0.12623E+06         0.38590E+06         0.00000E+00
    0.38590E+06         0.18369E+06         0.00000E+00
    0.00000E+00         0.00000E+00         0.00000E+00
 
    0.10995E+06         0.38921E+06         0.00000E+00
    0.38921E+06         0.19200E+06         0.00000E+00
    0.00000E+00         0.00000E+00         0.00000E+00
 
    0.93483E+05         0.39219E+06         0.00000E+00
    0.39219E+06         0.20040E+06         0.00000E+00
    0.00000E+00         0.00000E+00         0.00000E+00
 
    0.76839E+05         0.39482E+06         0.00000E+00
    0.39482E+06         0.20886E+06         0.00000E+00
    0.00000E+00         0.00000E+00         0.00000E+00
 
    0.60026E+05         0.39712E+06         0.00000E+00
    0.39712E+06         0.21738E+06         0.00000E+00
    0.00000E+00         0.00000E+00         0.00000E+00
 
    0.43053E+05         0.39907E+06         0.00000E+00
    0.39907E+06         0.22595E+06         0.00000E+00
    0.00000E+00         0.00000E+00         0.00000E+00
 
    0.25930E+05         0.40068E+06         0.00000E+00
    0.40068E+06         0.23458E+06         0.00000E+00
    0.00000E+00         0.00000E+00         0.00000E+00
 
    0.86660E+04         0.40194E+06         0.00000E+00
    0.40194E+06         0.24324E+06         0.00000E+00
    0.00000E+00         0.00000E+00         0.00000E+00
 
    0.58334E+06         0.71287E+04         0.00000E+00
    0.71287E+04        -0.29050E+05         0.00000E+00
    0.00000E+00         0.00000E+00         0.00000E+00
 
    0.58256E+06         0.21226E+05         0.00000E+00
    0.21226E+05        -0.28730E+05         0.00000E+00
    0.00000E+00         0.00000E+00         0.00000E+00
 
    0.58118E+06         0.35249E+05         0.00000E+00
    0.35249E+05        -0.28097E+05         0.00000E+00
    0.00000E+00         0.00000E+00         0.00000E+00
 
    0.57923E+06         0.49186E+05         0.00000E+00
    0.49186E+05        -0.27154E+05         0.00000E+00
    0.00000E+00         0.00000E+00         0.00000E+00
 
    0.57670E+06         0.63026E+05         0.00000E+00
    0.63026E+05        -0.25905E+05         0.00000E+00
    0.00000E+00         0.00000E+00         0.00000E+00
 
    0.57361E+06         0.76758E+05         0.00000E+00
    0.76758E+05        -0.24353E+05         0.00000E+00
    0.00000E+00         0.00000E+00         0.00000E+00
 
    0.56995E+06         0.90371E+05         0.00000E+00
    0.90371E+05        -0.22502E+05         0.00000E+00
    0.00000E+00         0.00000E+00         0.00000E+00
 
    0.56575E+06         0.10385E+06         0.00000E+00
    0.10385E+06        -0.20357E+05         0.00000E+00
    0.00000E+00         0.00000E+00         0.00000E+00
 
    0.56100E+06         0.11720E+06         0.00000E+00
    0.11720E+06        -0.17921E+05         0.00000E+00
    0.00000E+00         0.00000E+00         0.00000E+00
 
    0.55572E+06         0.13039E+06         0.00000E+00
    0.13039E+06        -0.15199E+05         0.00000E+00
    0.00000E+00         0.00000E+00         0.00000E+00
 
    0.54991E+06         0.14343E+06         0.00000E+00
    0.14343E+06        -0.12196E+05         0.00000E+00
    0.00000E+00         0.00000E+00         0.00000E+00
 
    0.54358E+06         0.15629E+06         0.00000E+00
    0.15629E+06        -0.89164E+04         0.00000E+00
    0.00000E+00         0.00000E+00         0.00000E+00
 
    0.53673E+06         0.16898E+06         0.00000E+00
    0.16898E+06        -0.53646E+04         0.00000E+00
    0.00000E+00         0.00000E+00         0.00000E+00
 
    0.52939E+06         0.18148E+06         0.00000E+00
    0.18148E+06        -0.15458E+04         0.00000E+00
    0.00000E+00         0.00000E+00         0.00000E+00
 
    0.52155E+06         0.19378E+06         0.00000E+00
    0.19378E+06         0.25351E+04         0.00000E+00
    0.00000E+00         0.00000E+00         0.00000E+00
 
    0.51323E+06         0.20588E+06         0.00000E+00
    0.20588E+06         0.68730E+04         0.00000E+00
    0.00000E+00         0.00000E+00         0.00000E+00
 
    0.50443E+06         0.21776E+06         0.00000E+00
    0.21776E+06         0.11463E+05         0.00000E+00
    0.00000E+00         0.00000E+00         0.00000E+00
 
    0.49516E+06         0.22942E+06         0.00000E+00
    0.22942E+06         0.16299E+05         0.00000E+00
    0.00000E+00         0.00000E+00         0.00000E+00
 
    0.48544E+06         0.24085E+06         0.00000E+00
    0.24085E+06         0.21376E+05         0.00000E+00
    0.00000E+00         0.00000E+00         0.00000E+00
 
    0.47527E+06         0.25205E+06         0.00000E+00
    0.25205E+06         0.26688E+05         0.00000E+00
    0.00000E+00         0.00000E+00         0.00000E+00
 
    0.46466E+06         0.26300E+06         0.00000E+00
    0.26300E+06         0.32231E+05         0.00000E+00
    0.00000E+00         0.00000E+00         0.00000E+00
 
    0.45362E+06         0.27369E+06         0.00000E+00
    0.27369E+06         0.37998E+05         0.00000E+00
    0.00000E+00         0.00000E+00         0.00000E+00
 
    0.44215E+06         0.28413E+06         0.00000E+00
    0.28413E+06         0.43984E+05         0.00000E+00
    0.00000E+00         0.00000E+00         0.00000E+00
 
    0.43028E+06         0.29430E+06         0.00000E+00
    0.29430E+06         0.50183E+05         0.00000E+00
    0.00000E+00         0.00000E+00         0.00000E+00
 
    0.41801E+06         0.30420E+06         0.00000E+00
    0.30420E+06         0.56589E+05         0.00000E+00
    0.00000E+00         0.00000E+00         0.00000E+00
 
    0.40534E+06         0.31383E+06         0.00000E+00
    0.31383E+06         0.63197E+05         0.00000E+00
    0.00000E+00         0.00000E+00         0.00000E+00
 
    0.39229E+06         0.32316E+06         0.00000E+00
    0.32316E+06         0.70000E+05         0.00000E+00
    0.00000E+00         0.00000E+00         0.00000E+00
 
    0.37888E+06         0.33221E+06         0.00000E+00
    0.33221E+06         0.76992E+05         0.00000E+00
    0.00000E+00         0.00000E+00         0.00000E+00
 
    0.36509E+06         0.34095E+06         0.00000E+00
    0.34095E+06         0.84168E+05         0.00000E+00
    0.00000E+00         0.00000E+00         0.00000E+00
 
    0.35096E+06         0.34940E+06         0.00000E+00
    0.34940E+06         0.91521E+05         0.00000E+00
    0.00000E+00         0.00000E+00         0.00000E+00
 
    0.33648E+06         0.35754E+06         0.00000E+00
    0.35754E+06         0.99046E+05         0.00000E+00
    0.00000E+00         0.00000E+00         0.00000E+00
 
    0.32167E+06         0.36536E+06         0.00000E+00
    0.36536E+06         0.10674E+06         0.00000E+00
    0.00000E+00         0.00000E+00         0.00000E+00
 
    0.30654E+06         0.37287E+06         0.00000E+00
    0.37287E+06         0.11458E+06         0.00000E+00
    0.00000E+00         0.00000E+00         0.00000E+00
 
    0.29110E+06         0.38005E+06         0.00000E+00
    0.38005E+06         0.12259E+06         0.00000E+00
    0.00000E+00         0.00000E+00         0.00000E+00
 
    0.27535E+06         0.38690E+06         0.00000E+00
    0.38690E+06         0.13073E+06         0.00000E+00
    0.00000E+00         0.00000E+00         0.00000E+00
 
    0.25931E+06         0.39343E+06         0.00000E+00
    0.39343E+06         0.13902E+06         0.00000E+00
    0.00000E+00         0.00000E+00         0.00000E+00
 
    0.24299E+06         0.39961E+06         0.00000E+00
    0.39961E+06         0.14744E+06         0.00000E+00
    0.00000E+00         0.00000E+00         0.00000E+00
 
    0.22639E+06         0.40545E+06         0.00000E+00
    0.40545E+06         0.15599E+06         0.00000E+00
    0.00000E+00         0.00000E+00         0.00000E+00
 
    0.20953E+06         0.41095E+06         0.00000E+00
    0.41095E+06         0.16467E+06         0.00000E+00
    0.00000E+00         0.00000E+00         0.00000E+00
 
    0.19242E+06         0.41610E+06         0.00000E+00
    0.41610E+06         0.17345E+06         0.00000E+00
    0.00000E+00         0.00000E+00         0.00000E+00
 
    0.17506E+06         0.42090E+06         0.00000E+00
    0.42090E+06         0.18235E+06         0.00000E+00
    0.00000E+00         0.00000E+00         0.00000E+00
 
    0.15748E+06         0.42534E+06         0.00000E+00
    0.42534E+06         0.19135E+06         0.00000E+00
    0.00000E+00         0.00000E+00         0.00000E+00
 
    0.13967E+06         0.42942E+06         0.00000E+00
    0.42942E+06         0.20044E+06         0.00000E+00
    0.00000E+00         0.00000E+00         0.00000E+00
 
    0.12164E+06         0.43313E+06         0.00000E+00
    0.43313E+06         0.20962E+06         0.00000E+00
    0.00000E+00         0.00000E+00         0.00000E+00
 
    0.10341E+06         0.43648E+06         0.00000E+00
    0.43648E+06         0.21889E+06         0.00000E+00
    0.00000E+00         0.00000E+00         0.00000E+00
 
    0.84994E+05         0.43946E+06         0.00000E+00
    0.43946E+06         0.22823E+06         0.00000E+00
    0.00000E+00         0.00000E+00         0.00000E+00
 
    0.66391E+05         0.44207E+06         0.00000E+00
    0.44207E+06         0.23764E+06         0.00000E+00
    0.00000E+00         0.00000E+00         0.00000E+00
 
    0.47615E+05         0.44430E+06         0.00000E+00
    0.44430E+06         0.24711E+06         0.00000E+00
    0.00000E+00         0.00000E+00         0.00000E+00
 
    0.28676E+05         0.44616E+06         0.00000E+00
    0.44616E+06         0.25664E+06         0.00000E+00
    0.00000E+00         0.00000E+00         0.00000E+00
 
    0.95832E+04         0.44763E+06         0.00000E+00
    0.44763E+06         0.26623E+06         0.00000E+00
    0.00000E+00         0.00000E+00         0.00000E+00
 
    0.65212E+06         0.79828E+04         0.00000E+00
    0.79828E+04        -0.35030E+05         0.00000E+00
    0.00000E+00         0.00000E+00         0.00000E+00
 
    0.65094E+06         0.23741E+05         0.00000E+00
    0.23741E+05        -0.34675E+05         0.00000E+00
    0.00000E+00         0.00000E+00         0.00000E+00
 
    0.64912E+06         0.39407E+05         0.00000E+00
    0.39407E+05        -0.33972E+05         0.00000E+00
    0.00000E+00         0.00000E+00         0.00000E+00
 
    0.64666E+06         0.54968E+05         0.00000E+00
    0.54968E+05        -0.32925E+05         0.00000E+00
    0.00000E+00         0.00000E+00         0.00000E+00
 
    0.64357E+06         0.70411E+05         0.00000E+00
    0.70411E+05        -0.31539E+05         0.00000E+00
    0.00000E+00         0.00000E+00         0.00000E+00
 
    0.63986E+06         0.85726E+05         0.00000E+00
    0.85726E+05        -0.29818E+05         0.00000E+00
    0.00000E+00         0.00000E+00         0.00000E+00
 
    0.63553E+06         0.10090E+06         0.00000E+00
    0.10090E+06        -0.27767E+05         0.00000E+00
    0.00000E+00         0.00000E+00         0.00000E+00
 
    0.63060E+06         0.11592E+06         0.00000E+00
    0.11592E+06        -0.25390E+05         0.00000E+00
    0.00000E+00         0.00000E+00         0.00000E+00
 
    0.62507E+06         0.13078E+06         0.00000E+00
    0.13078E+06        -0.22692E+05         0.00000E+00
    0.00000E+00         0.00000E+00         0.00000E+00
 
    0.61895E+06         0.14546E+06         0.00000E+00
    0.14546E+06        -0.19679E+05         0.00000E+00
    0.00000E+00         0.00000E+00         0.00000E+00
 
    0.61226E+06         0.15996E+06         0.00000E+00
    0.15996E+06        -0.16356E+05         0.00000E+00
    0.00000E+00         0.00000E+00         0.00000E+00
 
    0.60499E+06         0.17427E+06         0.00000E+00
    0.17427E+06        -0.12728E+05         0.00000E+00
    0.00000E+00         0.00000E+00         0.00000E+00
 
    0.59717E+06         0.18837E+06         0.00000E+00
    0.18837E+06        -0.88005E+04         0.00000E+00
    0.00000E+00         0.00000E+00         0.00000E+00
 
    0.58880E+06         0.20226E+06         0.00000E+00
    0.20226E+06        -0.45790E+04         0.00000E+00
    0.00000E+00         0.00000E+00         0.00000E+00
 
    0.57989E+06         0.21592E+06         0.00000E+00
    0.21592E+06        -0.69361E+02         0.00000E+00
    0.00000E+00         0.00000E+00         0.00000E+00
 
    0.57045E+06         0.22935E+06         0.00000E+00
    0.22935E+06         0.47228E+04         0.00000E+00
    0.00000E+00         0.00000E+00         0.00000E+00
 
    0.56050E+06         0.24254E+06         0.00000E+00
    0.24254E+06         0.97915E+04         0.00000E+00
    0.00000E+00         0.00000E+00         0.00000E+00
 
    0.55003E+06         0.25548E+06         0.00000E+00
    0.25548E+06         0.15131E+05         0.00000E+00
    0.00000E+00         0.00000E+00         0.00000E+00
 
    0.53907E+06         0.26816E+06         0.00000E+00
    0.26816E+06         0.20735E+05         0.00000E+00
    0.00000E+00         0.00000E+00         0.00000E+00
 
    0.52762E+06         0.28058E+06         0.00000E+00
    0.28058E+06         0.26598E+05         0.00000E+00
    0.00000E+00         0.00000E+00         0.00000E+00
 
    0.51569E+06         0.29272E+06         0.00000E+00
    0.29272E+06         0.32713E+05         0.00000E+00
    0.00000E+00         0.00000E+00         0.00000E+00
 
    0.50330E+06         0.30457E+06         0.00000E+00
    0.30457E+06         0.39074E+05         0.00000E+00
    0.00000E+00         0.00000E+00         0.00000E+00
 
    0.49045E+06         0.31614E+06         0.00000E+00
    0.31614E+06         0.45675E+05         0.00000E+00
    0.00000E+00         0.00000E+00         0.00000E+00
 
    0.47716E+06         0.32742E+06         0.00000E+00
    0.32742E+06         0.52510E+05         0.00000E+00
    0.00000E+00         0.00000E+00         0.00000E+00
 
    0.46343E+06         0.33839E+06         0.00000E+00
    0.33839E+06         0.59571E+05         0.00000E+00
    0.00000E+00         0.00000E+00         0.00000E+00
 
    0.44928E+06         0.34905E+06         0.00000E+00
    0.34905E+06         0.66854E+05         0.00000E+00
    0.00000E+00         0.00000E+00         0.00000E+00
 
    0.43471E+06         0.35939E+06         0.00000E+00
    0.35939E+06         0.74351E+05         0.00000E+00
    0.00000E+00         0.00000E+00         0.00000E+00
 
    0.41975E+06         0.36941E+06         0.00000E+00
    0.36941E+06         0.82056E+05         0.00000E+00
    0.00000E+00         0.00000E+00         0.00000E+00
 
    0.40439E+06         0.37911E+06         0.00000E+00
    0.37911E+06         0.89962E+05         0.00000E+00
    0.00000E+00         0.00000E+00         0.00000E+00
 
    0.38865E+06         0.38847E+06         0.00000E+00
    0.38847E+06         0.98062E+05         0.00000E+00
    0.00000E+00         0.00000E+00         0.00000E+00
 
    0.37254E+06         0.39749E+06         0.00000E+00
    0.39749E+06         0.10635E+06         0.00000E+00
    0.00000E+00         0.00000E+00         0.00000E+00
 
    0.35607E+06         0.40616E+06         0.00000E+00
    0.40616E+06         0.11482E+06         0.00000E+00
    0.00000E+00         0.00000E+00         0.00000E+00
 
    0.33926E+06         0.41448E+06         0.00000E+00
    0.41448E+06         0.12347E+06         0.00000E+00
    0.00000E+00         0.00000E+00         0.00000E+00
 
    0.32210E+06         0.42245E+06         0.00000E+00
    0.42245E+06         0.13228E+06         0.00000E+00
    0.00000E+00         0.00000E+00         0.00000E+00
 
    0.30462E+06         0.43006E+06         0.00000E+00
    0.43006E+06         0.14125E+06         0.00000E+00
    0.00000E+00         0.00000E+00         0.00000E+00
 
    0.28683E+06         0.43730E+06         0.00000E+00
    0.43730E+06         0.15038E+06         0.00000E+00
    0.00000E+00         0.00000E+00         0.00000E+00
 
    0.26873E+06         0.44417E+06         0.00000E+00
    0.44417E+06         0.15966E+06         0.00000E+00
    0.00000E+00         0.00000E+00         0.00000E+00
 
    0.25034E+06         0.45067E+06         0.00000E+00
    0.45067E+06         0.16908E+06         0.00000E+00
    0.00000E+00         0.00000E+00         0.00000E+00
 
    0.23166E+06         0.45679E+06         0.00000E+00
    0.45679E+06         0.17863E+06         0.00000E+00
    0.00000E+00         0.00000E+00         0.00000E+00
 
    0.21271E+06         0.46253E+06         0.00000E+00
    0.46253E+06         0.18831E+06         0.00000E+00
    0.00000E+00         0.00000E+00         0.00000E+00
 
    0.19350E+06         0.46788E+06         0.00000E+00
    0.46788E+06         0.19811E+06         0.00000E+00
    0.00000E+00         0.00000E+00         0.00000E+00
 
    0.17404E+06         0.47285E+06         0.00000E+00
    0.47285E+06         0.20802E+06         0.00000E+00
    0.00000E+00         0.00000E+00         0.00000E+00
 
    0.15433E+06         0.47742E+06         0.00000E+00
    0.47742E+06         0.21804E+06         0.00000E+00
    0.00000E+00         0.00000E+00         0.00000E+00
 
    0.13440E+06         0.48159E+06         0.00000E+00
    0.48159E+06         0.22817E+06         0.00000E+00
    0.00000E+00         0.00000E+00         0.00000E+00
 
    0.11425E+06         0.48536E+06         0.00000E+00
    0.48536E+06         0.23838E+06         0.00000E+00
    0.00000E+00         0.00000E+00         0.00000E+00
 
    0.93892E+05         0.48873E+06         0.00000E+00
    0.48873E+06         0.24868E+06         0.00000E+00
    0.00000E+00         0.00000E+00         0.00000E+00
 
    0.73335E+05         0.49169E+06         0.00000E+00
    0.49169E+06         0.25906E+06         0.00000E+00
    0.00000E+00         0.00000E+00         0.00000E+00
 
    0.52591E+05         0.49425E+06         0.00000E+00
    0.49425E+06         0.26951E+06         0.00000E+00
    0.00000E+00         0.00000E+00         0.00000E+00
 
    0.31670E+05         0.49639E+06         0.00000E+00
    0.49639E+06         0.28003E+06         0.00000E+00
    0.00000E+00         0.00000E+00         0.00000E+00
 
    0.10583E+05         0.49811E+06         0.00000E+00
    0.49811E+06         0.29061E+06         0.00000E+00
    0.00000E+00         0.00000E+00         0.00000E+00
 
    0.72849E+06         0.89328E+04         0.00000E+00
    0.89328E+04        -0.42213E+05         0.00000E+00
    0.00000E+00         0.00000E+00         0.00000E+00
 
    0.72683E+06         0.26534E+05         0.00000E+00
    0.26534E+05        -0.41819E+05         0.00000E+00
    0.00000E+00         0.00000E+00         0.00000E+00
 
    0.72446E+06         0.44020E+05         0.00000E+00
    0.44020E+05        -0.41039E+05         0.00000E+00
    0.00000E+00         0.00000E+00         0.00000E+00
 
    0.72139E+06         0.61379E+05         0.00000E+00
    0.61379E+05        -0.39879E+05         0.00000E+00
    0.00000E+00         0.00000E+00         0.00000E+00
 
    0.71763E+06         0.78596E+05         0.00000E+00
    0.78596E+05        -0.38344E+05         0.00000E+00
    0.00000E+00         0.00000E+00         0.00000E+00
 
    0.71317E+06         0.95659E+05         0.00000E+00
    0.95659E+05        -0.36439E+05         0.00000E+00
    0.00000E+00         0.00000E+00         0.00000E+00
 
    0.70805E+06         0.11256E+06         0.00000E+00
    0.11256E+06        -0.34169E+05         0.00000E+00
    0.00000E+00         0.00000E+00         0.00000E+00
 
    0.70226E+06         0.12927E+06         0.00000E+00
    0.12927E+06        -0.31540E+05         0.00000E+00
    0.00000E+00         0.00000E+00         0.00000E+00
 
    0.69582E+06         0.14580E+06         0.00000E+00
    0.14580E+06        -0.28558E+05         0.00000E+00
    0.00000E+00         0.00000E+00         0.00000E+00
 
    0.68874E+06         0.16213E+06         0.00000E+00
    0.16213E+06        -0.25228E+05         0.00000E+00
    0.00000E+00         0.00000E+00         0.00000E+00
 
    0.68103E+06         0.17824E+06         0.00000E+00
    0.17824E+06        -0.21557E+05         0.00000E+00
    0.00000E+00         0.00000E+00         0.00000E+00
 
    0.67270E+06         0.19413E+06         0.00000E+00
    0.19413E+06        -0.17551E+05         0.00000E+00
    0.00000E+00         0.00000E+00         0.00000E+00
 
    0.66376E+06         0.20979E+06         0.00000E+00
    0.20979E+06        -0.13216E+05         0.00000E+00
    0.00000E+00         0.00000E+00         0.00000E+00
 
    0.65422E+06         0.22520E+06         0.00000E+00
    0.22520E+06        -0.85574E+04         0.00000E+00
    0.00000E+00         0.00000E+00         0.00000E+00
 
    0.64409E+06         0.24036E+06         0.00000E+00
    0.24036E+06        -0.35829E+04         0.00000E+00
    0.00000E+00         0.00000E+00         0.00000E+00
 
    0.63339E+06         0.25526E+06         0.00000E+00
    0.25526E+06         0.17016E+04         0.00000E+00
    0.00000E+00         0.00000E+00         0.00000E+00
 
    0.62213E+06         0.26988E+06         0.00000E+00
    0.26988E+06         0.72893E+04         0.00000E+00
    0.00000E+00         0.00000E+00         0.00000E+00
 
    0.61032E+06         0.28422E+06         0.00000E+00
    0.28422E+06         0.13174E+05         0.00000E+00
    0.00000E+00         0.00000E+00         0.00000E+00
 
    0.59797E+06         0.29827E+06         0.00000E+00
    0.29827E+06         0.19348E+05         0.00000E+00
    0.00000E+00         0.00000E+00         0.00000E+00
 
    0.58508E+06         0.31203E+06         0.00000E+00
    0.31203E+06         0.25806E+05         0.00000E+00
    0.00000E+00         0.00000E+00         0.00000E+00
 
    0.57169E+06         0.32547E+06         0.00000E+00
    0.32547E+06         0.32540E+05         0.00000E+00
    0.00000E+00         0.00000E+00         0.00000E+00
 
    0.55779E+06         0.33860E+06         0.00000E+00
    0.33860E+06         0.39543E+05         0.00000E+00
    0.00000E+00         0.00000E+00         0.00000E+00
 
    0.54339E+06         0.35141E+06         0.00000E+00
    0.35141E+06         0.46809E+05         0.00000E+00
    0.00000E+00         0.00000E+00         0.00000E+00
 
    0.52852E+06         0.36389E+06         0.00000E+00
    0.36389E+06         0.54331E+05         0.00000E+00
    0.00000E+00         0.00000E+00         0.00000E+00
 
    0.51317E+06         0.37603E+06         0.00000E+00
    0.37603E+06         0.62102E+05         0.00000E+00
    0.00000E+00         0.00000E+00         0.00000E+00
 
    0.49737E+06         0.38783E+06         0.00000E+00
    0.38783E+06         0.70114E+05         0.00000E+00
    0.00000E+00         0.00000E+00         0.00000E+00
 
    0.48113E+06         0.39928E+06         0.00000E+00
    0.39928E+06         0.78360E+05         0.00000E+00
    0.00000E+00         0.00000E+00         0.00000E+00
 
    0.46445E+06         0.41037E+06         0.00000E+00
    0.41037E+06         0.86834E+05         0.00000E+00
    0.00000E+00         0.00000E+00         0.00000E+00
 
    0.44735E+06         0.42110E+06         0.00000E+00
    0.42110E+06         0.95529E+05         0.00000E+00
    0.00000E+00         0.00000E+00         0.00000E+00
 
    0.42984E+06         0.43146E+06         0.00000E+00
    0.43146E+06         0.10444E+06         0.00000E+00
    0.00000E+00         0.00000E+00         0.00000E+00
 
    0.41193E+06         0.44145E+06         0.00000E+00
    0.44145E+06         0.11355E+06         0.00000E+00
    0.00000E+00         0.00000E+00         0.00000E+00
 
    0.39364E+06         0.45106E+06         0.00000E+00
    0.45106E+06         0.12286E+06         0.00000E+00
    0.00000E+00         0.00000E+00         0.00000E+00
 
    0.37497E+06         0.46028E+06         0.00000E+00
    0.46028E+06         0.13237E+06         0.00000E+00
    0.00000E+00         0.00000E+00         0.00000E+00
 
    0.35594E+06         0.46911E+06         0.00000E+00
    0.46911E+06         0.14206E+06         0.00000E+00
    0.00000E+00         0.00000E+00         0.00000E+00
 
    0.33657E+06         0.47755E+06         0.00000E+00
    0.47755E+06         0.15192E+06         0.00000E+00
    0.00000E+00         0.00000E+00         0.00000E+00
 
    0.31685E+06         0.48558E+06         0.00000E+00
    0.48558E+06         0.16196E+06         0.00000E+00
    0.00000E+00         0.00000E+00         0.00000E+00
 
    0.29680E+06         0.49322E+06         0.00000E+00
    0.49322E+06         0.17216E+06         0.00000E+00
    0.00000E+00         0.00000E+00         0.00000E+00
 
    0.27644E+06         0.50044E+06         0.00000E+00
    0.50044E+06         0.18252E+06         0.00000E+00
    0.00000E+00         0.00000E+00         0.00000E+00
 
    0.25578E+06         0.50725E+06         0.00000E+00
    0.50725E+06         0.19302E+06         0.00000E+00
    0.00000E+00         0.00000E+00         0.00000E+00
 
    0.23482E+06         0.51364E+06         0.00000E+00
    0.51364E+06         0.20367E+06         0.00000E+00
    0.00000E+00         0.00000E+00         0.00000E+00
 
    0.21358E+06         0.51961E+06         0.00000E+00
    0.51961E+06         0.21445E+06         0.00000E+00
    0.00000E+00         0.00000E+00         0.00000E+00
 
    0.19207E+06         0.52516E+06         0.00000E+00
    0.52516E+06         0.22535E+06         0.00000E+00
    0.00000E+00         0.00000E+00         0.00000E+00
 
    0.17031E+06         0.53027E+06         0.00000E+00
    0.53027E+06         0.23638E+06         0.00000E+00
    0.00000E+00         0.00000E+00         0.00000E+00
 
    0.14829E+06         0.53496E+06         0.00000E+00
    0.53496E+06         0.24752E+06         0.00000E+00
    0.00000E+00         0.00000E+00         0.00000E+00
 
    0.12605E+06         0.53921E+06         0.00000E+00
    0.53921E+06         0.25876E+06         0.00000E+00
    0.00000E+00         0.00000E+00         0.00000E+00
 
    0.10358E+06         0.54302E+06         0.00000E+00
    0.54302E+06         0.27010E+06         0.00000E+00
    0.00000E+00         0.00000E+00         0.00000E+00
 
    0.80890E+05         0.54639E+06         0.00000E+00
    0.54639E+06         0.28153E+06         0.00000E+00
    0.00000E+00         0.00000E+00         0.00000E+00
 
    0.58004E+05         0.54931E+06         0.00000E+00
    0.54931E+06         0.29305E+06         0.00000E+00
    0.00000E+00         0.00000E+00         0.00000E+00
 
    0.34927E+05         0.55179E+06         0.00000E+00
    0.55179E+06         0.30464E+06         0.00000E+00
    0.00000E+00         0.00000E+00         0.00000E+00
 
    0.11671E+05         0.55381E+06         0.00000E+00
    0.55381E+06         0.31629E+06         0.00000E+00
    0.00000E+00         0.00000E+00         0.00000E+00
 
    0.81318E+06         0.99876E+04         0.00000E+00
    0.99876E+04        -0.50834E+05         0.00000E+00
    0.00000E+00         0.00000E+00         0.00000E+00
 
    0.81093E+06         0.29629E+05         0.00000E+00
    0.29629E+05        -0.50398E+05         0.00000E+00
    0.00000E+00         0.00000E+00         0.00000E+00
 
    0.80789E+06         0.49130E+05         0.00000E+00
    0.49130E+05        -0.49535E+05         0.00000E+00
    0.00000E+00         0.00000E+00         0.00000E+00
 
    0.80407E+06         0.68475E+05         0.00000E+00
    0.68475E+05        -0.48252E+05         0.00000E+00
    0.00000E+00         0.00000E+00         0.00000E+00
 
    0.79950E+06         0.87651E+05         0.00000E+00
    0.87651E+05        -0.46554E+05         0.00000E+00
    0.00000E+00         0.00000E+00         0.00000E+00
 
    0.79417E+06         0.10664E+06         0.00000E+00
    0.10664E+06        -0.44449E+05         0.00000E+00
    0.00000E+00         0.00000E+00         0.00000E+00
 
    0.78812E+06         0.12544E+06         0.00000E+00
    0.12544E+06        -0.41942E+05         0.00000E+00
    0.00000E+00         0.00000E+00         0.00000E+00
 
    0.78133E+06         0.14403E+06         0.00000E+00
    0.14403E+06        -0.39040E+05         0.00000E+00
    0.00000E+00         0.00000E+00         0.00000E+00
 
    0.77383E+06         0.16239E+06         0.00000E+00
    0.16239E+06        -0.35749E+05         0.00000E+00
    0.00000E+00         0.00000E+00         0.00000E+00
 
    0.76564E+06         0.18053E+06         0.00000E+00
    0.18053E+06        -0.32076E+05         0.00000E+00
    0.00000E+00         0.00000E+00         0.00000E+00
 
    0.75676E+06         0.19841E+06         0.00000E+00
    0.19841E+06        -0.28029E+05         0.00000E+00
    0.00000E+00         0.00000E+00         0.00000E+00
 
    0.74720E+06         0.21605E+06         0.00000E+00
    0.21605E+06        -0.23614E+05         0.00000E+00
    0.00000E+00         0.00000E+00         0.00000E+00
 
    0.73698E+06         0.23341E+06         0.00000E+00
    0.23341E+06        -0.18837E+05         0.00000E+00
    0.00000E+00         0.00000E+00         0.00000E+00
 
    0.72611E+06         0.25050E+06         0.00000E+00
    0.25050E+06        -0.13707E+05         0.00000E+00
    0.00000E+00         0.00000E+00         0.00000E+00
 
    0.71461E+06         0.26729E+06         0.00000E+00
    0.26729E+06        -0.82308E+04         0.00000E+00
    0.00000E+00         0.00000E+00         0.00000E+00
 
    0.70249E+06         0.28379E+06         0.00000E+00
    0.28379E+06        -0.24150E+04         0.00000E+00
    0.00000E+00         0.00000E+00         0.00000E+00
 
    0.68975E+06         0.29999E+06         0.00000E+00
    0.29999E+06         0.37327E+04         0.00000E+00
    0.00000E+00         0.00000E+00         0.00000E+00
 
    0.67642E+06         0.31586E+06         0.00000E+00
    0.31586E+06         0.10205E+05         0.00000E+00
    0.00000E+00         0.00000E+00         0.00000E+00
 
    0.66251E+06         0.33141E+06         0.00000E+00
    0.33141E+06         0.16994E+05         0.00000E+00
    0.00000E+00         0.00000E+00         0.00000E+00
 
    0.64802E+06         0.34663E+06         0.00000E+00
    0.34663E+06         0.24093E+05         0.00000E+00
    0.00000E+00         0.00000E+00         0.00000E+00
 
    0.63298E+06         0.36150E+06         0.00000E+00
    0.36150E+06         0.31493E+05         0.00000E+00
    0.00000E+00         0.00000E+00         0.00000E+00
 
    0.61740E+06         0.37602E+06         0.00000E+00
    0.37602E+06         0.39189E+05         0.00000E+00
    0.00000E+00         0.00000E+00         0.00000E+00
 
    0.60129E+06         0.39019E+06         0.00000E+00
    0.39019E+06         0.47171E+05         0.00000E+00
    0.00000E+00         0.00000E+00         0.00000E+00
 
    0.58466E+06         0.40398E+06         0.00000E+00
    0.40398E+06         0.55432E+05         0.00000E+00
    0.00000E+00         0.00000E+00         0.00000E+00
 
    0.56752E+06         0.41741E+06         0.00000E+00
    0.41741E+06         0.63965E+05         0.00000E+00
    0.00000E+00         0.00000E+00         0.00000E+00
 
    0.54990E+06         0.43045E+06         0.00000E+00
    0.43045E+06         0.72761E+05         0.00000E+00
    0.00000E+00         0.00000E+00         0.00000E+00
 
    0.53179E+06         0.44311E+06         0.00000E+00
    0.44311E+06         0.81814E+05         0.00000E+00
    0.00000E+00         0.00000E+00         0.00000E+00
 
    0.51323E+06         0.45537E+06         0.00000E+00
    0.45537E+06         0.91116E+05         0.00000E+00
    0.00000E+00         0.00000E+00         0.00000E+00
 
    0.49421E+06         0.46724E+06         0.00000E+00
    0.46724E+06         0.10066E+06         0.00000E+00
    0.00000E+00         0.00000E+00         0.00000E+00
 
    0.47475E+06         0.47869E+06         0.00000E+00
    0.47869E+06         0.11043E+06         0.00000E+00
    0.00000E+00         0.00000E+00         0.00000E+00
 
    0.45487E+06         0.48974E+06         0.00000E+00
    0.48974E+06         0.12044E+06         0.00000E+00
    0.00000E+00         0.00000E+00         0.00000E+00
 
    0.43457E+06         0.50037E+06         0.00000E+00
    0.50037E+06         0.13065E+06         0.00000E+00
    0.00000E+00         0.00000E+00         0.00000E+00
 
    0.41387E+06         0.51058E+06         0.00000E+00
    0.51058E+06         0.14108E+06         0.00000E+00
    0.00000E+00         0.00000E+00         0.00000E+00
 
    0.39279E+06         0.52036E+06         0.00000E+00
    0.52036E+06         0.15172E+06         0.00000E+00
    0.00000E+00         0.00000E+00         0.00000E+00
 
    0.37133E+06         0.52971E+06         0.00000E+00
    0.52971E+06         0.16254E+06         0.00000E+00
    0.00000E+00         0.00000E+00         0.00000E+00
 
    0.34951E+06         0.53862E+06         0.00000E+00
    0.53862E+06         0.17356E+06         0.00000E+00
    0.00000E+00         0.00000E+00         0.00000E+00
 
    0.32733E+06         0.54709E+06         0.00000E+00
    0.54709E+06         0.18475E+06         0.00000E+00
    0.00000E+00         0.00000E+00         0.00000E+00
 
    0.30483E+06         0.55511E+06         0.00000E+00
    0.55511E+06         0.19612E+06         0.00000E+00
    0.00000E+00         0.00000E+00         0.00000E+00
 
    0.28199E+06         0.56268E+06         0.00000E+00
    0.56268E+06         0.20765E+06         0.00000E+00
    0.00000E+00         0.00000E+00         0.00000E+00
 
    0.25885E+06         0.56980E+06         0.00000E+00
    0.56980E+06         0.21933E+06         0.00000E+00
    0.00000E+00         0.00000E+00         0.00000E+00
 
    0.23540E+06         0.57646E+06         0.00000E+00
    0.57646E+06         0.23117E+06         0.00000E+00
    0.00000E+00         0.00000E+00         0.00000E+00
 
    0.21166E+06         0.58266E+06         0.00000E+00
    0.58266E+06         0.24314E+06         0.00000E+00
    0.00000E+00         0.00000E+00         0.00000E+00
 
    0.18765E+06         0.58839E+06         0.00000E+00
    0.58839E+06         0.25525E+06         0.00000E+00
    0.00000E+00         0.00000E+00         0.00000E+00
 
    0.16338E+06         0.59365E+06         0.00000E+00
    0.59365E+06         0.26749E+06         0.00000E+00
    0.00000E+00         0.00000E+00         0.00000E+00
 
    0.13885E+06         0.59844E+06         0.00000E+00
    0.59844E+06         0.27984E+06         0.00000E+00
    0.00000E+00         0.00000E+00         0.00000E+00
 
    0.11409E+06         0.60275E+06         0.00000E+00
    0.60275E+06         0.29231E+06         0.00000E+00
    0.00000E+00         0.00000E+00         0.00000E+00
 
    0.89090E+05         0.60658E+06         0.00000E+00
    0.60658E+06         0.30488E+06         0.00000E+00
    0.00000E+00         0.00000E+00         0.00000E+00
 
    0.63878E+05         0.60993E+06         0.00000E+00
    0.60993E+06         0.31754E+06         0.00000E+00
    0.00000E+00         0.00000E+00         0.00000E+00
 
    0.38461E+05         0.61280E+06         0.00000E+00
    0.61280E+06         0.33029E+06         0.00000E+00
    0.00000E+00         0.00000E+00         0.00000E+00
 
    0.12852E+05         0.61517E+06         0.00000E+00
    0.61517E+06         0.34312E+06         0.00000E+00
    0.00000E+00         0.00000E+00         0.00000E+00
 
    0.90697E+06         0.11157E+05         0.00000E+00
    0.11157E+05        -0.61173E+05         0.00000E+00
    0.00000E+00         0.00000E+00         0.00000E+00
 
    0.90397E+06         0.33054E+05         0.00000E+00
    0.33054E+05        -0.60690E+05         0.00000E+00
    0.00000E+00         0.00000E+00         0.00000E+00
 
    0.90011E+06         0.54779E+05         0.00000E+00
    0.54779E+05        -0.59737E+05         0.00000E+00
    0.00000E+00         0.00000E+00         0.00000E+00
 
    0.89540E+06         0.76316E+05         0.00000E+00
    0.76316E+05        -0.58320E+05         0.00000E+00
    0.00000E+00         0.00000E+00         0.00000E+00
 
    0.88986E+06         0.97650E+05         0.00000E+00
    0.97650E+05        -0.56448E+05         0.00000E+00
    0.00000E+00         0.00000E+00         0.00000E+00
 
    0.88351E+06         0.11877E+06         0.00000E+00
    0.11877E+06        -0.54126E+05         0.00000E+00
    0.00000E+00         0.00000E+00         0.00000E+00
 
    0.87635E+06         0.13965E+06         0.00000E+00
    0.13965E+06        -0.51363E+05         0.00000E+00
    0.00000E+00         0.00000E+00         0.00000E+00
 
    0.86840E+06         0.16029E+06         0.00000E+00
    0.16029E+06        -0.48165E+05         0.00000E+00
    0.00000E+00         0.00000E+00         0.00000E+00
 
    0.85968E+06         0.18068E+06         0.00000E+00
    0.18068E+06        -0.44542E+05         0.00000E+00
    0.00000E+00         0.00000E+00         0.00000E+00
 
    0.85020E+06         0.20079E+06         0.00000E+00
    0.20079E+06        -0.40500E+05         0.00000E+00
    0.00000E+00         0.00000E+00         0.00000E+00
 
    0.83997E+06         0.22063E+06         0.00000E+00
    0.22063E+06        -0.36047E+05         0.00000E+00
    0.00000E+00         0.00000E+00         0.00000E+00
 
    0.82901E+06         0.24016E+06         0.00000E+00
    0.24016E+06        -0.31191E+05         0.00000E+00
    0.00000E+00         0.00000E+00         0.00000E+00
 
    0.81734E+06         0.25940E+06         0.00000E+00
    0.25940E+06        -0.25940E+05         0.00000E+00
    0.00000E+00         0.00000E+00         0.00000E+00
 
    0.80496E+06         0.27832E+06         0.00000E+00
    0.27832E+06        -0.20303E+05         0.00000E+00
    0.00000E+00         0.00000E+00         0.00000E+00
 
    0.79190E+06         0.29691E+06         0.00000E+00
    0.29691E+06        -0.14287E+05         0.00000E+00
    0.00000E+00         0.00000E+00         0.00000E+00
 
    0.77816E+06         0.31516E+06         0.00000E+00
    0.31516E+06        -0.79003E+04         0.00000E+00
    0.00000E+00         0.00000E+00         0.00000E+00
 
    0.76377E+06         0.33307E+06         0.00000E+00
    0.33307E+06        -0.11514E+04         0.00000E+00
    0.00000E+00         0.00000E+00         0.00000E+00
 
    0.74874E+06         0.35062E+06         0.00000E+00
    0.35062E+06         0.59515E+04         0.00000E+00
    0.00000E+00         0.00000E+00         0.00000E+00
 
    0.73308E+06         0.36781E+06         0.00000E+00
    0.36781E+06         0.13400E+05         0.00000E+00
    0.00000E+00         0.00000E+00         0.00000E+00
 
    0.71680E+06         0.38462E+06         0.00000E+00
    0.38462E+06         0.21186E+05         0.00000E+00
    0.00000E+00         0.00000E+00         0.00000E+00
 
    0.69993E+06         0.40105E+06         0.00000E+00
    0.40105E+06         0.29302E+05         0.00000E+00
    0.00000E+00         0.00000E+00         0.00000E+00
 
    0.68248E+06         0.41709E+06         0.00000E+00
    0.41709E+06         0.37738E+05         0.00000E+00
    0.00000E+00         0.00000E+00         0.00000E+00
 
    0.66445E+06         0.43273E+06         0.00000E+00
    0.43273E+06         0.46487E+05         0.00000E+00
    0.00000E+00         0.00000E+00         0.00000E+00
 
    0.64588E+06         0.44797E+06         0.00000E+00
    0.44797E+06         0.55540E+05         0.00000E+00
    0.00000E+00         0.00000E+00         0.00000E+00
 
    0.62676E+06         0.46279E+06         0.00000E+00
    0.46279E+06         0.64890E+05         0.00000E+00
    0.00000E+00         0.00000E+00         0.00000E+00
 
    0.60712E+06         0.47719E+06         0.00000E+00
    0.47719E+06         0.74527E+05         0.00000E+00
    0.00000E+00         0.00000E+00         0.00000E+00
 
    0.58696E+06         0.49117E+06         0.00000E+00
    0.49117E+06         0.84443E+05         0.00000E+00
    0.00000E+00         0.00000E+00         0.00000E+00
 
    0.56632E+06         0.50471E+06         0.00000E+00
    0.50471E+06         0.94631E+05         0.00000E+00
    0.00000E+00         0.00000E+00         0.00000E+00
 
    0.54519E+06         0.51781E+06         0.00000E+00
    0.51781E+06         0.10508E+06         0.00000E+00
    0.00000E+00         0.00000E+00         0.00000E+00
 
    0.52359E+06         0.53047E+06         0.00000E+00
    0.53047E+06         0.11579E+06         0.00000E+00
    0.00000E+00         0.00000E+00         0.00000E+00
 
    0.50153E+06         0.54268E+06         0.00000E+00
    0.54268E+06         0.12674E+06         0.00000E+00
    0.00000E+00         0.00000E+00         0.00000E+00
 
    0.47904E+06         0.55443E+06         0.00000E+00
    0.55443E+06         0.13793E+06         0.00000E+00
    0.00000E+00         0.00000E+00         0.00000E+00
 
    0.45612E+06         0.56572E+06         0.00000E+00
    0.56572E+06         0.14935E+06         0.00000E+00
    0.00000E+00         0.00000E+00         0.00000E+00
 
    0.43279E+06         0.57654E+06         0.00000E+00
    0.57654E+06         0.16099E+06         0.00000E+00
    0.00000E+00         0.00000E+00         0.00000E+00
 
    0.40906E+06         0.58689E+06         0.00000E+00
    0.58689E+06         0.17285E+06         0.00000E+00
    0.00000E+00         0.00000E+00         0.00000E+00
 
    0.38494E+06         0.59676E+06         0.00000E+00
    0.59676E+06         0.18491E+06         0.00000E+00
    0.00000E+00         0.00000E+00         0.00000E+00
 
    0.36045E+06         0.60615E+06         0.00000E+00
    0.60615E+06         0.19717E+06         0.00000E+00
    0.00000E+00         0.00000E+00         0.00000E+00
 
    0.33560E+06         0.61506E+06         0.00000E+00
    0.61506E+06         0.20961E+06         0.00000E+00
    0.00000E+00         0.00000E+00         0.00000E+00
 
    0.31041E+06         0.62347E+06         0.00000E+00
    0.62347E+06         0.22224E+06         0.00000E+00
    0.00000E+00         0.00000E+00         0.00000E+00
 
    0.28488E+06         0.63139E+06         0.00000E+00
    0.63139E+06         0.23505E+06         0.00000E+00
    0.00000E+00         0.00000E+00         0.00000E+00
 
    0.25904E+06         0.63882E+06         0.00000E+00
    0.63882E+06         0.24802E+06         0.00000E+00
    0.00000E+00         0.00000E+00         0.00000E+00
 
    0.23289E+06         0.64574E+06         0.00000E+00
    0.64574E+06         0.26114E+06         0.00000E+00
    0.00000E+00         0.00000E+00         0.00000E+00
 
    0.20644E+06         0.65216E+06         0.00000E+00
    0.65216E+06         0.27442E+06         0.00000E+00
    0.00000E+00         0.00000E+00         0.00000E+00
 
    0.17971E+06         0.65807E+06         0.00000E+00
    0.65807E+06         0.28783E+06         0.00000E+00
    0.00000E+00         0.00000E+00         0.00000E+00
 
    0.15271E+06         0.66347E+06         0.00000E+00
    0.66347E+06         0.30139E+06         0.00000E+00
    0.00000E+00         0.00000E+00         0.00000E+00
 
    0.12546E+06         0.66835E+06         0.00000E+00
    0.66835E+06         0.31506E+06         0.00000E+00
    0.00000E+00         0.00000E+00         0.00000E+00
 
    0.97962E+05         0.67271E+06         0.00000E+00
    0.67271E+06         0.32885E+06         0.00000E+00
    0.00000E+00         0.00000E+00         0.00000E+00
 
    0.70233E+05         0.67655E+06         0.00000E+00
    0.67655E+06         0.34276E+06         0.00000E+00
    0.00000E+00         0.00000E+00         0.00000E+00
 
    0.42284E+05         0.67987E+06         0.00000E+00
    0.67987E+06         0.35676E+06         0.00000E+00
    0.00000E+00         0.00000E+00         0.00000E+00
 
    0.14128E+05         0.68266E+06         0.00000E+00
    0.68266E+06         0.37086E+06         0.00000E+00
    0.00000E+00         0.00000E+00         0.00000E+00
 
    0.10106E+07         0.12451E+05         0.00000E+00
    0.12451E+05        -0.73561E+05         0.00000E+00
    0.00000E+00         0.00000E+00         0.00000E+00
 
    0.10067E+07         0.36836E+05         0.00000E+00
    0.36836E+05        -0.73028E+05         0.00000E+00
    0.00000E+00         0.00000E+00         0.00000E+00
 
    0.10019E+07         0.61011E+05         0.00000E+00
    0.61011E+05        -0.71977E+05         0.00000E+00
    0.00000E+00         0.00000E+00         0.00000E+00
 
    0.99609E+06         0.84959E+05         0.00000E+00
    0.84959E+05        -0.70417E+05         0.00000E+00
    0.00000E+00         0.00000E+00         0.00000E+00
 
    0.98941E+06         0.10867E+06         0.00000E+00
    0.10867E+06        -0.68355E+05         0.00000E+00
    0.00000E+00         0.00000E+00         0.00000E+00
 
    0.98184E+06         0.13212E+06         0.00000E+00
    0.13212E+06        -0.65801E+05         0.00000E+00
    0.00000E+00         0.00000E+00         0.00000E+00
 
    0.97339E+06         0.15530E+06         0.00000E+00
    0.15530E+06        -0.62762E+05         0.00000E+00
    0.00000E+00         0.00000E+00         0.00000E+00
 
    0.96409E+06         0.17819E+06         0.00000E+00
    0.17819E+06        -0.59248E+05         0.00000E+00
    0.00000E+00         0.00000E+00         0.00000E+00
 
    0.95395E+06         0.20078E+06         0.00000E+00
    0.20078E+06        -0.55267E+05         0.00000E+00
    0.00000E+00         0.00000E+00         0.00000E+00
 
    0.94298E+06         0.22307E+06         0.00000E+00
    0.22307E+06        -0.50828E+05         0.00000E+00
    0.00000E+00         0.00000E+00         0.00000E+00
 
    0.93121E+06         0.24503E+06         0.00000E+00
    0.24503E+06        -0.45941E+05         0.00000E+00
    0.00000E+00         0.00000E+00         0.00000E+00
 
    0.91865E+06         0.26665E+06         0.00000E+00
    0.26665E+06        -0.40613E+05         0.00000E+00
    0.00000E+00         0.00000E+00         0.00000E+00
 
    0.90532E+06         0.28793E+06         0.00000E+00
    0.28793E+06        -0.34855E+05         0.00000E+00
    0.00000E+00         0.00000E+00         0.00000E+00
 
    0.89123E+06         0.30884E+06         0.00000E+00
    0.30884E+06        -0.28675E+05         0.00000E+00
    0.00000E+00         0.00000E+00         0.00000E+00
 
    0.87640E+06         0.32939E+06         0.00000E+00
    0.32939E+06        -0.22082E+05         0.00000E+00
    0.00000E+00         0.00000E+00         0.00000E+00
 
    0.86085E+06         0.34956E+06         0.00000E+00
    0.34956E+06        -0.15086E+05         0.00000E+00
    0.00000E+00         0.00000E+00         0.00000E+00
 
    0.84460E+06         0.36934E+06         0.00000E+00
    0.36934E+06        -0.76951E+04         0.00000E+00
    0.00000E+00         0.00000E+00         0.00000E+00
 
    0.82765E+06         0.38871E+06         0.00000E+00
    0.38871E+06         0.81011E+02         0.00000E+00
    0.00000E+00         0.00000E+00         0.00000E+00
 
    0.81004E+06         0.40768E+06         0.00000E+00
    0.40768E+06         0.82334E+04         0.00000E+00
    0.00000E+00         0.00000E+00         0.00000E+00
 
    0.79177E+06         0.42623E+06         0.00000E+00
    0.42623E+06         0.16753E+05         0.00000E+00
    0.00000E+00         0.00000E+00         0.00000E+00
 
    0.77286E+06         0.44436E+06         0.00000E+00
    0.44436E+06         0.25630E+05         0.00000E+00
    0.00000E+00         0.00000E+00         0.00000E+00
 
    0.75332E+06         0.46205E+06         0.00000E+00
    0.46205E+06         0.34857E+05         0.00000E+00
    0.00000E+00         0.00000E+00         0.00000E+00
 
    0.73318E+06         0.47930E+06         0.00000E+00
    0.47930E+06         0.44423E+05         0.00000E+00
    0.00000E+00         0.00000E+00         0.00000E+00
 
    0.71245E+06         0.49610E+06         0.00000E+00
    0.49610E+06         0.54321E+05         0.00000E+00
    0.00000E+00         0.00000E+00         0.00000E+00
 
    0.69114E+06         0.51245E+06         0.00000E+00
    0.51245E+06         0.64540E+05         0.00000E+00
    0.00000E+00         0.00000E+00         0.00000E+00
 
    0.66928E+06         0.52833E+06         0.00000E+00
    0.52833E+06         0.75072E+05         0.00000E+00
    0.00000E+00         0.00000E+00         0.00000E+00
 
    0.64687E+06         0.54374E+06         0.00000E+00
    0.54374E+06         0.85908E+05         0.00000E+00
    0.00000E+00         0.00000E+00         0.00000E+00
 
    0.62393E+06         0.55868E+06         0.00000E+00
    0.55868E+06         0.97039E+05         0.00000E+00
    0.00000E+00         0.00000E+00         0.00000E+00
 
    0.60049E+06         0.57313E+06         0.00000E+00
    0.57313E+06         0.10846E+06         0.00000E+00
    0.00000E+00         0.00000E+00         0.00000E+00
 
    0.57654E+06         0.58710E+06         0.00000E+00
    0.58710E+06         0.12015E+06         0.00000E+00
    0.00000E+00         0.00000E+00         0.00000E+00
 
    0.55211E+06         0.60057E+06         0.00000E+00
    0.60057E+06         0.13212E+06         0.00000E+00
    0.00000E+00         0.00000E+00         0.00000E+00
 
    0.52722E+06         0.61355E+06         0.00000E+00
    0.61355E+06         0.14434E+06         0.00000E+00
    0.00000E+00         0.00000E+00         0.00000E+00
 
    0.50188E+06         0.62602E+06         0.00000E+00
    0.62602E+06         0.15682E+06         0.00000E+00
    0.00000E+00         0.00000E+00         0.00000E+00
 
    0.47609E+06         0.63798E+06         0.00000E+00
    0.63798E+06         0.16953E+06         0.00000E+00
    0.00000E+00         0.00000E+00         0.00000E+00
 
    0.44989E+06         0.64943E+06         0.00000E+00
    0.64943E+06         0.18249E+06         0.00000E+00
    0.00000E+00         0.00000E+00         0.00000E+00
 
    0.42327E+06         0.66036E+06         0.00000E+00
    0.66036E+06         0.19567E+06         0.00000E+00
    0.00000E+00         0.00000E+00         0.00000E+00
 
    0.39626E+06         0.67076E+06         0.00000E+00
    0.67076E+06         0.20906E+06         0.00000E+00
    0.00000E+00         0.00000E+00         0.00000E+00
 
    0.36888E+06         0.68064E+06         0.00000E+00
    0.68064E+06         0.22267E+06         0.00000E+00
    0.00000E+00         0.00000E+00         0.00000E+00
 
    0.34112E+06         0.68999E+06         0.00000E+00
    0.68999E+06         0.23647E+06         0.00000E+00
    0.00000E+00         0.00000E+00         0.00000E+00
 
    0.31302E+06         0.69881E+06         0.00000E+00
    0.69881E+06         0.25047E+06         0.00000E+00
    0.00000E+00         0.00000E+00         0.00000E+00
 
    0.28457E+06         0.70708E+06         0.00000E+00
    0.70708E+06         0.26465E+06         0.00000E+00
    0.00000E+00         0.00000E+00         0.00000E+00
 
    0.25580E+06         0.71482E+06         0.00000E+00
    0.71482E+06         0.27901E+06         0.00000E+00
    0.00000E+00         0.00000E+00         0.00000E+00
 
    0.22672E+06         0.72201E+06         0.00000E+00
    0.72201E+06         0.29353E+06         0.00000E+00
    0.00000E+00         0.00000E+00         0.00000E+00
 
    0.19734E+06         0.72865E+06         0.00000E+00
    0.72865E+06         0.30821E+06         0.00000E+00
    0.00000E+00         0.00000E+00         0.00000E+00
 
    0.16767E+06         0.73473E+06         0.00000E+00
    0.73473E+06         0.32304E+06         0.00000E+00
    0.00000E+00         0.00000E+00         0.00000E+00
 
    0.13773E+06         0.74026E+06         0.00000E+00
    0.74026E+06         0.33802E+06         0.00000E+00
    0.00000E+00         0.00000E+00         0.00000E+00
 
    0.10753E+06         0.74523E+06         0.00000E+00
    0.74523E+06         0.35313E+06         0.00000E+00
    0.00000E+00         0.00000E+00         0.00000E+00
 
    0.77086E+05         0.74964E+06         0.00000E+00
    0.74964E+06         0.36836E+06         0.00000E+00
    0.00000E+00         0.00000E+00         0.00000E+00
 
    0.46406E+05         0.75349E+06         0.00000E+00
    0.75349E+06         0.38372E+06         0.00000E+00
    0.00000E+00         0.00000E+00         0.00000E+00
 
    0.15505E+05         0.75676E+06         0.00000E+00
    0.75676E+06         0.39918E+06         0.00000E+00
    0.00000E+00         0.00000E+00         0.00000E+00
 
    0.11250E+07         0.13879E+05         0.00000E+00
    0.13879E+05        -0.88389E+05         0.00000E+00
    0.00000E+00         0.00000E+00         0.00000E+00
 
    0.11200E+07         0.41002E+05         0.00000E+00
    0.41002E+05        -0.87803E+05         0.00000E+00
    0.00000E+00         0.00000E+00         0.00000E+00
 
    0.11139E+07         0.67870E+05         0.00000E+00
    0.67870E+05        -0.86648E+05         0.00000E+00
    0.00000E+00         0.00000E+00         0.00000E+00
 
    0.11069E+07         0.94466E+05         0.00000E+00
    0.94466E+05        -0.84933E+05         0.00000E+00
    0.00000E+00         0.00000E+00         0.00000E+00
 
    0.10988E+07         0.12078E+06         0.00000E+00
    0.12078E+06        -0.82669E+05         0.00000E+00
    0.00000E+00         0.00000E+00         0.00000E+00
 
    0.10898E+07         0.14678E+06         0.00000E+00
    0.14678E+06        -0.79866E+05         0.00000E+00
    0.00000E+00         0.00000E+00         0.00000E+00
 
    0.10799E+07         0.17247E+06         0.00000E+00
    0.17247E+06        -0.76533E+05         0.00000E+00
    0.00000E+00         0.00000E+00         0.00000E+00
 
    0.10690E+07         0.19783E+06         0.00000E+00
    0.19783E+06        -0.72680E+05         0.00000E+00
    0.00000E+00         0.00000E+00         0.00000E+00
 
    0.10572E+07         0.22284E+06         0.00000E+00
    0.22284E+06        -0.68318E+05         0.00000E+00
    0.00000E+00         0.00000E+00         0.00000E+00
 
    0.10446E+07         0.24749E+06         0.00000E+00
    0.24749E+06        -0.63457E+05         0.00000E+00
    0.00000E+00         0.00000E+00         0.00000E+00
 
    0.10310E+07         0.27177E+06         0.00000E+00
    0.27177E+06        -0.58107E+05         0.00000E+00
    0.00000E+00         0.00000E+00         0.00000E+00
 
    0.10166E+07         0.29567E+06         0.00000E+00
    0.29567E+06        -0.52277E+05         0.00000E+00
    0.00000E+00         0.00000E+00         0.00000E+00
 
    0.10014E+07         0.31917E+06         0.00000E+00
    0.31917E+06        -0.45979E+05         0.00000E+00
    0.00000E+00         0.00000E+00         0.00000E+00
 
    0.98538E+06         0.34226E+06         0.00000E+00
    0.34226E+06        -0.39222E+05         0.00000E+00
    0.00000E+00         0.00000E+00         0.00000E+00
 
    0.96856E+06         0.36494E+06         0.00000E+00
    0.36494E+06        -0.32017E+05         0.00000E+00
    0.00000E+00         0.00000E+00         0.00000E+00
 
    0.95097E+06         0.38718E+06         0.00000E+00
    0.38718E+06        -0.24373E+05         0.00000E+00
    0.00000E+00         0.00000E+00         0.00000E+00
 
    0.93262E+06         0.40899E+06         0.00000E+00
    0.40899E+06        -0.16301E+05         0.00000E+00
    0.00000E+00         0.00000E+00         0.00000E+00
 
    0.91354E+06         0.43035E+06         0.00000E+00
    0.43035E+06        -0.78108E+04         0.00000E+00
    0.00000E+00         0.00000E+00         0.00000E+00
 
    0.89374E+06         0.45126E+06         0.00000E+00
    0.45126E+06         0.10877E+04         0.00000E+00
    0.00000E+00         0.00000E+00         0.00000E+00
 
    0.87325E+06         0.47170E+06         0.00000E+00
    0.47170E+06         0.10384E+05         0.00000E+00
    0.00000E+00         0.00000E+00         0.00000E+00
 
    0.85207E+06         0.49167E+06         0.00000E+00
    0.49167E+06         0.20069E+05         0.00000E+00
    0.00000E+00         0.00000E+00         0.00000E+00
 
    0.83023E+06         0.51116E+06         0.00000E+00
    0.51116E+06         0.30133E+05         0.00000E+00
    0.00000E+00         0.00000E+00         0.00000E+00
 
    0.80775E+06         0.53015E+06         0.00000E+00
    0.53015E+06         0.40565E+05         0.00000E+00
    0.00000E+00         0.00000E+00         0.00000E+00
 
    0.78464E+06         0.54865E+06         0.00000E+00
    0.54865E+06         0.51356E+05         0.00000E+00
    0.00000E+00         0.00000E+00         0.00000E+00
 
    0.76092E+06         0.56665E+06         0.00000E+00
    0.56665E+06         0.62496E+05         0.00000E+00
    0.00000E+00         0.00000E+00         0.00000E+00
 
    0.73661E+06         0.58414E+06         0.00000E+00
    0.58414E+06         0.73976E+05         0.00000E+00
    0.00000E+00         0.00000E+00         0.00000E+00
 
    0.71172E+06         0.60112E+06         0.00000E+00
    0.60112E+06         0.85786E+05         0.00000E+00
    0.00000E+00         0.00000E+00         0.00000E+00
 
    0.68628E+06         0.61757E+06         0.00000E+00
    0.61757E+06         0.97917E+05         0.00000E+00
    0.00000E+00         0.00000E+00         0.00000E+00
 
    0.66029E+06         0.63349E+06         0.00000E+00
    0.63349E+06         0.11036E+06         0.00000E+00
    0.00000E+00         0.00000E+00         0.00000E+00
 
    0.63378E+06         0.64889E+06         0.00000E+00
    0.64889E+06         0.12310E+06         0.00000E+00
    0.00000E+00         0.00000E+00         0.00000E+00
 
    0.60676E+06         0.66374E+06         0.00000E+00
    0.66374E+06         0.13614E+06         0.00000E+00
    0.00000E+00         0.00000E+00         0.00000E+00
 
    0.57925E+06         0.67805E+06         0.00000E+00
    0.67805E+06         0.14946E+06         0.00000E+00
    0.00000E+00         0.00000E+00         0.00000E+00
 
    0.55127E+06         0.69181E+06         0.00000E+00
    0.69181E+06         0.16305E+06         0.00000E+00
    0.00000E+00         0.00000E+00         0.00000E+00
 
    0.52282E+06         0.70502E+06         0.00000E+00
    0.70502E+06         0.17691E+06         0.00000E+00
    0.00000E+00         0.00000E+00         0.00000E+00
 
    0.49393E+06         0.71767E+06         0.00000E+00
    0.71767E+06         0.19103E+06         0.00000E+00
    0.00000E+00         0.00000E+00         0.00000E+00
 
    0.46460E+06         0.72976E+06         0.00000E+00
    0.72976E+06         0.20539E+06         0.00000E+00
    0.00000E+00         0.00000E+00         0.00000E+00
 
    0.43486E+06         0.74129E+06         0.00000E+00
    0.74129E+06         0.22000E+06         0.00000E+00
    0.00000E+00         0.00000E+00         0.00000E+00
 
    0.40473E+06         0.75224E+06         0.00000E+00
    0.75224E+06         0.23483E+06         0.00000E+00
    0.00000E+00         0.00000E+00         0.00000E+00
 
    0.37420E+06         0.76263E+06         0.00000E+00
    0.76263E+06         0.24988E+06         0.00000E+00
    0.00000E+00         0.00000E+00         0.00000E+00
 
    0.34331E+06         0.77243E+06         0.00000E+00
    0.77243E+06         0.26515E+06         0.00000E+00
    0.00000E+00         0.00000E+00         0.00000E+00
 
    0.31205E+06         0.78165E+06         0.00000E+00
    0.78165E+06         0.28062E+06         0.00000E+00
    0.00000E+00         0.00000E+00         0.00000E+00
 
    0.28046E+06         0.79029E+06         0.00000E+00
    0.79029E+06         0.29629E+06         0.00000E+00
    0.00000E+00         0.00000E+00         0.00000E+00
 
    0.24853E+06         0.79834E+06         0.00000E+00
    0.79834E+06         0.31214E+06         0.00000E+00
    0.00000E+00         0.00000E+00         0.00000E+00
 
    0.21629E+06         0.80580E+06         0.00000E+00
    0.80580E+06         0.32817E+06         0.00000E+00
    0.00000E+00         0.00000E+00         0.00000E+00
 
    0.18375E+06         0.81267E+06         0.00000E+00
    0.81267E+06         0.34437E+06         0.00000E+00
    0.00000E+00         0.00000E+00         0.00000E+00
 
    0.15092E+06         0.81894E+06         0.00000E+00
    0.81894E+06         0.36074E+06         0.00000E+00
    0.00000E+00         0.00000E+00         0.00000E+00
 
    0.11782E+06         0.82461E+06         0.00000E+00
    0.82461E+06         0.37725E+06         0.00000E+00
    0.00000E+00         0.00000E+00         0.00000E+00
 
    0.84452E+05         0.82967E+06         0.00000E+00
    0.82967E+06         0.39392E+06         0.00000E+00
    0.00000E+00         0.00000E+00         0.00000E+00
 
    0.50836E+05         0.83413E+06         0.00000E+00
    0.83413E+06         0.41071E+06         0.00000E+00
    0.00000E+00         0.00000E+00         0.00000E+00
 
    0.16984E+05         0.83798E+06         0.00000E+00
    0.83798E+06         0.42764E+06         0.00000E+00
    0.00000E+00         0.00000E+00         0.00000E+00
 
    0.12510E+07         0.15452E+05         0.00000E+00
    0.15452E+05        -0.10612E+06         0.00000E+00
    0.00000E+00         0.00000E+00         0.00000E+00
 
    0.12446E+07         0.45579E+05         0.00000E+00
    0.45579E+05        -0.10548E+06         0.00000E+00
    0.00000E+00         0.00000E+00         0.00000E+00
 
    0.12371E+07         0.75399E+05         0.00000E+00
    0.75399E+05        -0.10421E+06         0.00000E+00
    0.00000E+00         0.00000E+00         0.00000E+00
 
    0.12285E+07         0.10490E+06         0.00000E+00
    0.10490E+06        -0.10233E+06         0.00000E+00
    0.00000E+00         0.00000E+00         0.00000E+00
 
    0.12189E+07         0.13405E+06         0.00000E+00
    0.13405E+06        -0.99855E+05         0.00000E+00
    0.00000E+00         0.00000E+00         0.00000E+00
 
    0.12082E+07         0.16285E+06         0.00000E+00
    0.16285E+06        -0.96787E+05         0.00000E+00
    0.00000E+00         0.00000E+00         0.00000E+00
 
    0.11965E+07         0.19128E+06         0.00000E+00
    0.19128E+06        -0.93142E+05         0.00000E+00
    0.00000E+00         0.00000E+00         0.00000E+00
 
    0.11838E+07         0.21932E+06         0.00000E+00
    0.21932E+06        -0.88931E+05         0.00000E+00
    0.00000E+00         0.00000E+00         0.00000E+00
 
    0.11701E+07         0.24696E+06         0.00000E+00
    0.24696E+06        -0.84166E+05         0.00000E+00
    0.00000E+00         0.00000E+00         0.00000E+00
 
    0.11555E+07         0.27419E+06         0.00000E+00
    0.27419E+06        -0.78857E+05         0.00000E+00
    0.00000E+00         0.00000E+00         0.00000E+00
 
    0.11399E+07         0.30100E+06         0.00000E+00
    0.30100E+06        -0.73017E+05         0.00000E+00
    0.00000E+00         0.00000E+00         0.00000E+00
 
    0.11234E+07         0.32736E+06         0.00000E+00
    0.32736E+06        -0.66658E+05         0.00000E+00
    0.00000E+00         0.00000E+00         0.00000E+00
 
    0.11061E+07         0.35328E+06         0.00000E+00
    0.35328E+06        -0.59789E+05         0.00000E+00
    0.00000E+00         0.00000E+00         0.00000E+00
 
    0.10878E+07         0.37873E+06         0.00000E+00
    0.37873E+06        -0.52424E+05         0.00000E+00
    0.00000E+00         0.00000E+00         0.00000E+00
 
    0.10688E+07         0.40372E+06         0.00000E+00
    0.40372E+06        -0.44572E+05         0.00000E+00
    0.00000E+00         0.00000E+00         0.00000E+00
 
    0.10489E+07         0.42822E+06         0.00000E+00
    0.42822E+06        -0.36246E+05         0.00000E+00
    0.00000E+00         0.00000E+00         0.00000E+00
 
    0.10282E+07         0.45223E+06         0.00000E+00
    0.45223E+06        -0.27456E+05         0.00000E+00
    0.00000E+00         0.00000E+00         0.00000E+00
 
    0.10067E+07         0.47575E+06         0.00000E+00
    0.47575E+06        -0.18214E+05         0.00000E+00
    0.00000E+00         0.00000E+00         0.00000E+00
 
    0.98450E+06         0.49875E+06         0.00000E+00
    0.49875E+06        -0.85297E+04         0.00000E+00
    0.00000E+00         0.00000E+00         0.00000E+00
 
    0.96153E+06         0.52124E+06         0.00000E+00
    0.52124E+06         0.15850E+04         0.00000E+00
    0.00000E+00         0.00000E+00         0.00000E+00
 
    0.93784E+06         0.54320E+06         0.00000E+00
    0.54320E+06         0.12120E+05         0.00000E+00
    0.00000E+00         0.00000E+00         0.00000E+00
 
    0.91346E+06         0.56463E+06         0.00000E+00
    0.56463E+06         0.23064E+05         0.00000E+00
    0.00000E+00         0.00000E+00         0.00000E+00
 
    0.88839E+06         0.58552E+06         0.00000E+00
    0.58552E+06         0.34406E+05         0.00000E+00
    0.00000E+00         0.00000E+00         0.00000E+00
 
    0.86266E+06         0.60586E+06         0.00000E+00
    0.60586E+06         0.46137E+05         0.00000E+00
    0.00000E+00         0.00000E+00         0.00000E+00
 
    0.83628E+06         0.62565E+06         0.00000E+00
    0.62565E+06         0.58246E+05         0.00000E+00
    0.00000E+00         0.00000E+00         0.00000E+00
 
    0.80929E+06         0.64489E+06         0.00000E+00
    0.64489E+06         0.70722E+05         0.00000E+00
    0.00000E+00         0.00000E+00         0.00000E+00
 
    0.78169E+06         0.66355E+06         0.00000E+00
    0.66355E+06         0.83556E+05         0.00000E+00
    0.00000E+00         0.00000E+00         0.00000E+00
 
    0.75350E+06         0.68165E+06         0.00000E+00
    0.68165E+06         0.96738E+05         0.00000E+00
    0.00000E+00         0.00000E+00         0.00000E+00
 
    0.72475E+06         0.69917E+06         0.00000E+00
    0.69917E+06         0.11026E+06         0.00000E+00
    0.00000E+00         0.00000E+00         0.00000E+00
 
    0.69544E+06         0.71612E+06         0.00000E+00
    0.71612E+06         0.12410E+06         0.00000E+00
    0.00000E+00         0.00000E+00         0.00000E+00
 
    0.66560E+06         0.73247E+06         0.00000E+00
    0.73247E+06         0.13827E+06         0.00000E+00
    0.00000E+00         0.00000E+00         0.00000E+00
 
    0.63525E+06         0.74824E+06         0.00000E+00
    0.74824E+06         0.15274E+06         0.00000E+00
    0.00000E+00         0.00000E+00         0.00000E+00
 
    0.60440E+06         0.76341E+06         0.00000E+00
    0.76341E+06         0.16752E+06         0.00000E+00
    0.00000E+00         0.00000E+00         0.00000E+00
 
    0.57306E+06         0.77799E+06         0.00000E+00
    0.77799E+06         0.18258E+06         0.00000E+00
    0.00000E+00         0.00000E+00         0.00000E+00
 
    0.54126E+06         0.79196E+06         0.00000E+00
    0.79196E+06         0.19792E+06         0.00000E+00
    0.00000E+00         0.00000E+00         0.00000E+00
 
    0.50900E+06         0.80532E+06         0.00000E+00
    0.80532E+06         0.21354E+06         0.00000E+00
    0.00000E+00         0.00000E+00         0.00000E+00
 
    0.47632E+06         0.81807E+06         0.00000E+00
    0.81807E+06         0.22941E+06         0.00000E+00
    0.00000E+00         0.00000E+00         0.00000E+00
 
    0.44321E+06         0.83022E+06         0.00000E+00
    0.83022E+06         0.24554E+06         0.00000E+00
    0.00000E+00         0.00000E+00         0.00000E+00
 
    0.40970E+06         0.84174E+06         0.00000E+00
    0.84174E+06         0.26192E+06         0.00000E+00
    0.00000E+00         0.00000E+00         0.00000E+00
 
    0.37580E+06         0.85264E+06         0.00000E+00
    0.85264E+06         0.27853E+06         0.00000E+00
    0.00000E+00         0.00000E+00         0.00000E+00
 
    0.34153E+06         0.86292E+06         0.00000E+00
    0.86292E+06         0.29536E+06         0.00000E+00
    0.00000E+00         0.00000E+00         0.00000E+00
 
    0.30690E+06         0.87257E+06         0.00000E+00
    0.87257E+06         0.31242E+06         0.00000E+00
    0.00000E+00         0.00000E+00         0.00000E+00
 
    0.27192E+06         0.88159E+06         0.00000E+00
    0.88159E+06         0.32968E+06         0.00000E+00
    0.00000E+00         0.00000E+00         0.00000E+00
 
    0.23661E+06         0.88997E+06         0.00000E+00
    0.88997E+06         0.34714E+06         0.00000E+00
    0.00000E+00         0.00000E+00         0.00000E+00
 
    0.20098E+06         0.89772E+06         0.00000E+00
    0.89772E+06         0.36480E+06         0.00000E+00
    0.00000E+00         0.00000E+00         0.00000E+00
 
    0.16505E+06         0.90483E+06         0.00000E+00
    0.90483E+06         0.38264E+06         0.00000E+00
    0.00000E+00         0.00000E+00         0.00000E+00
 
    0.12883E+06         0.91130E+06         0.00000E+00
    0.91130E+06         0.40066E+06         0.00000E+00
    0.00000E+00         0.00000E+00         0.00000E+00
 
    0.92338E+05         0.91712E+06         0.00000E+00
    0.91712E+06         0.41884E+06         0.00000E+00
    0.00000E+00         0.00000E+00         0.00000E+00
 
    0.55578E+05         0.92230E+06         0.00000E+00
    0.92230E+06         0.43718E+06         0.00000E+00
    0.00000E+00         0.00000E+00         0.00000E+00
 
    0.18567E+05         0.92682E+06         0.00000E+00
    0.92682E+06         0.45567E+06         0.00000E+00
    0.00000E+00         0.00000E+00         0.00000E+00
 
    0.13893E+07         0.17179E+05         0.00000E+00
    0.17179E+05        -0.12731E+06         0.00000E+00
    0.00000E+00         0.00000E+00         0.00000E+00
 
    0.13813E+07         0.50593E+05         0.00000E+00
    0.50593E+05        -0.12661E+06         0.00000E+00
    0.00000E+00         0.00000E+00         0.00000E+00
 
    0.13721E+07         0.83639E+05         0.00000E+00
    0.83639E+05        -0.12522E+06         0.00000E+00
    0.00000E+00         0.00000E+00         0.00000E+00
 
    0.13617E+07         0.11630E+06         0.00000E+00
    0.11630E+06        -0.12317E+06         0.00000E+00
    0.00000E+00         0.00000E+00         0.00000E+00
 
    0.13502E+07         0.14856E+06         0.00000E+00
    0.14856E+06        -0.12046E+06         0.00000E+00
    0.00000E+00         0.00000E+00         0.00000E+00
 
    0.13375E+07         0.18040E+06         0.00000E+00
    0.18040E+06        -0.11712E+06         0.00000E+00
    0.00000E+00         0.00000E+00         0.00000E+00
 
    0.13238E+07         0.21181E+06         0.00000E+00
    0.21181E+06        -0.11314E+06         0.00000E+00
    0.00000E+00         0.00000E+00         0.00000E+00
 
    0.13089E+07         0.24277E+06         0.00000E+00
    0.24277E+06        -0.10856E+06         0.00000E+00
    0.00000E+00         0.00000E+00         0.00000E+00
 
    0.12931E+07         0.27327E+06         0.00000E+00
    0.27327E+06        -0.10337E+06         0.00000E+00
    0.00000E+00         0.00000E+00         0.00000E+00
 
    0.12762E+07         0.30330E+06         0.00000E+00
    0.30330E+06        -0.97589E+05         0.00000E+00
    0.00000E+00         0.00000E+00         0.00000E+00
 
    0.12583E+07         0.33284E+06         0.00000E+00
    0.33284E+06        -0.91236E+05         0.00000E+00
    0.00000E+00         0.00000E+00         0.00000E+00
 
    0.12395E+07         0.36188E+06         0.00000E+00
    0.36188E+06        -0.84320E+05         0.00000E+00
    0.00000E+00         0.00000E+00         0.00000E+00
 
    0.12197E+07         0.39041E+06         0.00000E+00
    0.39041E+06        -0.76855E+05         0.00000E+00
    0.00000E+00         0.00000E+00         0.00000E+00
 
    0.11990E+07         0.41842E+06         0.00000E+00
    0.41842E+06        -0.68852E+05         0.00000E+00
    0.00000E+00         0.00000E+00         0.00000E+00
 
    0.11774E+07         0.44590E+06         0.00000E+00
    0.44590E+06        -0.60325E+05         0.00000E+00
    0.00000E+00         0.00000E+00         0.00000E+00
 
    0.11550E+07         0.47284E+06         0.00000E+00
    0.47284E+06        -0.51285E+05         0.00000E+00
    0.00000E+00         0.00000E+00         0.00000E+00
 
    0.11317E+07         0.49924E+06         0.00000E+00
    0.49924E+06        -0.41746E+05         0.00000E+00
    0.00000E+00         0.00000E+00         0.00000E+00
 
    0.11075E+07         0.52507E+06         0.00000E+00
    0.52507E+06        -0.31718E+05         0.00000E+00
    0.00000E+00         0.00000E+00         0.00000E+00
 
    0.10826E+07         0.55034E+06         0.00000E+00
    0.55034E+06        -0.21214E+05         0.00000E+00
    0.00000E+00         0.00000E+00         0.00000E+00
 
    0.10569E+07         0.57503E+06         0.00000E+00
    0.57503E+06        -0.10246E+05         0.00000E+00
    0.00000E+00         0.00000E+00         0.00000E+00
 
    0.10304E+07         0.59915E+06         0.00000E+00
    0.59915E+06         0.11749E+04         0.00000E+00
    0.00000E+00         0.00000E+00         0.00000E+00
 
    0.10032E+07         0.62268E+06         0.00000E+00
    0.62268E+06         0.13037E+05         0.00000E+00
    0.00000E+00         0.00000E+00         0.00000E+00
 
    0.97528E+06         0.64561E+06         0.00000E+00
    0.64561E+06         0.25329E+05         0.00000E+00
    0.00000E+00         0.00000E+00         0.00000E+00
 
    0.94667E+06         0.66795E+06         0.00000E+00
    0.66795E+06         0.38040E+05         0.00000E+00
    0.00000E+00         0.00000E+00         0.00000E+00
 
    0.91739E+06         0.68967E+06         0.00000E+00
    0.68967E+06         0.51159E+05         0.00000E+00
    0.00000E+00         0.00000E+00         0.00000E+00
 
    0.88746E+06         0.71079E+06         0.00000E+00
    0.71079E+06         0.64675E+05         0.00000E+00
    0.00000E+00         0.00000E+00         0.00000E+00
 
    0.85690E+06         0.73129E+06         0.00000E+00
    0.73129E+06         0.78577E+05         0.00000E+00
    0.00000E+00         0.00000E+00         0.00000E+00
 
    0.82572E+06         0.75117E+06         0.00000E+00
    0.75117E+06         0.92855E+05         0.00000E+00
    0.00000E+00         0.00000E+00         0.00000E+00
 
    0.79395E+06         0.77043E+06         0.00000E+00
    0.77043E+06         0.10750E+06         0.00000E+00
    0.00000E+00         0.00000E+00         0.00000E+00
 
    0.76161E+06         0.78905E+06         0.00000E+00
    0.78905E+06         0.12250E+06         0.00000E+00
    0.00000E+00         0.00000E+00         0.00000E+00
 
    0.72871E+06         0.80704E+06         0.00000E+00
    0.80704E+06         0.13784E+06         0.00000E+00
    0.00000E+00         0.00000E+00         0.00000E+00
 
    0.69528E+06         0.82439E+06         0.00000E+00
    0.82439E+06         0.15352E+06         0.00000E+00
    0.00000E+00         0.00000E+00         0.00000E+00
 
    0.66132E+06         0.84110E+06         0.00000E+00
    0.84110E+06         0.16953E+06         0.00000E+00
    0.00000E+00         0.00000E+00         0.00000E+00
 
    0.62687E+06         0.85717E+06         0.00000E+00
    0.85717E+06         0.18585E+06         0.00000E+00
    0.00000E+00         0.00000E+00         0.00000E+00
 
    0.59193E+06         0.87258E+06         0.00000E+00
    0.87258E+06         0.20247E+06         0.00000E+00
    0.00000E+00         0.00000E+00         0.00000E+00
 
    0.55652E+06         0.88734E+06         0.00000E+00
    0.88734E+06         0.21940E+06         0.00000E+00
    0.00000E+00         0.00000E+00         0.00000E+00
 
    0.52066E+06         0.90145E+06         0.00000E+00
    0.90145E+06         0.23661E+06         0.00000E+00
    0.00000E+00         0.00000E+00         0.00000E+00
 
    0.48436E+06         0.91489E+06         0.00000E+00
    0.91489E+06         0.25410E+06         0.00000E+00
    0.00000E+00         0.00000E+00         0.00000E+00
 
    0.44764E+06         0.92768E+06         0.00000E+00
    0.92768E+06         0.27186E+06         0.00000E+00
    0.00000E+00         0.00000E+00         0.00000E+00
 
    0.41052E+06         0.93980E+06         0.00000E+00
    0.93980E+06         0.28988E+06         0.00000E+00
    0.00000E+00         0.00000E+00         0.00000E+00
 
    0.37301E+06         0.95125E+06         0.00000E+00
    0.95125E+06         0.30816E+06         0.00000E+00
    0.00000E+00         0.00000E+00         0.00000E+00
 
    0.33513E+06         0.96203E+06         0.00000E+00
    0.96203E+06         0.32667E+06         0.00000E+00
    0.00000E+00         0.00000E+00         0.00000E+00
 
    0.29688E+06         0.97214E+06         0.00000E+00
    0.97214E+06         0.34542E+06         0.00000E+00
    0.00000E+00         0.00000E+00         0.00000E+00
 
    0.25829E+06         0.98157E+06         0.00000E+00
    0.98157E+06         0.36440E+06         0.00000E+00
    0.00000E+00         0.00000E+00         0.00000E+00
 
    0.21937E+06         0.99032E+06         0.00000E+00
    0.99032E+06         0.38360E+06         0.00000E+00
    0.00000E+00         0.00000E+00         0.00000E+00
 
    0.18013E+06         0.99839E+06         0.00000E+00
    0.99839E+06         0.40300E+06         0.00000E+00
    0.00000E+00         0.00000E+00         0.00000E+00
 
    0.14058E+06         0.10058E+07         0.00000E+00
    0.10058E+07         0.42260E+06         0.00000E+00
    0.00000E+00         0.00000E+00         0.00000E+00
 
    0.10075E+06         0.10125E+07         0.00000E+00
    0.10125E+07         0.44240E+06         0.00000E+00
    0.00000E+00         0.00000E+00         0.00000E+00
 
    0.60633E+05         0.10185E+07         0.00000E+00
    0.10185E+07         0.46238E+06         0.00000E+00
    0.00000E+00         0.00000E+00         0.00000E+00
 
    0.20254E+05         0.10238E+07         0.00000E+00
    0.10238E+07         0.48254E+06         0.00000E+00
    0.00000E+00         0.00000E+00         0.00000E+00
 
    0.15410E+07         0.19069E+05         0.00000E+00
    0.19069E+05        -0.15260E+06         0.00000E+00
    0.00000E+00         0.00000E+00         0.00000E+00
 
    0.15310E+07         0.56068E+05         0.00000E+00
    0.56068E+05        -0.15183E+06         0.00000E+00
    0.00000E+00         0.00000E+00         0.00000E+00
 
    0.15197E+07         0.92629E+05         0.00000E+00
    0.92629E+05        -0.15032E+06         0.00000E+00
    0.00000E+00         0.00000E+00         0.00000E+00
 
    0.15072E+07         0.12873E+06         0.00000E+00
    0.12873E+06        -0.14809E+06         0.00000E+00
    0.00000E+00         0.00000E+00         0.00000E+00
 
    0.14934E+07         0.16436E+06         0.00000E+00
    0.16436E+06        -0.14515E+06         0.00000E+00
    0.00000E+00         0.00000E+00         0.00000E+00
 
    0.14784E+07         0.19951E+06         0.00000E+00
    0.19951E+06        -0.14151E+06         0.00000E+00
    0.00000E+00         0.00000E+00         0.00000E+00
 
    0.14623E+07         0.23415E+06         0.00000E+00
    0.23415E+06        -0.13719E+06         0.00000E+00
    0.00000E+00         0.00000E+00         0.00000E+00
 
    0.14450E+07         0.26827E+06         0.00000E+00
    0.26827E+06        -0.13221E+06         0.00000E+00
    0.00000E+00         0.00000E+00         0.00000E+00
 
    0.14267E+07         0.30186E+06         0.00000E+00
    0.30186E+06        -0.12658E+06         0.00000E+00
    0.00000E+00         0.00000E+00         0.00000E+00
 
    0.14072E+07         0.33491E+06         0.00000E+00
    0.33491E+06        -0.12032E+06         0.00000E+00
    0.00000E+00         0.00000E+00         0.00000E+00
 
    0.13867E+07         0.36741E+06         0.00000E+00
    0.36741E+06        -0.11343E+06         0.00000E+00
    0.00000E+00         0.00000E+00         0.00000E+00
 
    0.13652E+07         0.39933E+06         0.00000E+00
    0.39933E+06        -0.10594E+06         0.00000E+00
    0.00000E+00         0.00000E+00         0.00000E+00
 
    0.13427E+07         0.43069E+06         0.00000E+00
    0.43069E+06        -0.97855E+05         0.00000E+00
    0.00000E+00         0.00000E+00         0.00000E+00
 
    0.13192E+07         0.46145E+06         0.00000E+00
    0.46145E+06        -0.89192E+05         0.00000E+00
    0.00000E+00         0.00000E+00         0.00000E+00
 
    0.12948E+07         0.49162E+06         0.00000E+00
    0.49162E+06        -0.79966E+05         0.00000E+00
    0.00000E+00         0.00000E+00         0.00000E+00
 
    0.12694E+07         0.52119E+06         0.00000E+00
    0.52119E+06        -0.70188E+05         0.00000E+00
    0.00000E+00         0.00000E+00         0.00000E+00
 
    0.12432E+07         0.55014E+06         0.00000E+00
    0.55014E+06        -0.59873E+05         0.00000E+00
    0.00000E+00         0.00000E+00         0.00000E+00
 
    0.12161E+07         0.57848E+06         0.00000E+00
    0.57848E+06        -0.49034E+05         0.00000E+00
    0.00000E+00         0.00000E+00         0.00000E+00
 
    0.11882E+07         0.60618E+06         0.00000E+00
    0.60618E+06        -0.37683E+05         0.00000E+00
    0.00000E+00         0.00000E+00         0.00000E+00
 
    0.11594E+07         0.63326E+06         0.00000E+00
    0.63326E+06        -0.25833E+05         0.00000E+00
    0.00000E+00         0.00000E+00         0.00000E+00
 
    0.11299E+07         0.65969E+06         0.00000E+00
    0.65969E+06        -0.13497E+05         0.00000E+00
    0.00000E+00         0.00000E+00         0.00000E+00
 
    0.10996E+07         0.68548E+06         0.00000E+00
    0.68548E+06        -0.68640E+03         0.00000E+00
    0.00000E+00         0.00000E+00         0.00000E+00
 
    0.10686E+07         0.71061E+06         0.00000E+00
    0.71061E+06         0.12586E+05         0.00000E+00
    0.00000E+00         0.00000E+00         0.00000E+00
 
    0.10368E+07         0.73509E+06         0.00000E+00
    0.73509E+06         0.26309E+05         0.00000E+00
    0.00000E+00         0.00000E+00         0.00000E+00
 
    0.10043E+07         0.75891E+06         0.00000E+00
    0.75891E+06         0.40471E+05         0.00000E+00
    0.00000E+00         0.00000E+00         0.00000E+00
 
    0.97120E+06         0.78206E+06         0.00000E+00
    0.78206E+06         0.55061E+05         0.00000E+00
    0.00000E+00         0.00000E+00         0.00000E+00
 
    0.93741E+06         0.80454E+06         0.00000E+00
    0.80454E+06         0.70067E+05         0.00000E+00
    0.00000E+00         0.00000E+00         0.00000E+00
 
    0.90299E+06         0.82635E+06         0.00000E+00
    0.82635E+06         0.85478E+05         0.00000E+00
    0.00000E+00         0.00000E+00         0.00000E+00
 
    0.86795E+06         0.84748E+06         0.00000E+00
    0.84748E+06         0.10128E+06         0.00000E+00
    0.00000E+00         0.00000E+00         0.00000E+00
 
    0.83232E+06         0.86792E+06         0.00000E+00
    0.86792E+06         0.11747E+06         0.00000E+00
    0.00000E+00         0.00000E+00         0.00000E+00
 
    0.79611E+06         0.88768E+06         0.00000E+00
    0.88768E+06         0.13404E+06         0.00000E+00
    0.00000E+00         0.00000E+00         0.00000E+00
 
    0.75936E+06         0.90676E+06         0.00000E+00
    0.90676E+06         0.15097E+06         0.00000E+00
    0.00000E+00         0.00000E+00         0.00000E+00
 
    0.72206E+06         0.92514E+06         0.00000E+00
    0.92514E+06         0.16825E+06         0.00000E+00
    0.00000E+00         0.00000E+00         0.00000E+00
 
    0.68425E+06         0.94283E+06         0.00000E+00
    0.94283E+06         0.18588E+06         0.00000E+00
    0.00000E+00         0.00000E+00         0.00000E+00
 
    0.64593E+06         0.95982E+06         0.00000E+00
    0.95982E+06         0.20384E+06         0.00000E+00
    0.00000E+00         0.00000E+00         0.00000E+00
 
    0.60714E+06         0.97611E+06         0.00000E+00
    0.97611E+06         0.22212E+06         0.00000E+00
    0.00000E+00         0.00000E+00         0.00000E+00
 
    0.56788E+06         0.99170E+06         0.00000E+00
    0.99170E+06         0.24072E+06         0.00000E+00
    0.00000E+00         0.00000E+00         0.00000E+00
 
    0.52816E+06         0.10066E+07         0.00000E+00
    0.10066E+07         0.25963E+06         0.00000E+00
    0.00000E+00         0.00000E+00         0.00000E+00
 
    0.48802E+06         0.10208E+07         0.00000E+00
    0.10208E+07         0.27884E+06         0.00000E+00
    0.00000E+00         0.00000E+00         0.00000E+00
 
    0.44746E+06         0.10342E+07         0.00000E+00
    0.10342E+07         0.29834E+06         0.00000E+00
    0.00000E+00         0.00000E+00         0.00000E+00
 
    0.40649E+06         0.10470E+07         0.00000E+00
    0.10470E+07         0.31811E+06         0.00000E+00
    0.00000E+00         0.00000E+00         0.00000E+00
 
    0.36514E+06         0.10590E+07         0.00000E+00
    0.10590E+07         0.33816E+06         0.00000E+00
    0.00000E+00         0.00000E+00         0.00000E+00
 
    0.32341E+06         0.10704E+07         0.00000E+00
    0.10704E+07         0.35847E+06         0.00000E+00
    0.00000E+00         0.00000E+00         0.00000E+00
 
    0.28132E+06         0.10810E+07         0.00000E+00
    0.10810E+07         0.37903E+06         0.00000E+00
    0.00000E+00         0.00000E+00         0.00000E+00
 
    0.23889E+06         0.10909E+07         0.00000E+00
    0.10909E+07         0.39985E+06         0.00000E+00
    0.00000E+00         0.00000E+00         0.00000E+00
 
    0.19613E+06         0.11000E+07         0.00000E+00
    0.11000E+07         0.42090E+06         0.00000E+00
    0.00000E+00         0.00000E+00         0.00000E+00
 
    0.15306E+06         0.11085E+07         0.00000E+00
    0.11085E+07         0.44217E+06         0.00000E+00
    0.00000E+00         0.00000E+00         0.00000E+00
 
    0.10967E+06         0.11162E+07         0.00000E+00
    0.11162E+07         0.46368E+06         0.00000E+00
    0.00000E+00         0.00000E+00         0.00000E+00
 
    0.65999E+05         0.11232E+07         0.00000E+00
    0.11232E+07         0.48539E+06         0.00000E+00
    0.00000E+00         0.00000E+00         0.00000E+00
 
    0.22045E+05         0.11294E+07         0.00000E+00
    0.11294E+07         0.50731E+06         0.00000E+00
    0.00000E+00         0.00000E+00         0.00000E+00
 
    0.17066E+07         0.21131E+05         0.00000E+00
    0.21131E+05        -0.18275E+06         0.00000E+00
    0.00000E+00         0.00000E+00         0.00000E+00
 
    0.16943E+07         0.62025E+05         0.00000E+00
    0.62025E+05        -0.18192E+06         0.00000E+00
    0.00000E+00         0.00000E+00         0.00000E+00
 
    0.16805E+07         0.10240E+06         0.00000E+00
    0.10240E+06        -0.18028E+06         0.00000E+00
    0.00000E+00         0.00000E+00         0.00000E+00
 
    0.16655E+07         0.14223E+06         0.00000E+00
    0.14223E+06        -0.17786E+06         0.00000E+00
    0.00000E+00         0.00000E+00         0.00000E+00
 
    0.16491E+07         0.18151E+06         0.00000E+00
    0.18151E+06        -0.17467E+06         0.00000E+00
    0.00000E+00         0.00000E+00         0.00000E+00
 
    0.16315E+07         0.22023E+06         0.00000E+00
    0.22023E+06        -0.17073E+06         0.00000E+00
    0.00000E+00         0.00000E+00         0.00000E+00
 
    0.16126E+07         0.25835E+06         0.00000E+00
    0.25835E+06        -0.16606E+06         0.00000E+00
    0.00000E+00         0.00000E+00         0.00000E+00
 
    0.15925E+07         0.29589E+06         0.00000E+00
    0.29589E+06        -0.16068E+06         0.00000E+00
    0.00000E+00         0.00000E+00         0.00000E+00
 
    0.15713E+07         0.33281E+06         0.00000E+00
    0.33281E+06        -0.15460E+06         0.00000E+00
    0.00000E+00         0.00000E+00         0.00000E+00
 
    0.15489E+07         0.36911E+06         0.00000E+00
    0.36911E+06        -0.14783E+06         0.00000E+00
    0.00000E+00         0.00000E+00         0.00000E+00
 
    0.15254E+07         0.40479E+06         0.00000E+00
    0.40479E+06        -0.14040E+06         0.00000E+00
    0.00000E+00         0.00000E+00         0.00000E+00
 
    0.15009E+07         0.43982E+06         0.00000E+00
    0.43982E+06        -0.13231E+06         0.00000E+00
    0.00000E+00         0.00000E+00         0.00000E+00
 
    0.14753E+07         0.47420E+06         0.00000E+00
    0.47420E+06        -0.12360E+06         0.00000E+00
    0.00000E+00         0.00000E+00         0.00000E+00
 
    0.14486E+07         0.50793E+06         0.00000E+00
    0.50793E+06        -0.11426E+06         0.00000E+00
    0.00000E+00         0.00000E+00         0.00000E+00
 
    0.14210E+07         0.54098E+06         0.00000E+00
    0.54098E+06        -0.10432E+06         0.00000E+00
    0.00000E+00         0.00000E+00         0.00000E+00
 
    0.13925E+07         0.57337E+06         0.00000E+00
    0.57337E+06        -0.93786E+05         0.00000E+00
    0.00000E+00         0.00000E+00         0.00000E+00
 
    0.13630E+07         0.60507E+06         0.00000E+00
    0.60507E+06        -0.82679E+05         0.00000E+00
    0.00000E+00         0.00000E+00         0.00000E+00
 
    0.13326E+07         0.63608E+06         0.00000E+00
    0.63608E+06        -0.71011E+05         0.00000E+00
    0.00000E+00         0.00000E+00         0.00000E+00
 
    0.13014E+07         0.66640E+06         0.00000E+00
    0.66640E+06        -0.58796E+05         0.00000E+00
    0.00000E+00         0.00000E+00         0.00000E+00
 
    0.12693E+07         0.69603E+06         0.00000E+00
    0.69603E+06        -0.46046E+05         0.00000E+00
    0.00000E+00         0.00000E+00         0.00000E+00
 
    0.12364E+07         0.72494E+06         0.00000E+00
    0.72494E+06        -0.32776E+05         0.00000E+00
    0.00000E+00         0.00000E+00         0.00000E+00
 
    0.12027E+07         0.75316E+06         0.00000E+00
    0.75316E+06        -0.18998E+05         0.00000E+00
    0.00000E+00         0.00000E+00         0.00000E+00
 
    0.11682E+07         0.78065E+06         0.00000E+00
    0.78065E+06        -0.47248E+04         0.00000E+00
    0.00000E+00         0.00000E+00         0.00000E+00
 
    0.11330E+07         0.80744E+06         0.00000E+00
    0.80744E+06         0.10031E+05         0.00000E+00
    0.00000E+00         0.00000E+00         0.00000E+00
 
    0.10971E+07         0.83350E+06         0.00000E+00
    0.83350E+06         0.25258E+05         0.00000E+00
    0.00000E+00         0.00000E+00         0.00000E+00
 
    0.10605E+07         0.85884E+06         0.00000E+00
    0.85884E+06         0.40944E+05         0.00000E+00
    0.00000E+00         0.00000E+00         0.00000E+00
 
    0.10232E+07         0.88345E+06         0.00000E+00
    0.88345E+06         0.57078E+05         0.00000E+00
    0.00000E+00         0.00000E+00         0.00000E+00
 
    0.98527E+06         0.90733E+06         0.00000E+00
    0.90733E+06         0.73648E+05         0.00000E+00
    0.00000E+00         0.00000E+00         0.00000E+00
 
    0.94670E+06         0.93048E+06         0.00000E+00
    0.93048E+06         0.90644E+05         0.00000E+00
    0.00000E+00         0.00000E+00         0.00000E+00
 
    0.90752E+06         0.95290E+06         0.00000E+00
    0.95290E+06         0.10805E+06         0.00000E+00
    0.00000E+00         0.00000E+00         0.00000E+00
 
    0.86776E+06         0.97458E+06         0.00000E+00
    0.97458E+06         0.12587E+06         0.00000E+00
    0.00000E+00         0.00000E+00         0.00000E+00
 
    0.82743E+06         0.99552E+06         0.00000E+00
    0.99552E+06         0.14408E+06         0.00000E+00
    0.00000E+00         0.00000E+00         0.00000E+00
 
    0.78655E+06         0.10157E+07         0.00000E+00
    0.10157E+07         0.16267E+06         0.00000E+00
    0.00000E+00         0.00000E+00         0.00000E+00
 
    0.74514E+06         0.10352E+07         0.00000E+00
    0.10352E+07         0.18164E+06         0.00000E+00
    0.00000E+00         0.00000E+00         0.00000E+00
 
    0.70322E+06         0.10539E+07         0.00000E+00
    0.10539E+07         0.20097E+06         0.00000E+00
    0.00000E+00         0.00000E+00         0.00000E+00
 
    0.66081E+06         0.10719E+07         0.00000E+00
    0.10719E+07         0.22066E+06         0.00000E+00
    0.00000E+00         0.00000E+00         0.00000E+00
 
    0.61792E+06         0.10891E+07         0.00000E+00
    0.10891E+07         0.24070E+06         0.00000E+00
    0.00000E+00         0.00000E+00         0.00000E+00
 
    0.57457E+06         0.11056E+07         0.00000E+00
    0.11056E+07         0.26107E+06         0.00000E+00
    0.00000E+00         0.00000E+00         0.00000E+00
 
    0.53077E+06         0.11213E+07         0.00000E+00
    0.11213E+07         0.28177E+06         0.00000E+00
    0.00000E+00         0.00000E+00         0.00000E+00
 
    0.48655E+06         0.11363E+07         0.00000E+00
    0.11363E+07         0.30279E+06         0.00000E+00
    0.00000E+00         0.00000E+00         0.00000E+00
 
    0.44191E+06         0.11505E+07         0.00000E+00
    0.11505E+07         0.32413E+06         0.00000E+00
    0.00000E+00         0.00000E+00         0.00000E+00
 
    0.39688E+06         0.11639E+07         0.00000E+00
    0.11639E+07         0.34576E+06         0.00000E+00
    0.00000E+00         0.00000E+00         0.00000E+00
 
    0.35146E+06         0.11766E+07         0.00000E+00
    0.11766E+07         0.36770E+06         0.00000E+00
    0.00000E+00         0.00000E+00         0.00000E+00
 
    0.30567E+06         0.11886E+07         0.00000E+00
    0.11886E+07         0.38992E+06         0.00000E+00
    0.00000E+00         0.00000E+00         0.00000E+00
 
    0.25953E+06         0.11998E+07         0.00000E+00
    0.11998E+07         0.41242E+06         0.00000E+00
    0.00000E+00         0.00000E+00         0.00000E+00
 
    0.21305E+06         0.12102E+07         0.00000E+00
    0.12102E+07         0.43519E+06         0.00000E+00
    0.00000E+00         0.00000E+00         0.00000E+00
 
    0.16623E+06         0.12198E+07         0.00000E+00
    0.12198E+07         0.45822E+06         0.00000E+00
    0.00000E+00         0.00000E+00         0.00000E+00
 
    0.11910E+06         0.12287E+07         0.00000E+00
    0.12287E+07         0.48151E+06         0.00000E+00
    0.00000E+00         0.00000E+00         0.00000E+00
 
    0.71665E+05         0.12368E+07         0.00000E+00
    0.12368E+07         0.50505E+06         0.00000E+00
    0.00000E+00         0.00000E+00         0.00000E+00
 
    0.23936E+05         0.12442E+07         0.00000E+00
    0.12442E+07         0.52883E+06         0.00000E+00
    0.00000E+00         0.00000E+00         0.00000E+00
 
    0.18870E+07         0.23370E+05         0.00000E+00
    0.23370E+05        -0.21866E+06         0.00000E+00
    0.00000E+00         0.00000E+00         0.00000E+00
 
    0.18718E+07         0.68478E+05         0.00000E+00
    0.68478E+05        -0.21775E+06         0.00000E+00
    0.00000E+00         0.00000E+00         0.00000E+00
 
    0.18552E+07         0.11297E+06         0.00000E+00
    0.11297E+06        -0.21599E+06         0.00000E+00
    0.00000E+00         0.00000E+00         0.00000E+00
 
    0.18372E+07         0.15683E+06         0.00000E+00
    0.15683E+06        -0.21337E+06         0.00000E+00
    0.00000E+00         0.00000E+00         0.00000E+00
 
    0.18178E+07         0.20004E+06         0.00000E+00
    0.20004E+06        -0.20994E+06         0.00000E+00
    0.00000E+00         0.00000E+00         0.00000E+00
 
    0.17971E+07         0.24259E+06         0.00000E+00
    0.24259E+06        -0.20569E+06         0.00000E+00
    0.00000E+00         0.00000E+00         0.00000E+00
 
    0.17751E+07         0.28447E+06         0.00000E+00
    0.28447E+06        -0.20067E+06         0.00000E+00
    0.00000E+00         0.00000E+00         0.00000E+00
 
    0.17518E+07         0.32566E+06         0.00000E+00
    0.32566E+06        -0.19487E+06         0.00000E+00
    0.00000E+00         0.00000E+00         0.00000E+00
 
    0.17272E+07         0.36616E+06         0.00000E+00
    0.36616E+06        -0.18833E+06         0.00000E+00
    0.00000E+00         0.00000E+00         0.00000E+00
 
    0.17015E+07         0.40595E+06         0.00000E+00
    0.40595E+06        -0.18106E+06         0.00000E+00
    0.00000E+00         0.00000E+00         0.00000E+00
 
    0.16746E+07         0.44503E+06         0.00000E+00
    0.44503E+06        -0.17307E+06         0.00000E+00
    0.00000E+00         0.00000E+00         0.00000E+00
 
    0.16466E+07         0.48338E+06         0.00000E+00
    0.48338E+06        -0.16439E+06         0.00000E+00
    0.00000E+00         0.00000E+00         0.00000E+00
 
    0.16176E+07         0.52101E+06         0.00000E+00
    0.52101E+06        -0.15504E+06         0.00000E+00
    0.00000E+00         0.00000E+00         0.00000E+00
 
    0.15875E+07         0.55789E+06         0.00000E+00
    0.55789E+06        -0.14502E+06         0.00000E+00
    0.00000E+00         0.00000E+00         0.00000E+00
 
    0.15563E+07         0.59403E+06         0.00000E+00
    0.59403E+06        -0.13436E+06         0.00000E+00
    0.00000E+00         0.00000E+00         0.00000E+00
 
    0.15242E+07         0.62942E+06         0.00000E+00
    0.62942E+06        -0.12307E+06         0.00000E+00
    0.00000E+00         0.00000E+00         0.00000E+00
 
    0.14911E+07         0.66406E+06         0.00000E+00
    0.66406E+06        -0.11117E+06         0.00000E+00
    0.00000E+00         0.00000E+00         0.00000E+00
 
    0.14571E+07         0.69794E+06         0.00000E+00
    0.69794E+06        -0.98665E+05         0.00000E+00
    0.00000E+00         0.00000E+00         0.00000E+00
 
    0.14222E+07         0.73105E+06         0.00000E+00
    0.73105E+06        -0.85580E+05         0.00000E+00
    0.00000E+00         0.00000E+00         0.00000E+00
 
    0.13864E+07         0.76340E+06         0.00000E+00
    0.76340E+06        -0.71926E+05         0.00000E+00
    0.00000E+00         0.00000E+00         0.00000E+00
 
    0.13498E+07         0.79497E+06         0.00000E+00
    0.79497E+06        -0.57717E+05         0.00000E+00
    0.00000E+00         0.00000E+00         0.00000E+00
 
    0.13124E+07         0.82577E+06         0.00000E+00
    0.82577E+06        -0.42966E+05         0.00000E+00
    0.00000E+00         0.00000E+00         0.00000E+00
 
    0.12742E+07         0.85580E+06         0.00000E+00
    0.85580E+06        -0.27687E+05         0.00000E+00
    0.00000E+00         0.00000E+00         0.00000E+00
 
    0.12353E+07         0.88505E+06         0.00000E+00
    0.88505E+06        -0.11892E+05         0.00000E+00
    0.00000E+00         0.00000E+00         0.00000E+00
 
    0.11956E+07         0.91351E+06         0.00000E+00
    0.91351E+06         0.44071E+04         0.00000E+00
    0.00000E+00         0.00000E+00         0.00000E+00
 
    0.11552E+07         0.94120E+06         0.00000E+00
    0.94120E+06         0.21197E+05         0.00000E+00
    0.00000E+00         0.00000E+00         0.00000E+00
 
    0.11142E+07         0.96810E+06         0.00000E+00
    0.96810E+06         0.38468E+05         0.00000E+00
    0.00000E+00         0.00000E+00         0.00000E+00
 
    0.10724E+07         0.99422E+06         0.00000E+00
    0.99422E+06         0.56206E+05         0.00000E+00
    0.00000E+00         0.00000E+00         0.00000E+00
 
    0.10301E+07         0.10196E+07         0.00000E+00
    0.10196E+07         0.74403E+05         0.00000E+00
    0.00000E+00         0.00000E+00         0.00000E+00
 
    0.98710E+06         0.10441E+07         0.00000E+00
    0.10441E+07         0.93046E+05         0.00000E+00
    0.00000E+00         0.00000E+00         0.00000E+00
 
    0.94352E+06         0.10679E+07         0.00000E+00
    0.10679E+07         0.11213E+06         0.00000E+00
    0.00000E+00         0.00000E+00         0.00000E+00
 
    0.89937E+06         0.10908E+07         0.00000E+00
    0.10908E+07         0.13163E+06         0.00000E+00
    0.00000E+00         0.00000E+00         0.00000E+00
 
    0.85467E+06         0.11130E+07         0.00000E+00
    0.11130E+07         0.15156E+06         0.00000E+00
    0.00000E+00         0.00000E+00         0.00000E+00
 
    0.80942E+06         0.11344E+07         0.00000E+00
    0.11344E+07         0.17189E+06         0.00000E+00
    0.00000E+00         0.00000E+00         0.00000E+00
 
    0.76366E+06         0.11550E+07         0.00000E+00
    0.11550E+07         0.19261E+06         0.00000E+00
    0.00000E+00         0.00000E+00         0.00000E+00
 
    0.71740E+06         0.11748E+07         0.00000E+00
    0.11748E+07         0.21373E+06         0.00000E+00
    0.00000E+00         0.00000E+00         0.00000E+00
 
    0.67066E+06         0.11938E+07         0.00000E+00
    0.11938E+07         0.23523E+06         0.00000E+00
    0.00000E+00         0.00000E+00         0.00000E+00
 
    0.62345E+06         0.12120E+07         0.00000E+00
    0.12120E+07         0.25710E+06         0.00000E+00
    0.00000E+00         0.00000E+00         0.00000E+00
 
    0.57580E+06         0.12295E+07         0.00000E+00
    0.12295E+07         0.27933E+06         0.00000E+00
    0.00000E+00         0.00000E+00         0.00000E+00
 
    0.52770E+06         0.12461E+07         0.00000E+00
    0.12461E+07         0.30192E+06         0.00000E+00
    0.00000E+00         0.00000E+00         0.00000E+00
 
    0.47919E+06         0.12620E+07         0.00000E+00
    0.12620E+07         0.32486E+06         0.00000E+00
    0.00000E+00         0.00000E+00         0.00000E+00
 
    0.43027E+06         0.12770E+07         0.00000E+00
    0.12770E+07         0.34813E+06         0.00000E+00
    0.00000E+00         0.00000E+00         0.00000E+00
 
    0.38096E+06         0.12912E+07         0.00000E+00
    0.12912E+07         0.37174E+06         0.00000E+00
    0.00000E+00         0.00000E+00         0.00000E+00
 
    0.33127E+06         0.13047E+07         0.00000E+00
    0.13047E+07         0.39567E+06         0.00000E+00
    0.00000E+00         0.00000E+00         0.00000E+00
 
    0.28122E+06         0.13173E+07         0.00000E+00
    0.13173E+07         0.41992E+06         0.00000E+00
    0.00000E+00         0.00000E+00         0.00000E+00
 
    0.23082E+06         0.13292E+07         0.00000E+00
    0.13292E+07         0.44448E+06         0.00000E+00
    0.00000E+00         0.00000E+00         0.00000E+00
 
    0.18007E+06         0.13402E+07         0.00000E+00
    0.13402E+07         0.46934E+06         0.00000E+00
    0.00000E+00         0.00000E+00         0.00000E+00
 
    0.12900E+06         0.13505E+07         0.00000E+00
    0.13505E+07         0.49450E+06         0.00000E+00
    0.00000E+00         0.00000E+00         0.00000E+00
 
    0.77615E+05         0.13599E+07         0.00000E+00
    0.13599E+07         0.51994E+06         0.00000E+00
    0.00000E+00         0.00000E+00         0.00000E+00
 
    0.25922E+05         0.13685E+07         0.00000E+00
    0.13685E+07         0.54567E+06         0.00000E+00
    0.00000E+00         0.00000E+00         0.00000E+00
 
    0.20827E+07         0.25791E+05         0.00000E+00
    0.25791E+05        -0.26137E+06         0.00000E+00
    0.00000E+00         0.00000E+00         0.00000E+00
 
    0.20643E+07         0.75435E+05         0.00000E+00
    0.75435E+05        -0.26040E+06         0.00000E+00
    0.00000E+00         0.00000E+00         0.00000E+00
 
    0.20443E+07         0.12435E+06         0.00000E+00
    0.12435E+06        -0.25850E+06         0.00000E+00
    0.00000E+00         0.00000E+00         0.00000E+00
 
    0.20228E+07         0.17253E+06         0.00000E+00
    0.17253E+06        -0.25569E+06         0.00000E+00
    0.00000E+00         0.00000E+00         0.00000E+00
 
    0.19999E+07         0.21996E+06         0.00000E+00
    0.21996E+06        -0.25200E+06         0.00000E+00
    0.00000E+00         0.00000E+00         0.00000E+00
 
    0.19755E+07         0.26662E+06         0.00000E+00
    0.26662E+06        -0.24746E+06         0.00000E+00
    0.00000E+00         0.00000E+00         0.00000E+00
 
    0.19499E+07         0.31251E+06         0.00000E+00
    0.31251E+06        -0.24207E+06         0.00000E+00
    0.00000E+00         0.00000E+00         0.00000E+00
 
    0.19229E+07         0.35761E+06         0.00000E+00
    0.35761E+06        -0.23587E+06         0.00000E+00
    0.00000E+00         0.00000E+00         0.00000E+00
 
    0.18946E+07         0.40192E+06         0.00000E+00
    0.40192E+06        -0.22887E+06         0.00000E+00
    0.00000E+00         0.00000E+00         0.00000E+00
 
    0.18651E+07         0.44543E+06         0.00000E+00
    0.44543E+06        -0.22110E+06         0.00000E+00
    0.00000E+00         0.00000E+00         0.00000E+00
 
    0.18344E+07         0.48814E+06         0.00000E+00
    0.48814E+06        -0.21257E+06         0.00000E+00
    0.00000E+00         0.00000E+00         0.00000E+00
 
    0.18026E+07         0.53003E+06         0.00000E+00
    0.53003E+06        -0.20330E+06         0.00000E+00
    0.00000E+00         0.00000E+00         0.00000E+00
 
    0.17696E+07         0.57110E+06         0.00000E+00
    0.57110E+06        -0.19331E+06         0.00000E+00
    0.00000E+00         0.00000E+00         0.00000E+00
 
    0.17356E+07         0.61134E+06         0.00000E+00
    0.61134E+06        -0.18262E+06         0.00000E+00
    0.00000E+00         0.00000E+00         0.00000E+00
 
    0.17005E+07         0.65076E+06         0.00000E+00
    0.65076E+06        -0.17125E+06         0.00000E+00
    0.00000E+00         0.00000E+00         0.00000E+00
 
    0.16644E+07         0.68935E+06         0.00000E+00
    0.68935E+06        -0.15921E+06         0.00000E+00
    0.00000E+00         0.00000E+00         0.00000E+00
 
    0.16274E+07         0.72711E+06         0.00000E+00
    0.72711E+06        -0.14652E+06         0.00000E+00
    0.00000E+00         0.00000E+00         0.00000E+00
 
    0.15894E+07         0.76403E+06         0.00000E+00
    0.76403E+06        -0.13320E+06         0.00000E+00
    0.00000E+00         0.00000E+00         0.00000E+00
 
    0.15504E+07         0.80011E+06         0.00000E+00
    0.80011E+06        -0.11926E+06         0.00000E+00
    0.00000E+00         0.00000E+00         0.00000E+00
 
    0.15107E+07         0.83535E+06         0.00000E+00
    0.83535E+06        -0.10471E+06         0.00000E+00
    0.00000E+00         0.00000E+00         0.00000E+00
 
    0.14700E+07         0.86976E+06         0.00000E+00
    0.86976E+06        -0.89578E+05         0.00000E+00
    0.00000E+00         0.00000E+00         0.00000E+00
 
    0.14286E+07         0.90332E+06         0.00000E+00
    0.90332E+06        -0.73867E+05         0.00000E+00
    0.00000E+00         0.00000E+00         0.00000E+00
 
    0.13864E+07         0.93604E+06         0.00000E+00
    0.93604E+06        -0.57595E+05         0.00000E+00
    0.00000E+00         0.00000E+00         0.00000E+00
 
    0.13434E+07         0.96792E+06         0.00000E+00
    0.96792E+06        -0.40773E+05         0.00000E+00
    0.00000E+00         0.00000E+00         0.00000E+00
 
    0.12996E+07         0.99895E+06         0.00000E+00
    0.99895E+06        -0.23414E+05         0.00000E+00
    0.00000E+00         0.00000E+00         0.00000E+00
 
    0.12552E+07         0.10291E+07         0.00000E+00
    0.10291E+07        -0.55312E+04         0.00000E+00
    0.00000E+00         0.00000E+00         0.00000E+00
 
    0.12101E+07         0.10585E+07         0.00000E+00
    0.10585E+07         0.12865E+05         0.00000E+00
    0.00000E+00         0.00000E+00         0.00000E+00
 
    0.11643E+07         0.10870E+07         0.00000E+00
    0.10870E+07         0.31763E+05         0.00000E+00
    0.00000E+00         0.00000E+00         0.00000E+00
 
    0.11178E+07         0.11147E+07         0.00000E+00
    0.11147E+07         0.51152E+05         0.00000E+00
    0.00000E+00         0.00000E+00         0.00000E+00
 
    0.10708E+07         0.11415E+07         0.00000E+00
    0.11415E+07         0.71022E+05         0.00000E+00
    0.00000E+00         0.00000E+00         0.00000E+00
 
    0.10232E+07         0.11675E+07         0.00000E+00
    0.11675E+07         0.91362E+05         0.00000E+00
    0.00000E+00         0.00000E+00         0.00000E+00
 
    0.97494E+06         0.11927E+07         0.00000E+00
    0.11927E+07         0.11216E+06         0.00000E+00
    0.00000E+00         0.00000E+00         0.00000E+00
 
    0.92617E+06         0.12170E+07         0.00000E+00
    0.12170E+07         0.13342E+06         0.00000E+00
    0.00000E+00         0.00000E+00         0.00000E+00
 
    0.87687E+06         0.12405E+07         0.00000E+00
    0.12405E+07         0.15511E+06         0.00000E+00
    0.00000E+00         0.00000E+00         0.00000E+00
 
    0.82705E+06         0.12632E+07         0.00000E+00
    0.12632E+07         0.17724E+06         0.00000E+00
    0.00000E+00         0.00000E+00         0.00000E+00
 
    0.77672E+06         0.12850E+07         0.00000E+00
    0.12850E+07         0.19980E+06         0.00000E+00
    0.00000E+00         0.00000E+00         0.00000E+00
 
    0.72592E+06         0.13060E+07         0.00000E+00
    0.13060E+07         0.22277E+06         0.00000E+00
    0.00000E+00         0.00000E+00         0.00000E+00
 
    0.67464E+06         0.13261E+07         0.00000E+00
    0.13261E+07         0.24615E+06         0.00000E+00
    0.00000E+00         0.00000E+00         0.00000E+00
 
    0.62292E+06         0.13455E+07         0.00000E+00
    0.13455E+07         0.26993E+06         0.00000E+00
    0.00000E+00         0.00000E+00         0.00000E+00
 
    0.57076E+06         0.13639E+07         0.00000E+00
    0.13639E+07         0.29411E+06         0.00000E+00
    0.00000E+00         0.00000E+00         0.00000E+00
 
    0.51817E+06         0.13816E+07         0.00000E+00
    0.13816E+07         0.31868E+06         0.00000E+00
    0.00000E+00         0.00000E+00         0.00000E+00
 
    0.46518E+06         0.13984E+07         0.00000E+00
    0.13984E+07         0.34362E+06         0.00000E+00
    0.00000E+00         0.00000E+00         0.00000E+00
 
    0.41179E+06         0.14144E+07         0.00000E+00
    0.14144E+07         0.36894E+06         0.00000E+00
    0.00000E+00         0.00000E+00         0.00000E+00
 
    0.35802E+06         0.14296E+07         0.00000E+00
    0.14296E+07         0.39463E+06         0.00000E+00
    0.00000E+00         0.00000E+00         0.00000E+00
 
    0.30388E+06         0.14439E+07         0.00000E+00
    0.14439E+07         0.42068E+06         0.00000E+00
    0.00000E+00         0.00000E+00         0.00000E+00
 
    0.24938E+06         0.14574E+07         0.00000E+00
    0.14574E+07         0.44708E+06         0.00000E+00
    0.00000E+00         0.00000E+00         0.00000E+00
 
    0.19453E+06         0.14700E+07         0.00000E+00
    0.14700E+07         0.47382E+06         0.00000E+00
    0.00000E+00         0.00000E+00         0.00000E+00
 
    0.13934E+06         0.14819E+07         0.00000E+00
    0.14819E+07         0.50091E+06         0.00000E+00
    0.00000E+00         0.00000E+00         0.00000E+00
 
    0.83825E+05         0.14928E+07         0.00000E+00
    0.14928E+07         0.52834E+06         0.00000E+00
    0.00000E+00         0.00000E+00         0.00000E+00
 
    0.27994E+05         0.15030E+07         0.00000E+00
    0.15030E+07         0.55609E+06         0.00000E+00
    0.00000E+00         0.00000E+00         0.00000E+00
 
    0.22942E+07         0.28394E+05         0.00000E+00
    0.28394E+05        -0.31211E+06         0.00000E+00
    0.00000E+00         0.00000E+00         0.00000E+00
 
    0.22718E+07         0.82894E+05         0.00000E+00
    0.82894E+05        -0.31107E+06         0.00000E+00
    0.00000E+00         0.00000E+00         0.00000E+00
 
    0.22479E+07         0.13654E+06         0.00000E+00
    0.13654E+06        -0.30904E+06         0.00000E+00
    0.00000E+00         0.00000E+00         0.00000E+00
 
    0.22224E+07         0.18933E+06         0.00000E+00
    0.18933E+06        -0.30605E+06         0.00000E+00
    0.00000E+00         0.00000E+00         0.00000E+00
 
    0.21954E+07         0.24125E+06         0.00000E+00
    0.24125E+06        -0.30212E+06         0.00000E+00
    0.00000E+00         0.00000E+00         0.00000E+00
 
    0.21669E+07         0.29229E+06         0.00000E+00
    0.29229E+06        -0.29727E+06         0.00000E+00
    0.00000E+00         0.00000E+00         0.00000E+00
 
    0.21371E+07         0.34244E+06         0.00000E+00
    0.34244E+06        -0.29154E+06         0.00000E+00
    0.00000E+00         0.00000E+00         0.00000E+00
 
    0.21059E+07         0.39169E+06         0.00000E+00
    0.39169E+06        -0.28494E+06         0.00000E+00
    0.00000E+00         0.00000E+00         0.00000E+00
 
    0.20734E+07         0.44005E+06         0.00000E+00
    0.44005E+06        -0.27750E+06         0.00000E+00
    0.00000E+00         0.00000E+00         0.00000E+00
 
    0.20396E+07         0.48750E+06         0.00000E+00
    0.48750E+06        -0.26924E+06         0.00000E+00
    0.00000E+00         0.00000E+00         0.00000E+00
 
    0.20046E+07         0.53404E+06         0.00000E+00
    0.53404E+06        -0.26018E+06         0.00000E+00
    0.00000E+00         0.00000E+00         0.00000E+00
 
    0.19684E+07         0.57968E+06         0.00000E+00
    0.57968E+06        -0.25035E+06         0.00000E+00
    0.00000E+00         0.00000E+00         0.00000E+00
 
    0.19311E+07         0.62439E+06         0.00000E+00
    0.62439E+06        -0.23975E+06         0.00000E+00
    0.00000E+00         0.00000E+00         0.00000E+00
 
    0.18928E+07         0.66820E+06         0.00000E+00
    0.66820E+06        -0.22842E+06         0.00000E+00
    0.00000E+00         0.00000E+00         0.00000E+00
 
    0.18533E+07         0.71108E+06         0.00000E+00
    0.71108E+06        -0.21636E+06         0.00000E+00
    0.00000E+00         0.00000E+00         0.00000E+00
 
    0.18129E+07         0.75305E+06         0.00000E+00
    0.75305E+06        -0.20360E+06         0.00000E+00
    0.00000E+00         0.00000E+00         0.00000E+00
 
    0.17714E+07         0.79411E+06         0.00000E+00
    0.79411E+06        -0.19016E+06         0.00000E+00
    0.00000E+00         0.00000E+00         0.00000E+00
 
    0.17291E+07         0.83424E+06         0.00000E+00
    0.83424E+06        -0.17604E+06         0.00000E+00
    0.00000E+00         0.00000E+00         0.00000E+00
 
    0.16858E+07         0.87347E+06         0.00000E+00
    0.87347E+06        -0.16128E+06         0.00000E+00
    0.00000E+00         0.00000E+00         0.00000E+00
 
    0.16416E+07         0.91178E+06         0.00000E+00
    0.91178E+06        -0.14588E+06         0.00000E+00
    0.00000E+00         0.00000E+00         0.00000E+00
 
    0.15966E+07         0.94917E+06         0.00000E+00
    0.94917E+06        -0.12985E+06         0.00000E+00
    0.00000E+00         0.00000E+00         0.00000E+00
 
    0.15508E+07         0.98566E+06         0.00000E+00
    0.98566E+06        -0.11322E+06         0.00000E+00
    0.00000E+00         0.00000E+00         0.00000E+00
 
    0.15042E+07         0.10212E+07         0.00000E+00
    0.10212E+07        -0.95987E+05         0.00000E+00
    0.00000E+00         0.00000E+00         0.00000E+00
 
    0.14568E+07         0.10559E+07         0.00000E+00
    0.10559E+07        -0.78175E+05         0.00000E+00
    0.00000E+00         0.00000E+00         0.00000E+00
 
    0.14087E+07         0.10897E+07         0.00000E+00
    0.10897E+07        -0.59793E+05         0.00000E+00
    0.00000E+00         0.00000E+00         0.00000E+00
 
    0.13599E+07         0.11226E+07         0.00000E+00
    0.11226E+07        -0.40853E+05         0.00000E+00
    0.00000E+00         0.00000E+00         0.00000E+00
 
    0.13105E+07         0.11545E+07         0.00000E+00
    0.11545E+07        -0.21366E+05         0.00000E+00
    0.00000E+00         0.00000E+00         0.00000E+00
 
    0.12604E+07         0.11856E+07         0.00000E+00
    0.11856E+07        -0.13423E+04         0.00000E+00
    0.00000E+00         0.00000E+00         0.00000E+00
 
    0.12096E+07         0.12158E+07         0.00000E+00
    0.12158E+07         0.19207E+05         0.00000E+00
    0.00000E+00         0.00000E+00         0.00000E+00
 
    0.11582E+07         0.12451E+07         0.00000E+00
    0.12451E+07         0.40272E+05         0.00000E+00
    0.00000E+00         0.00000E+00         0.00000E+00
 
    0.11063E+07         0.12735E+07         0.00000E+00
    0.12735E+07         0.61843E+05         0.00000E+00
    0.00000E+00         0.00000E+00         0.00000E+00
 
    0.10538E+07         0.13011E+07         0.00000E+00
    0.13011E+07         0.83913E+05         0.00000E+00
    0.00000E+00         0.00000E+00         0.00000E+00
 
    0.10007E+07         0.13277E+07         0.00000E+00
    0.13277E+07         0.10647E+06         0.00000E+00
    0.00000E+00         0.00000E+00         0.00000E+00
 
    0.94715E+06         0.13535E+07         0.00000E+00
    0.13535E+07         0.12951E+06         0.00000E+00
    0.00000E+00         0.00000E+00         0.00000E+00
 
    0.89306E+06         0.13784E+07         0.00000E+00
    0.13784E+07         0.15302E+06         0.00000E+00
    0.00000E+00         0.00000E+00         0.00000E+00
 
    0.83847E+06         0.14024E+07         0.00000E+00
    0.14024E+07         0.17700E+06         0.00000E+00
    0.00000E+00         0.00000E+00         0.00000E+00
 
    0.78340E+06         0.14256E+07         0.00000E+00
    0.14256E+07         0.20144E+06         0.00000E+00
    0.00000E+00         0.00000E+00         0.00000E+00
 
    0.72788E+06         0.14479E+07         0.00000E+00
    0.14479E+07         0.22632E+06         0.00000E+00
    0.00000E+00         0.00000E+00         0.00000E+00
 
    0.67190E+06         0.14693E+07         0.00000E+00
    0.14693E+07         0.25166E+06         0.00000E+00
    0.00000E+00         0.00000E+00         0.00000E+00
 
    0.61549E+06         0.14899E+07         0.00000E+00
    0.14899E+07         0.27743E+06         0.00000E+00
    0.00000E+00         0.00000E+00         0.00000E+00
 
    0.55866E+06         0.15095E+07         0.00000E+00
    0.15095E+07         0.30363E+06         0.00000E+00
    0.00000E+00         0.00000E+00         0.00000E+00
 
    0.50143E+06         0.15284E+07         0.00000E+00
    0.15284E+07         0.33026E+06         0.00000E+00
    0.00000E+00         0.00000E+00         0.00000E+00
 
    0.44379E+06         0.15463E+07         0.00000E+00
    0.15463E+07         0.35731E+06         0.00000E+00
    0.00000E+00         0.00000E+00         0.00000E+00
 
    0.38577E+06         0.15634E+07         0.00000E+00
    0.15634E+07         0.38477E+06         0.00000E+00
    0.00000E+00         0.00000E+00         0.00000E+00
 
    0.32738E+06         0.15797E+07         0.00000E+00
    0.15797E+07         0.41265E+06         0.00000E+00
    0.00000E+00         0.00000E+00         0.00000E+00
 
    0.26862E+06         0.15950E+07         0.00000E+00
    0.15950E+07         0.44093E+06         0.00000E+00
    0.00000E+00         0.00000E+00         0.00000E+00
 
    0.20951E+06         0.16095E+07         0.00000E+00
    0.16095E+07         0.46961E+06         0.00000E+00
    0.00000E+00         0.00000E+00         0.00000E+00
 
    0.15006E+06         0.16232E+07         0.00000E+00
    0.16232E+07         0.49868E+06         0.00000E+00
    0.00000E+00         0.00000E+00         0.00000E+00
 
    0.90263E+05         0.16359E+07         0.00000E+00
    0.16359E+07         0.52814E+06         0.00000E+00
    0.00000E+00         0.00000E+00         0.00000E+00
 
    0.30142E+05         0.16478E+07         0.00000E+00
    0.16478E+07         0.55799E+06         0.00000E+00
    0.00000E+00         0.00000E+00         0.00000E+00
 
    0.25216E+07         0.31176E+05         0.00000E+00
    0.31176E+05        -0.37231E+06         0.00000E+00
    0.00000E+00         0.00000E+00         0.00000E+00
 
    0.24947E+07         0.90841E+05         0.00000E+00
    0.90841E+05        -0.37120E+06         0.00000E+00
    0.00000E+00         0.00000E+00         0.00000E+00
 
    0.24661E+07         0.14951E+06         0.00000E+00
    0.14951E+06        -0.36905E+06         0.00000E+00
    0.00000E+00         0.00000E+00         0.00000E+00
 
    0.24359E+07         0.20719E+06         0.00000E+00
    0.20719E+06        -0.36588E+06         0.00000E+00
    0.00000E+00         0.00000E+00         0.00000E+00
 
    0.24042E+07         0.26386E+06         0.00000E+00
    0.26386E+06        -0.36172E+06         0.00000E+00
    0.00000E+00         0.00000E+00         0.00000E+00
 
    0.23711E+07         0.31952E+06         0.00000E+00
    0.31952E+06        -0.35660E+06         0.00000E+00
    0.00000E+00         0.00000E+00         0.00000E+00
 
    0.23364E+07         0.37417E+06         0.00000E+00
    0.37417E+06        -0.35054E+06         0.00000E+00
    0.00000E+00         0.00000E+00         0.00000E+00
 
    0.23005E+07         0.42781E+06         0.00000E+00
    0.42781E+06        -0.34357E+06         0.00000E+00
    0.00000E+00         0.00000E+00         0.00000E+00
 
    0.22632E+07         0.48043E+06         0.00000E+00
    0.48043E+06        -0.33572E+06         0.00000E+00
    0.00000E+00         0.00000E+00         0.00000E+00
 
    0.22246E+07         0.53203E+06         0.00000E+00
    0.53203E+06        -0.32701E+06         0.00000E+00
    0.00000E+00         0.00000E+00         0.00000E+00
 
    0.21848E+07         0.58261E+06         0.00000E+00
    0.58261E+06        -0.31745E+06         0.00000E+00
    0.00000E+00         0.00000E+00         0.00000E+00
 
    0.21438E+07         0.63218E+06         0.00000E+00
    0.63218E+06        -0.30709E+06         0.00000E+00
    0.00000E+00         0.00000E+00         0.00000E+00
 
    0.21017E+07         0.68073E+06         0.00000E+00
    0.68073E+06        -0.29593E+06         0.00000E+00
    0.00000E+00         0.00000E+00         0.00000E+00
 
    0.20585E+07         0.72827E+06         0.00000E+00
    0.72827E+06        -0.28399E+06         0.00000E+00
    0.00000E+00         0.00000E+00         0.00000E+00
 
    0.20142E+07         0.77479E+06         0.00000E+00
    0.77479E+06        -0.27130E+06         0.00000E+00
    0.00000E+00         0.00000E+00         0.00000E+00
 
    0.19690E+07         0.82032E+06         0.00000E+00
    0.82032E+06        -0.25787E+06         0.00000E+00
    0.00000E+00         0.00000E+00         0.00000E+00
 
    0.19228E+07         0.86484E+06         0.00000E+00
    0.86484E+06        -0.24373E+06         0.00000E+00
    0.00000E+00         0.00000E+00         0.00000E+00
 
    0.18756E+07         0.90836E+06         0.00000E+00
    0.90836E+06        -0.22889E+06         0.00000E+00
    0.00000E+00         0.00000E+00         0.00000E+00
 
    0.18276E+07         0.95089E+06         0.00000E+00
    0.95089E+06        -0.21336E+06         0.00000E+00
    0.00000E+00         0.00000E+00         0.00000E+00
 
    0.17787E+07         0.99243E+06         0.00000E+00
    0.99243E+06        -0.19716E+06         0.00000E+00
    0.00000E+00         0.00000E+00         0.00000E+00
 
    0.17289E+07         0.10330E+07         0.00000E+00
    0.10330E+07        -0.18030E+06         0.00000E+00
    0.00000E+00         0.00000E+00         0.00000E+00
 
    0.16784E+07         0.10726E+07         0.00000E+00
    0.10726E+07        -0.16281E+06         0.00000E+00
    0.00000E+00         0.00000E+00         0.00000E+00
 
    0.16271E+07         0.11112E+07         0.00000E+00
    0.11112E+07        -0.14469E+06         0.00000E+00
    0.00000E+00         0.00000E+00         0.00000E+00
 
    0.15751E+07         0.11488E+07         0.00000E+00
    0.11488E+07        -0.12595E+06         0.00000E+00
    0.00000E+00         0.00000E+00         0.00000E+00
 
    0.15223E+07         0.11855E+07         0.00000E+00
    0.11855E+07        -0.10661E+06         0.00000E+00
    0.00000E+00         0.00000E+00         0.00000E+00
 
    0.14689E+07         0.12212E+07         0.00000E+00
    0.12212E+07        -0.86677E+05         0.00000E+00
    0.00000E+00         0.00000E+00         0.00000E+00
 
    0.14148E+07         0.12560E+07         0.00000E+00
    0.12560E+07        -0.66164E+05         0.00000E+00
    0.00000E+00         0.00000E+00         0.00000E+00
 
    0.13601E+07         0.12898E+07         0.00000E+00
    0.12898E+07        -0.45079E+05         0.00000E+00
    0.00000E+00         0.00000E+00         0.00000E+00
 
    0.13048E+07         0.13227E+07         0.00000E+00
    0.13227E+07        -0.23433E+05         0.00000E+00
    0.00000E+00         0.00000E+00         0.00000E+00
 
    0.12489E+07         0.13546E+07         0.00000E+00
    0.13546E+07        -0.12330E+04         0.00000E+00
    0.00000E+00         0.00000E+00         0.00000E+00
 
    0.11924E+07         0.13857E+07         0.00000E+00
    0.13857E+07         0.21511E+05         0.00000E+00
    0.00000E+00         0.00000E+00         0.00000E+00
 
    0.11354E+07         0.14158E+07         0.00000E+00
    0.14158E+07         0.44792E+05         0.00000E+00
    0.00000E+00         0.00000E+00         0.00000E+00
 
    0.10779E+07         0.14449E+07         0.00000E+00
    0.14449E+07         0.68602E+05         0.00000E+00
    0.00000E+00         0.00000E+00         0.00000E+00
 
    0.10198E+07         0.14732E+07         0.00000E+00
    0.14732E+07         0.92935E+05         0.00000E+00
    0.00000E+00         0.00000E+00         0.00000E+00
 
    0.96127E+06         0.15006E+07         0.00000E+00
    0.15006E+07         0.11778E+06         0.00000E+00
    0.00000E+00         0.00000E+00         0.00000E+00
 
    0.90224E+06         0.15270E+07         0.00000E+00
    0.15270E+07         0.14314E+06         0.00000E+00
    0.00000E+00         0.00000E+00         0.00000E+00
 
    0.84274E+06         0.15526E+07         0.00000E+00
    0.15526E+07         0.16900E+06         0.00000E+00
    0.00000E+00         0.00000E+00         0.00000E+00
 
    0.78280E+06         0.15772E+07         0.00000E+00
    0.15772E+07         0.19536E+06         0.00000E+00
    0.00000E+00         0.00000E+00         0.00000E+00
 
    0.72241E+06         0.16009E+07         0.00000E+00
    0.16009E+07         0.22221E+06         0.00000E+00
    0.00000E+00         0.00000E+00         0.00000E+00
 
    0.66160E+06         0.16238E+07         0.00000E+00
    0.16238E+07         0.24955E+06         0.00000E+00
    0.00000E+00         0.00000E+00         0.00000E+00
 
    0.60038E+06         0.16458E+07         0.00000E+00
    0.16458E+07         0.27738E+06         0.00000E+00
    0.00000E+00         0.00000E+00         0.00000E+00
 
    0.53876E+06         0.16668E+07         0.00000E+00
    0.16668E+07         0.30568E+06         0.00000E+00
    0.00000E+00         0.00000E+00         0.00000E+00
 
    0.47674E+06         0.16870E+07         0.00000E+00
    0.16870E+07         0.33446E+06         0.00000E+00
    0.00000E+00         0.00000E+00         0.00000E+00
 
    0.41434E+06         0.17063E+07         0.00000E+00
    0.17063E+07         0.36370E+06         0.00000E+00
    0.00000E+00         0.00000E+00         0.00000E+00
 
    0.35157E+06         0.17247E+07         0.00000E+00
    0.17247E+07         0.39342E+06         0.00000E+00
    0.00000E+00         0.00000E+00         0.00000E+00
 
    0.28843E+06         0.17422E+07         0.00000E+00
    0.17422E+07         0.42360E+06         0.00000E+00
    0.00000E+00         0.00000E+00         0.00000E+00
 
    0.22493E+06         0.17589E+07         0.00000E+00
    0.17589E+07         0.45423E+06         0.00000E+00
    0.00000E+00         0.00000E+00         0.00000E+00
 
    0.16108E+06         0.17746E+07         0.00000E+00
    0.17746E+07         0.48532E+06         0.00000E+00
    0.00000E+00         0.00000E+00         0.00000E+00
 
    0.96883E+05         0.17895E+07         0.00000E+00
    0.17895E+07         0.51687E+06         0.00000E+00
    0.00000E+00         0.00000E+00         0.00000E+00
 
    0.32350E+05         0.18034E+07         0.00000E+00
    0.18034E+07         0.54886E+06         0.00000E+00
    0.00000E+00         0.00000E+00         0.00000E+00
 
    0.27648E+07         0.34128E+05         0.00000E+00
    0.34128E+05        -0.44363E+06         0.00000E+00
    0.00000E+00         0.00000E+00         0.00000E+00
 
    0.27326E+07         0.99243E+05         0.00000E+00
    0.99243E+05        -0.44247E+06         0.00000E+00
    0.00000E+00         0.00000E+00         0.00000E+00
 
    0.26987E+07         0.16321E+06         0.00000E+00
    0.16321E+06        -0.44021E+06         0.00000E+00
    0.00000E+00         0.00000E+00         0.00000E+00
 
    0.26631E+07         0.22603E+06         0.00000E+00
    0.22603E+06        -0.43687E+06         0.00000E+00
    0.00000E+00         0.00000E+00         0.00000E+00
 
    0.26260E+07         0.28769E+06         0.00000E+00
    0.28769E+06        -0.43251E+06         0.00000E+00
    0.00000E+00         0.00000E+00         0.00000E+00
 
    0.25875E+07         0.34820E+06         0.00000E+00
    0.34820E+06        -0.42713E+06         0.00000E+00
    0.00000E+00         0.00000E+00         0.00000E+00
 
    0.25474E+07         0.40757E+06         0.00000E+00
    0.40757E+06        -0.42078E+06         0.00000E+00
    0.00000E+00         0.00000E+00         0.00000E+00
 
    0.25061E+07         0.46578E+06         0.00000E+00
    0.46578E+06        -0.41349E+06         0.00000E+00
    0.00000E+00         0.00000E+00         0.00000E+00
 
    0.24634E+07         0.52286E+06         0.00000E+00
    0.52286E+06        -0.40527E+06         0.00000E+00
    0.00000E+00         0.00000E+00         0.00000E+00
 
    0.24194E+07         0.57879E+06         0.00000E+00
    0.57879E+06        -0.39615E+06         0.00000E+00
    0.00000E+00         0.00000E+00         0.00000E+00
 
    0.23742E+07         0.63359E+06         0.00000E+00
    0.63359E+06        -0.38617E+06         0.00000E+00
    0.00000E+00         0.00000E+00         0.00000E+00
 
    0.23279E+07         0.68726E+06         0.00000E+00
    0.68726E+06        -0.37533E+06         0.00000E+00
    0.00000E+00         0.00000E+00         0.00000E+00
 
    0.22805E+07         0.73981E+06         0.00000E+00
    0.73981E+06        -0.36367E+06         0.00000E+00
    0.00000E+00         0.00000E+00         0.00000E+00
 
    0.22320E+07         0.79125E+06         0.00000E+00
    0.79125E+06        -0.35121E+06         0.00000E+00
    0.00000E+00         0.00000E+00         0.00000E+00
 
    0.21824E+07         0.84158E+06         0.00000E+00
    0.84158E+06        -0.33796E+06         0.00000E+00
    0.00000E+00         0.00000E+00         0.00000E+00
 
    0.21319E+07         0.89081E+06         0.00000E+00
    0.89081E+06        -0.32395E+06         0.00000E+00
    0.00000E+00         0.00000E+00         0.00000E+00
 
    0.20805E+07         0.93895E+06         0.00000E+00
    0.93895E+06        -0.30919E+06         0.00000E+00
    0.00000E+00         0.00000E+00         0.00000E+00
 
    0.20282E+07         0.98601E+06         0.00000E+00
    0.98601E+06        -0.29370E+06         0.00000E+00
    0.00000E+00         0.00000E+00         0.00000E+00
 
    0.19750E+07         0.10320E+07         0.00000E+00
    0.10320E+07        -0.27750E+06         0.00000E+00
    0.00000E+00         0.00000E+00         0.00000E+00
 
    0.19210E+07         0.10769E+07         0.00000E+00
    0.10769E+07        -0.26060E+06         0.00000E+00
    0.00000E+00         0.00000E+00         0.00000E+00
 
    0.18662E+07         0.11208E+07         0.00000E+00
    0.11208E+07        -0.24301E+06         0.00000E+00
    0.00000E+00         0.00000E+00         0.00000E+00
 
    0.18106E+07         0.11636E+07         0.00000E+00
    0.11636E+07        -0.22476E+06         0.00000E+00
    0.00000E+00         0.00000E+00         0.00000E+00
 
    0.17543E+07         0.12054E+07         0.00000E+00
    0.12054E+07        -0.20584E+06         0.00000E+00
    0.00000E+00         0.00000E+00         0.00000E+00
 
    0.16973E+07         0.12462E+07         0.00000E+00
    0.12462E+07        -0.18628E+06         0.00000E+00
    0.00000E+00         0.00000E+00         0.00000E+00
 
    0.16396E+07         0.12859E+07         0.00000E+00
    0.12859E+07        -0.16608E+06         0.00000E+00
    0.00000E+00         0.00000E+00         0.00000E+00
 
    0.15813E+07         0.13247E+07         0.00000E+00
    0.13247E+07        -0.14526E+06         0.00000E+00
    0.00000E+00         0.00000E+00         0.00000E+00
 
    0.15224E+07         0.13624E+07         0.00000E+00
    0.13624E+07        -0.12382E+06         0.00000E+00
    0.00000E+00         0.00000E+00         0.00000E+00
 
    0.14629E+07         0.13991E+07         0.00000E+00
    0.13991E+07        -0.10177E+06         0.00000E+00
    0.00000E+00         0.00000E+00         0.00000E+00
 
    0.14028E+07         0.14349E+07         0.00000E+00
    0.14349E+07        -0.79128E+05         0.00000E+00
    0.00000E+00         0.00000E+00         0.00000E+00
 
    0.13421E+07         0.14697E+07         0.00000E+00
    0.14697E+07        -0.55891E+05         0.00000E+00
    0.00000E+00         0.00000E+00         0.00000E+00
 
    0.12809E+07         0.15035E+07         0.00000E+00
    0.15035E+07        -0.32068E+05         0.00000E+00
    0.00000E+00         0.00000E+00         0.00000E+00
 
    0.12192E+07         0.15364E+07         0.00000E+00
    0.15364E+07        -0.76675E+04         0.00000E+00
    0.00000E+00         0.00000E+00         0.00000E+00
 
    0.11570E+07         0.15683E+07         0.00000E+00
    0.15683E+07         0.17306E+05         0.00000E+00
    0.00000E+00         0.00000E+00         0.00000E+00
 
    0.10943E+07         0.15993E+07         0.00000E+00
    0.15993E+07         0.42847E+05         0.00000E+00
    0.00000E+00         0.00000E+00         0.00000E+00
 
    0.10311E+07         0.16293E+07         0.00000E+00
    0.16293E+07         0.68951E+05         0.00000E+00
    0.00000E+00         0.00000E+00         0.00000E+00
 
    0.96750E+06         0.16584E+07         0.00000E+00
    0.16584E+07         0.95612E+05         0.00000E+00
    0.00000E+00         0.00000E+00         0.00000E+00
 
    0.90344E+06         0.16866E+07         0.00000E+00
    0.16866E+07         0.12283E+06         0.00000E+00
    0.00000E+00         0.00000E+00         0.00000E+00
 
    0.83895E+06         0.17139E+07         0.00000E+00
    0.17139E+07         0.15059E+06         0.00000E+00
    0.00000E+00         0.00000E+00         0.00000E+00
 
    0.77403E+06         0.17402E+07         0.00000E+00
    0.17402E+07         0.17891E+06         0.00000E+00
    0.00000E+00         0.00000E+00         0.00000E+00
 
    0.70871E+06         0.17656E+07         0.00000E+00
    0.17656E+07         0.20776E+06         0.00000E+00
    0.00000E+00         0.00000E+00         0.00000E+00
 
    0.64298E+06         0.17901E+07         0.00000E+00
    0.17901E+07         0.23716E+06         0.00000E+00
    0.00000E+00         0.00000E+00         0.00000E+00
 
    0.57687E+06         0.18137E+07         0.00000E+00
    0.18137E+07         0.26710E+06         0.00000E+00
    0.00000E+00         0.00000E+00         0.00000E+00
 
    0.51036E+06         0.18364E+07         0.00000E+00
    0.18364E+07         0.29757E+06         0.00000E+00
    0.00000E+00         0.00000E+00         0.00000E+00
 
    0.44349E+06         0.18582E+07         0.00000E+00
    0.18582E+07         0.32857E+06         0.00000E+00
    0.00000E+00         0.00000E+00         0.00000E+00
 
    0.37624E+06         0.18791E+07         0.00000E+00
    0.18791E+07         0.36011E+06         0.00000E+00
    0.00000E+00         0.00000E+00         0.00000E+00
 
    0.30862E+06         0.18991E+07         0.00000E+00
    0.18991E+07         0.39218E+06         0.00000E+00
    0.00000E+00         0.00000E+00         0.00000E+00
 
    0.24065E+06         0.19182E+07         0.00000E+00
    0.19182E+07         0.42477E+06         0.00000E+00
    0.00000E+00         0.00000E+00         0.00000E+00
 
    0.17231E+06         0.19364E+07         0.00000E+00
    0.19364E+07         0.45789E+06         0.00000E+00
    0.00000E+00         0.00000E+00         0.00000E+00
 
    0.10363E+06         0.19536E+07         0.00000E+00
    0.19536E+07         0.49154E+06         0.00000E+00
    0.00000E+00         0.00000E+00         0.00000E+00
 
    0.34602E+05         0.19700E+07         0.00000E+00
    0.19700E+07         0.52571E+06         0.00000E+00
    0.00000E+00         0.00000E+00         0.00000E+00
 
    0.30234E+07         0.37232E+05         0.00000E+00
    0.37232E+05        -0.52802E+06         0.00000E+00
    0.00000E+00         0.00000E+00         0.00000E+00
 
    0.29849E+07         0.10805E+06         0.00000E+00
    0.10805E+06        -0.52681E+06         0.00000E+00
    0.00000E+00         0.00000E+00         0.00000E+00
 
    0.29448E+07         0.17754E+06         0.00000E+00
    0.17754E+06        -0.52445E+06         0.00000E+00
    0.00000E+00         0.00000E+00         0.00000E+00
 
    0.29031E+07         0.24572E+06         0.00000E+00
    0.24572E+06        -0.52098E+06         0.00000E+00
    0.00000E+00         0.00000E+00         0.00000E+00
 
    0.28599E+07         0.31258E+06         0.00000E+00
    0.31258E+06        -0.51644E+06         0.00000E+00
    0.00000E+00         0.00000E+00         0.00000E+00
 
    0.28152E+07         0.37813E+06         0.00000E+00
    0.37813E+06        -0.51086E+06         0.00000E+00
    0.00000E+00         0.00000E+00         0.00000E+00
 
    0.27691E+07         0.44239E+06         0.00000E+00
    0.44239E+06        -0.50427E+06         0.00000E+00
    0.00000E+00         0.00000E+00         0.00000E+00
 
    0.27216E+07         0.50535E+06         0.00000E+00
    0.50535E+06        -0.49670E+06         0.00000E+00
    0.00000E+00         0.00000E+00         0.00000E+00
 
    0.26729E+07         0.56704E+06         0.00000E+00
    0.56704E+06        -0.48818E+06         0.00000E+00
    0.00000E+00         0.00000E+00         0.00000E+00
 
    0.26229E+07         0.62746E+06         0.00000E+00
    0.62746E+06        -0.47874E+06         0.00000E+00
    0.00000E+00         0.00000E+00         0.00000E+00
 
    0.25718E+07         0.68662E+06         0.00000E+00
    0.68662E+06        -0.46841E+06         0.00000E+00
    0.00000E+00         0.00000E+00         0.00000E+00
 
    0.25196E+07         0.74454E+06         0.00000E+00
    0.74454E+06        -0.45720E+06         0.00000E+00
    0.00000E+00         0.00000E+00         0.00000E+00
 
    0.24663E+07         0.80122E+06         0.00000E+00
    0.80122E+06        -0.44514E+06         0.00000E+00
    0.00000E+00         0.00000E+00         0.00000E+00
 
    0.24120E+07         0.85669E+06         0.00000E+00
    0.85669E+06        -0.43225E+06         0.00000E+00
    0.00000E+00         0.00000E+00         0.00000E+00
 
    0.23567E+07         0.91095E+06         0.00000E+00
    0.91095E+06        -0.41855E+06         0.00000E+00
    0.00000E+00         0.00000E+00         0.00000E+00
 
    0.23005E+07         0.96402E+06         0.00000E+00
    0.96402E+06        -0.40407E+06         0.00000E+00
    0.00000E+00         0.00000E+00         0.00000E+00
 
    0.22434E+07         0.10159E+07         0.00000E+00
    0.10159E+07        -0.38882E+06         0.00000E+00
    0.00000E+00         0.00000E+00         0.00000E+00
 
    0.21855E+07         0.10666E+07         0.00000E+00
    0.10666E+07        -0.37281E+06         0.00000E+00
    0.00000E+00         0.00000E+00         0.00000E+00
 
    0.21268E+07         0.11162E+07         0.00000E+00
    0.11162E+07        -0.35606E+06         0.00000E+00
    0.00000E+00         0.00000E+00         0.00000E+00
 
    0.20673E+07         0.11647E+07         0.00000E+00
    0.11647E+07        -0.33859E+06         0.00000E+00
    0.00000E+00         0.00000E+00         0.00000E+00
 
    0.20071E+07         0.12120E+07         0.00000E+00
    0.12120E+07        -0.32041E+06         0.00000E+00
    0.00000E+00         0.00000E+00         0.00000E+00
 
    0.19462E+07         0.12582E+07         0.00000E+00
    0.12582E+07        -0.30153E+06         0.00000E+00
    0.00000E+00         0.00000E+00         0.00000E+00
 
    0.18846E+07         0.13033E+07         0.00000E+00
    0.13033E+07        -0.28197E+06         0.00000E+00
    0.00000E+00         0.00000E+00         0.00000E+00
 
    0.18224E+07         0.13474E+07         0.00000E+00
    0.13474E+07        -0.26172E+06         0.00000E+00
    0.00000E+00         0.00000E+00         0.00000E+00
 
    0.17595E+07         0.13904E+07         0.00000E+00
    0.13904E+07        -0.24081E+06         0.00000E+00
    0.00000E+00         0.00000E+00         0.00000E+00
 
    0.16961E+07         0.14323E+07         0.00000E+00
    0.14323E+07        -0.21924E+06         0.00000E+00
    0.00000E+00         0.00000E+00         0.00000E+00
 
    0.16321E+07         0.14732E+07         0.00000E+00
    0.14732E+07        -0.19702E+06         0.00000E+00
    0.00000E+00         0.00000E+00         0.00000E+00
 
    0.15675E+07         0.15130E+07         0.00000E+00
    0.15130E+07        -0.17416E+06         0.00000E+00
    0.00000E+00         0.00000E+00         0.00000E+00
 
    0.15025E+07         0.15519E+07         0.00000E+00
    0.15519E+07        -0.15065E+06         0.00000E+00
    0.00000E+00         0.00000E+00         0.00000E+00
 
    0.14369E+07         0.15897E+07         0.00000E+00
    0.15897E+07        -0.12652E+06         0.00000E+00
    0.00000E+00         0.00000E+00         0.00000E+00
 
    0.13708E+07         0.16266E+07         0.00000E+00
    0.16266E+07        -0.10175E+06         0.00000E+00
    0.00000E+00         0.00000E+00         0.00000E+00
 
    0.13042E+07         0.16624E+07         0.00000E+00
    0.16624E+07        -0.76367E+05         0.00000E+00
    0.00000E+00         0.00000E+00         0.00000E+00
 
    0.12372E+07         0.16973E+07         0.00000E+00
    0.16973E+07        -0.50360E+05         0.00000E+00
    0.00000E+00         0.00000E+00         0.00000E+00
 
    0.11698E+07         0.17312E+07         0.00000E+00
    0.17312E+07        -0.23737E+05         0.00000E+00
    0.00000E+00         0.00000E+00         0.00000E+00
 
    0.11019E+07         0.17642E+07         0.00000E+00
    0.17642E+07         0.35009E+04         0.00000E+00
    0.00000E+00         0.00000E+00         0.00000E+00
 
    0.10336E+07         0.17962E+07         0.00000E+00
    0.17962E+07         0.31350E+05         0.00000E+00
    0.00000E+00         0.00000E+00         0.00000E+00
 
    0.96487E+06         0.18273E+07         0.00000E+00
    0.18273E+07         0.59810E+05         0.00000E+00
    0.00000E+00         0.00000E+00         0.00000E+00
 
    0.89574E+06         0.18574E+07         0.00000E+00
    0.18574E+07         0.88878E+05         0.00000E+00
    0.00000E+00         0.00000E+00         0.00000E+00
 
    0.82622E+06         0.18866E+07         0.00000E+00
    0.18866E+07         0.11855E+06         0.00000E+00
    0.00000E+00         0.00000E+00         0.00000E+00
 
    0.75631E+06         0.19149E+07         0.00000E+00
    0.19149E+07         0.14884E+06         0.00000E+00
    0.00000E+00         0.00000E+00         0.00000E+00
 
    0.68602E+06         0.19423E+07         0.00000E+00
    0.19423E+07         0.17972E+06         0.00000E+00
    0.00000E+00         0.00000E+00         0.00000E+00
 
    0.61535E+06         0.19688E+07         0.00000E+00
    0.19688E+07         0.21122E+06         0.00000E+00
    0.00000E+00         0.00000E+00         0.00000E+00
 
    0.54431E+06         0.19943E+07         0.00000E+00
    0.19943E+07         0.24332E+06         0.00000E+00
    0.00000E+00         0.00000E+00         0.00000E+00
 
    0.47291E+06         0.20189E+07         0.00000E+00
    0.20189E+07         0.27603E+06         0.00000E+00
    0.00000E+00         0.00000E+00         0.00000E+00
 
    0.40113E+06         0.20427E+07         0.00000E+00
    0.20427E+07         0.30934E+06         0.00000E+00
    0.00000E+00         0.00000E+00         0.00000E+00
 
    0.32900E+06         0.20655E+07         0.00000E+00
    0.20655E+07         0.34326E+06         0.00000E+00
    0.00000E+00         0.00000E+00         0.00000E+00
 
    0.25651E+06         0.20874E+07         0.00000E+00
    0.20874E+07         0.37779E+06         0.00000E+00
    0.00000E+00         0.00000E+00         0.00000E+00
 
    0.18365E+06         0.21084E+07         0.00000E+00
    0.21084E+07         0.41293E+06         0.00000E+00
    0.00000E+00         0.00000E+00         0.00000E+00
 
    0.11044E+06         0.21285E+07         0.00000E+00
    0.21285E+07         0.44867E+06         0.00000E+00
    0.00000E+00         0.00000E+00         0.00000E+00
 
    0.36874E+05         0.21477E+07         0.00000E+00
    0.21477E+07         0.48503E+06         0.00000E+00
    0.00000E+00         0.00000E+00         0.00000E+00
 
    0.32961E+07         0.40464E+05         0.00000E+00
    0.40464E+05        -0.62771E+06         0.00000E+00
    0.00000E+00         0.00000E+00         0.00000E+00
 
    0.32506E+07         0.11718E+06         0.00000E+00
    0.11718E+06        -0.62646E+06         0.00000E+00
    0.00000E+00         0.00000E+00         0.00000E+00
 
    0.32034E+07         0.19238E+06         0.00000E+00
    0.19238E+06        -0.62403E+06         0.00000E+00
    0.00000E+00         0.00000E+00         0.00000E+00
 
    0.31547E+07         0.26608E+06         0.00000E+00
    0.26608E+06        -0.62046E+06         0.00000E+00
    0.00000E+00         0.00000E+00         0.00000E+00
 
    0.31044E+07         0.33829E+06         0.00000E+00
    0.33829E+06        -0.61580E+06         0.00000E+00
    0.00000E+00         0.00000E+00         0.00000E+00
 
    0.30528E+07         0.40902E+06         0.00000E+00
    0.40902E+06        -0.61007E+06         0.00000E+00
    0.00000E+00         0.00000E+00         0.00000E+00
 
    0.29999E+07         0.47830E+06         0.00000E+00
    0.47830E+06        -0.60331E+06         0.00000E+00
    0.00000E+00         0.00000E+00         0.00000E+00
 
    0.29456E+07         0.54613E+06         0.00000E+00
    0.54613E+06        -0.59556E+06         0.00000E+00
    0.00000E+00         0.00000E+00         0.00000E+00
 
    0.28902E+07         0.61255E+06         0.00000E+00
    0.61255E+06        -0.58683E+06         0.00000E+00
    0.00000E+00         0.00000E+00         0.00000E+00
 
    0.28336E+07         0.67756E+06         0.00000E+00
    0.67756E+06        -0.57717E+06         0.00000E+00
    0.00000E+00         0.00000E+00         0.00000E+00
 
    0.27759E+07         0.74119E+06         0.00000E+00
    0.74119E+06        -0.56660E+06         0.00000E+00
    0.00000E+00         0.00000E+00         0.00000E+00
 
    0.27172E+07         0.80345E+06         0.00000E+00
    0.80345E+06        -0.55514E+06         0.00000E+00
    0.00000E+00         0.00000E+00         0.00000E+00
 
    0.26575E+07         0.86437E+06         0.00000E+00
    0.86437E+06        -0.54281E+06         0.00000E+00
    0.00000E+00         0.00000E+00         0.00000E+00
 
    0.25969E+07         0.92397E+06         0.00000E+00
    0.92397E+06        -0.52964E+06         0.00000E+00
    0.00000E+00         0.00000E+00         0.00000E+00
 
    0.25354E+07         0.98226E+06         0.00000E+00
    0.98226E+06        -0.51565E+06         0.00000E+00
    0.00000E+00         0.00000E+00         0.00000E+00
 
    0.24730E+07         0.10393E+07         0.00000E+00
    0.10393E+07        -0.50085E+06         0.00000E+00
    0.00000E+00         0.00000E+00         0.00000E+00
 
    0.24099E+07         0.10950E+07         0.00000E+00
    0.10950E+07        -0.48527E+06         0.00000E+00
    0.00000E+00         0.00000E+00         0.00000E+00
 
    0.23460E+07         0.11495E+07         0.00000E+00
    0.11495E+07        -0.46891E+06         0.00000E+00
    0.00000E+00         0.00000E+00         0.00000E+00
 
    0.22814E+07         0.12028E+07         0.00000E+00
    0.12028E+07        -0.45180E+06         0.00000E+00
    0.00000E+00         0.00000E+00         0.00000E+00
 
    0.22162E+07         0.12549E+07         0.00000E+00
    0.12549E+07        -0.43394E+06         0.00000E+00
    0.00000E+00         0.00000E+00         0.00000E+00
 
    0.21502E+07         0.13058E+07         0.00000E+00
    0.13058E+07        -0.41534E+06         0.00000E+00
    0.00000E+00         0.00000E+00         0.00000E+00
 
    0.20837E+07         0.13556E+07         0.00000E+00
    0.13556E+07        -0.39603E+06         0.00000E+00
    0.00000E+00         0.00000E+00         0.00000E+00
 
    0.20165E+07         0.14042E+07         0.00000E+00
    0.14042E+07        -0.37600E+06         0.00000E+00
    0.00000E+00         0.00000E+00         0.00000E+00
 
    0.19488E+07         0.14516E+07         0.00000E+00
    0.14516E+07        -0.35527E+06         0.00000E+00
    0.00000E+00         0.00000E+00         0.00000E+00
 
    0.18806E+07         0.14980E+07         0.00000E+00
    0.14980E+07        -0.33384E+06         0.00000E+00
    0.00000E+00         0.00000E+00         0.00000E+00
 
    0.18119E+07         0.15433E+07         0.00000E+00
    0.15433E+07        -0.31171E+06         0.00000E+00
    0.00000E+00         0.00000E+00         0.00000E+00
 
    0.17426E+07         0.15875E+07         0.00000E+00
    0.15875E+07        -0.28890E+06         0.00000E+00
    0.00000E+00         0.00000E+00         0.00000E+00
 
    0.16729E+07         0.16307E+07         0.00000E+00
    0.16307E+07        -0.26541E+06         0.00000E+00
    0.00000E+00         0.00000E+00         0.00000E+00
 
    0.16027E+07         0.16728E+07         0.00000E+00
    0.16728E+07        -0.24124E+06         0.00000E+00
    0.00000E+00         0.00000E+00         0.00000E+00
 
    0.15321E+07         0.17139E+07         0.00000E+00
    0.17139E+07        -0.21640E+06         0.00000E+00
    0.00000E+00         0.00000E+00         0.00000E+00
 
    0.14610E+07         0.17540E+07         0.00000E+00
    0.17540E+07        -0.19088E+06         0.00000E+00
    0.00000E+00         0.00000E+00         0.00000E+00
 
    0.13895E+07         0.17931E+07         0.00000E+00
    0.17931E+07        -0.16469E+06         0.00000E+00
    0.00000E+00         0.00000E+00         0.00000E+00
 
    0.13176E+07         0.18312E+07         0.00000E+00
    0.18312E+07        -0.13783E+06         0.00000E+00
    0.00000E+00         0.00000E+00         0.00000E+00
 
    0.12454E+07         0.18683E+07         0.00000E+00
    0.18683E+07        -0.11030E+06         0.00000E+00
    0.00000E+00         0.00000E+00         0.00000E+00
 
    0.11727E+07         0.19045E+07         0.00000E+00
    0.19045E+07        -0.82095E+05         0.00000E+00
    0.00000E+00         0.00000E+00         0.00000E+00
 
    0.10997E+07         0.19397E+07         0.00000E+00
    0.19397E+07        -0.53220E+05         0.00000E+00
    0.00000E+00         0.00000E+00         0.00000E+00
 
    0.10263E+07         0.19740E+07         0.00000E+00
    0.19740E+07        -0.23673E+05         0.00000E+00
    0.00000E+00         0.00000E+00         0.00000E+00
 
    0.95247E+06         0.20073E+07         0.00000E+00
    0.20073E+07         0.65487E+04         0.00000E+00
    0.00000E+00         0.00000E+00         0.00000E+00
 
    0.87833E+06         0.20398E+07         0.00000E+00
    0.20398E+07         0.37447E+05         0.00000E+00
    0.00000E+00         0.00000E+00         0.00000E+00
 
    0.80382E+06         0.20713E+07         0.00000E+00
    0.20713E+07         0.69023E+05         0.00000E+00
    0.00000E+00         0.00000E+00         0.00000E+00
 
    0.72896E+06         0.21018E+07         0.00000E+00
    0.21018E+07         0.10128E+06         0.00000E+00
    0.00000E+00         0.00000E+00         0.00000E+00
 
    0.65374E+06         0.21315E+07         0.00000E+00
    0.21315E+07         0.13422E+06         0.00000E+00
    0.00000E+00         0.00000E+00         0.00000E+00
 
    0.57817E+06         0.21603E+07         0.00000E+00
    0.21603E+07         0.16785E+06         0.00000E+00
    0.00000E+00         0.00000E+00         0.00000E+00
 
    0.50224E+06         0.21882E+07         0.00000E+00
    0.21882E+07         0.20217E+06         0.00000E+00
    0.00000E+00         0.00000E+00         0.00000E+00
 
    0.42596E+06         0.22151E+07         0.00000E+00
    0.22151E+07         0.23717E+06         0.00000E+00
    0.00000E+00         0.00000E+00         0.00000E+00
 
    0.34932E+06         0.22412E+07         0.00000E+00
    0.22412E+07         0.27288E+06         0.00000E+00
    0.00000E+00         0.00000E+00         0.00000E+00
 
    0.27232E+06         0.22664E+07         0.00000E+00
    0.22664E+07         0.30928E+06         0.00000E+00
    0.00000E+00         0.00000E+00         0.00000E+00
 
    0.19496E+06         0.22907E+07         0.00000E+00
    0.22907E+07         0.34639E+06         0.00000E+00
    0.00000E+00         0.00000E+00         0.00000E+00
 
    0.11723E+06         0.23141E+07         0.00000E+00
    0.23141E+07         0.38420E+06         0.00000E+00
    0.00000E+00         0.00000E+00         0.00000E+00
 
    0.39139E+05         0.23366E+07         0.00000E+00
    0.23366E+07         0.42272E+06         0.00000E+00
    0.00000E+00         0.00000E+00         0.00000E+00
 
    0.35813E+07         0.43786E+05         0.00000E+00
    0.43786E+05        -0.74528E+06         0.00000E+00
    0.00000E+00         0.00000E+00         0.00000E+00
 
    0.35277E+07         0.12653E+06         0.00000E+00
    0.12653E+06        -0.74401E+06         0.00000E+00
    0.00000E+00         0.00000E+00         0.00000E+00
 
    0.34724E+07         0.20755E+06         0.00000E+00
    0.20755E+06        -0.74154E+06         0.00000E+00
    0.00000E+00         0.00000E+00         0.00000E+00
 
    0.34157E+07         0.28687E+06         0.00000E+00
    0.28687E+06        -0.73793E+06         0.00000E+00
    0.00000E+00         0.00000E+00         0.00000E+00
 
    0.33577E+07         0.36450E+06         0.00000E+00
    0.36450E+06        -0.73320E+06         0.00000E+00
    0.00000E+00         0.00000E+00         0.00000E+00
 
    0.32983E+07         0.44049E+06         0.00000E+00
    0.44049E+06        -0.72741E+06         0.00000E+00
    0.00000E+00         0.00000E+00         0.00000E+00
 
    0.32377E+07         0.51485E+06         0.00000E+00
    0.51485E+06        -0.72058E+06         0.00000E+00
    0.00000E+00         0.00000E+00         0.00000E+00
 
    0.31759E+07         0.58761E+06         0.00000E+00
    0.58761E+06        -0.71275E+06         0.00000E+00
    0.00000E+00         0.00000E+00         0.00000E+00
 
    0.31130E+07         0.65881E+06         0.00000E+00
    0.65881E+06        -0.70395E+06         0.00000E+00
    0.00000E+00         0.00000E+00         0.00000E+00
 
    0.30491E+07         0.72846E+06         0.00000E+00
    0.72846E+06        -0.69421E+06         0.00000E+00
    0.00000E+00         0.00000E+00         0.00000E+00
 
    0.29843E+07         0.79660E+06         0.00000E+00
    0.79660E+06        -0.68355E+06         0.00000E+00
    0.00000E+00         0.00000E+00         0.00000E+00
 
    0.29185E+07         0.86326E+06         0.00000E+00
    0.86326E+06        -0.67200E+06         0.00000E+00
    0.00000E+00         0.00000E+00         0.00000E+00
 
    0.28519E+07         0.92846E+06         0.00000E+00
    0.92846E+06        -0.65958E+06         0.00000E+00
    0.00000E+00         0.00000E+00         0.00000E+00
 
    0.27845E+07         0.99223E+06         0.00000E+00
    0.99223E+06        -0.64632E+06         0.00000E+00
    0.00000E+00         0.00000E+00         0.00000E+00
 
    0.27163E+07         0.10546E+07         0.00000E+00
    0.10546E+07        -0.63222E+06         0.00000E+00
    0.00000E+00         0.00000E+00         0.00000E+00
 
    0.26474E+07         0.11156E+07         0.00000E+00
    0.11156E+07        -0.61732E+06         0.00000E+00
    0.00000E+00         0.00000E+00         0.00000E+00
 
    0.25778E+07         0.11753E+07         0.00000E+00
    0.11753E+07        -0.60161E+06         0.00000E+00
    0.00000E+00         0.00000E+00         0.00000E+00
 
    0.25076E+07         0.12337E+07         0.00000E+00
    0.12337E+07        -0.58513E+06         0.00000E+00
    0.00000E+00         0.00000E+00         0.00000E+00
 
    0.24368E+07         0.12907E+07         0.00000E+00
    0.12907E+07        -0.56788E+06         0.00000E+00
    0.00000E+00         0.00000E+00         0.00000E+00
 
    0.23654E+07         0.13466E+07         0.00000E+00
    0.13466E+07        -0.54986E+06         0.00000E+00
    0.00000E+00         0.00000E+00         0.00000E+00
 
    0.22935E+07         0.14012E+07         0.00000E+00
    0.14012E+07        -0.53110E+06         0.00000E+00
    0.00000E+00         0.00000E+00         0.00000E+00
 
    0.22211E+07         0.14546E+07         0.00000E+00
    0.14546E+07        -0.51159E+06         0.00000E+00
    0.00000E+00         0.00000E+00         0.00000E+00
 
    0.21482E+07         0.15068E+07         0.00000E+00
    0.15068E+07        -0.49135E+06         0.00000E+00
    0.00000E+00         0.00000E+00         0.00000E+00
 
    0.20749E+07         0.15578E+07         0.00000E+00
    0.15578E+07        -0.47037E+06         0.00000E+00
    0.00000E+00         0.00000E+00         0.00000E+00
 
    0.20011E+07         0.16077E+07         0.00000E+00
    0.16077E+07        -0.44867E+06         0.00000E+00
    0.00000E+00         0.00000E+00         0.00000E+00
 
    0.19269E+07         0.16566E+07         0.00000E+00
    0.16566E+07        -0.42625E+06         0.00000E+00
    0.00000E+00         0.00000E+00         0.00000E+00
 
    0.18523E+07         0.17043E+07         0.00000E+00
    0.17043E+07        -0.40310E+06         0.00000E+00
    0.00000E+00         0.00000E+00         0.00000E+00
 
    0.17773E+07         0.17509E+07         0.00000E+00
    0.17509E+07        -0.37924E+06         0.00000E+00
    0.00000E+00         0.00000E+00         0.00000E+00
 
    0.17020E+07         0.17966E+07         0.00000E+00
    0.17966E+07        -0.35465E+06         0.00000E+00
    0.00000E+00         0.00000E+00         0.00000E+00
 
    0.16262E+07         0.18411E+07         0.00000E+00
    0.18411E+07        -0.32934E+06         0.00000E+00
    0.00000E+00         0.00000E+00         0.00000E+00
 
    0.15502E+07         0.18847E+07         0.00000E+00
    0.18847E+07        -0.30332E+06         0.00000E+00
    0.00000E+00         0.00000E+00         0.00000E+00
 
    0.14737E+07         0.19273E+07         0.00000E+00
    0.19273E+07        -0.27656E+06         0.00000E+00
    0.00000E+00         0.00000E+00         0.00000E+00
 
    0.13970E+07         0.19689E+07         0.00000E+00
    0.19689E+07        -0.24908E+06         0.00000E+00
    0.00000E+00         0.00000E+00         0.00000E+00
 
    0.13199E+07         0.20095E+07         0.00000E+00
    0.20095E+07        -0.22087E+06         0.00000E+00
    0.00000E+00         0.00000E+00         0.00000E+00
 
    0.12425E+07         0.20492E+07         0.00000E+00
    0.20492E+07        -0.19193E+06         0.00000E+00
    0.00000E+00         0.00000E+00         0.00000E+00
 
    0.11647E+07         0.20880E+07         0.00000E+00
    0.20880E+07        -0.16224E+06         0.00000E+00
    0.00000E+00         0.00000E+00         0.00000E+00
 
    0.10867E+07         0.21258E+07         0.00000E+00
    0.21258E+07        -0.13182E+06         0.00000E+00
    0.00000E+00         0.00000E+00         0.00000E+00
 
    0.10083E+07         0.21627E+07         0.00000E+00
    0.21627E+07        -0.10064E+06         0.00000E+00
    0.00000E+00         0.00000E+00         0.00000E+00
 
    0.92956E+06         0.21987E+07         0.00000E+00
    0.21987E+07        -0.68710E+05         0.00000E+00
    0.00000E+00         0.00000E+00         0.00000E+00
 
    0.85052E+06         0.22338E+07         0.00000E+00
    0.22338E+07        -0.36020E+05         0.00000E+00
    0.00000E+00         0.00000E+00         0.00000E+00
 
    0.77115E+06         0.22680E+07         0.00000E+00
    0.22680E+07        -0.25648E+04         0.00000E+00
    0.00000E+00         0.00000E+00         0.00000E+00
 
    0.69146E+06         0.23013E+07         0.00000E+00
    0.23013E+07         0.31662E+05         0.00000E+00
    0.00000E+00         0.00000E+00         0.00000E+00
 
    0.61143E+06         0.23338E+07         0.00000E+00
    0.23338E+07         0.66668E+05         0.00000E+00
    0.00000E+00         0.00000E+00         0.00000E+00
 
    0.53106E+06         0.23653E+07         0.00000E+00
    0.23653E+07         0.10246E+06         0.00000E+00
    0.00000E+00         0.00000E+00         0.00000E+00
 
    0.45034E+06         0.23960E+07         0.00000E+00
    0.23960E+07         0.13904E+06         0.00000E+00
    0.00000E+00         0.00000E+00         0.00000E+00
 
    0.36928E+06         0.24259E+07         0.00000E+00
    0.24259E+07         0.17642E+06         0.00000E+00
    0.00000E+00         0.00000E+00         0.00000E+00
 
    0.28785E+06         0.24548E+07         0.00000E+00
    0.24548E+07         0.21460E+06         0.00000E+00
    0.00000E+00         0.00000E+00         0.00000E+00
 
    0.20606E+06         0.24829E+07         0.00000E+00
    0.24829E+07         0.25359E+06         0.00000E+00
    0.00000E+00         0.00000E+00         0.00000E+00
 
    0.12391E+06         0.25101E+07         0.00000E+00
    0.25101E+07         0.29339E+06         0.00000E+00
    0.00000E+00         0.00000E+00         0.00000E+00
 
    0.41366E+05         0.25364E+07         0.00000E+00
    0.25364E+07         0.33402E+06         0.00000E+00
    0.00000E+00         0.00000E+00         0.00000E+00
 
    0.38766E+07         0.47149E+05         0.00000E+00
    0.47149E+05        -0.88372E+06         0.00000E+00
    0.00000E+00         0.00000E+00         0.00000E+00
 
    0.38136E+07         0.13595E+06         0.00000E+00
    0.13595E+06        -0.88244E+06         0.00000E+00
    0.00000E+00         0.00000E+00         0.00000E+00
 
    0.37493E+07         0.22280E+06         0.00000E+00
    0.22280E+06        -0.87998E+06         0.00000E+00
    0.00000E+00         0.00000E+00         0.00000E+00
 
    0.36836E+07         0.30774E+06         0.00000E+00
    0.30774E+06        -0.87638E+06         0.00000E+00
    0.00000E+00         0.00000E+00         0.00000E+00
 
    0.36168E+07         0.39080E+06         0.00000E+00
    0.39080E+06        -0.87169E+06         0.00000E+00
    0.00000E+00         0.00000E+00         0.00000E+00
 
    0.35487E+07         0.47202E+06         0.00000E+00
    0.47202E+06        -0.86593E+06         0.00000E+00
    0.00000E+00         0.00000E+00         0.00000E+00
 
    0.34797E+07         0.55145E+06         0.00000E+00
    0.55145E+06        -0.85916E+06         0.00000E+00
    0.00000E+00         0.00000E+00         0.00000E+00
 
    0.34096E+07         0.62911E+06         0.00000E+00
    0.62911E+06        -0.85140E+06         0.00000E+00
    0.00000E+00         0.00000E+00         0.00000E+00
 
    0.33386E+07         0.70506E+06         0.00000E+00
    0.70506E+06        -0.84268E+06         0.00000E+00
    0.00000E+00         0.00000E+00         0.00000E+00
 
    0.32667E+07         0.77932E+06         0.00000E+00
    0.77932E+06        -0.83304E+06         0.00000E+00
    0.00000E+00         0.00000E+00         0.00000E+00
 
    0.31941E+07         0.85195E+06         0.00000E+00
    0.85195E+06        -0.82249E+06         0.00000E+00
    0.00000E+00         0.00000E+00         0.00000E+00
 
    0.31207E+07         0.92298E+06         0.00000E+00
    0.92298E+06        -0.81106E+06         0.00000E+00
    0.00000E+00         0.00000E+00         0.00000E+00
 
    0.30466E+07         0.99245E+06         0.00000E+00
    0.99245E+06        -0.79878E+06         0.00000E+00
    0.00000E+00         0.00000E+00         0.00000E+00
 
    0.29719E+07         0.10604E+07         0.00000E+00
    0.10604E+07        -0.78566E+06         0.00000E+00
    0.00000E+00         0.00000E+00         0.00000E+00
 
    0.28966E+07         0.11269E+07         0.00000E+00
    0.11269E+07        -0.77171E+06         0.00000E+00
    0.00000E+00         0.00000E+00         0.00000E+00
 
    0.28208E+07         0.11919E+07         0.00000E+00
    0.11919E+07        -0.75696E+06         0.00000E+00
    0.00000E+00         0.00000E+00         0.00000E+00
 
    0.27444E+07         0.12555E+07         0.00000E+00
    0.12555E+07        -0.74141E+06         0.00000E+00
    0.00000E+00         0.00000E+00         0.00000E+00
 
    0.26676E+07         0.13178E+07         0.00000E+00
    0.13178E+07        -0.72508E+06         0.00000E+00
    0.00000E+00         0.00000E+00         0.00000E+00
 
    0.25903E+07         0.13787E+07         0.00000E+00
    0.13787E+07        -0.70798E+06         0.00000E+00
    0.00000E+00         0.00000E+00         0.00000E+00
 
    0.25127E+07         0.14383E+07         0.00000E+00
    0.14383E+07        -0.69010E+06         0.00000E+00
    0.00000E+00         0.00000E+00         0.00000E+00
 
    0.24346E+07         0.14967E+07         0.00000E+00
    0.14967E+07        -0.67147E+06         0.00000E+00
    0.00000E+00         0.00000E+00         0.00000E+00
 
    0.23562E+07         0.15538E+07         0.00000E+00
    0.15538E+07        -0.65208E+06         0.00000E+00
    0.00000E+00         0.00000E+00         0.00000E+00
 
    0.22774E+07         0.16097E+07         0.00000E+00
    0.16097E+07        -0.63193E+06         0.00000E+00
    0.00000E+00         0.00000E+00         0.00000E+00
 
    0.21983E+07         0.16645E+07         0.00000E+00
    0.16645E+07        -0.61103E+06         0.00000E+00
    0.00000E+00         0.00000E+00         0.00000E+00
 
    0.21189E+07         0.17181E+07         0.00000E+00
    0.17181E+07        -0.58938E+06         0.00000E+00
    0.00000E+00         0.00000E+00         0.00000E+00
 
    0.20392E+07         0.17706E+07         0.00000E+00
    0.17706E+07        -0.56698E+06         0.00000E+00
    0.00000E+00         0.00000E+00         0.00000E+00
 
    0.19592E+07         0.18221E+07         0.00000E+00
    0.18221E+07        -0.54381E+06         0.00000E+00
    0.00000E+00         0.00000E+00         0.00000E+00
 
    0.18789E+07         0.18724E+07         0.00000E+00
    0.18724E+07        -0.51989E+06         0.00000E+00
    0.00000E+00         0.00000E+00         0.00000E+00
 
    0.17984E+07         0.19217E+07         0.00000E+00
    0.19217E+07        -0.49520E+06         0.00000E+00
    0.00000E+00         0.00000E+00         0.00000E+00
 
    0.17176E+07         0.19701E+07         0.00000E+00
    0.19701E+07        -0.46975E+06         0.00000E+00
    0.00000E+00         0.00000E+00         0.00000E+00
 
    0.16366E+07         0.20174E+07         0.00000E+00
    0.20174E+07        -0.44352E+06         0.00000E+00
    0.00000E+00         0.00000E+00         0.00000E+00
 
    0.15553E+07         0.20637E+07         0.00000E+00
    0.20637E+07        -0.41650E+06         0.00000E+00
    0.00000E+00         0.00000E+00         0.00000E+00
 
    0.14738E+07         0.21091E+07         0.00000E+00
    0.21091E+07        -0.38870E+06         0.00000E+00
    0.00000E+00         0.00000E+00         0.00000E+00
 
    0.13919E+07         0.21536E+07         0.00000E+00
    0.21536E+07        -0.36010E+06         0.00000E+00
    0.00000E+00         0.00000E+00         0.00000E+00
 
    0.13099E+07         0.21972E+07         0.00000E+00
    0.21972E+07        -0.33070E+06         0.00000E+00
    0.00000E+00         0.00000E+00         0.00000E+00
 
    0.12276E+07         0.22398E+07         0.00000E+00
    0.22398E+07        -0.30048E+06         0.00000E+00
    0.00000E+00         0.00000E+00         0.00000E+00
 
    0.11450E+07         0.22816E+07         0.00000E+00
    0.22816E+07        -0.26944E+06         0.00000E+00
    0.00000E+00         0.00000E+00         0.00000E+00
 
    0.10621E+07         0.23224E+07         0.00000E+00
    0.23224E+07        -0.23757E+06         0.00000E+00
    0.00000E+00         0.00000E+00         0.00000E+00
 
    0.97898E+06         0.23624E+07         0.00000E+00
    0.23624E+07        -0.20486E+06         0.00000E+00
    0.00000E+00         0.00000E+00         0.00000E+00
 
    0.89556E+06         0.24016E+07         0.00000E+00
    0.24016E+07        -0.17129E+06         0.00000E+00
    0.00000E+00         0.00000E+00         0.00000E+00
 
    0.81185E+06         0.24399E+07         0.00000E+00
    0.24399E+07        -0.13686E+06         0.00000E+00
    0.00000E+00         0.00000E+00         0.00000E+00
 
    0.72783E+06         0.24773E+07         0.00000E+00
    0.24773E+07        -0.10156E+06         0.00000E+00
    0.00000E+00         0.00000E+00         0.00000E+00
 
    0.64350E+06         0.25139E+07         0.00000E+00
    0.25139E+07        -0.65372E+05         0.00000E+00
    0.00000E+00         0.00000E+00         0.00000E+00
 
    0.55885E+06         0.25497E+07         0.00000E+00
    0.25497E+07        -0.28294E+05         0.00000E+00
    0.00000E+00         0.00000E+00         0.00000E+00
 
    0.47387E+06         0.25846E+07         0.00000E+00
    0.25846E+07         0.96872E+04         0.00000E+00
    0.00000E+00         0.00000E+00         0.00000E+00
 
    0.38854E+06         0.26188E+07         0.00000E+00
    0.26188E+07         0.48582E+05         0.00000E+00
    0.00000E+00         0.00000E+00         0.00000E+00
 
    0.30285E+06         0.26520E+07         0.00000E+00
    0.26520E+07         0.88402E+05         0.00000E+00
    0.00000E+00         0.00000E+00         0.00000E+00
 
    0.21679E+06         0.26845E+07         0.00000E+00
    0.26845E+07         0.12915E+06         0.00000E+00
    0.00000E+00         0.00000E+00         0.00000E+00
 
    0.13035E+06         0.27161E+07         0.00000E+00
    0.27161E+07         0.17085E+06         0.00000E+00
    0.00000E+00         0.00000E+00         0.00000E+00
 
    0.43518E+05         0.27469E+07         0.00000E+00
    0.27469E+07         0.21350E+06         0.00000E+00
    0.00000E+00         0.00000E+00         0.00000E+00
 
    0.41783E+07         0.50488E+05         0.00000E+00
    0.50488E+05        -0.10464E+07         0.00000E+00
    0.00000E+00         0.00000E+00         0.00000E+00
 
    0.41049E+07         0.14525E+06         0.00000E+00
    0.14525E+06        -0.10452E+07         0.00000E+00
    0.00000E+00         0.00000E+00         0.00000E+00
 
    0.40303E+07         0.23783E+06         0.00000E+00
    0.23783E+06        -0.10428E+07         0.00000E+00
    0.00000E+00         0.00000E+00         0.00000E+00
 
    0.39547E+07         0.32827E+06         0.00000E+00
    0.32827E+06        -0.10393E+07         0.00000E+00
    0.00000E+00         0.00000E+00         0.00000E+00
 
    0.38780E+07         0.41663E+06         0.00000E+00
    0.41663E+06        -0.10347E+07         0.00000E+00
    0.00000E+00         0.00000E+00         0.00000E+00
 
    0.38004E+07         0.50296E+06         0.00000E+00
    0.50296E+06        -0.10291E+07         0.00000E+00
    0.00000E+00         0.00000E+00         0.00000E+00
 
    0.37220E+07         0.58732E+06         0.00000E+00
    0.58732E+06        -0.10226E+07         0.00000E+00
    0.00000E+00         0.00000E+00         0.00000E+00
 
    0.36429E+07         0.66976E+06         0.00000E+00
    0.66976E+06        -0.10151E+07         0.00000E+00
    0.00000E+00         0.00000E+00         0.00000E+00
 
    0.35631E+07         0.75033E+06         0.00000E+00
    0.75033E+06        -0.10066E+07         0.00000E+00
    0.00000E+00         0.00000E+00         0.00000E+00
 
    0.34826E+07         0.82910E+06         0.00000E+00
    0.82910E+06        -0.99732E+06         0.00000E+00
    0.00000E+00         0.00000E+00         0.00000E+00
 
    0.34016E+07         0.90611E+06         0.00000E+00
    0.90611E+06        -0.98713E+06         0.00000E+00
    0.00000E+00         0.00000E+00         0.00000E+00
 
    0.33200E+07         0.98141E+06         0.00000E+00
    0.98141E+06        -0.97609E+06         0.00000E+00
    0.00000E+00         0.00000E+00         0.00000E+00
 
    0.32380E+07         0.10551E+07         0.00000E+00
    0.10551E+07        -0.96422E+06         0.00000E+00
    0.00000E+00         0.00000E+00         0.00000E+00
 
    0.31556E+07         0.11271E+07         0.00000E+00
    0.11271E+07        -0.95154E+06         0.00000E+00
    0.00000E+00         0.00000E+00         0.00000E+00
 
    0.30729E+07         0.11976E+07         0.00000E+00
    0.11976E+07        -0.93805E+06         0.00000E+00
    0.00000E+00         0.00000E+00         0.00000E+00
 
    0.29898E+07         0.12666E+07         0.00000E+00
    0.12666E+07        -0.92378E+06         0.00000E+00
    0.00000E+00         0.00000E+00         0.00000E+00
 
    0.29064E+07         0.13341E+07         0.00000E+00
    0.13341E+07        -0.90873E+06         0.00000E+00
    0.00000E+00         0.00000E+00         0.00000E+00
 
    0.28227E+07         0.14003E+07         0.00000E+00
    0.14003E+07        -0.89290E+06         0.00000E+00
    0.00000E+00         0.00000E+00         0.00000E+00
 
    0.27388E+07         0.14650E+07         0.00000E+00
    0.14650E+07        -0.87631E+06         0.00000E+00
    0.00000E+00         0.00000E+00         0.00000E+00
 
    0.26546E+07         0.15285E+07         0.00000E+00
    0.15285E+07        -0.85895E+06         0.00000E+00
    0.00000E+00         0.00000E+00         0.00000E+00
 
    0.25703E+07         0.15907E+07         0.00000E+00
    0.15907E+07        -0.84082E+06         0.00000E+00
    0.00000E+00         0.00000E+00         0.00000E+00
 
    0.24858E+07         0.16516E+07         0.00000E+00
    0.16516E+07        -0.82192E+06         0.00000E+00
    0.00000E+00         0.00000E+00         0.00000E+00
 
    0.24011E+07         0.17113E+07         0.00000E+00
    0.17113E+07        -0.80226E+06         0.00000E+00
    0.00000E+00         0.00000E+00         0.00000E+00
 
    0.23163E+07         0.17699E+07         0.00000E+00
    0.17699E+07        -0.78183E+06         0.00000E+00
    0.00000E+00         0.00000E+00         0.00000E+00
 
    0.22313E+07         0.18274E+07         0.00000E+00
    0.18274E+07        -0.76061E+06         0.00000E+00
    0.00000E+00         0.00000E+00         0.00000E+00
 
    0.21461E+07         0.18837E+07         0.00000E+00
    0.18837E+07        -0.73862E+06         0.00000E+00
    0.00000E+00         0.00000E+00         0.00000E+00
 
    0.20609E+07         0.19391E+07         0.00000E+00
    0.19391E+07        -0.71583E+06         0.00000E+00
    0.00000E+00         0.00000E+00         0.00000E+00
 
    0.19754E+07         0.19933E+07         0.00000E+00
    0.19933E+07        -0.69224E+06         0.00000E+00
    0.00000E+00         0.00000E+00         0.00000E+00
 
    0.18899E+07         0.20466E+07         0.00000E+00
    0.20466E+07        -0.66784E+06         0.00000E+00
    0.00000E+00         0.00000E+00         0.00000E+00
 
    0.18042E+07         0.20989E+07         0.00000E+00
    0.20989E+07        -0.64262E+06         0.00000E+00
    0.00000E+00         0.00000E+00         0.00000E+00
 
    0.17184E+07         0.21503E+07         0.00000E+00
    0.21503E+07        -0.61657E+06         0.00000E+00
    0.00000E+00         0.00000E+00         0.00000E+00
 
    0.16324E+07         0.22007E+07         0.00000E+00
    0.22007E+07        -0.58967E+06         0.00000E+00
    0.00000E+00         0.00000E+00         0.00000E+00
 
    0.15462E+07         0.22503E+07         0.00000E+00
    0.22503E+07        -0.56192E+06         0.00000E+00
    0.00000E+00         0.00000E+00         0.00000E+00
 
    0.14599E+07         0.22989E+07         0.00000E+00
    0.22989E+07        -0.53329E+06         0.00000E+00
    0.00000E+00         0.00000E+00         0.00000E+00
 
    0.13734E+07         0.23467E+07         0.00000E+00
    0.23467E+07        -0.50378E+06         0.00000E+00
    0.00000E+00         0.00000E+00         0.00000E+00
 
    0.12868E+07         0.23937E+07         0.00000E+00
    0.23937E+07        -0.47338E+06         0.00000E+00
    0.00000E+00         0.00000E+00         0.00000E+00
 
    0.11999E+07         0.24398E+07         0.00000E+00
    0.24398E+07        -0.44206E+06         0.00000E+00
    0.00000E+00         0.00000E+00         0.00000E+00
 
    0.11128E+07         0.24851E+07         0.00000E+00
    0.24851E+07        -0.40981E+06         0.00000E+00
    0.00000E+00         0.00000E+00         0.00000E+00
 
    0.10255E+07         0.25296E+07         0.00000E+00
    0.25296E+07        -0.37662E+06         0.00000E+00
    0.00000E+00         0.00000E+00         0.00000E+00
 
    0.93797E+06         0.25733E+07         0.00000E+00
    0.25733E+07        -0.34247E+06         0.00000E+00
    0.00000E+00         0.00000E+00         0.00000E+00
 
    0.85016E+06         0.26162E+07         0.00000E+00
    0.26162E+07        -0.30735E+06         0.00000E+00
    0.00000E+00         0.00000E+00         0.00000E+00
 
    0.76208E+06         0.26583E+07         0.00000E+00
    0.26583E+07        -0.27124E+06         0.00000E+00
    0.00000E+00         0.00000E+00         0.00000E+00
 
    0.67372E+06         0.26997E+07         0.00000E+00
    0.26997E+07        -0.23413E+06         0.00000E+00
    0.00000E+00         0.00000E+00         0.00000E+00
 
    0.58504E+06         0.27402E+07         0.00000E+00
    0.27402E+07        -0.19601E+06         0.00000E+00
    0.00000E+00         0.00000E+00         0.00000E+00
 
    0.49605E+06         0.27800E+07         0.00000E+00
    0.27800E+07        -0.15685E+06         0.00000E+00
    0.00000E+00         0.00000E+00         0.00000E+00
 
    0.40671E+06         0.28191E+07         0.00000E+00
    0.28191E+07        -0.11664E+06         0.00000E+00
    0.00000E+00         0.00000E+00         0.00000E+00
 
    0.31701E+06         0.28573E+07         0.00000E+00
    0.28573E+07        -0.75371E+05         0.00000E+00
    0.00000E+00         0.00000E+00         0.00000E+00
 
    0.22693E+06         0.28948E+07         0.00000E+00
    0.28948E+07        -0.33027E+05         0.00000E+00
    0.00000E+00         0.00000E+00         0.00000E+00
 
    0.13645E+06         0.29315E+07         0.00000E+00
    0.29315E+07         0.10406E+05         0.00000E+00
    0.00000E+00         0.00000E+00         0.00000E+00
 
    0.45554E+05         0.29675E+07         0.00000E+00
    0.29675E+07         0.54943E+05         0.00000E+00
    0.00000E+00         0.00000E+00         0.00000E+00
 
    0.44818E+07         0.53716E+05         0.00000E+00
    0.53716E+05        -0.12373E+07         0.00000E+00
    0.00000E+00         0.00000E+00         0.00000E+00
 
    0.43967E+07         0.15419E+06         0.00000E+00
    0.15419E+06        -0.12361E+07         0.00000E+00
    0.00000E+00         0.00000E+00         0.00000E+00
 
    0.43107E+07         0.25223E+06         0.00000E+00
    0.25223E+06        -0.12338E+07         0.00000E+00
    0.00000E+00         0.00000E+00         0.00000E+00
 
    0.42240E+07         0.34791E+06         0.00000E+00
    0.34791E+06        -0.12305E+07         0.00000E+00
    0.00000E+00         0.00000E+00         0.00000E+00
 
    0.41365E+07         0.44130E+06         0.00000E+00
    0.44130E+06        -0.12262E+07         0.00000E+00
    0.00000E+00         0.00000E+00         0.00000E+00
 
    0.40485E+07         0.53248E+06         0.00000E+00
    0.53248E+06        -0.12210E+07         0.00000E+00
    0.00000E+00         0.00000E+00         0.00000E+00
 
    0.39600E+07         0.62151E+06         0.00000E+00
    0.62151E+06        -0.12149E+07         0.00000E+00
    0.00000E+00         0.00000E+00         0.00000E+00
 
    0.38710E+07         0.70847E+06         0.00000E+00
    0.70847E+06        -0.12078E+07         0.00000E+00
    0.00000E+00         0.00000E+00         0.00000E+00
 
    0.37817E+07         0.79344E+06         0.00000E+00
    0.79344E+06        -0.12000E+07         0.00000E+00
    0.00000E+00         0.00000E+00         0.00000E+00
 
    0.36920E+07         0.87647E+06         0.00000E+00
    0.87647E+06        -0.11912E+07         0.00000E+00
    0.00000E+00         0.00000E+00         0.00000E+00
 
    0.36021E+07         0.95764E+06         0.00000E+00
    0.95764E+06        -0.11817E+07         0.00000E+00
    0.00000E+00         0.00000E+00         0.00000E+00
 
    0.35119E+07         0.10370E+07         0.00000E+00
    0.10370E+07        -0.11714E+07         0.00000E+00
    0.00000E+00         0.00000E+00         0.00000E+00
 
    0.34216E+07         0.11147E+07         0.00000E+00
    0.11147E+07        -0.11603E+07         0.00000E+00
    0.00000E+00         0.00000E+00         0.00000E+00
 
    0.33312E+07         0.11906E+07         0.00000E+00
    0.11906E+07        -0.11484E+07         0.00000E+00
    0.00000E+00         0.00000E+00         0.00000E+00
 
    0.32407E+07         0.12650E+07         0.00000E+00
    0.12650E+07        -0.11358E+07         0.00000E+00
    0.00000E+00         0.00000E+00         0.00000E+00
 
    0.31501E+07         0.13379E+07         0.00000E+00
    0.13379E+07        -0.11224E+07         0.00000E+00
    0.00000E+00         0.00000E+00         0.00000E+00
 
    0.30595E+07         0.14092E+07         0.00000E+00
    0.14092E+07        -0.11082E+07         0.00000E+00
    0.00000E+00         0.00000E+00         0.00000E+00
 
    0.29689E+07         0.14792E+07         0.00000E+00
    0.14792E+07        -0.10933E+07         0.00000E+00
    0.00000E+00         0.00000E+00         0.00000E+00
 
    0.28782E+07         0.15478E+07         0.00000E+00
    0.15478E+07        -0.10777E+07         0.00000E+00
    0.00000E+00         0.00000E+00         0.00000E+00
 
    0.27876E+07         0.16150E+07         0.00000E+00
    0.16150E+07        -0.10613E+07         0.00000E+00
    0.00000E+00         0.00000E+00         0.00000E+00
 
    0.26971E+07         0.16810E+07         0.00000E+00
    0.16810E+07        -0.10441E+07         0.00000E+00
    0.00000E+00         0.00000E+00         0.00000E+00
 
    0.26065E+07         0.17458E+07         0.00000E+00
    0.17458E+07        -0.10262E+07         0.00000E+00
    0.00000E+00         0.00000E+00         0.00000E+00
 
    0.25160E+07         0.18094E+07         0.00000E+00
    0.18094E+07        -0.10075E+07         0.00000E+00
    0.00000E+00         0.00000E+00         0.00000E+00
 
    0.24256E+07         0.18719E+07         0.00000E+00
    0.18719E+07        -0.98795E+06         0.00000E+00
    0.00000E+00         0.00000E+00         0.00000E+00
 
    0.23351E+07         0.19334E+07         0.00000E+00
    0.19334E+07        -0.96766E+06         0.00000E+00
    0.00000E+00         0.00000E+00         0.00000E+00
 
    0.22448E+07         0.19938E+07         0.00000E+00
    0.19938E+07        -0.94654E+06         0.00000E+00
    0.00000E+00         0.00000E+00         0.00000E+00
 
    0.21544E+07         0.20531E+07         0.00000E+00
    0.20531E+07        -0.92460E+06         0.00000E+00
    0.00000E+00         0.00000E+00         0.00000E+00
 
    0.20641E+07         0.21116E+07         0.00000E+00
    0.21116E+07        -0.90182E+06         0.00000E+00
    0.00000E+00         0.00000E+00         0.00000E+00
 
    0.19738E+07         0.21690E+07         0.00000E+00
    0.21690E+07        -0.87818E+06         0.00000E+00
    0.00000E+00         0.00000E+00         0.00000E+00
 
    0.18835E+07         0.22256E+07         0.00000E+00
    0.22256E+07        -0.85366E+06         0.00000E+00
    0.00000E+00         0.00000E+00         0.00000E+00
 
    0.17931E+07         0.22813E+07         0.00000E+00
    0.22813E+07        -0.82825E+06         0.00000E+00
    0.00000E+00         0.00000E+00         0.00000E+00
 
    0.17028E+07         0.23362E+07         0.00000E+00
    0.23362E+07        -0.80192E+06         0.00000E+00
    0.00000E+00         0.00000E+00         0.00000E+00
 
    0.16124E+07         0.23903E+07         0.00000E+00
    0.23903E+07        -0.77466E+06         0.00000E+00
    0.00000E+00         0.00000E+00         0.00000E+00
 
    0.15219E+07         0.24435E+07         0.00000E+00
    0.24435E+07        -0.74645E+06         0.00000E+00
    0.00000E+00         0.00000E+00         0.00000E+00
 
    0.14314E+07         0.24960E+07         0.00000E+00
    0.24960E+07        -0.71726E+06         0.00000E+00
    0.00000E+00         0.00000E+00         0.00000E+00
 
    0.13407E+07         0.25477E+07         0.00000E+00
    0.25477E+07        -0.68708E+06         0.00000E+00
    0.00000E+00         0.00000E+00         0.00000E+00
 
    0.12499E+07         0.25987E+07         0.00000E+00
    0.25987E+07        -0.65588E+06         0.00000E+00
    0.00000E+00         0.00000E+00         0.00000E+00
 
    0.11590E+07         0.26489E+07         0.00000E+00
    0.26489E+07        -0.62365E+06         0.00000E+00
    0.00000E+00         0.00000E+00         0.00000E+00
 
    0.10679E+07         0.26985E+07         0.00000E+00
    0.26985E+07        -0.59036E+06         0.00000E+00
    0.00000E+00         0.00000E+00         0.00000E+00
 
    0.97661E+06         0.27473E+07         0.00000E+00
    0.27473E+07        -0.55600E+06         0.00000E+00
    0.00000E+00         0.00000E+00         0.00000E+00
 
    0.88509E+06         0.27954E+07         0.00000E+00
    0.27954E+07        -0.52054E+06         0.00000E+00
    0.00000E+00         0.00000E+00         0.00000E+00
 
    0.79333E+06         0.28428E+07         0.00000E+00
    0.28428E+07        -0.48396E+06         0.00000E+00
    0.00000E+00         0.00000E+00         0.00000E+00
 
    0.70130E+06         0.28896E+07         0.00000E+00
    0.28896E+07        -0.44624E+06         0.00000E+00
    0.00000E+00         0.00000E+00         0.00000E+00
 
    0.60898E+06         0.29356E+07         0.00000E+00
    0.29356E+07        -0.40736E+06         0.00000E+00
    0.00000E+00         0.00000E+00         0.00000E+00
 
    0.51633E+06         0.29810E+07         0.00000E+00
    0.29810E+07        -0.36730E+06         0.00000E+00
    0.00000E+00         0.00000E+00         0.00000E+00
 
    0.42334E+06         0.30257E+07         0.00000E+00
    0.30257E+07        -0.32604E+06         0.00000E+00
    0.00000E+00         0.00000E+00         0.00000E+00
 
    0.32998E+06         0.30697E+07         0.00000E+00
    0.30697E+07        -0.28356E+06         0.00000E+00
    0.00000E+00         0.00000E+00         0.00000E+00
 
    0.23623E+06         0.31130E+07         0.00000E+00
    0.31130E+07        -0.23985E+06         0.00000E+00
    0.00000E+00         0.00000E+00         0.00000E+00
 
    0.14205E+06         0.31556E+07         0.00000E+00
    0.31556E+07        -0.19488E+06         0.00000E+00
    0.00000E+00         0.00000E+00         0.00000E+00
 
    0.47427E+05         0.31975E+07         0.00000E+00
    0.31975E+07        -0.14864E+06         0.00000E+00
    0.00000E+00         0.00000E+00         0.00000E+00
 
    0.47809E+07         0.56727E+05         0.00000E+00
    0.56727E+05        -0.14607E+07         0.00000E+00
    0.00000E+00         0.00000E+00         0.00000E+00
 
    0.46828E+07         0.16246E+06         0.00000E+00
    0.16246E+06        -0.14596E+07         0.00000E+00
    0.00000E+00         0.00000E+00         0.00000E+00
 
    0.45843E+07         0.26551E+06         0.00000E+00
    0.26551E+06        -0.14576E+07         0.00000E+00
    0.00000E+00         0.00000E+00         0.00000E+00
 
    0.44854E+07         0.36598E+06         0.00000E+00
    0.36598E+06        -0.14546E+07         0.00000E+00
    0.00000E+00         0.00000E+00         0.00000E+00
 
    0.43862E+07         0.46396E+06         0.00000E+00
    0.46396E+06        -0.14508E+07         0.00000E+00
    0.00000E+00         0.00000E+00         0.00000E+00
 
    0.42869E+07         0.55955E+06         0.00000E+00
    0.55955E+06        -0.14461E+07         0.00000E+00
    0.00000E+00         0.00000E+00         0.00000E+00
 
    0.41874E+07         0.65284E+06         0.00000E+00
    0.65284E+06        -0.14406E+07         0.00000E+00
    0.00000E+00         0.00000E+00         0.00000E+00
 
    0.40879E+07         0.74392E+06         0.00000E+00
    0.74392E+06        -0.14343E+07         0.00000E+00
    0.00000E+00         0.00000E+00         0.00000E+00
 
    0.39885E+07         0.83289E+06         0.00000E+00
    0.83289E+06        -0.14273E+07         0.00000E+00
    0.00000E+00         0.00000E+00         0.00000E+00
 
    0.38891E+07         0.91982E+06         0.00000E+00
    0.91982E+06        -0.14195E+07         0.00000E+00
    0.00000E+00         0.00000E+00         0.00000E+00
 
    0.37899E+07         0.10048E+07         0.00000E+00
    0.10048E+07        -0.14110E+07         0.00000E+00
    0.00000E+00         0.00000E+00         0.00000E+00
 
    0.36908E+07         0.10879E+07         0.00000E+00
    0.10879E+07        -0.14018E+07         0.00000E+00
    0.00000E+00         0.00000E+00         0.00000E+00
 
    0.35919E+07         0.11693E+07         0.00000E+00
    0.11693E+07        -0.13919E+07         0.00000E+00
    0.00000E+00         0.00000E+00         0.00000E+00
 
    0.34932E+07         0.12490E+07         0.00000E+00
    0.12490E+07        -0.13812E+07         0.00000E+00
    0.00000E+00         0.00000E+00         0.00000E+00
 
    0.33948E+07         0.13270E+07         0.00000E+00
    0.13270E+07        -0.13699E+07         0.00000E+00
    0.00000E+00         0.00000E+00         0.00000E+00
 
    0.32967E+07         0.14035E+07         0.00000E+00
    0.14035E+07        -0.13579E+07         0.00000E+00
    0.00000E+00         0.00000E+00         0.00000E+00
 
    0.31988E+07         0.14785E+07         0.00000E+00
    0.14785E+07        -0.13451E+07         0.00000E+00
    0.00000E+00         0.00000E+00         0.00000E+00
 
    0.31013E+07         0.15521E+07         0.00000E+00
    0.15521E+07        -0.13317E+07         0.00000E+00
    0.00000E+00         0.00000E+00         0.00000E+00
 
    0.30040E+07         0.16244E+07         0.00000E+00
    0.16244E+07        -0.13175E+07         0.00000E+00
    0.00000E+00         0.00000E+00         0.00000E+00
 
    0.29071E+07         0.16954E+07         0.00000E+00
    0.16954E+07        -0.13026E+07         0.00000E+00
    0.00000E+00         0.00000E+00         0.00000E+00
 
    0.28105E+07         0.17652E+07         0.00000E+00
    0.17652E+07        -0.12869E+07         0.00000E+00
    0.00000E+00         0.00000E+00         0.00000E+00
 
    0.27141E+07         0.18339E+07         0.00000E+00
    0.18339E+07        -0.12705E+07         0.00000E+00
    0.00000E+00         0.00000E+00         0.00000E+00
 
    0.26181E+07         0.19014E+07         0.00000E+00
    0.19014E+07        -0.12533E+07         0.00000E+00
    0.00000E+00         0.00000E+00         0.00000E+00
 
    0.25223E+07         0.19680E+07         0.00000E+00
    0.19680E+07        -0.12353E+07         0.00000E+00
    0.00000E+00         0.00000E+00         0.00000E+00
 
    0.24268E+07         0.20335E+07         0.00000E+00
    0.20335E+07        -0.12165E+07         0.00000E+00
    0.00000E+00         0.00000E+00         0.00000E+00
 
    0.23315E+07         0.20980E+07         0.00000E+00
    0.20980E+07        -0.11968E+07         0.00000E+00
    0.00000E+00         0.00000E+00         0.00000E+00
 
    0.22365E+07         0.21617E+07         0.00000E+00
    0.21617E+07        -0.11763E+07         0.00000E+00
    0.00000E+00         0.00000E+00         0.00000E+00
 
    0.21417E+07         0.22245E+07         0.00000E+00
    0.22245E+07        -0.11549E+07         0.00000E+00
    0.00000E+00         0.00000E+00         0.00000E+00
 
    0.20471E+07         0.22865E+07         0.00000E+00
    0.22865E+07        -0.11325E+07         0.00000E+00
    0.00000E+00         0.00000E+00         0.00000E+00
 
    0.19526E+07         0.23476E+07         0.00000E+00
    0.23476E+07        -0.11093E+07         0.00000E+00
    0.00000E+00         0.00000E+00         0.00000E+00
 
    0.18583E+07         0.24081E+07         0.00000E+00
    0.24081E+07        -0.10850E+07         0.00000E+00
    0.00000E+00         0.00000E+00         0.00000E+00
 
    0.17640E+07         0.24677E+07         0.00000E+00
    0.24677E+07        -0.10598E+07         0.00000E+00
    0.00000E+00         0.00000E+00         0.00000E+00
 
    0.16699E+07         0.25267E+07         0.00000E+00
    0.25267E+07        -0.10336E+07         0.00000E+00
    0.00000E+00         0.00000E+00         0.00000E+00
 
    0.15757E+07         0.25850E+07         0.00000E+00
    0.25850E+07        -0.10063E+07         0.00000E+00
    0.00000E+00         0.00000E+00         0.00000E+00
 
    0.14816E+07         0.26427E+07         0.00000E+00
    0.26427E+07        -0.97794E+06         0.00000E+00
    0.00000E+00         0.00000E+00         0.00000E+00
 
    0.13875E+07         0.26997E+07         0.00000E+00
    0.26997E+07        -0.94848E+06         0.00000E+00
    0.00000E+00         0.00000E+00         0.00000E+00
 
    0.12934E+07         0.27561E+07         0.00000E+00
    0.27561E+07        -0.91789E+06         0.00000E+00
    0.00000E+00         0.00000E+00         0.00000E+00
 
    0.11991E+07         0.28119E+07         0.00000E+00
    0.28119E+07        -0.88614E+06         0.00000E+00
    0.00000E+00         0.00000E+00         0.00000E+00
 
    0.11047E+07         0.28671E+07         0.00000E+00
    0.28671E+07        -0.85321E+06         0.00000E+00
    0.00000E+00         0.00000E+00         0.00000E+00
 
    0.10102E+07         0.29217E+07         0.00000E+00
    0.29217E+07        -0.81906E+06         0.00000E+00
    0.00000E+00         0.00000E+00         0.00000E+00
 
    0.91551E+06         0.29757E+07         0.00000E+00
    0.29757E+07        -0.78367E+06         0.00000E+00
    0.00000E+00         0.00000E+00         0.00000E+00
 
    0.82058E+06         0.30291E+07         0.00000E+00
    0.30291E+07        -0.74702E+06         0.00000E+00
    0.00000E+00         0.00000E+00         0.00000E+00
 
    0.72539E+06         0.30820E+07         0.00000E+00
    0.30820E+07        -0.70907E+06         0.00000E+00
    0.00000E+00         0.00000E+00         0.00000E+00
 
    0.62992E+06         0.31343E+07         0.00000E+00
    0.31343E+07        -0.66980E+06         0.00000E+00
    0.00000E+00         0.00000E+00         0.00000E+00
 
    0.53412E+06         0.31860E+07         0.00000E+00
    0.31860E+07        -0.62918E+06         0.00000E+00
    0.00000E+00         0.00000E+00         0.00000E+00
 
    0.43796E+06         0.32372E+07         0.00000E+00
    0.32372E+07        -0.58719E+06         0.00000E+00
    0.00000E+00         0.00000E+00         0.00000E+00
 
    0.34141E+06         0.32878E+07         0.00000E+00
    0.32878E+07        -0.54381E+06         0.00000E+00
    0.00000E+00         0.00000E+00         0.00000E+00
 
    0.24444E+06         0.33378E+07         0.00000E+00
    0.33378E+07        -0.49900E+06         0.00000E+00
    0.00000E+00         0.00000E+00         0.00000E+00
 
    0.14701E+06         0.33871E+07         0.00000E+00
    0.33871E+07        -0.45276E+06         0.00000E+00
    0.00000E+00         0.00000E+00         0.00000E+00
 
    0.49087E+05         0.34359E+07         0.00000E+00
    0.34359E+07        -0.40504E+06         0.00000E+00
    0.00000E+00         0.00000E+00         0.00000E+00
 
    0.50678E+07         0.59387E+05         0.00000E+00
    0.59387E+05        -0.17216E+07         0.00000E+00
    0.00000E+00         0.00000E+00         0.00000E+00
 
    0.49555E+07         0.16969E+06         0.00000E+00
    0.16969E+06        -0.17207E+07         0.00000E+00
    0.00000E+00         0.00000E+00         0.00000E+00
 
    0.48432E+07         0.27707E+06         0.00000E+00
    0.27707E+06        -0.17190E+07         0.00000E+00
    0.00000E+00         0.00000E+00         0.00000E+00
 
    0.47311E+07         0.38166E+06         0.00000E+00
    0.38166E+06        -0.17166E+07         0.00000E+00
    0.00000E+00         0.00000E+00         0.00000E+00
 
    0.46193E+07         0.48358E+06         0.00000E+00
    0.48358E+06        -0.17134E+07         0.00000E+00
    0.00000E+00         0.00000E+00         0.00000E+00
 
    0.45079E+07         0.58294E+06         0.00000E+00
    0.58294E+06        -0.17095E+07         0.00000E+00
    0.00000E+00         0.00000E+00         0.00000E+00
 
    0.43969E+07         0.67988E+06         0.00000E+00
    0.67988E+06        -0.17050E+07         0.00000E+00
    0.00000E+00         0.00000E+00         0.00000E+00
 
    0.42863E+07         0.77449E+06         0.00000E+00
    0.77449E+06        -0.16998E+07         0.00000E+00
    0.00000E+00         0.00000E+00         0.00000E+00
 
    0.41763E+07         0.86690E+06         0.00000E+00
    0.86690E+06        -0.16940E+07         0.00000E+00
    0.00000E+00         0.00000E+00         0.00000E+00
 
    0.40668E+07         0.95722E+06         0.00000E+00
    0.95722E+06        -0.16875E+07         0.00000E+00
    0.00000E+00         0.00000E+00         0.00000E+00
 
    0.39580E+07         0.10455E+07         0.00000E+00
    0.10455E+07        -0.16805E+07         0.00000E+00
    0.00000E+00         0.00000E+00         0.00000E+00
 
    0.38497E+07         0.11320E+07         0.00000E+00
    0.11320E+07        -0.16729E+07         0.00000E+00
    0.00000E+00         0.00000E+00         0.00000E+00
 
    0.37421E+07         0.12166E+07         0.00000E+00
    0.12166E+07        -0.16646E+07         0.00000E+00
    0.00000E+00         0.00000E+00         0.00000E+00
 
    0.36352E+07         0.12996E+07         0.00000E+00
    0.12996E+07        -0.16557E+07         0.00000E+00
    0.00000E+00         0.00000E+00         0.00000E+00
 
    0.35290E+07         0.13809E+07         0.00000E+00
    0.13809E+07        -0.16463E+07         0.00000E+00
    0.00000E+00         0.00000E+00         0.00000E+00
 
    0.34234E+07         0.14608E+07         0.00000E+00
    0.14608E+07        -0.16361E+07         0.00000E+00
    0.00000E+00         0.00000E+00         0.00000E+00
 
    0.33185E+07         0.15392E+07         0.00000E+00
    0.15392E+07        -0.16254E+07         0.00000E+00
    0.00000E+00         0.00000E+00         0.00000E+00
 
    0.32142E+07         0.16163E+07         0.00000E+00
    0.16163E+07        -0.16140E+07         0.00000E+00
    0.00000E+00         0.00000E+00         0.00000E+00
 
    0.31107E+07         0.16922E+07         0.00000E+00
    0.16922E+07        -0.16019E+07         0.00000E+00
    0.00000E+00         0.00000E+00         0.00000E+00
 
    0.30077E+07         0.17668E+07         0.00000E+00
    0.17668E+07        -0.15891E+07         0.00000E+00
    0.00000E+00         0.00000E+00         0.00000E+00
 
    0.29054E+07         0.18403E+07         0.00000E+00
    0.18403E+07        -0.15756E+07         0.00000E+00
    0.00000E+00         0.00000E+00         0.00000E+00
 
    0.28037E+07         0.19128E+07         0.00000E+00
    0.19128E+07        -0.15613E+07         0.00000E+00
    0.00000E+00         0.00000E+00         0.00000E+00
 
    0.27026E+07         0.19843E+07         0.00000E+00
    0.19843E+07        -0.15463E+07         0.00000E+00
    0.00000E+00         0.00000E+00         0.00000E+00
 
    0.26020E+07         0.20549E+07         0.00000E+00
    0.20549E+07        -0.15304E+07         0.00000E+00
    0.00000E+00         0.00000E+00         0.00000E+00
 
    0.25020E+07         0.21246E+07         0.00000E+00
    0.21246E+07        -0.15137E+07         0.00000E+00
    0.00000E+00         0.00000E+00         0.00000E+00
 
    0.24024E+07         0.21936E+07         0.00000E+00
    0.21936E+07        -0.14962E+07         0.00000E+00
    0.00000E+00         0.00000E+00         0.00000E+00
 
    0.23033E+07         0.22617E+07         0.00000E+00
    0.22617E+07        -0.14777E+07         0.00000E+00
    0.00000E+00         0.00000E+00         0.00000E+00
 
    0.22046E+07         0.23291E+07         0.00000E+00
    0.23291E+07        -0.14583E+07         0.00000E+00
    0.00000E+00         0.00000E+00         0.00000E+00
 
    0.21063E+07         0.23959E+07         0.00000E+00
    0.23959E+07        -0.14380E+07         0.00000E+00
    0.00000E+00         0.00000E+00         0.00000E+00
 
    0.20083E+07         0.24620E+07         0.00000E+00
    0.24620E+07        -0.14166E+07         0.00000E+00
    0.00000E+00         0.00000E+00         0.00000E+00
 
    0.19107E+07         0.25275E+07         0.00000E+00
    0.25275E+07        -0.13942E+07         0.00000E+00
    0.00000E+00         0.00000E+00         0.00000E+00
 
    0.18132E+07         0.25924E+07         0.00000E+00
    0.25924E+07        -0.13707E+07         0.00000E+00
    0.00000E+00         0.00000E+00         0.00000E+00
 
    0.17160E+07         0.26568E+07         0.00000E+00
    0.26568E+07        -0.13461E+07         0.00000E+00
    0.00000E+00         0.00000E+00         0.00000E+00
 
    0.16189E+07         0.27207E+07         0.00000E+00
    0.27207E+07        -0.13203E+07         0.00000E+00
    0.00000E+00         0.00000E+00         0.00000E+00
 
    0.15220E+07         0.27841E+07         0.00000E+00
    0.27841E+07        -0.12934E+07         0.00000E+00
    0.00000E+00         0.00000E+00         0.00000E+00
 
    0.14251E+07         0.28470E+07         0.00000E+00
    0.28470E+07        -0.12652E+07         0.00000E+00
    0.00000E+00         0.00000E+00         0.00000E+00
 
    0.13283E+07         0.29094E+07         0.00000E+00
    0.29094E+07        -0.12358E+07         0.00000E+00
    0.00000E+00         0.00000E+00         0.00000E+00
 
    0.12314E+07         0.29714E+07         0.00000E+00
    0.29714E+07        -0.12051E+07         0.00000E+00
    0.00000E+00         0.00000E+00         0.00000E+00
 
    0.11344E+07         0.30330E+07         0.00000E+00
    0.30330E+07        -0.11730E+07         0.00000E+00
    0.00000E+00         0.00000E+00         0.00000E+00
 
    0.10374E+07         0.30941E+07         0.00000E+00
    0.30941E+07        -0.11396E+07         0.00000E+00
    0.00000E+00         0.00000E+00         0.00000E+00
 
    0.94015E+06         0.31548E+07         0.00000E+00
    0.31548E+07        -0.11048E+07         0.00000E+00
    0.00000E+00         0.00000E+00         0.00000E+00
 
    0.84272E+06         0.32150E+07         0.00000E+00
    0.32150E+07        -0.10685E+07         0.00000E+00
    0.00000E+00         0.00000E+00         0.00000E+00
 
    0.74503E+06         0.32749E+07         0.00000E+00
    0.32749E+07        -0.10308E+07         0.00000E+00
    0.00000E+00         0.00000E+00         0.00000E+00
 
    0.64705E+06         0.33343E+07         0.00000E+00
    0.33343E+07        -0.99156E+06         0.00000E+00
    0.00000E+00         0.00000E+00         0.00000E+00
 
    0.54873E+06         0.33933E+07         0.00000E+00
    0.33933E+07        -0.95079E+06         0.00000E+00
    0.00000E+00         0.00000E+00         0.00000E+00
 
    0.45002E+06         0.34519E+07         0.00000E+00
    0.34519E+07        -0.90845E+06         0.00000E+00
    0.00000E+00         0.00000E+00         0.00000E+00
 
    0.35088E+06         0.35100E+07         0.00000E+00
    0.35100E+07        -0.86452E+06         0.00000E+00
    0.00000E+00         0.00000E+00         0.00000E+00
 
    0.25127E+06         0.35677E+07         0.00000E+00
    0.35677E+07        -0.81896E+06         0.00000E+00
    0.00000E+00         0.00000E+00         0.00000E+00
 
    0.15115E+06         0.36248E+07         0.00000E+00
    0.36248E+07        -0.77175E+06         0.00000E+00
    0.00000E+00         0.00000E+00         0.00000E+00
 
    0.50479E+05         0.36816E+07         0.00000E+00
    0.36816E+07        -0.72285E+06         0.00000E+00
    0.00000E+00         0.00000E+00         0.00000E+00
 
    0.53328E+07         0.61534E+05         0.00000E+00
    0.61534E+05        -0.20258E+07         0.00000E+00
    0.00000E+00         0.00000E+00         0.00000E+00
 
    0.52049E+07         0.17542E+06         0.00000E+00
    0.17542E+06        -0.20251E+07         0.00000E+00
    0.00000E+00         0.00000E+00         0.00000E+00
 
    0.50779E+07         0.28617E+06         0.00000E+00
    0.28617E+06        -0.20239E+07         0.00000E+00
    0.00000E+00         0.00000E+00         0.00000E+00
 
    0.49517E+07         0.39394E+06         0.00000E+00
    0.39394E+06        -0.20221E+07         0.00000E+00
    0.00000E+00         0.00000E+00         0.00000E+00
 
    0.48265E+07         0.49889E+06         0.00000E+00
    0.49889E+06        -0.20198E+07         0.00000E+00
    0.00000E+00         0.00000E+00         0.00000E+00
 
    0.47023E+07         0.60117E+06         0.00000E+00
    0.60117E+06        -0.20170E+07         0.00000E+00
    0.00000E+00         0.00000E+00         0.00000E+00
 
    0.45792E+07         0.70092E+06         0.00000E+00
    0.70092E+06        -0.20138E+07         0.00000E+00
    0.00000E+00         0.00000E+00         0.00000E+00
 
    0.44571E+07         0.79827E+06         0.00000E+00
    0.79827E+06        -0.20101E+07         0.00000E+00
    0.00000E+00         0.00000E+00         0.00000E+00
 
    0.43363E+07         0.89338E+06         0.00000E+00
    0.89338E+06        -0.20059E+07         0.00000E+00
    0.00000E+00         0.00000E+00         0.00000E+00
 
    0.42165E+07         0.98637E+06         0.00000E+00
    0.98637E+06        -0.20013E+07         0.00000E+00
    0.00000E+00         0.00000E+00         0.00000E+00
 
    0.40980E+07         0.10774E+07         0.00000E+00
    0.10774E+07        -0.19962E+07         0.00000E+00
    0.00000E+00         0.00000E+00         0.00000E+00
 
    0.39806E+07         0.11665E+07         0.00000E+00
    0.11665E+07        -0.19907E+07         0.00000E+00
    0.00000E+00         0.00000E+00         0.00000E+00
 
    0.38645E+07         0.12539E+07         0.00000E+00
    0.12539E+07        -0.19847E+07         0.00000E+00
    0.00000E+00         0.00000E+00         0.00000E+00
 
    0.37495E+07         0.13396E+07         0.00000E+00
    0.13396E+07        -0.19782E+07         0.00000E+00
    0.00000E+00         0.00000E+00         0.00000E+00
 
    0.36356E+07         0.14239E+07         0.00000E+00
    0.14239E+07        -0.19712E+07         0.00000E+00
    0.00000E+00         0.00000E+00         0.00000E+00
 
    0.35230E+07         0.15067E+07         0.00000E+00
    0.15067E+07        -0.19637E+07         0.00000E+00
    0.00000E+00         0.00000E+00         0.00000E+00
 
    0.34114E+07         0.15882E+07         0.00000E+00
    0.15882E+07        -0.19556E+07         0.00000E+00
    0.00000E+00         0.00000E+00         0.00000E+00
 
    0.33010E+07         0.16685E+07         0.00000E+00
    0.16685E+07        -0.19469E+07         0.00000E+00
    0.00000E+00         0.00000E+00         0.00000E+00
 
    0.31916E+07         0.17476E+07         0.00000E+00
    0.17476E+07        -0.19376E+07         0.00000E+00
    0.00000E+00         0.00000E+00         0.00000E+00
 
    0.30833E+07         0.18257E+07         0.00000E+00
    0.18257E+07        -0.19277E+07         0.00000E+00
    0.00000E+00         0.00000E+00         0.00000E+00
 
    0.29760E+07         0.19029E+07         0.00000E+00
    0.19029E+07        -0.19171E+07         0.00000E+00
    0.00000E+00         0.00000E+00         0.00000E+00
 
    0.28696E+07         0.19791E+07         0.00000E+00
    0.19791E+07        -0.19057E+07         0.00000E+00
    0.00000E+00         0.00000E+00         0.00000E+00
 
    0.27641E+07         0.20546E+07         0.00000E+00
    0.20546E+07        -0.18936E+07         0.00000E+00
    0.00000E+00         0.00000E+00         0.00000E+00
 
    0.26595E+07         0.21293E+07         0.00000E+00
    0.21293E+07        -0.18806E+07         0.00000E+00
    0.00000E+00         0.00000E+00         0.00000E+00
 
    0.25558E+07         0.22034E+07         0.00000E+00
    0.22034E+07        -0.18668E+07         0.00000E+00
    0.00000E+00         0.00000E+00         0.00000E+00
 
    0.24527E+07         0.22768E+07         0.00000E+00
    0.22768E+07        -0.18521E+07         0.00000E+00
    0.00000E+00         0.00000E+00         0.00000E+00
 
    0.23504E+07         0.23496E+07         0.00000E+00
    0.23496E+07        -0.18365E+07         0.00000E+00
    0.00000E+00         0.00000E+00         0.00000E+00
 
    0.22487E+07         0.24220E+07         0.00000E+00
    0.24220E+07        -0.18198E+07         0.00000E+00
    0.00000E+00         0.00000E+00         0.00000E+00
 
    0.21476E+07         0.24938E+07         0.00000E+00
    0.24938E+07        -0.18022E+07         0.00000E+00
    0.00000E+00         0.00000E+00         0.00000E+00
 
    0.20470E+07         0.25652E+07         0.00000E+00
    0.25652E+07        -0.17834E+07         0.00000E+00
    0.00000E+00         0.00000E+00         0.00000E+00
 
    0.19469E+07         0.26363E+07         0.00000E+00
    0.26363E+07        -0.17636E+07         0.00000E+00
    0.00000E+00         0.00000E+00         0.00000E+00
 
    0.18472E+07         0.27069E+07         0.00000E+00
    0.27069E+07        -0.17425E+07         0.00000E+00
    0.00000E+00         0.00000E+00         0.00000E+00
 
    0.17478E+07         0.27773E+07         0.00000E+00
    0.27773E+07        -0.17203E+07         0.00000E+00
    0.00000E+00         0.00000E+00         0.00000E+00
 
    0.16487E+07         0.28473E+07         0.00000E+00
    0.28473E+07        -0.16967E+07         0.00000E+00
    0.00000E+00         0.00000E+00         0.00000E+00
 
    0.15498E+07         0.29170E+07         0.00000E+00
    0.29170E+07        -0.16719E+07         0.00000E+00
    0.00000E+00         0.00000E+00         0.00000E+00
 
    0.14511E+07         0.29865E+07         0.00000E+00
    0.29865E+07        -0.16457E+07         0.00000E+00
    0.00000E+00         0.00000E+00         0.00000E+00
 
    0.13525E+07         0.30557E+07         0.00000E+00
    0.30557E+07        -0.16181E+07         0.00000E+00
    0.00000E+00         0.00000E+00         0.00000E+00
 
    0.12539E+07         0.31246E+07         0.00000E+00
    0.31246E+07        -0.15890E+07         0.00000E+00
    0.00000E+00         0.00000E+00         0.00000E+00
 
    0.11552E+07         0.31934E+07         0.00000E+00
    0.31934E+07        -0.15584E+07         0.00000E+00
    0.00000E+00         0.00000E+00         0.00000E+00
 
    0.10565E+07         0.32619E+07         0.00000E+00
    0.32619E+07        -0.15263E+07         0.00000E+00
    0.00000E+00         0.00000E+00         0.00000E+00
 
    0.95764E+06         0.33301E+07         0.00000E+00
    0.33301E+07        -0.14926E+07         0.00000E+00
    0.00000E+00         0.00000E+00         0.00000E+00
 
    0.85855E+06         0.33981E+07         0.00000E+00
    0.33981E+07        -0.14573E+07         0.00000E+00
    0.00000E+00         0.00000E+00         0.00000E+00
 
    0.75919E+06         0.34659E+07         0.00000E+00
    0.34659E+07        -0.14203E+07         0.00000E+00
    0.00000E+00         0.00000E+00         0.00000E+00
 
    0.65951E+06         0.35334E+07         0.00000E+00
    0.35334E+07        -0.13816E+07         0.00000E+00
    0.00000E+00         0.00000E+00         0.00000E+00
 
    0.55944E+06         0.36007E+07         0.00000E+00
    0.36007E+07        -0.13412E+07         0.00000E+00
    0.00000E+00         0.00000E+00         0.00000E+00
 
    0.45894E+06         0.36677E+07         0.00000E+00
    0.36677E+07        -0.12989E+07         0.00000E+00
    0.00000E+00         0.00000E+00         0.00000E+00
 
    0.35795E+06         0.37345E+07         0.00000E+00
    0.37345E+07        -0.12549E+07         0.00000E+00
    0.00000E+00         0.00000E+00         0.00000E+00
 
    0.25642E+06         0.38009E+07         0.00000E+00
    0.38009E+07        -0.12089E+07         0.00000E+00
    0.00000E+00         0.00000E+00         0.00000E+00
 
    0.15430E+06         0.38670E+07         0.00000E+00
    0.38670E+07        -0.11611E+07         0.00000E+00
    0.00000E+00         0.00000E+00         0.00000E+00
 
    0.51545E+05         0.39328E+07         0.00000E+00
    0.39328E+07        -0.11114E+07         0.00000E+00
    0.00000E+00         0.00000E+00         0.00000E+00
 
    0.55636E+07         0.62974E+05         0.00000E+00
    0.62974E+05        -0.23793E+07         0.00000E+00
    0.00000E+00         0.00000E+00         0.00000E+00
 
    0.54192E+07         0.17911E+06         0.00000E+00
    0.17911E+06        -0.23790E+07         0.00000E+00
    0.00000E+00         0.00000E+00         0.00000E+00
 
    0.52765E+07         0.29194E+06         0.00000E+00
    0.29194E+06        -0.23783E+07         0.00000E+00
    0.00000E+00         0.00000E+00         0.00000E+00
 
    0.51355E+07         0.40166E+06         0.00000E+00
    0.40166E+06        -0.23775E+07         0.00000E+00
    0.00000E+00         0.00000E+00         0.00000E+00
 
    0.49963E+07         0.50845E+06         0.00000E+00
    0.50845E+06        -0.23764E+07         0.00000E+00
    0.00000E+00         0.00000E+00         0.00000E+00
 
    0.48589E+07         0.61249E+06         0.00000E+00
    0.61249E+06        -0.23750E+07         0.00000E+00
    0.00000E+00         0.00000E+00         0.00000E+00
 
    0.47234E+07         0.71395E+06         0.00000E+00
    0.71395E+06        -0.23735E+07         0.00000E+00
    0.00000E+00         0.00000E+00         0.00000E+00
 
    0.45898E+07         0.81302E+06         0.00000E+00
    0.81302E+06        -0.23717E+07         0.00000E+00
    0.00000E+00         0.00000E+00         0.00000E+00
 
    0.44580E+07         0.90985E+06         0.00000E+00
    0.90985E+06        -0.23697E+07         0.00000E+00
    0.00000E+00         0.00000E+00         0.00000E+00
 
    0.43281E+07         0.10046E+07         0.00000E+00
    0.10046E+07        -0.23675E+07         0.00000E+00
    0.00000E+00         0.00000E+00         0.00000E+00
 
    0.42001E+07         0.10974E+07         0.00000E+00
    0.10974E+07        -0.23650E+07         0.00000E+00
    0.00000E+00         0.00000E+00         0.00000E+00
 
    0.40739E+07         0.11885E+07         0.00000E+00
    0.11885E+07        -0.23622E+07         0.00000E+00
    0.00000E+00         0.00000E+00         0.00000E+00
 
    0.39496E+07         0.12779E+07         0.00000E+00
    0.12779E+07        -0.23591E+07         0.00000E+00
    0.00000E+00         0.00000E+00         0.00000E+00
 
    0.38270E+07         0.13658E+07         0.00000E+00
    0.13658E+07        -0.23557E+07         0.00000E+00
    0.00000E+00         0.00000E+00         0.00000E+00
 
    0.37062E+07         0.14523E+07         0.00000E+00
    0.14523E+07        -0.23520E+07         0.00000E+00
    0.00000E+00         0.00000E+00         0.00000E+00
 
    0.35871E+07         0.15375E+07         0.00000E+00
    0.15375E+07        -0.23478E+07         0.00000E+00
    0.00000E+00         0.00000E+00         0.00000E+00
 
    0.34697E+07         0.16217E+07         0.00000E+00
    0.16217E+07        -0.23431E+07         0.00000E+00
    0.00000E+00         0.00000E+00         0.00000E+00
 
    0.33538E+07         0.17048E+07         0.00000E+00
    0.17048E+07        -0.23380E+07         0.00000E+00
    0.00000E+00         0.00000E+00         0.00000E+00
 
    0.32395E+07         0.17869E+07         0.00000E+00
    0.17869E+07        -0.23323E+07         0.00000E+00
    0.00000E+00         0.00000E+00         0.00000E+00
 
    0.31267E+07         0.18683E+07         0.00000E+00
    0.18683E+07        -0.23260E+07         0.00000E+00
    0.00000E+00         0.00000E+00         0.00000E+00
 
    0.30154E+07         0.19489E+07         0.00000E+00
    0.19489E+07        -0.23191E+07         0.00000E+00
    0.00000E+00         0.00000E+00         0.00000E+00
 
    0.29053E+07         0.20289E+07         0.00000E+00
    0.20289E+07        -0.23114E+07         0.00000E+00
    0.00000E+00         0.00000E+00         0.00000E+00
 
    0.27966E+07         0.21083E+07         0.00000E+00
    0.21083E+07        -0.23030E+07         0.00000E+00
    0.00000E+00         0.00000E+00         0.00000E+00
 
    0.26890E+07         0.21872E+07         0.00000E+00
    0.21872E+07        -0.22939E+07         0.00000E+00
    0.00000E+00         0.00000E+00         0.00000E+00
 
    0.25826E+07         0.22656E+07         0.00000E+00
    0.22656E+07        -0.22838E+07         0.00000E+00
    0.00000E+00         0.00000E+00         0.00000E+00
 
    0.24772E+07         0.23437E+07         0.00000E+00
    0.23437E+07        -0.22728E+07         0.00000E+00
    0.00000E+00         0.00000E+00         0.00000E+00
 
    0.23728E+07         0.24215E+07         0.00000E+00
    0.24215E+07        -0.22608E+07         0.00000E+00
    0.00000E+00         0.00000E+00         0.00000E+00
 
    0.22693E+07         0.24991E+07         0.00000E+00
    0.24991E+07        -0.22478E+07         0.00000E+00
    0.00000E+00         0.00000E+00         0.00000E+00
 
    0.21665E+07         0.25764E+07         0.00000E+00
    0.25764E+07        -0.22337E+07         0.00000E+00
    0.00000E+00         0.00000E+00         0.00000E+00
 
    0.20645E+07         0.26535E+07         0.00000E+00
    0.26535E+07        -0.22184E+07         0.00000E+00
    0.00000E+00         0.00000E+00         0.00000E+00
 
    0.19632E+07         0.27306E+07         0.00000E+00
    0.27306E+07        -0.22019E+07         0.00000E+00
    0.00000E+00         0.00000E+00         0.00000E+00
 
    0.18623E+07         0.28075E+07         0.00000E+00
    0.28075E+07        -0.21841E+07         0.00000E+00
    0.00000E+00         0.00000E+00         0.00000E+00
 
    0.17620E+07         0.28844E+07         0.00000E+00
    0.28844E+07        -0.21649E+07         0.00000E+00
    0.00000E+00         0.00000E+00         0.00000E+00
 
    0.16620E+07         0.29612E+07         0.00000E+00
    0.29612E+07        -0.21444E+07         0.00000E+00
    0.00000E+00         0.00000E+00         0.00000E+00
 
    0.15624E+07         0.30380E+07         0.00000E+00
    0.30380E+07        -0.21224E+07         0.00000E+00
    0.00000E+00         0.00000E+00         0.00000E+00
 
    0.14630E+07         0.31148E+07         0.00000E+00
    0.31148E+07        -0.20989E+07         0.00000E+00
    0.00000E+00         0.00000E+00         0.00000E+00
 
    0.13637E+07         0.31916E+07         0.00000E+00
    0.31916E+07        -0.20738E+07         0.00000E+00
    0.00000E+00         0.00000E+00         0.00000E+00
 
    0.12645E+07         0.32683E+07         0.00000E+00
    0.32683E+07        -0.20471E+07         0.00000E+00
    0.00000E+00         0.00000E+00         0.00000E+00
 
    0.11653E+07         0.33451E+07         0.00000E+00
    0.33451E+07        -0.20187E+07         0.00000E+00
    0.00000E+00         0.00000E+00         0.00000E+00
 
    0.10660E+07         0.34219E+07         0.00000E+00
    0.34219E+07        -0.19885E+07         0.00000E+00
    0.00000E+00         0.00000E+00         0.00000E+00
 
    0.96649E+06         0.34987E+07         0.00000E+00
    0.34987E+07        -0.19566E+07         0.00000E+00
    0.00000E+00         0.00000E+00         0.00000E+00
 
    0.86677E+06         0.35755E+07         0.00000E+00
    0.35755E+07        -0.19228E+07         0.00000E+00
    0.00000E+00         0.00000E+00         0.00000E+00
 
    0.76675E+06         0.36523E+07         0.00000E+00
    0.36523E+07        -0.18872E+07         0.00000E+00
    0.00000E+00         0.00000E+00         0.00000E+00
 
    0.66634E+06         0.37291E+07         0.00000E+00
    0.37291E+07        -0.18496E+07         0.00000E+00
    0.00000E+00         0.00000E+00         0.00000E+00
 
    0.56548E+06         0.38058E+07         0.00000E+00
    0.38058E+07        -0.18100E+07         0.00000E+00
    0.00000E+00         0.00000E+00         0.00000E+00
 
    0.46411E+06         0.38824E+07         0.00000E+00
    0.38824E+07        -0.17683E+07         0.00000E+00
    0.00000E+00         0.00000E+00         0.00000E+00
 
    0.36216E+06         0.39590E+07         0.00000E+00
    0.39590E+07        -0.17247E+07         0.00000E+00
    0.00000E+00         0.00000E+00         0.00000E+00
 
    0.25957E+06         0.40355E+07         0.00000E+00
    0.40355E+07        -0.16788E+07         0.00000E+00
    0.00000E+00         0.00000E+00         0.00000E+00
 
    0.15627E+06         0.41118E+07         0.00000E+00
    0.41118E+07        -0.16309E+07         0.00000E+00
    0.00000E+00         0.00000E+00         0.00000E+00
 
    0.52222E+05         0.41880E+07         0.00000E+00
    0.41880E+07        -0.15807E+07         0.00000E+00
    0.00000E+00         0.00000E+00         0.00000E+00
 
    0.57457E+07         0.63475E+05         0.00000E+00
    0.63475E+05        -0.27892E+07         0.00000E+00
    0.00000E+00         0.00000E+00         0.00000E+00
 
    0.55839E+07         0.18014E+06         0.00000E+00
    0.18014E+06        -0.27893E+07         0.00000E+00
    0.00000E+00         0.00000E+00         0.00000E+00
 
    0.54249E+07         0.29339E+06         0.00000E+00
    0.29339E+06        -0.27895E+07         0.00000E+00
    0.00000E+00         0.00000E+00         0.00000E+00
 
    0.52686E+07         0.40344E+06         0.00000E+00
    0.40344E+06        -0.27897E+07         0.00000E+00
    0.00000E+00         0.00000E+00         0.00000E+00
 
    0.51152E+07         0.51054E+06         0.00000E+00
    0.51054E+06        -0.27901E+07         0.00000E+00
    0.00000E+00         0.00000E+00         0.00000E+00
 
    0.49645E+07         0.61488E+06         0.00000E+00
    0.61488E+06        -0.27907E+07         0.00000E+00
    0.00000E+00         0.00000E+00         0.00000E+00
 
    0.48167E+07         0.71668E+06         0.00000E+00
    0.71668E+06        -0.27913E+07         0.00000E+00
    0.00000E+00         0.00000E+00         0.00000E+00
 
    0.46716E+07         0.81615E+06         0.00000E+00
    0.81615E+06        -0.27920E+07         0.00000E+00
    0.00000E+00         0.00000E+00         0.00000E+00
 
    0.45293E+07         0.91348E+06         0.00000E+00
    0.91348E+06        -0.27927E+07         0.00000E+00
    0.00000E+00         0.00000E+00         0.00000E+00
 
    0.43897E+07         0.10088E+07         0.00000E+00
    0.10088E+07        -0.27935E+07         0.00000E+00
    0.00000E+00         0.00000E+00         0.00000E+00
 
    0.42528E+07         0.11024E+07         0.00000E+00
    0.11024E+07        -0.27942E+07         0.00000E+00
    0.00000E+00         0.00000E+00         0.00000E+00
 
    0.41185E+07         0.11944E+07         0.00000E+00
    0.11944E+07        -0.27949E+07         0.00000E+00
    0.00000E+00         0.00000E+00         0.00000E+00
 
    0.39867E+07         0.12849E+07         0.00000E+00
    0.12849E+07        -0.27955E+07         0.00000E+00
    0.00000E+00         0.00000E+00         0.00000E+00
 
    0.38575E+07         0.13742E+07         0.00000E+00
    0.13742E+07        -0.27960E+07         0.00000E+00
    0.00000E+00         0.00000E+00         0.00000E+00
 
    0.37307E+07         0.14623E+07         0.00000E+00
    0.14623E+07        -0.27962E+07         0.00000E+00
    0.00000E+00         0.00000E+00         0.00000E+00
 
    0.36062E+07         0.15494E+07         0.00000E+00
    0.15494E+07        -0.27962E+07         0.00000E+00
    0.00000E+00         0.00000E+00         0.00000E+00
 
    0.34840E+07         0.16356E+07         0.00000E+00
    0.16356E+07        -0.27959E+07         0.00000E+00
    0.00000E+00         0.00000E+00         0.00000E+00
 
    0.33639E+07         0.17210E+07         0.00000E+00
    0.17210E+07        -0.27951E+07         0.00000E+00
    0.00000E+00         0.00000E+00         0.00000E+00
 
    0.32460E+07         0.18059E+07         0.00000E+00
    0.18059E+07        -0.27939E+07         0.00000E+00
    0.00000E+00         0.00000E+00         0.00000E+00
 
    0.31300E+07         0.18901E+07         0.00000E+00
    0.18901E+07        -0.27922E+07         0.00000E+00
    0.00000E+00         0.00000E+00         0.00000E+00
 
    0.30159E+07         0.19740E+07         0.00000E+00
    0.19740E+07        -0.27899E+07         0.00000E+00
    0.00000E+00         0.00000E+00         0.00000E+00
 
    0.29036E+07         0.20575E+07         0.00000E+00
    0.20575E+07        -0.27870E+07         0.00000E+00
    0.00000E+00         0.00000E+00         0.00000E+00
 
    0.27929E+07         0.21408E+07         0.00000E+00
    0.21408E+07        -0.27833E+07         0.00000E+00
    0.00000E+00         0.00000E+00         0.00000E+00
 
    0.26838E+07         0.22239E+07         0.00000E+00
    0.22239E+07        -0.27788E+07         0.00000E+00
    0.00000E+00         0.00000E+00         0.00000E+00
 
    0.25762E+07         0.23069E+07         0.00000E+00
    0.23069E+07        -0.27734E+07         0.00000E+00
    0.00000E+00         0.00000E+00         0.00000E+00
 
    0.24700E+07         0.23899E+07         0.00000E+00
    0.23899E+07        -0.27670E+07         0.00000E+00
    0.00000E+00         0.00000E+00         0.00000E+00
 
    0.23650E+07         0.24729E+07         0.00000E+00
    0.24729E+07        -0.27597E+07         0.00000E+00
    0.00000E+00         0.00000E+00         0.00000E+00
 
    0.22611E+07         0.25560E+07         0.00000E+00
    0.25560E+07        -0.27512E+07         0.00000E+00
    0.00000E+00         0.00000E+00         0.00000E+00
 
    0.21583E+07         0.26392E+07         0.00000E+00
    0.26392E+07        -0.27415E+07         0.00000E+00
    0.00000E+00         0.00000E+00         0.00000E+00
 
    0.20563E+07         0.27226E+07         0.00000E+00
    0.27226E+07        -0.27306E+07         0.00000E+00
    0.00000E+00         0.00000E+00         0.00000E+00
 
    0.19552E+07         0.28062E+07         0.00000E+00
    0.28062E+07        -0.27183E+07         0.00000E+00
    0.00000E+00         0.00000E+00         0.00000E+00
 
    0.18548E+07         0.28900E+07         0.00000E+00
    0.28900E+07        -0.27046E+07         0.00000E+00
    0.00000E+00         0.00000E+00         0.00000E+00
 
    0.17549E+07         0.29741E+07         0.00000E+00
    0.29741E+07        -0.26895E+07         0.00000E+00
    0.00000E+00         0.00000E+00         0.00000E+00
 
    0.16556E+07         0.30585E+07         0.00000E+00
    0.30585E+07        -0.26728E+07         0.00000E+00
    0.00000E+00         0.00000E+00         0.00000E+00
 
    0.15566E+07         0.31431E+07         0.00000E+00
    0.31431E+07        -0.26545E+07         0.00000E+00
    0.00000E+00         0.00000E+00         0.00000E+00
 
    0.14579E+07         0.32281E+07         0.00000E+00
    0.32281E+07        -0.26344E+07         0.00000E+00
    0.00000E+00         0.00000E+00         0.00000E+00
 
    0.13594E+07         0.33133E+07         0.00000E+00
    0.33133E+07        -0.26127E+07         0.00000E+00
    0.00000E+00         0.00000E+00         0.00000E+00
 
    0.12609E+07         0.33989E+07         0.00000E+00
    0.33989E+07        -0.25891E+07         0.00000E+00
    0.00000E+00         0.00000E+00         0.00000E+00
 
    0.11625E+07         0.34848E+07         0.00000E+00
    0.34848E+07        -0.25636E+07         0.00000E+00
    0.00000E+00         0.00000E+00         0.00000E+00
 
    0.10639E+07         0.35709E+07         0.00000E+00
    0.35709E+07        -0.25361E+07         0.00000E+00
    0.00000E+00         0.00000E+00         0.00000E+00
 
    0.96509E+06         0.36574E+07         0.00000E+00
    0.36574E+07        -0.25067E+07         0.00000E+00
    0.00000E+00         0.00000E+00         0.00000E+00
 
    0.86599E+06         0.37441E+07         0.00000E+00
    0.37441E+07        -0.24751E+07         0.00000E+00
    0.00000E+00         0.00000E+00         0.00000E+00
 
    0.76650E+06         0.38311E+07         0.00000E+00
    0.38311E+07        -0.24414E+07         0.00000E+00
    0.00000E+00         0.00000E+00         0.00000E+00
 
    0.66654E+06         0.39183E+07         0.00000E+00
    0.39183E+07        -0.24055E+07         0.00000E+00
    0.00000E+00         0.00000E+00         0.00000E+00
 
    0.56602E+06         0.40057E+07         0.00000E+00
    0.40057E+07        -0.23674E+07         0.00000E+00
    0.00000E+00         0.00000E+00         0.00000E+00
 
    0.46487E+06         0.40933E+07         0.00000E+00
    0.40933E+07        -0.23270E+07         0.00000E+00
    0.00000E+00         0.00000E+00         0.00000E+00
 
    0.36301E+06         0.41810E+07         0.00000E+00
    0.41810E+07        -0.22842E+07         0.00000E+00
    0.00000E+00         0.00000E+00         0.00000E+00
 
    0.26037E+06         0.42689E+07         0.00000E+00
    0.42689E+07        -0.22390E+07         0.00000E+00
    0.00000E+00         0.00000E+00         0.00000E+00
 
    0.15687E+06         0.43568E+07         0.00000E+00
    0.43568E+07        -0.21914E+07         0.00000E+00
    0.00000E+00         0.00000E+00         0.00000E+00
 
    0.52448E+05         0.44448E+07         0.00000E+00
    0.44448E+07        -0.21413E+07         0.00000E+00
    0.00000E+00         0.00000E+00         0.00000E+00
 
    0.58615E+07         0.62768E+05         0.00000E+00
    0.62768E+05        -0.32632E+07         0.00000E+00
    0.00000E+00         0.00000E+00         0.00000E+00
 
    0.56819E+07         0.17777E+06         0.00000E+00
    0.17777E+06        -0.32638E+07         0.00000E+00
    0.00000E+00         0.00000E+00         0.00000E+00
 
    0.55063E+07         0.28934E+06         0.00000E+00
    0.28934E+06        -0.32649E+07         0.00000E+00
    0.00000E+00         0.00000E+00         0.00000E+00
 
    0.53347E+07         0.39773E+06         0.00000E+00
    0.39773E+06        -0.32666E+07         0.00000E+00
    0.00000E+00         0.00000E+00         0.00000E+00
 
    0.51671E+07         0.50322E+06         0.00000E+00
    0.50322E+06        -0.32689E+07         0.00000E+00
    0.00000E+00         0.00000E+00         0.00000E+00
 
    0.50035E+07         0.60605E+06         0.00000E+00
    0.60605E+06        -0.32717E+07         0.00000E+00
    0.00000E+00         0.00000E+00         0.00000E+00
 
    0.48438E+07         0.70649E+06         0.00000E+00
    0.70649E+06        -0.32750E+07         0.00000E+00
    0.00000E+00         0.00000E+00         0.00000E+00
 
    0.46879E+07         0.80476E+06         0.00000E+00
    0.80476E+06        -0.32787E+07         0.00000E+00
    0.00000E+00         0.00000E+00         0.00000E+00
 
    0.45359E+07         0.90108E+06         0.00000E+00
    0.90108E+06        -0.32829E+07         0.00000E+00
    0.00000E+00         0.00000E+00         0.00000E+00
 
    0.43875E+07         0.99567E+06         0.00000E+00
    0.99567E+06        -0.32873E+07         0.00000E+00
    0.00000E+00         0.00000E+00         0.00000E+00
 
    0.42427E+07         0.10887E+07         0.00000E+00
    0.10887E+07        -0.32921E+07         0.00000E+00
    0.00000E+00         0.00000E+00         0.00000E+00
 
    0.41015E+07         0.11805E+07         0.00000E+00
    0.11805E+07        -0.32970E+07         0.00000E+00
    0.00000E+00         0.00000E+00         0.00000E+00
 
    0.39636E+07         0.12711E+07         0.00000E+00
    0.12711E+07        -0.33022E+07         0.00000E+00
    0.00000E+00         0.00000E+00         0.00000E+00
 
    0.38291E+07         0.13607E+07         0.00000E+00
    0.13607E+07        -0.33073E+07         0.00000E+00
    0.00000E+00         0.00000E+00         0.00000E+00
 
    0.36977E+07         0.14495E+07         0.00000E+00
    0.14495E+07        -0.33125E+07         0.00000E+00
    0.00000E+00         0.00000E+00         0.00000E+00
 
    0.35694E+07         0.15377E+07         0.00000E+00
    0.15377E+07        -0.33176E+07         0.00000E+00
    0.00000E+00         0.00000E+00         0.00000E+00
 
    0.34440E+07         0.16253E+07         0.00000E+00
    0.16253E+07        -0.33225E+07         0.00000E+00
    0.00000E+00         0.00000E+00         0.00000E+00
 
    0.33214E+07         0.17126E+07         0.00000E+00
    0.17126E+07        -0.33271E+07         0.00000E+00
    0.00000E+00         0.00000E+00         0.00000E+00
 
    0.32014E+07         0.17996E+07         0.00000E+00
    0.17996E+07        -0.33314E+07         0.00000E+00
    0.00000E+00         0.00000E+00         0.00000E+00
 
    0.30840E+07         0.18865E+07         0.00000E+00
    0.18865E+07        -0.33353E+07         0.00000E+00
    0.00000E+00         0.00000E+00         0.00000E+00
 
    0.29690E+07         0.19734E+07         0.00000E+00
    0.19734E+07        -0.33386E+07         0.00000E+00
    0.00000E+00         0.00000E+00         0.00000E+00
 
    0.28562E+07         0.20603E+07         0.00000E+00
    0.20603E+07        -0.33414E+07         0.00000E+00
    0.00000E+00         0.00000E+00         0.00000E+00
 
    0.27455E+07         0.21474E+07         0.00000E+00
    0.21474E+07        -0.33434E+07         0.00000E+00
    0.00000E+00         0.00000E+00         0.00000E+00
 
    0.26368E+07         0.22348E+07         0.00000E+00
    0.22348E+07        -0.33446E+07         0.00000E+00
    0.00000E+00         0.00000E+00         0.00000E+00
 
    0.25299E+07         0.23225E+07         0.00000E+00
    0.23225E+07        -0.33448E+07         0.00000E+00
    0.00000E+00         0.00000E+00         0.00000E+00
 
    0.24247E+07         0.24105E+07         0.00000E+00
    0.24105E+07        -0.33441E+07         0.00000E+00
    0.00000E+00         0.00000E+00         0.00000E+00
 
    0.23209E+07         0.24990E+07         0.00000E+00
    0.24990E+07        -0.33424E+07         0.00000E+00
    0.00000E+00         0.00000E+00         0.00000E+00
 
    0.22186E+07         0.25881E+07         0.00000E+00
    0.25881E+07        -0.33394E+07         0.00000E+00
    0.00000E+00         0.00000E+00         0.00000E+00
 
    0.21175E+07         0.26776E+07         0.00000E+00
    0.26776E+07        -0.33351E+07         0.00000E+00
    0.00000E+00         0.00000E+00         0.00000E+00
 
    0.20175E+07         0.27678E+07         0.00000E+00
    0.27678E+07        -0.33295E+07         0.00000E+00
    0.00000E+00         0.00000E+00         0.00000E+00
 
    0.19185E+07         0.28585E+07         0.00000E+00
    0.28585E+07        -0.33225E+07         0.00000E+00
    0.00000E+00         0.00000E+00         0.00000E+00
 
    0.18203E+07         0.29499E+07         0.00000E+00
    0.29499E+07        -0.33139E+07         0.00000E+00
    0.00000E+00         0.00000E+00         0.00000E+00
 
    0.17227E+07         0.30420E+07         0.00000E+00
    0.30420E+07        -0.33036E+07         0.00000E+00
    0.00000E+00         0.00000E+00         0.00000E+00
 
    0.16257E+07         0.31347E+07         0.00000E+00
    0.31347E+07        -0.32917E+07         0.00000E+00
    0.00000E+00         0.00000E+00         0.00000E+00
 
    0.15292E+07         0.32281E+07         0.00000E+00
    0.32281E+07        -0.32779E+07         0.00000E+00
    0.00000E+00         0.00000E+00         0.00000E+00
 
    0.14329E+07         0.33221E+07         0.00000E+00
    0.33221E+07        -0.32623E+07         0.00000E+00
    0.00000E+00         0.00000E+00         0.00000E+00
 
    0.13368E+07         0.34169E+07         0.00000E+00
    0.34169E+07        -0.32447E+07         0.00000E+00
    0.00000E+00         0.00000E+00         0.00000E+00
 
    0.12408E+07         0.35123E+07         0.00000E+00
    0.35123E+07        -0.32250E+07         0.00000E+00
    0.00000E+00         0.00000E+00         0.00000E+00
 
    0.11447E+07         0.36084E+07         0.00000E+00
    0.36084E+07        -0.32033E+07         0.00000E+00
    0.00000E+00         0.00000E+00         0.00000E+00
 
    0.10483E+07         0.37051E+07         0.00000E+00
    0.37051E+07        -0.31793E+07         0.00000E+00
    0.00000E+00         0.00000E+00         0.00000E+00
 
    0.95174E+06         0.38024E+07         0.00000E+00
    0.38024E+07        -0.31531E+07         0.00000E+00
    0.00000E+00         0.00000E+00         0.00000E+00
 
    0.85472E+06         0.39003E+07         0.00000E+00
    0.39003E+07        -0.31245E+07         0.00000E+00
    0.00000E+00         0.00000E+00         0.00000E+00
 
    0.75720E+06         0.39988E+07         0.00000E+00
    0.39988E+07        -0.30935E+07         0.00000E+00
    0.00000E+00         0.00000E+00         0.00000E+00
 
    0.65905E+06         0.40978E+07         0.00000E+00
    0.40978E+07        -0.30600E+07         0.00000E+00
    0.00000E+00         0.00000E+00         0.00000E+00
 
    0.56020E+06         0.41974E+07         0.00000E+00
    0.41974E+07        -0.30240E+07         0.00000E+00
    0.00000E+00         0.00000E+00         0.00000E+00
 
    0.46054E+06         0.42973E+07         0.00000E+00
    0.42973E+07        -0.29854E+07         0.00000E+00
    0.00000E+00         0.00000E+00         0.00000E+00
 
    0.36000E+06         0.43977E+07         0.00000E+00
    0.43977E+07        -0.29442E+07         0.00000E+00
    0.00000E+00         0.00000E+00         0.00000E+00
 
    0.25847E+06         0.44985E+07         0.00000E+00
    0.44985E+07        -0.29002E+07         0.00000E+00
    0.00000E+00         0.00000E+00         0.00000E+00
 
    0.15588E+06         0.45996E+07         0.00000E+00
    0.45996E+07        -0.28535E+07         0.00000E+00
    0.00000E+00         0.00000E+00         0.00000E+00
 
    0.52155E+05         0.47009E+07         0.00000E+00
    0.47009E+07        -0.28039E+07         0.00000E+00
    0.00000E+00         0.00000E+00         0.00000E+00
 
    0.58902E+07         0.60544E+05         0.00000E+00
    0.60544E+05        -0.38094E+07         0.00000E+00
    0.00000E+00         0.00000E+00         0.00000E+00
 
    0.56928E+07         0.17119E+06         0.00000E+00
    0.17119E+06        -0.38106E+07         0.00000E+00
    0.00000E+00         0.00000E+00         0.00000E+00
 
    0.55009E+07         0.27848E+06         0.00000E+00
    0.27848E+06        -0.38130E+07         0.00000E+00
    0.00000E+00         0.00000E+00         0.00000E+00
 
    0.53145E+07         0.38275E+06         0.00000E+00
    0.38275E+06        -0.38165E+07         0.00000E+00
    0.00000E+00         0.00000E+00         0.00000E+00
 
    0.51335E+07         0.48431E+06         0.00000E+00
    0.48431E+06        -0.38211E+07         0.00000E+00
    0.00000E+00         0.00000E+00         0.00000E+00
 
    0.49578E+07         0.58345E+06         0.00000E+00
    0.58345E+06        -0.38267E+07         0.00000E+00
    0.00000E+00         0.00000E+00         0.00000E+00
 
    0.47873E+07         0.68046E+06         0.00000E+00
    0.68046E+06        -0.38332E+07         0.00000E+00
    0.00000E+00         0.00000E+00         0.00000E+00
 
    0.46220E+07         0.77560E+06         0.00000E+00
    0.77560E+06        -0.38406E+07         0.00000E+00
    0.00000E+00         0.00000E+00         0.00000E+00
 
    0.44615E+07         0.86913E+06         0.00000E+00
    0.86913E+06        -0.38488E+07         0.00000E+00
    0.00000E+00         0.00000E+00         0.00000E+00
 
    0.43059E+07         0.96129E+06         0.00000E+00
    0.96129E+06        -0.38578E+07         0.00000E+00
    0.00000E+00         0.00000E+00         0.00000E+00
 
    0.41549E+07         0.10523E+07         0.00000E+00
    0.10523E+07        -0.38673E+07         0.00000E+00
    0.00000E+00         0.00000E+00         0.00000E+00
 
    0.40085E+07         0.11424E+07         0.00000E+00
    0.11424E+07        -0.38774E+07         0.00000E+00
    0.00000E+00         0.00000E+00         0.00000E+00
 
    0.38664E+07         0.12318E+07         0.00000E+00
    0.12318E+07        -0.38879E+07         0.00000E+00
    0.00000E+00         0.00000E+00         0.00000E+00
 
    0.37285E+07         0.13207E+07         0.00000E+00
    0.13207E+07        -0.38988E+07         0.00000E+00
    0.00000E+00         0.00000E+00         0.00000E+00
 
    0.35946E+07         0.14092E+07         0.00000E+00
    0.14092E+07        -0.39098E+07         0.00000E+00
    0.00000E+00         0.00000E+00         0.00000E+00
 
    0.34645E+07         0.14976E+07         0.00000E+00
    0.14976E+07        -0.39210E+07         0.00000E+00
    0.00000E+00         0.00000E+00         0.00000E+00
 
    0.33381E+07         0.15859E+07         0.00000E+00
    0.15859E+07        -0.39321E+07         0.00000E+00
    0.00000E+00         0.00000E+00         0.00000E+00
 
    0.32152E+07         0.16744E+07         0.00000E+00
    0.16744E+07        -0.39432E+07         0.00000E+00
    0.00000E+00         0.00000E+00         0.00000E+00
 
    0.30955E+07         0.17631E+07         0.00000E+00
    0.17631E+07        -0.39540E+07         0.00000E+00
    0.00000E+00         0.00000E+00         0.00000E+00
 
    0.29790E+07         0.18522E+07         0.00000E+00
    0.18522E+07        -0.39645E+07         0.00000E+00
    0.00000E+00         0.00000E+00         0.00000E+00
 
    0.28653E+07         0.19418E+07         0.00000E+00
    0.19418E+07        -0.39745E+07         0.00000E+00
    0.00000E+00         0.00000E+00         0.00000E+00
 
    0.27544E+07         0.20320E+07         0.00000E+00
    0.20320E+07        -0.39840E+07         0.00000E+00
    0.00000E+00         0.00000E+00         0.00000E+00
 
    0.26461E+07         0.21228E+07         0.00000E+00
    0.21228E+07        -0.39928E+07         0.00000E+00
    0.00000E+00         0.00000E+00         0.00000E+00
 
    0.25400E+07         0.22145E+07         0.00000E+00
    0.22145E+07        -0.40007E+07         0.00000E+00
    0.00000E+00         0.00000E+00         0.00000E+00
 
    0.24362E+07         0.23070E+07         0.00000E+00
    0.23070E+07        -0.40077E+07         0.00000E+00
    0.00000E+00         0.00000E+00         0.00000E+00
 
    0.23343E+07         0.24004E+07         0.00000E+00
    0.24004E+07        -0.40138E+07         0.00000E+00
    0.00000E+00         0.00000E+00         0.00000E+00
 
    0.22342E+07         0.24948E+07         0.00000E+00
    0.24948E+07        -0.40186E+07         0.00000E+00
    0.00000E+00         0.00000E+00         0.00000E+00
 
    0.21357E+07         0.25901E+07         0.00000E+00
    0.25901E+07        -0.40222E+07         0.00000E+00
    0.00000E+00         0.00000E+00         0.00000E+00
 
    0.20386E+07         0.26866E+07         0.00000E+00
    0.26866E+07        -0.40244E+07         0.00000E+00
    0.00000E+00         0.00000E+00         0.00000E+00
 
    0.19428E+07         0.27841E+07         0.00000E+00
    0.27841E+07        -0.40251E+07         0.00000E+00
    0.00000E+00         0.00000E+00         0.00000E+00
 
    0.18481E+07         0.28827E+07         0.00000E+00
    0.28827E+07        -0.40243E+07         0.00000E+00
    0.00000E+00         0.00000E+00         0.00000E+00
 
    0.17543E+07         0.29824E+07         0.00000E+00
    0.29824E+07        -0.40217E+07         0.00000E+00
    0.00000E+00         0.00000E+00         0.00000E+00
 
    0.16612E+07         0.30832E+07         0.00000E+00
    0.30832E+07        -0.40174E+07         0.00000E+00
    0.00000E+00         0.00000E+00         0.00000E+00
 
    0.15687E+07         0.31852E+07         0.00000E+00
    0.31852E+07        -0.40111E+07         0.00000E+00
    0.00000E+00         0.00000E+00         0.00000E+00
 
    0.14766E+07         0.32884E+07         0.00000E+00
    0.32884E+07        -0.40029E+07         0.00000E+00
    0.00000E+00         0.00000E+00         0.00000E+00
 
    0.13848E+07         0.33926E+07         0.00000E+00
    0.33926E+07        -0.39925E+07         0.00000E+00
    0.00000E+00         0.00000E+00         0.00000E+00
 
    0.12931E+07         0.34979E+07         0.00000E+00
    0.34979E+07        -0.39800E+07         0.00000E+00
    0.00000E+00         0.00000E+00         0.00000E+00
 
    0.12014E+07         0.36044E+07         0.00000E+00
    0.36044E+07        -0.39651E+07         0.00000E+00
    0.00000E+00         0.00000E+00         0.00000E+00
 
    0.11095E+07         0.37119E+07         0.00000E+00
    0.37119E+07        -0.39479E+07         0.00000E+00
    0.00000E+00         0.00000E+00         0.00000E+00
 
    0.10173E+07         0.38204E+07         0.00000E+00
    0.38204E+07        -0.39283E+07         0.00000E+00
    0.00000E+00         0.00000E+00         0.00000E+00
 
    0.92465E+06         0.39300E+07         0.00000E+00
    0.39300E+07        -0.39061E+07         0.00000E+00
    0.00000E+00         0.00000E+00         0.00000E+00
 
    0.83142E+06         0.40405E+07         0.00000E+00
    0.40405E+07        -0.38813E+07         0.00000E+00
    0.00000E+00         0.00000E+00         0.00000E+00
 
    0.73750E+06         0.41519E+07         0.00000E+00
    0.41519E+07        -0.38537E+07         0.00000E+00
    0.00000E+00         0.00000E+00         0.00000E+00
 
    0.64277E+06         0.42642E+07         0.00000E+00
    0.42642E+07        -0.38234E+07         0.00000E+00
    0.00000E+00         0.00000E+00         0.00000E+00
 
    0.54711E+06         0.43774E+07         0.00000E+00
    0.43774E+07        -0.37903E+07         0.00000E+00
    0.00000E+00         0.00000E+00         0.00000E+00
 
    0.45041E+06         0.44913E+07         0.00000E+00
    0.44913E+07        -0.37542E+07         0.00000E+00
    0.00000E+00         0.00000E+00         0.00000E+00
 
    0.35257E+06         0.46059E+07         0.00000E+00
    0.46059E+07        -0.37151E+07         0.00000E+00
    0.00000E+00         0.00000E+00         0.00000E+00
 
    0.25350E+06         0.47212E+07         0.00000E+00
    0.47212E+07        -0.36730E+07         0.00000E+00
    0.00000E+00         0.00000E+00         0.00000E+00
 
    0.15310E+06         0.48371E+07         0.00000E+00
    0.48371E+07        -0.36278E+07         0.00000E+00
    0.00000E+00         0.00000E+00         0.00000E+00
 
    0.51276E+05         0.49536E+07         0.00000E+00
    0.49536E+07        -0.35794E+07         0.00000E+00
    0.00000E+00         0.00000E+00         0.00000E+00
 
    0.58075E+07         0.56456E+05         0.00000E+00
    0.56456E+05        -0.44370E+07         0.00000E+00
    0.00000E+00         0.00000E+00         0.00000E+00
 
    0.55931E+07         0.15945E+06         0.00000E+00
    0.15945E+06        -0.44389E+07         0.00000E+00
    0.00000E+00         0.00000E+00         0.00000E+00
 
    0.53859E+07         0.25938E+06         0.00000E+00
    0.25938E+06        -0.44428E+07         0.00000E+00
    0.00000E+00         0.00000E+00         0.00000E+00
 
    0.51860E+07         0.35659E+06         0.00000E+00
    0.35659E+06        -0.44484E+07         0.00000E+00
    0.00000E+00         0.00000E+00         0.00000E+00
 
    0.49930E+07         0.45145E+06         0.00000E+00
    0.45145E+06        -0.44557E+07         0.00000E+00
    0.00000E+00         0.00000E+00         0.00000E+00
 
    0.48070E+07         0.54430E+06         0.00000E+00
    0.54430E+06        -0.44646E+07         0.00000E+00
    0.00000E+00         0.00000E+00         0.00000E+00
 
    0.46276E+07         0.63545E+06         0.00000E+00
    0.63545E+06        -0.44750E+07         0.00000E+00
    0.00000E+00         0.00000E+00         0.00000E+00
 
    0.44546E+07         0.72521E+06         0.00000E+00
    0.72521E+06        -0.44868E+07         0.00000E+00
    0.00000E+00         0.00000E+00         0.00000E+00
 
    0.42880E+07         0.81386E+06         0.00000E+00
    0.81386E+06        -0.44998E+07         0.00000E+00
    0.00000E+00         0.00000E+00         0.00000E+00
 
    0.41274E+07         0.90167E+06         0.00000E+00
    0.90167E+06        -0.45140E+07         0.00000E+00
    0.00000E+00         0.00000E+00         0.00000E+00
 
    0.39726E+07         0.98889E+06         0.00000E+00
    0.98889E+06        -0.45292E+07         0.00000E+00
    0.00000E+00         0.00000E+00         0.00000E+00
 
    0.38235E+07         0.10758E+07         0.00000E+00
    0.10758E+07        -0.45453E+07         0.00000E+00
    0.00000E+00         0.00000E+00         0.00000E+00
 
    0.36798E+07         0.11625E+07         0.00000E+00
    0.11625E+07        -0.45622E+07         0.00000E+00
    0.00000E+00         0.00000E+00         0.00000E+00
 
    0.35411E+07         0.12494E+07         0.00000E+00
    0.12494E+07        -0.45796E+07         0.00000E+00
    0.00000E+00         0.00000E+00         0.00000E+00
 
    0.34075E+07         0.13365E+07         0.00000E+00
    0.13365E+07        -0.45976E+07         0.00000E+00
    0.00000E+00         0.00000E+00         0.00000E+00
 
    0.32784E+07         0.14240E+07         0.00000E+00
    0.14240E+07        -0.46158E+07         0.00000E+00
    0.00000E+00         0.00000E+00         0.00000E+00
 
    0.31538E+07         0.15122E+07         0.00000E+00
    0.15122E+07        -0.46343E+07         0.00000E+00
    0.00000E+00         0.00000E+00         0.00000E+00
 
    0.30334E+07         0.16011E+07         0.00000E+00
    0.16011E+07        -0.46528E+07         0.00000E+00
    0.00000E+00         0.00000E+00         0.00000E+00
 
    0.29169E+07         0.16910E+07         0.00000E+00
    0.16910E+07        -0.46712E+07         0.00000E+00
    0.00000E+00         0.00000E+00         0.00000E+00
 
    0.28041E+07         0.17819E+07         0.00000E+00
    0.17819E+07        -0.46894E+07         0.00000E+00
    0.00000E+00         0.00000E+00         0.00000E+00
 
    0.26948E+07         0.18739E+07         0.00000E+00
    0.18739E+07        -0.47072E+07         0.00000E+00
    0.00000E+00         0.00000E+00         0.00000E+00
 
    0.25887E+07         0.19671E+07         0.00000E+00
    0.19671E+07        -0.47245E+07         0.00000E+00
    0.00000E+00         0.00000E+00         0.00000E+00
 
    0.24855E+07         0.20617E+07         0.00000E+00
    0.20617E+07        -0.47411E+07         0.00000E+00
    0.00000E+00         0.00000E+00         0.00000E+00
 
    0.23850E+07         0.21577E+07         0.00000E+00
    0.21577E+07        -0.47569E+07         0.00000E+00
    0.00000E+00         0.00000E+00         0.00000E+00
 
    0.22871E+07         0.22552E+07         0.00000E+00
    0.22552E+07        -0.47717E+07         0.00000E+00
    0.00000E+00         0.00000E+00         0.00000E+00
 
    0.21914E+07         0.23542E+07         0.00000E+00
    0.23542E+07        -0.47855E+07         0.00000E+00
    0.00000E+00         0.00000E+00         0.00000E+00
 
    0.20977E+07         0.24548E+07         0.00000E+00
    0.24548E+07        -0.47981E+07         0.00000E+00
    0.00000E+00         0.00000E+00         0.00000E+00
 
    0.20058E+07         0.25570E+07         0.00000E+00
    0.25570E+07        -0.48093E+07         0.00000E+00
    0.00000E+00         0.00000E+00         0.00000E+00
 
    0.19155E+07         0.26609E+07         0.00000E+00
    0.26609E+07        -0.48190E+07         0.00000E+00
    0.00000E+00         0.00000E+00         0.00000E+00
 
    0.18266E+07         0.27664E+07         0.00000E+00
    0.27664E+07        -0.48271E+07         0.00000E+00
    0.00000E+00         0.00000E+00         0.00000E+00
 
    0.17389E+07         0.28736E+07         0.00000E+00
    0.28736E+07        -0.48335E+07         0.00000E+00
    0.00000E+00         0.00000E+00         0.00000E+00
 
    0.16520E+07         0.29825E+07         0.00000E+00
    0.29825E+07        -0.48380E+07         0.00000E+00
    0.00000E+00         0.00000E+00         0.00000E+00
 
    0.15660E+07         0.30931E+07         0.00000E+00
    0.30931E+07        -0.48405E+07         0.00000E+00
    0.00000E+00         0.00000E+00         0.00000E+00
 
    0.14804E+07         0.32054E+07         0.00000E+00
    0.32054E+07        -0.48409E+07         0.00000E+00
    0.00000E+00         0.00000E+00         0.00000E+00
 
    0.13953E+07         0.33193E+07         0.00000E+00
    0.33193E+07        -0.48391E+07         0.00000E+00
    0.00000E+00         0.00000E+00         0.00000E+00
 
    0.13103E+07         0.34349E+07         0.00000E+00
    0.34349E+07        -0.48349E+07         0.00000E+00
    0.00000E+00         0.00000E+00         0.00000E+00
 
    0.12253E+07         0.35520E+07         0.00000E+00
    0.35520E+07        -0.48284E+07         0.00000E+00
    0.00000E+00         0.00000E+00         0.00000E+00
 
    0.11401E+07         0.36707E+07         0.00000E+00
    0.36707E+07        -0.48193E+07         0.00000E+00
    0.00000E+00         0.00000E+00         0.00000E+00
 
    0.10546E+07         0.37910E+07         0.00000E+00
    0.37910E+07        -0.48075E+07         0.00000E+00
    0.00000E+00         0.00000E+00         0.00000E+00
 
    0.96860E+06         0.39128E+07         0.00000E+00
    0.39128E+07        -0.47930E+07         0.00000E+00
    0.00000E+00         0.00000E+00         0.00000E+00
 
    0.88193E+06         0.40360E+07         0.00000E+00
    0.40360E+07        -0.47757E+07         0.00000E+00
    0.00000E+00         0.00000E+00         0.00000E+00
 
    0.79445E+06         0.41606E+07         0.00000E+00
    0.41606E+07        -0.47555E+07         0.00000E+00
    0.00000E+00         0.00000E+00         0.00000E+00
 
    0.70602E+06         0.42865E+07         0.00000E+00
    0.42865E+07        -0.47322E+07         0.00000E+00
    0.00000E+00         0.00000E+00         0.00000E+00
 
    0.61651E+06         0.44137E+07         0.00000E+00
    0.44137E+07        -0.47059E+07         0.00000E+00
    0.00000E+00         0.00000E+00         0.00000E+00
 
    0.52578E+06         0.45421E+07         0.00000E+00
    0.45421E+07        -0.46763E+07         0.00000E+00
    0.00000E+00         0.00000E+00         0.00000E+00
 
    0.43370E+06         0.46716E+07         0.00000E+00
    0.46716E+07        -0.46435E+07         0.00000E+00
    0.00000E+00         0.00000E+00         0.00000E+00
 
    0.34017E+06         0.48022E+07         0.00000E+00
    0.48022E+07        -0.46074E+07         0.00000E+00
    0.00000E+00         0.00000E+00         0.00000E+00
 
    0.24507E+06         0.49338E+07         0.00000E+00
    0.49338E+07        -0.45678E+07         0.00000E+00
    0.00000E+00         0.00000E+00         0.00000E+00
 
    0.14829E+06         0.50663E+07         0.00000E+00
    0.50663E+07        -0.45248E+07         0.00000E+00
    0.00000E+00         0.00000E+00         0.00000E+00
 
    0.49734E+05         0.51997E+07         0.00000E+00
    0.51997E+07        -0.44783E+07         0.00000E+00
    0.00000E+00         0.00000E+00         0.00000E+00
 
    0.55856E+07         0.50122E+05         0.00000E+00
    0.50122E+05        -0.51553E+07         0.00000E+00
    0.00000E+00         0.00000E+00         0.00000E+00
 
    0.53559E+07         0.14160E+06         0.00000E+00
    0.14160E+06        -0.51582E+07         0.00000E+00
    0.00000E+00         0.00000E+00         0.00000E+00
 
    0.51355E+07         0.23049E+06         0.00000E+00
    0.23049E+06        -0.51637E+07         0.00000E+00
    0.00000E+00         0.00000E+00         0.00000E+00
 
    0.49242E+07         0.31721E+06         0.00000E+00
    0.31721E+06        -0.51718E+07         0.00000E+00
    0.00000E+00         0.00000E+00         0.00000E+00
 
    0.47218E+07         0.40215E+06         0.00000E+00
    0.40215E+06        -0.51823E+07         0.00000E+00
    0.00000E+00         0.00000E+00         0.00000E+00
 
    0.45279E+07         0.48570E+06         0.00000E+00
    0.48570E+06        -0.51951E+07         0.00000E+00
    0.00000E+00         0.00000E+00         0.00000E+00
 
    0.43424E+07         0.56821E+06         0.00000E+00
    0.56821E+06        -0.52100E+07         0.00000E+00
    0.00000E+00         0.00000E+00         0.00000E+00
 
    0.41648E+07         0.64999E+06         0.00000E+00
    0.64999E+06        -0.52268E+07         0.00000E+00
    0.00000E+00         0.00000E+00         0.00000E+00
 
    0.39950E+07         0.73138E+06         0.00000E+00
    0.73138E+06        -0.52454E+07         0.00000E+00
    0.00000E+00         0.00000E+00         0.00000E+00
 
    0.38326E+07         0.81265E+06         0.00000E+00
    0.81265E+06        -0.52657E+07         0.00000E+00
    0.00000E+00         0.00000E+00         0.00000E+00
 
    0.36774E+07         0.89409E+06         0.00000E+00
    0.89409E+06        -0.52874E+07         0.00000E+00
    0.00000E+00         0.00000E+00         0.00000E+00
 
    0.35289E+07         0.97594E+06         0.00000E+00
    0.97594E+06        -0.53104E+07         0.00000E+00
    0.00000E+00         0.00000E+00         0.00000E+00
 
    0.33869E+07         0.10584E+07         0.00000E+00
    0.10584E+07        -0.53345E+07         0.00000E+00
    0.00000E+00         0.00000E+00         0.00000E+00
 
    0.32511E+07         0.11418E+07         0.00000E+00
    0.11418E+07        -0.53595E+07         0.00000E+00
    0.00000E+00         0.00000E+00         0.00000E+00
 
    0.31211E+07         0.12262E+07         0.00000E+00
    0.12262E+07        -0.53853E+07         0.00000E+00
    0.00000E+00         0.00000E+00         0.00000E+00
 
    0.29967E+07         0.13119E+07         0.00000E+00
    0.13119E+07        -0.54116E+07         0.00000E+00
    0.00000E+00         0.00000E+00         0.00000E+00
 
    0.28775E+07         0.13990E+07         0.00000E+00
    0.13990E+07        -0.54384E+07         0.00000E+00
    0.00000E+00         0.00000E+00         0.00000E+00
 
    0.27632E+07         0.14876E+07         0.00000E+00
    0.14876E+07        -0.54654E+07         0.00000E+00
    0.00000E+00         0.00000E+00         0.00000E+00
 
    0.26534E+07         0.15780E+07         0.00000E+00
    0.15780E+07        -0.54925E+07         0.00000E+00
    0.00000E+00         0.00000E+00         0.00000E+00
 
    0.25480E+07         0.16702E+07         0.00000E+00
    0.16702E+07        -0.55194E+07         0.00000E+00
    0.00000E+00         0.00000E+00         0.00000E+00
 
    0.24465E+07         0.17643E+07         0.00000E+00
    0.17643E+07        -0.55460E+07         0.00000E+00
    0.00000E+00         0.00000E+00         0.00000E+00
 
    0.23487E+07         0.18604E+07         0.00000E+00
    0.18604E+07        -0.55722E+07         0.00000E+00
    0.00000E+00         0.00000E+00         0.00000E+00
 
    0.22543E+07         0.19587E+07         0.00000E+00
    0.19587E+07        -0.55977E+07         0.00000E+00
    0.00000E+00         0.00000E+00         0.00000E+00
 
    0.21629E+07         0.20591E+07         0.00000E+00
    0.20591E+07        -0.56224E+07         0.00000E+00
    0.00000E+00         0.00000E+00         0.00000E+00
 
    0.20743E+07         0.21618E+07         0.00000E+00
    0.21618E+07        -0.56461E+07         0.00000E+00
    0.00000E+00         0.00000E+00         0.00000E+00
 
    0.19882E+07         0.22667E+07         0.00000E+00
    0.22667E+07        -0.56687E+07         0.00000E+00
    0.00000E+00         0.00000E+00         0.00000E+00
 
    0.19043E+07         0.23739E+07         0.00000E+00
    0.23739E+07        -0.56900E+07         0.00000E+00
    0.00000E+00         0.00000E+00         0.00000E+00
 
    0.18224E+07         0.24835E+07         0.00000E+00
    0.24835E+07        -0.57098E+07         0.00000E+00
    0.00000E+00         0.00000E+00         0.00000E+00
 
    0.17421E+07         0.25955E+07         0.00000E+00
    0.25955E+07        -0.57281E+07         0.00000E+00
    0.00000E+00         0.00000E+00         0.00000E+00
 
    0.16632E+07         0.27098E+07         0.00000E+00
    0.27098E+07        -0.57446E+07         0.00000E+00
    0.00000E+00         0.00000E+00         0.00000E+00
 
    0.15855E+07         0.28264E+07         0.00000E+00
    0.28264E+07        -0.57591E+07         0.00000E+00
    0.00000E+00         0.00000E+00         0.00000E+00
 
    0.15086E+07         0.29454E+07         0.00000E+00
    0.29454E+07        -0.57717E+07         0.00000E+00
    0.00000E+00         0.00000E+00         0.00000E+00
 
    0.14325E+07         0.30667E+07         0.00000E+00
    0.30667E+07        -0.57820E+07         0.00000E+00
    0.00000E+00         0.00000E+00         0.00000E+00
 
    0.13568E+07         0.31903E+07         0.00000E+00
    0.31903E+07        -0.57901E+07         0.00000E+00
    0.00000E+00         0.00000E+00         0.00000E+00
 
    0.12813E+07         0.33162E+07         0.00000E+00
    0.33162E+07        -0.57956E+07         0.00000E+00
    0.00000E+00         0.00000E+00         0.00000E+00
 
    0.12059E+07         0.34443E+07         0.00000E+00
    0.34443E+07        -0.57987E+07         0.00000E+00
    0.00000E+00         0.00000E+00         0.00000E+00
 
    0.11302E+07         0.35745E+07         0.00000E+00
    0.35745E+07        -0.57990E+07         0.00000E+00
    0.00000E+00         0.00000E+00         0.00000E+00
 
    0.10541E+07         0.37069E+07         0.00000E+00
    0.37069E+07        -0.57965E+07         0.00000E+00
    0.00000E+00         0.00000E+00         0.00000E+00
 
    0.97744E+06         0.38414E+07         0.00000E+00
    0.38414E+07        -0.57911E+07         0.00000E+00
    0.00000E+00         0.00000E+00         0.00000E+00
 
    0.89999E+06         0.39778E+07         0.00000E+00
    0.39778E+07        -0.57827E+07         0.00000E+00
    0.00000E+00         0.00000E+00         0.00000E+00
 
    0.82159E+06         0.41162E+07         0.00000E+00
    0.41162E+07        -0.57711E+07         0.00000E+00
    0.00000E+00         0.00000E+00         0.00000E+00
 
    0.74206E+06         0.42564E+07         0.00000E+00
    0.42564E+07        -0.57563E+07         0.00000E+00
    0.00000E+00         0.00000E+00         0.00000E+00
 
    0.66125E+06         0.43984E+07         0.00000E+00
    0.43984E+07        -0.57381E+07         0.00000E+00
    0.00000E+00         0.00000E+00         0.00000E+00
 
    0.57900E+06         0.45422E+07         0.00000E+00
    0.45422E+07        -0.57165E+07         0.00000E+00
    0.00000E+00         0.00000E+00         0.00000E+00
 
    0.49516E+06         0.46875E+07         0.00000E+00
    0.46875E+07        -0.56914E+07         0.00000E+00
    0.00000E+00         0.00000E+00         0.00000E+00
 
    0.40959E+06         0.48345E+07         0.00000E+00
    0.48345E+07        -0.56627E+07         0.00000E+00
    0.00000E+00         0.00000E+00         0.00000E+00
 
    0.32215E+06         0.49828E+07         0.00000E+00
    0.49828E+07        -0.56302E+07         0.00000E+00
    0.00000E+00         0.00000E+00         0.00000E+00
 
    0.23273E+06         0.51326E+07         0.00000E+00
    0.51326E+07        -0.55940E+07         0.00000E+00
    0.00000E+00         0.00000E+00         0.00000E+00
 
    0.14120E+06         0.52836E+07         0.00000E+00
    0.52836E+07        -0.55540E+07         0.00000E+00
    0.00000E+00         0.00000E+00         0.00000E+00
 
    0.47448E+05         0.54358E+07         0.00000E+00
    0.54358E+07        -0.55100E+07         0.00000E+00
    0.00000E+00         0.00000E+00         0.00000E+00
 
    0.51930E+07         0.41145E+05         0.00000E+00
    0.41145E+05        -0.59744E+07         0.00000E+00
    0.00000E+00         0.00000E+00         0.00000E+00
 
    0.49510E+07         0.11661E+06         0.00000E+00
    0.11661E+06        -0.59783E+07         0.00000E+00
    0.00000E+00         0.00000E+00         0.00000E+00
 
    0.47205E+07         0.19026E+06         0.00000E+00
    0.19026E+06        -0.59858E+07         0.00000E+00
    0.00000E+00         0.00000E+00         0.00000E+00
 
    0.45014E+07         0.26256E+06         0.00000E+00
    0.26256E+06        -0.59967E+07         0.00000E+00
    0.00000E+00         0.00000E+00         0.00000E+00
 
    0.42931E+07         0.33393E+06         0.00000E+00
    0.33393E+06        -0.60109E+07         0.00000E+00
    0.00000E+00         0.00000E+00         0.00000E+00
 
    0.40952E+07         0.40479E+06         0.00000E+00
    0.40479E+06        -0.60280E+07         0.00000E+00
    0.00000E+00         0.00000E+00         0.00000E+00
 
    0.39075E+07         0.47551E+06         0.00000E+00
    0.47551E+06        -0.60480E+07         0.00000E+00
    0.00000E+00         0.00000E+00         0.00000E+00
 
    0.37294E+07         0.54645E+06         0.00000E+00
    0.54645E+06        -0.60705E+07         0.00000E+00
    0.00000E+00         0.00000E+00         0.00000E+00
 
    0.35606E+07         0.61793E+06         0.00000E+00
    0.61793E+06        -0.60954E+07         0.00000E+00
    0.00000E+00         0.00000E+00         0.00000E+00
 
    0.34007E+07         0.69026E+06         0.00000E+00
    0.69026E+06        -0.61224E+07         0.00000E+00
    0.00000E+00         0.00000E+00         0.00000E+00
 
    0.32492E+07         0.76372E+06         0.00000E+00
    0.76372E+06        -0.61514E+07         0.00000E+00
    0.00000E+00         0.00000E+00         0.00000E+00
 
    0.31057E+07         0.83857E+06         0.00000E+00
    0.83857E+06        -0.61821E+07         0.00000E+00
    0.00000E+00         0.00000E+00         0.00000E+00
 
    0.29699E+07         0.91505E+06         0.00000E+00
    0.91505E+06        -0.62143E+07         0.00000E+00
    0.00000E+00         0.00000E+00         0.00000E+00
 
    0.28413E+07         0.99338E+06         0.00000E+00
    0.99338E+06        -0.62477E+07         0.00000E+00
    0.00000E+00         0.00000E+00         0.00000E+00
 
    0.27195E+07         0.10738E+07         0.00000E+00
    0.10738E+07        -0.62822E+07         0.00000E+00
    0.00000E+00         0.00000E+00         0.00000E+00
 
    0.26041E+07         0.11564E+07         0.00000E+00
    0.11564E+07        -0.63176E+07         0.00000E+00
    0.00000E+00         0.00000E+00         0.00000E+00
 
    0.24947E+07         0.12414E+07         0.00000E+00
    0.12414E+07        -0.63536E+07         0.00000E+00
    0.00000E+00         0.00000E+00         0.00000E+00
 
    0.23909E+07         0.13289E+07         0.00000E+00
    0.13289E+07        -0.63900E+07         0.00000E+00
    0.00000E+00         0.00000E+00         0.00000E+00
 
    0.22923E+07         0.14191E+07         0.00000E+00
    0.14191E+07        -0.64266E+07         0.00000E+00
    0.00000E+00         0.00000E+00         0.00000E+00
 
    0.21986E+07         0.15121E+07         0.00000E+00
    0.15121E+07        -0.64632E+07         0.00000E+00
    0.00000E+00         0.00000E+00         0.00000E+00
 
    0.21093E+07         0.16080E+07         0.00000E+00
    0.16080E+07        -0.64996E+07         0.00000E+00
    0.00000E+00         0.00000E+00         0.00000E+00
 
    0.20241E+07         0.17068E+07         0.00000E+00
    0.17068E+07        -0.65356E+07         0.00000E+00
    0.00000E+00         0.00000E+00         0.00000E+00
 
    0.19426E+07         0.18086E+07         0.00000E+00
    0.18086E+07        -0.65710E+07         0.00000E+00
    0.00000E+00         0.00000E+00         0.00000E+00
 
    0.18644E+07         0.19136E+07         0.00000E+00
    0.19136E+07        -0.66056E+07         0.00000E+00
    0.00000E+00         0.00000E+00         0.00000E+00
 
    0.17892E+07         0.20216E+07         0.00000E+00
    0.20216E+07        -0.66391E+07         0.00000E+00
    0.00000E+00         0.00000E+00         0.00000E+00
 
    0.17167E+07         0.21328E+07         0.00000E+00
    0.21328E+07        -0.66715E+07         0.00000E+00
    0.00000E+00         0.00000E+00         0.00000E+00
 
    0.16465E+07         0.22471E+07         0.00000E+00
    0.22471E+07        -0.67025E+07         0.00000E+00
    0.00000E+00         0.00000E+00         0.00000E+00
 
    0.15783E+07         0.23647E+07         0.00000E+00
    0.23647E+07        -0.67319E+07         0.00000E+00
    0.00000E+00         0.00000E+00         0.00000E+00
 
    0.15117E+07         0.24854E+07         0.00000E+00
    0.24854E+07        -0.67597E+07         0.00000E+00
    0.00000E+00         0.00000E+00         0.00000E+00
 
    0.14465E+07         0.26092E+07         0.00000E+00
    0.26092E+07        -0.67855E+07         0.00000E+00
    0.00000E+00         0.00000E+00         0.00000E+00
 
    0.13824E+07         0.27362E+07         0.00000E+00
    0.27362E+07        -0.68092E+07         0.00000E+00
    0.00000E+00         0.00000E+00         0.00000E+00
 
    0.13191E+07         0.28662E+07         0.00000E+00
    0.28662E+07        -0.68307E+07         0.00000E+00
    0.00000E+00         0.00000E+00         0.00000E+00
 
    0.12562E+07         0.29993E+07         0.00000E+00
    0.29993E+07        -0.68498E+07         0.00000E+00
    0.00000E+00         0.00000E+00         0.00000E+00
 
    0.11936E+07         0.31354E+07         0.00000E+00
    0.31354E+07        -0.68664E+07         0.00000E+00
    0.00000E+00         0.00000E+00         0.00000E+00
 
    0.11309E+07         0.32744E+07         0.00000E+00
    0.32744E+07        -0.68803E+07         0.00000E+00
    0.00000E+00         0.00000E+00         0.00000E+00
 
    0.10680E+07         0.34163E+07         0.00000E+00
    0.34163E+07        -0.68914E+07         0.00000E+00
    0.00000E+00         0.00000E+00         0.00000E+00
 
    0.10046E+07         0.35610E+07         0.00000E+00
    0.35610E+07        -0.68995E+07         0.00000E+00
    0.00000E+00         0.00000E+00         0.00000E+00
 
    0.94045E+06         0.37085E+07         0.00000E+00
    0.37085E+07        -0.69045E+07         0.00000E+00
    0.00000E+00         0.00000E+00         0.00000E+00
 
    0.87535E+06         0.38585E+07         0.00000E+00
    0.38585E+07        -0.69064E+07         0.00000E+00
    0.00000E+00         0.00000E+00         0.00000E+00
 
    0.80911E+06         0.40112E+07         0.00000E+00
    0.40112E+07        -0.69048E+07         0.00000E+00
    0.00000E+00         0.00000E+00         0.00000E+00
 
    0.74152E+06         0.41663E+07         0.00000E+00
    0.41663E+07        -0.68999E+07         0.00000E+00
    0.00000E+00         0.00000E+00         0.00000E+00
 
    0.67239E+06         0.43238E+07         0.00000E+00
    0.43238E+07        -0.68913E+07         0.00000E+00
    0.00000E+00         0.00000E+00         0.00000E+00
 
    0.60155E+06         0.44836E+07         0.00000E+00
    0.44836E+07        -0.68791E+07         0.00000E+00
    0.00000E+00         0.00000E+00         0.00000E+00
 
    0.52883E+06         0.46456E+07         0.00000E+00
    0.46456E+07        -0.68631E+07         0.00000E+00
    0.00000E+00         0.00000E+00         0.00000E+00
 
    0.45406E+06         0.48097E+07         0.00000E+00
    0.48097E+07        -0.68433E+07         0.00000E+00
    0.00000E+00         0.00000E+00         0.00000E+00
 
    0.37709E+06         0.49758E+07         0.00000E+00
    0.49758E+07        -0.68195E+07         0.00000E+00
    0.00000E+00         0.00000E+00         0.00000E+00
 
    0.29778E+06         0.51437E+07         0.00000E+00
    0.51437E+07        -0.67916E+07         0.00000E+00
    0.00000E+00         0.00000E+00         0.00000E+00
 
    0.21597E+06         0.53135E+07         0.00000E+00
    0.53135E+07        -0.67596E+07         0.00000E+00
    0.00000E+00         0.00000E+00         0.00000E+00
 
    0.13151E+06         0.54850E+07         0.00000E+00
    0.54850E+07        -0.67234E+07         0.00000E+00
    0.00000E+00         0.00000E+00         0.00000E+00
 
    0.44302E+05         0.56579E+07         0.00000E+00
    0.56579E+07        -0.66828E+07         0.00000E+00
    0.00000E+00         0.00000E+00         0.00000E+00
 
    0.45947E+07         0.29133E+05         0.00000E+00
    0.29133E+05        -0.69043E+07         0.00000E+00
    0.00000E+00         0.00000E+00         0.00000E+00
 
    0.43450E+07         0.83536E+05         0.00000E+00
    0.83536E+05        -0.69094E+07         0.00000E+00
    0.00000E+00         0.00000E+00         0.00000E+00
 
    0.41094E+07         0.13726E+06         0.00000E+00
    0.13726E+06        -0.69191E+07         0.00000E+00
    0.00000E+00         0.00000E+00         0.00000E+00
 
    0.38873E+07         0.19078E+06         0.00000E+00
    0.19078E+06        -0.69332E+07         0.00000E+00
    0.00000E+00         0.00000E+00         0.00000E+00
 
    0.36783E+07         0.24456E+06         0.00000E+00
    0.24456E+06        -0.69514E+07         0.00000E+00
    0.00000E+00         0.00000E+00         0.00000E+00
 
    0.34817E+07         0.29903E+06         0.00000E+00
    0.29903E+06        -0.69733E+07         0.00000E+00
    0.00000E+00         0.00000E+00         0.00000E+00
 
    0.32971E+07         0.35456E+06         0.00000E+00
    0.35456E+06        -0.69988E+07         0.00000E+00
    0.00000E+00         0.00000E+00         0.00000E+00
 
    0.31238E+07         0.41153E+06         0.00000E+00
    0.41153E+06        -0.70275E+07         0.00000E+00
    0.00000E+00         0.00000E+00         0.00000E+00
 
    0.29614E+07         0.47026E+06         0.00000E+00
    0.47026E+06        -0.70592E+07         0.00000E+00
    0.00000E+00         0.00000E+00         0.00000E+00
 
    0.28094E+07         0.53106E+06         0.00000E+00
    0.53106E+06        -0.70936E+07         0.00000E+00
    0.00000E+00         0.00000E+00         0.00000E+00
 
    0.26672E+07         0.59422E+06         0.00000E+00
    0.59422E+06        -0.71305E+07         0.00000E+00
    0.00000E+00         0.00000E+00         0.00000E+00
 
    0.25342E+07         0.65999E+06         0.00000E+00
    0.65999E+06        -0.71695E+07         0.00000E+00
    0.00000E+00         0.00000E+00         0.00000E+00
 
    0.24100E+07         0.72859E+06         0.00000E+00
    0.72859E+06        -0.72104E+07         0.00000E+00
    0.00000E+00         0.00000E+00         0.00000E+00
 
    0.22940E+07         0.80025E+06         0.00000E+00
    0.80025E+06        -0.72529E+07         0.00000E+00
    0.00000E+00         0.00000E+00         0.00000E+00
 
    0.21858E+07         0.87515E+06         0.00000E+00
    0.87515E+06        -0.72968E+07         0.00000E+00
    0.00000E+00         0.00000E+00         0.00000E+00
 
    0.20848E+07         0.95345E+06         0.00000E+00
    0.95345E+06        -0.73419E+07         0.00000E+00
    0.00000E+00         0.00000E+00         0.00000E+00
 
    0.19906E+07         0.10353E+07         0.00000E+00
    0.10353E+07        -0.73878E+07         0.00000E+00
    0.00000E+00         0.00000E+00         0.00000E+00
 
    0.19026E+07         0.11209E+07         0.00000E+00
    0.11209E+07        -0.74343E+07         0.00000E+00
    0.00000E+00         0.00000E+00         0.00000E+00
 
    0.18203E+07         0.12102E+07         0.00000E+00
    0.12102E+07        -0.74812E+07         0.00000E+00
    0.00000E+00         0.00000E+00         0.00000E+00
 
    0.17434E+07         0.13034E+07         0.00000E+00
    0.13034E+07        -0.75282E+07         0.00000E+00
    0.00000E+00         0.00000E+00         0.00000E+00
 
    0.16714E+07         0.14006E+07         0.00000E+00
    0.14006E+07        -0.75751E+07         0.00000E+00
    0.00000E+00         0.00000E+00         0.00000E+00
 
    0.16037E+07         0.15019E+07         0.00000E+00
    0.15019E+07        -0.76217E+07         0.00000E+00
    0.00000E+00         0.00000E+00         0.00000E+00
 
    0.15400E+07         0.16072E+07         0.00000E+00
    0.16072E+07        -0.76677E+07         0.00000E+00
    0.00000E+00         0.00000E+00         0.00000E+00
 
    0.14799E+07         0.17167E+07         0.00000E+00
    0.17167E+07        -0.77129E+07         0.00000E+00
    0.00000E+00         0.00000E+00         0.00000E+00
 
    0.14229E+07         0.18303E+07         0.00000E+00
    0.18303E+07        -0.77571E+07         0.00000E+00
    0.00000E+00         0.00000E+00         0.00000E+00
 
    0.13685E+07         0.19480E+07         0.00000E+00
    0.19480E+07        -0.78001E+07         0.00000E+00
    0.00000E+00         0.00000E+00         0.00000E+00
 
    0.13165E+07         0.20699E+07         0.00000E+00
    0.20699E+07        -0.78416E+07         0.00000E+00
    0.00000E+00         0.00000E+00         0.00000E+00
 
    0.12664E+07         0.21959E+07         0.00000E+00
    0.21959E+07        -0.78815E+07         0.00000E+00
    0.00000E+00         0.00000E+00         0.00000E+00
 
    0.12179E+07         0.23260E+07         0.00000E+00
    0.23260E+07        -0.79196E+07         0.00000E+00
    0.00000E+00         0.00000E+00         0.00000E+00
 
    0.11706E+07         0.24601E+07         0.00000E+00
    0.24601E+07        -0.79556E+07         0.00000E+00
    0.00000E+00         0.00000E+00         0.00000E+00
 
    0.11241E+07         0.25983E+07         0.00000E+00
    0.25983E+07        -0.79894E+07         0.00000E+00
    0.00000E+00         0.00000E+00         0.00000E+00
 
    0.10781E+07         0.27404E+07         0.00000E+00
    0.27404E+07        -0.80208E+07         0.00000E+00
    0.00000E+00         0.00000E+00         0.00000E+00
 
    0.10324E+07         0.28863E+07         0.00000E+00
    0.28863E+07        -0.80496E+07         0.00000E+00
    0.00000E+00         0.00000E+00         0.00000E+00
 
    0.98648E+06         0.30361E+07         0.00000E+00
    0.30361E+07        -0.80756E+07         0.00000E+00
    0.00000E+00         0.00000E+00         0.00000E+00
 
    0.94019E+06         0.31895E+07         0.00000E+00
    0.31895E+07        -0.80987E+07         0.00000E+00
    0.00000E+00         0.00000E+00         0.00000E+00
 
    0.89322E+06         0.33465E+07         0.00000E+00
    0.33465E+07        -0.81188E+07         0.00000E+00
    0.00000E+00         0.00000E+00         0.00000E+00
 
    0.84531E+06         0.35071E+07         0.00000E+00
    0.35071E+07        -0.81356E+07         0.00000E+00
    0.00000E+00         0.00000E+00         0.00000E+00
 
    0.79621E+06         0.36710E+07         0.00000E+00
    0.36710E+07        -0.81490E+07         0.00000E+00
    0.00000E+00         0.00000E+00         0.00000E+00
 
    0.74568E+06         0.38382E+07         0.00000E+00
    0.38382E+07        -0.81589E+07         0.00000E+00
    0.00000E+00         0.00000E+00         0.00000E+00
 
    0.69351E+06         0.40086E+07         0.00000E+00
    0.40086E+07        -0.81651E+07         0.00000E+00
    0.00000E+00         0.00000E+00         0.00000E+00
 
    0.63949E+06         0.41820E+07         0.00000E+00
    0.41820E+07        -0.81677E+07         0.00000E+00
    0.00000E+00         0.00000E+00         0.00000E+00
 
    0.58343E+06         0.43584E+07         0.00000E+00
    0.43584E+07        -0.81663E+07         0.00000E+00
    0.00000E+00         0.00000E+00         0.00000E+00
 
    0.52513E+06         0.45376E+07         0.00000E+00
    0.45376E+07        -0.81609E+07         0.00000E+00
    0.00000E+00         0.00000E+00         0.00000E+00
 
    0.46442E+06         0.47195E+07         0.00000E+00
    0.47195E+07        -0.81515E+07         0.00000E+00
    0.00000E+00         0.00000E+00         0.00000E+00
 
    0.40112E+06         0.49041E+07         0.00000E+00
    0.49041E+07        -0.81378E+07         0.00000E+00
    0.00000E+00         0.00000E+00         0.00000E+00
 
    0.33505E+06         0.50911E+07         0.00000E+00
    0.50911E+07        -0.81198E+07         0.00000E+00
    0.00000E+00         0.00000E+00         0.00000E+00
 
    0.26605E+06         0.52805E+07         0.00000E+00
    0.52805E+07        -0.80975E+07         0.00000E+00
    0.00000E+00         0.00000E+00         0.00000E+00
 
    0.19401E+06         0.54721E+07         0.00000E+00
    0.54721E+07        -0.80705E+07         0.00000E+00
    0.00000E+00         0.00000E+00         0.00000E+00
 
    0.11880E+06         0.56658E+07         0.00000E+00
    0.56658E+07        -0.80390E+07         0.00000E+00
    0.00000E+00         0.00000E+00         0.00000E+00
 
    0.40198E+05         0.58617E+07         0.00000E+00
    0.58617E+07        -0.80030E+07         0.00000E+00
    0.00000E+00         0.00000E+00         0.00000E+00
 
    0.37532E+07         0.13751E+05         0.00000E+00
    0.13751E+05        -0.79553E+07         0.00000E+00
    0.00000E+00         0.00000E+00         0.00000E+00
 
    0.35025E+07         0.41618E+05         0.00000E+00
    0.41618E+05        -0.79617E+07         0.00000E+00
    0.00000E+00         0.00000E+00         0.00000E+00
 
    0.32684E+07         0.70360E+05         0.00000E+00
    0.70360E+05        -0.79738E+07         0.00000E+00
    0.00000E+00         0.00000E+00         0.00000E+00
 
    0.30503E+07         0.10047E+06         0.00000E+00
    0.10047E+06        -0.79912E+07         0.00000E+00
    0.00000E+00         0.00000E+00         0.00000E+00
 
    0.28473E+07         0.13241E+06         0.00000E+00
    0.13241E+06        -0.80135E+07         0.00000E+00
    0.00000E+00         0.00000E+00         0.00000E+00
 
    0.26589E+07         0.16658E+06         0.00000E+00
    0.16658E+06        -0.80405E+07         0.00000E+00
    0.00000E+00         0.00000E+00         0.00000E+00
 
    0.24842E+07         0.20338E+06         0.00000E+00
    0.20338E+06        -0.80718E+07         0.00000E+00
    0.00000E+00         0.00000E+00         0.00000E+00
 
    0.23227E+07         0.24315E+06         0.00000E+00
    0.24315E+06        -0.81070E+07         0.00000E+00
    0.00000E+00         0.00000E+00         0.00000E+00
 
    0.21736E+07         0.28621E+06         0.00000E+00
    0.28621E+06        -0.81458E+07         0.00000E+00
    0.00000E+00         0.00000E+00         0.00000E+00
 
    0.20362E+07         0.33285E+06         0.00000E+00
    0.33285E+06        -0.81878E+07         0.00000E+00
    0.00000E+00         0.00000E+00         0.00000E+00
 
    0.19100E+07         0.38333E+06         0.00000E+00
    0.38333E+06        -0.82328E+07         0.00000E+00
    0.00000E+00         0.00000E+00         0.00000E+00
 
    0.17942E+07         0.43788E+06         0.00000E+00
    0.43788E+06        -0.82804E+07         0.00000E+00
    0.00000E+00         0.00000E+00         0.00000E+00
 
    0.16882E+07         0.49672E+06         0.00000E+00
    0.49672E+06        -0.83303E+07         0.00000E+00
    0.00000E+00         0.00000E+00         0.00000E+00
 
    0.15913E+07         0.56002E+06         0.00000E+00
    0.56002E+06        -0.83822E+07         0.00000E+00
    0.00000E+00         0.00000E+00         0.00000E+00
 
    0.15031E+07         0.62795E+06         0.00000E+00
    0.62795E+06        -0.84358E+07         0.00000E+00
    0.00000E+00         0.00000E+00         0.00000E+00
 
    0.14228E+07         0.70065E+06         0.00000E+00
    0.70065E+06        -0.84907E+07         0.00000E+00
    0.00000E+00         0.00000E+00         0.00000E+00
 
    0.13499E+07         0.77825E+06         0.00000E+00
    0.77825E+06        -0.85468E+07         0.00000E+00
    0.00000E+00         0.00000E+00         0.00000E+00
 
    0.12838E+07         0.86084E+06         0.00000E+00
    0.86084E+06        -0.86037E+07         0.00000E+00
    0.00000E+00         0.00000E+00         0.00000E+00
 
    0.12239E+07         0.94853E+06         0.00000E+00
    0.94853E+06        -0.86612E+07         0.00000E+00
    0.00000E+00         0.00000E+00         0.00000E+00
 
    0.11697E+07         0.10414E+07         0.00000E+00
    0.10414E+07        -0.87189E+07         0.00000E+00
    0.00000E+00         0.00000E+00         0.00000E+00
 
    0.11207E+07         0.11394E+07         0.00000E+00
    0.11394E+07        -0.87767E+07         0.00000E+00
    0.00000E+00         0.00000E+00         0.00000E+00
 
    0.10763E+07         0.12427E+07         0.00000E+00
    0.12427E+07        -0.88342E+07         0.00000E+00
    0.00000E+00         0.00000E+00         0.00000E+00
 
    0.10360E+07         0.13513E+07         0.00000E+00
    0.13513E+07        -0.88912E+07         0.00000E+00
    0.00000E+00         0.00000E+00         0.00000E+00
 
    0.99931E+06         0.14652E+07         0.00000E+00
    0.14652E+07        -0.89476E+07         0.00000E+00
    0.00000E+00         0.00000E+00         0.00000E+00
 
    0.96577E+06         0.15843E+07         0.00000E+00
    0.15843E+07        -0.90029E+07         0.00000E+00
    0.00000E+00         0.00000E+00         0.00000E+00
 
    0.93488E+06         0.17087E+07         0.00000E+00
    0.17087E+07        -0.90570E+07         0.00000E+00
    0.00000E+00         0.00000E+00         0.00000E+00
 
    0.90619E+06         0.18384E+07         0.00000E+00
    0.18384E+07        -0.91097E+07         0.00000E+00
    0.00000E+00         0.00000E+00         0.00000E+00
 
    0.87925E+06         0.19732E+07         0.00000E+00
    0.19732E+07        -0.91607E+07         0.00000E+00
    0.00000E+00         0.00000E+00         0.00000E+00
 
    0.85363E+06         0.21132E+07         0.00000E+00
    0.21132E+07        -0.92099E+07         0.00000E+00
    0.00000E+00         0.00000E+00         0.00000E+00
 
    0.82891E+06         0.22583E+07         0.00000E+00
    0.22583E+07        -0.92569E+07         0.00000E+00
    0.00000E+00         0.00000E+00         0.00000E+00
 
    0.80469E+06         0.24084E+07         0.00000E+00
    0.24084E+07        -0.93016E+07         0.00000E+00
    0.00000E+00         0.00000E+00         0.00000E+00
 
    0.78057E+06         0.25633E+07         0.00000E+00
    0.25633E+07        -0.93437E+07         0.00000E+00
    0.00000E+00         0.00000E+00         0.00000E+00
 
    0.75619E+06         0.27231E+07         0.00000E+00
    0.27231E+07        -0.93831E+07         0.00000E+00
    0.00000E+00         0.00000E+00         0.00000E+00
 
    0.73120E+06         0.28876E+07         0.00000E+00
    0.28876E+07        -0.94196E+07         0.00000E+00
    0.00000E+00         0.00000E+00         0.00000E+00
 
    0.70525E+06         0.30566E+07         0.00000E+00
    0.30566E+07        -0.94529E+07         0.00000E+00
    0.00000E+00         0.00000E+00         0.00000E+00
 
    0.67803E+06         0.32301E+07         0.00000E+00
    0.32301E+07        -0.94830E+07         0.00000E+00
    0.00000E+00         0.00000E+00         0.00000E+00
 
    0.64925E+06         0.34079E+07         0.00000E+00
    0.34079E+07        -0.95095E+07         0.00000E+00
    0.00000E+00         0.00000E+00         0.00000E+00
 
    0.61862E+06         0.35898E+07         0.00000E+00
    0.35898E+07        -0.95324E+07         0.00000E+00
    0.00000E+00         0.00000E+00         0.00000E+00
 
    0.58591E+06         0.37757E+07         0.00000E+00
    0.37757E+07        -0.95514E+07         0.00000E+00
    0.00000E+00         0.00000E+00         0.00000E+00
 
    0.55089E+06         0.39654E+07         0.00000E+00
    0.39654E+07        -0.95665E+07         0.00000E+00
    0.00000E+00         0.00000E+00         0.00000E+00
 
    0.51335E+06         0.41587E+07         0.00000E+00
    0.41587E+07        -0.95774E+07         0.00000E+00
    0.00000E+00         0.00000E+00         0.00000E+00
 
    0.47311E+06         0.43556E+07         0.00000E+00
    0.43556E+07        -0.95842E+07         0.00000E+00
    0.00000E+00         0.00000E+00         0.00000E+00
 
    0.42998E+06         0.45559E+07         0.00000E+00
    0.45559E+07        -0.95867E+07         0.00000E+00
    0.00000E+00         0.00000E+00         0.00000E+00
 
    0.38383E+06         0.47593E+07         0.00000E+00
    0.47593E+07        -0.95847E+07         0.00000E+00
    0.00000E+00         0.00000E+00         0.00000E+00
 
    0.33452E+06         0.49658E+07         0.00000E+00
    0.49658E+07        -0.95782E+07         0.00000E+00
    0.00000E+00         0.00000E+00         0.00000E+00
 
    0.28194E+06         0.51753E+07         0.00000E+00
    0.51753E+07        -0.95672E+07         0.00000E+00
    0.00000E+00         0.00000E+00         0.00000E+00
 
    0.22594E+06         0.53878E+07         0.00000E+00
    0.53878E+07        -0.95515E+07         0.00000E+00
    0.00000E+00         0.00000E+00         0.00000E+00
 
    0.16616E+06         0.56033E+07         0.00000E+00
    0.56033E+07        -0.95312E+07         0.00000E+00
    0.00000E+00         0.00000E+00         0.00000E+00
 
    0.10234E+06         0.58214E+07         0.00000E+00
    0.58214E+07        -0.95055E+07         0.00000E+00
    0.00000E+00         0.00000E+00         0.00000E+00
 
    0.34701E+05         0.60414E+07         0.00000E+00
    0.60414E+07        -0.94741E+07         0.00000E+00
    0.00000E+00         0.00000E+00         0.00000E+00
 
    0.26296E+07        -0.52097E+04         0.00000E+00
   -0.52097E+04        -0.91372E+07         0.00000E+00
    0.00000E+00         0.00000E+00         0.00000E+00
 
    0.23869E+07        -0.95368E+04         0.00000E+00
   -0.95368E+04        -0.91448E+07         0.00000E+00
    0.00000E+00         0.00000E+00         0.00000E+00
 
    0.21634E+07        -0.10931E+05         0.00000E+00
   -0.10931E+05        -0.91592E+07         0.00000E+00
    0.00000E+00         0.00000E+00         0.00000E+00
 
    0.19580E+07        -0.89240E+04         0.00000E+00
   -0.89240E+04        -0.91800E+07         0.00000E+00
    0.00000E+00         0.00000E+00         0.00000E+00
 
    0.17700E+07        -0.30951E+04         0.00000E+00
   -0.30951E+04        -0.92065E+07         0.00000E+00
    0.00000E+00         0.00000E+00         0.00000E+00
 
    0.15985E+07         0.69380E+04         0.00000E+00
    0.69380E+04        -0.92385E+07         0.00000E+00
    0.00000E+00         0.00000E+00         0.00000E+00
 
    0.14424E+07         0.21519E+05         0.00000E+00
    0.21519E+05        -0.92755E+07         0.00000E+00
    0.00000E+00         0.00000E+00         0.00000E+00
 
    0.13010E+07         0.40956E+05         0.00000E+00
    0.40956E+05        -0.93171E+07         0.00000E+00
    0.00000E+00         0.00000E+00         0.00000E+00
 
    0.11735E+07         0.65524E+05         0.00000E+00
    0.65524E+05        -0.93628E+07         0.00000E+00
    0.00000E+00         0.00000E+00         0.00000E+00
 
    0.10590E+07         0.95466E+05         0.00000E+00
    0.95466E+05        -0.94122E+07         0.00000E+00
    0.00000E+00         0.00000E+00         0.00000E+00
 
    0.95674E+06         0.13100E+06         0.00000E+00
    0.13100E+06        -0.94651E+07         0.00000E+00
    0.00000E+00         0.00000E+00         0.00000E+00
 
    0.86592E+06         0.17231E+06         0.00000E+00
    0.17231E+06        -0.95210E+07         0.00000E+00
    0.00000E+00         0.00000E+00         0.00000E+00
 
    0.78577E+06         0.21955E+06         0.00000E+00
    0.21955E+06        -0.95795E+07         0.00000E+00
    0.00000E+00         0.00000E+00         0.00000E+00
 
    0.71558E+06         0.27288E+06         0.00000E+00
    0.27288E+06        -0.96404E+07         0.00000E+00
    0.00000E+00         0.00000E+00         0.00000E+00
 
    0.65461E+06         0.33241E+06         0.00000E+00
    0.33241E+06        -0.97032E+07         0.00000E+00
    0.00000E+00         0.00000E+00         0.00000E+00
 
    0.60217E+06         0.39823E+06         0.00000E+00
    0.39823E+06        -0.97677E+07         0.00000E+00
    0.00000E+00         0.00000E+00         0.00000E+00
 
    0.55758E+06         0.47044E+06         0.00000E+00
    0.47044E+06        -0.98335E+07         0.00000E+00
    0.00000E+00         0.00000E+00         0.00000E+00
 
    0.52018E+06         0.54908E+06         0.00000E+00
    0.54908E+06        -0.99004E+07         0.00000E+00
    0.00000E+00         0.00000E+00         0.00000E+00
 
    0.48931E+06         0.63422E+06         0.00000E+00
    0.63422E+06        -0.99680E+07         0.00000E+00
    0.00000E+00         0.00000E+00         0.00000E+00
 
    0.46437E+06         0.72588E+06         0.00000E+00
    0.72588E+06        -0.10036E+08         0.00000E+00
    0.00000E+00         0.00000E+00         0.00000E+00
 
    0.44473E+06         0.82409E+06         0.00000E+00
    0.82409E+06        -0.10104E+08         0.00000E+00
    0.00000E+00         0.00000E+00         0.00000E+00
 
    0.42980E+06         0.92885E+06         0.00000E+00
    0.92885E+06        -0.10173E+08         0.00000E+00
    0.00000E+00         0.00000E+00         0.00000E+00
 
    0.41901E+06         0.10402E+07         0.00000E+00
    0.10402E+07        -0.10240E+08         0.00000E+00
    0.00000E+00         0.00000E+00         0.00000E+00
 
    0.41179E+06         0.11580E+07         0.00000E+00
    0.11580E+07        -0.10308E+08         0.00000E+00
    0.00000E+00         0.00000E+00         0.00000E+00
 
    0.40760E+06         0.12824E+07         0.00000E+00
    0.12824E+07        -0.10374E+08         0.00000E+00
    0.00000E+00         0.00000E+00         0.00000E+00
 
    0.40591E+06         0.14132E+07         0.00000E+00
    0.14132E+07        -0.10439E+08         0.00000E+00
    0.00000E+00         0.00000E+00         0.00000E+00
 
    0.40619E+06         0.15504E+07         0.00000E+00
    0.15504E+07        -0.10503E+08         0.00000E+00
    0.00000E+00         0.00000E+00         0.00000E+00
 
    0.40794E+06         0.16940E+07         0.00000E+00
    0.16940E+07        -0.10566E+08         0.00000E+00
    0.00000E+00         0.00000E+00         0.00000E+00
 
    0.41067E+06         0.18439E+07         0.00000E+00
    0.18439E+07        -0.10626E+08         0.00000E+00
    0.00000E+00         0.00000E+00         0.00000E+00
 
    0.41389E+06         0.20000E+07         0.00000E+00
    0.20000E+07        -0.10685E+08         0.00000E+00
    0.00000E+00         0.00000E+00         0.00000E+00
 
    0.41715E+06         0.21622E+07         0.00000E+00
    0.21622E+07        -0.10741E+08         0.00000E+00
    0.00000E+00         0.00000E+00         0.00000E+00
 
    0.41999E+06         0.23305E+07         0.00000E+00
    0.23305E+07        -0.10795E+08         0.00000E+00
    0.00000E+00         0.00000E+00         0.00000E+00
 
    0.42198E+06         0.25046E+07         0.00000E+00
    0.25046E+07        -0.10846E+08         0.00000E+00
    0.00000E+00         0.00000E+00         0.00000E+00
 
    0.42270E+06         0.26845E+07         0.00000E+00
    0.26845E+07        -0.10894E+08         0.00000E+00
    0.00000E+00         0.00000E+00         0.00000E+00
 
    0.42175E+06         0.28699E+07         0.00000E+00
    0.28699E+07        -0.10939E+08         0.00000E+00
    0.00000E+00         0.00000E+00         0.00000E+00
 
    0.41876E+06         0.30609E+07         0.00000E+00
    0.30609E+07        -0.10981E+08         0.00000E+00
    0.00000E+00         0.00000E+00         0.00000E+00
 
    0.41337E+06         0.32570E+07         0.00000E+00
    0.32570E+07        -0.11018E+08         0.00000E+00
    0.00000E+00         0.00000E+00         0.00000E+00
 
    0.40527E+06         0.34583E+07         0.00000E+00
    0.34583E+07        -0.11052E+08         0.00000E+00
    0.00000E+00         0.00000E+00         0.00000E+00
 
    0.39414E+06         0.36643E+07         0.00000E+00
    0.36643E+07        -0.11082E+08         0.00000E+00
    0.00000E+00         0.00000E+00         0.00000E+00
 
    0.37971E+06         0.38751E+07         0.00000E+00
    0.38751E+07        -0.11108E+08         0.00000E+00
    0.00000E+00         0.00000E+00         0.00000E+00
 
    0.36177E+06         0.40902E+07         0.00000E+00
    0.40902E+07        -0.11129E+08         0.00000E+00
    0.00000E+00         0.00000E+00         0.00000E+00
 
    0.34018E+06         0.43094E+07         0.00000E+00
    0.43094E+07        -0.11146E+08         0.00000E+00
    0.00000E+00         0.00000E+00         0.00000E+00
 
    0.31488E+06         0.45325E+07         0.00000E+00
    0.45325E+07        -0.11157E+08         0.00000E+00
    0.00000E+00         0.00000E+00         0.00000E+00
 
    0.28575E+06         0.47593E+07         0.00000E+00
    0.47593E+07        -0.11164E+08         0.00000E+00
    0.00000E+00         0.00000E+00         0.00000E+00
 
    0.25262E+06         0.49898E+07         0.00000E+00
    0.49898E+07        -0.11166E+08         0.00000E+00
    0.00000E+00         0.00000E+00         0.00000E+00
 
    0.21537E+06         0.52236E+07         0.00000E+00
    0.52236E+07        -0.11163E+08         0.00000E+00
    0.00000E+00         0.00000E+00         0.00000E+00
 
    0.17409E+06         0.54601E+07         0.00000E+00
    0.54601E+07        -0.11154E+08         0.00000E+00
    0.00000E+00         0.00000E+00         0.00000E+00
 
    0.12943E+06         0.56990E+07         0.00000E+00
    0.56990E+07        -0.11141E+08         0.00000E+00
    0.00000E+00         0.00000E+00         0.00000E+00
 
    0.81399E+05         0.59418E+07         0.00000E+00
    0.59418E+07        -0.11124E+08         0.00000E+00
    0.00000E+00         0.00000E+00         0.00000E+00
 
    0.28212E+05         0.61903E+07         0.00000E+00
    0.61903E+07        -0.11104E+08         0.00000E+00
    0.00000E+00         0.00000E+00         0.00000E+00
 
    0.11855E+07        -0.27751E+05         0.00000E+00
   -0.27751E+05        -0.10459E+08         0.00000E+00
    0.00000E+00         0.00000E+00         0.00000E+00
 
    0.96257E+06        -0.69735E+05         0.00000E+00
   -0.69735E+05        -0.10468E+08         0.00000E+00
    0.00000E+00         0.00000E+00         0.00000E+00
 
    0.76113E+06        -0.10617E+06         0.00000E+00
   -0.10617E+06        -0.10484E+08         0.00000E+00
    0.00000E+00         0.00000E+00         0.00000E+00
 
    0.57995E+06        -0.13666E+06         0.00000E+00
   -0.13666E+06        -0.10508E+08         0.00000E+00
    0.00000E+00         0.00000E+00         0.00000E+00
 
    0.41791E+06        -0.16086E+06         0.00000E+00
   -0.16086E+06        -0.10538E+08         0.00000E+00
    0.00000E+00         0.00000E+00         0.00000E+00
 
    0.27392E+06        -0.17847E+06         0.00000E+00
   -0.17847E+06        -0.10575E+08         0.00000E+00
    0.00000E+00         0.00000E+00         0.00000E+00
 
    0.14692E+06        -0.18921E+06         0.00000E+00
   -0.18921E+06        -0.10617E+08         0.00000E+00
    0.00000E+00         0.00000E+00         0.00000E+00
 
    0.35862E+05        -0.19286E+06         0.00000E+00
   -0.19286E+06        -0.10664E+08         0.00000E+00
    0.00000E+00         0.00000E+00         0.00000E+00
 
   -0.60241E+05        -0.18923E+06         0.00000E+00
   -0.18923E+06        -0.10716E+08         0.00000E+00
    0.00000E+00         0.00000E+00         0.00000E+00
 
   -0.14236E+06        -0.17814E+06         0.00000E+00
   -0.17814E+06        -0.10772E+08         0.00000E+00
    0.00000E+00         0.00000E+00         0.00000E+00
 
   -0.21144E+06        -0.15947E+06         0.00000E+00
   -0.15947E+06        -0.10832E+08         0.00000E+00
    0.00000E+00         0.00000E+00         0.00000E+00
 
   -0.26837E+06        -0.13310E+06         0.00000E+00
   -0.13310E+06        -0.10895E+08         0.00000E+00
    0.00000E+00         0.00000E+00         0.00000E+00
 
   -0.31404E+06        -0.98953E+05         0.00000E+00
   -0.98953E+05        -0.10961E+08         0.00000E+00
    0.00000E+00         0.00000E+00         0.00000E+00
 
   -0.34929E+06        -0.56953E+05         0.00000E+00
   -0.56953E+05        -0.11029E+08         0.00000E+00
    0.00000E+00         0.00000E+00         0.00000E+00
 
   -0.37494E+06        -0.70576E+04         0.00000E+00
   -0.70576E+04        -0.11100E+08         0.00000E+00
    0.00000E+00         0.00000E+00         0.00000E+00
 
   -0.39176E+06         0.50764E+05         0.00000E+00
    0.50764E+05        -0.11172E+08         0.00000E+00
    0.00000E+00         0.00000E+00         0.00000E+00
 
   -0.40053E+06         0.11653E+06         0.00000E+00
    0.11653E+06        -0.11246E+08         0.00000E+00
    0.00000E+00         0.00000E+00         0.00000E+00
 
   -0.40198E+06         0.19023E+06         0.00000E+00
    0.19023E+06        -0.11322E+08         0.00000E+00
    0.00000E+00         0.00000E+00         0.00000E+00
 
   -0.39681E+06         0.27188E+06         0.00000E+00
    0.27188E+06        -0.11398E+08         0.00000E+00
    0.00000E+00         0.00000E+00         0.00000E+00
 
   -0.38570E+06         0.36144E+06         0.00000E+00
    0.36144E+06        -0.11475E+08         0.00000E+00
    0.00000E+00         0.00000E+00         0.00000E+00
 
   -0.36932E+06         0.45889E+06         0.00000E+00
    0.45889E+06        -0.11552E+08         0.00000E+00
    0.00000E+00         0.00000E+00         0.00000E+00
 
   -0.34832E+06         0.56420E+06         0.00000E+00
    0.56420E+06        -0.11630E+08         0.00000E+00
    0.00000E+00         0.00000E+00         0.00000E+00
 
   -0.32331E+06         0.67733E+06         0.00000E+00
    0.67733E+06        -0.11707E+08         0.00000E+00
    0.00000E+00         0.00000E+00         0.00000E+00
 
   -0.29490E+06         0.79822E+06         0.00000E+00
    0.79822E+06        -0.11784E+08         0.00000E+00
    0.00000E+00         0.00000E+00         0.00000E+00
 
   -0.26368E+06         0.92684E+06         0.00000E+00
    0.92684E+06        -0.11860E+08         0.00000E+00
    0.00000E+00         0.00000E+00         0.00000E+00
 
   -0.23023E+06         0.10631E+07         0.00000E+00
    0.10631E+07        -0.11936E+08         0.00000E+00
    0.00000E+00         0.00000E+00         0.00000E+00
 
   -0.19510E+06         0.12070E+07         0.00000E+00
    0.12070E+07        -0.12010E+08         0.00000E+00
    0.00000E+00         0.00000E+00         0.00000E+00
 
   -0.15884E+06         0.13584E+07         0.00000E+00
    0.13584E+07        -0.12083E+08         0.00000E+00
    0.00000E+00         0.00000E+00         0.00000E+00
 
   -0.12201E+06         0.15172E+07         0.00000E+00
    0.15172E+07        -0.12155E+08         0.00000E+00
    0.00000E+00         0.00000E+00         0.00000E+00
 
   -0.85117E+05         0.16835E+07         0.00000E+00
    0.16835E+07        -0.12225E+08         0.00000E+00
    0.00000E+00         0.00000E+00         0.00000E+00
 
   -0.48693E+05         0.18570E+07         0.00000E+00
    0.18570E+07        -0.12293E+08         0.00000E+00
    0.00000E+00         0.00000E+00         0.00000E+00
 
   -0.13245E+05         0.20376E+07         0.00000E+00
    0.20376E+07        -0.12359E+08         0.00000E+00
    0.00000E+00         0.00000E+00         0.00000E+00
 
    0.20727E+05         0.22254E+07         0.00000E+00
    0.22254E+07        -0.12422E+08         0.00000E+00
    0.00000E+00         0.00000E+00         0.00000E+00
 
    0.52733E+05         0.24200E+07         0.00000E+00
    0.24200E+07        -0.12483E+08         0.00000E+00
    0.00000E+00         0.00000E+00         0.00000E+00
 
    0.82298E+05         0.26215E+07         0.00000E+00
    0.26215E+07        -0.12541E+08         0.00000E+00
    0.00000E+00         0.00000E+00         0.00000E+00
 
    0.10896E+06         0.28296E+07         0.00000E+00
    0.28296E+07        -0.12596E+08         0.00000E+00
    0.00000E+00         0.00000E+00         0.00000E+00
 
    0.13228E+06         0.30442E+07         0.00000E+00
    0.30442E+07        -0.12647E+08         0.00000E+00
    0.00000E+00         0.00000E+00         0.00000E+00
 
    0.15182E+06         0.32650E+07         0.00000E+00
    0.32650E+07        -0.12695E+08         0.00000E+00
    0.00000E+00         0.00000E+00         0.00000E+00
 
    0.16721E+06         0.34918E+07         0.00000E+00
    0.34918E+07        -0.12739E+08         0.00000E+00
    0.00000E+00         0.00000E+00         0.00000E+00
 
    0.17818E+06         0.37243E+07         0.00000E+00
    0.37243E+07        -0.12779E+08         0.00000E+00
    0.00000E+00         0.00000E+00         0.00000E+00
 
    0.18438E+06         0.39625E+07         0.00000E+00
    0.39625E+07        -0.12814E+08         0.00000E+00
    0.00000E+00         0.00000E+00         0.00000E+00
 
    0.18534E+06         0.42061E+07         0.00000E+00
    0.42061E+07        -0.12845E+08         0.00000E+00
    0.00000E+00         0.00000E+00         0.00000E+00
 
    0.18073E+06         0.44546E+07         0.00000E+00
    0.44546E+07        -0.12871E+08         0.00000E+00
    0.00000E+00         0.00000E+00         0.00000E+00
 
    0.17081E+06         0.47068E+07         0.00000E+00
    0.47068E+07        -0.12891E+08         0.00000E+00
    0.00000E+00         0.00000E+00         0.00000E+00
 
    0.15620E+06         0.49627E+07         0.00000E+00
    0.49627E+07        -0.12906E+08         0.00000E+00
    0.00000E+00         0.00000E+00         0.00000E+00
 
    0.13765E+06         0.52222E+07         0.00000E+00
    0.52222E+07        -0.12917E+08         0.00000E+00
    0.00000E+00         0.00000E+00         0.00000E+00
 
    0.11496E+06         0.54871E+07         0.00000E+00
    0.54871E+07        -0.12924E+08         0.00000E+00
    0.00000E+00         0.00000E+00         0.00000E+00
 
    0.86147E+05         0.57583E+07         0.00000E+00
    0.57583E+07        -0.12923E+08         0.00000E+00
    0.00000E+00         0.00000E+00         0.00000E+00
 
    0.51730E+05         0.60293E+07         0.00000E+00
    0.60293E+07        -0.12905E+08         0.00000E+00
    0.00000E+00         0.00000E+00         0.00000E+00
 
    0.16805E+05         0.62970E+07         0.00000E+00
    0.62970E+07        -0.12877E+08         0.00000E+00
    0.00000E+00         0.00000E+00         0.00000E+00
 
   -0.61392E+06        -0.53589E+05         0.00000E+00
   -0.53589E+05        -0.11927E+08         0.00000E+00
    0.00000E+00         0.00000E+00         0.00000E+00
 
   -0.80222E+06        -0.13798E+06         0.00000E+00
   -0.13798E+06        -0.11937E+08         0.00000E+00
    0.00000E+00         0.00000E+00         0.00000E+00
 
   -0.96730E+06        -0.21363E+06         0.00000E+00
   -0.21363E+06        -0.11956E+08         0.00000E+00
    0.00000E+00         0.00000E+00         0.00000E+00
 
   -0.11105E+07        -0.28024E+06         0.00000E+00
   -0.28024E+06        -0.11982E+08         0.00000E+00
    0.00000E+00         0.00000E+00         0.00000E+00
 
   -0.12333E+07        -0.33761E+06         0.00000E+00
   -0.33761E+06        -0.12015E+08         0.00000E+00
    0.00000E+00         0.00000E+00         0.00000E+00
 
   -0.13369E+07        -0.38556E+06         0.00000E+00
   -0.38556E+06        -0.12055E+08         0.00000E+00
    0.00000E+00         0.00000E+00         0.00000E+00
 
   -0.14226E+07        -0.42393E+06         0.00000E+00
   -0.42393E+06        -0.12101E+08         0.00000E+00
    0.00000E+00         0.00000E+00         0.00000E+00
 
   -0.14915E+07        -0.45263E+06         0.00000E+00
   -0.45263E+06        -0.12153E+08         0.00000E+00
    0.00000E+00         0.00000E+00         0.00000E+00
 
   -0.15449E+07        -0.47159E+06         0.00000E+00
   -0.47159E+06        -0.12209E+08         0.00000E+00
    0.00000E+00         0.00000E+00         0.00000E+00
 
   -0.15839E+07        -0.48077E+06         0.00000E+00
   -0.48077E+06        -0.12270E+08         0.00000E+00
    0.00000E+00         0.00000E+00         0.00000E+00
 
   -0.16095E+07        -0.48015E+06         0.00000E+00
   -0.48015E+06        -0.12334E+08         0.00000E+00
    0.00000E+00         0.00000E+00         0.00000E+00
 
   -0.16227E+07        -0.46974E+06         0.00000E+00
   -0.46974E+06        -0.12402E+08         0.00000E+00
    0.00000E+00         0.00000E+00         0.00000E+00
 
   -0.16246E+07        -0.44956E+06         0.00000E+00
   -0.44956E+06        -0.12473E+08         0.00000E+00
    0.00000E+00         0.00000E+00         0.00000E+00
 
   -0.16160E+07        -0.41968E+06         0.00000E+00
   -0.41968E+06        -0.12547E+08         0.00000E+00
    0.00000E+00         0.00000E+00         0.00000E+00
 
   -0.15979E+07        -0.38014E+06         0.00000E+00
   -0.38014E+06        -0.12623E+08         0.00000E+00
    0.00000E+00         0.00000E+00         0.00000E+00
 
   -0.15711E+07        -0.33102E+06         0.00000E+00
   -0.33102E+06        -0.12700E+08         0.00000E+00
    0.00000E+00         0.00000E+00         0.00000E+00
 
   -0.15364E+07        -0.27240E+06         0.00000E+00
   -0.27240E+06        -0.12780E+08         0.00000E+00
    0.00000E+00         0.00000E+00         0.00000E+00
 
   -0.14946E+07        -0.20437E+06         0.00000E+00
   -0.20437E+06        -0.12861E+08         0.00000E+00
    0.00000E+00         0.00000E+00         0.00000E+00
 
   -0.14465E+07        -0.12703E+06         0.00000E+00
   -0.12703E+06        -0.12942E+08         0.00000E+00
    0.00000E+00         0.00000E+00         0.00000E+00
 
   -0.13927E+07        -0.40458E+05         0.00000E+00
   -0.40458E+05        -0.13025E+08         0.00000E+00
    0.00000E+00         0.00000E+00         0.00000E+00
 
   -0.13339E+07         0.55237E+05         0.00000E+00
    0.55237E+05        -0.13108E+08         0.00000E+00
    0.00000E+00         0.00000E+00         0.00000E+00
 
   -0.12709E+07         0.15996E+06         0.00000E+00
    0.15996E+06        -0.13191E+08         0.00000E+00
    0.00000E+00         0.00000E+00         0.00000E+00
 
   -0.12042E+07         0.27363E+06         0.00000E+00
    0.27363E+06        -0.13275E+08         0.00000E+00
    0.00000E+00         0.00000E+00         0.00000E+00
 
   -0.11344E+07         0.39615E+06         0.00000E+00
    0.39615E+06        -0.13359E+08         0.00000E+00
    0.00000E+00         0.00000E+00         0.00000E+00
 
   -0.10621E+07         0.52743E+06         0.00000E+00
    0.52743E+06        -0.13442E+08         0.00000E+00
    0.00000E+00         0.00000E+00         0.00000E+00
 
   -0.98800E+06         0.66739E+06         0.00000E+00
    0.66739E+06        -0.13525E+08         0.00000E+00
    0.00000E+00         0.00000E+00         0.00000E+00
 
   -0.91255E+06         0.81596E+06         0.00000E+00
    0.81596E+06        -0.13607E+08         0.00000E+00
    0.00000E+00         0.00000E+00         0.00000E+00
 
   -0.83636E+06         0.97305E+06         0.00000E+00
    0.97305E+06        -0.13688E+08         0.00000E+00
    0.00000E+00         0.00000E+00         0.00000E+00
 
   -0.75996E+06         0.11386E+07         0.00000E+00
    0.11386E+07        -0.13769E+08         0.00000E+00
    0.00000E+00         0.00000E+00         0.00000E+00
 
   -0.68393E+06         0.13125E+07         0.00000E+00
    0.13125E+07        -0.13848E+08         0.00000E+00
    0.00000E+00         0.00000E+00         0.00000E+00
 
   -0.60880E+06         0.14948E+07         0.00000E+00
    0.14948E+07        -0.13926E+08         0.00000E+00
    0.00000E+00         0.00000E+00         0.00000E+00
 
   -0.53514E+06         0.16853E+07         0.00000E+00
    0.16853E+07        -0.14003E+08         0.00000E+00
    0.00000E+00         0.00000E+00         0.00000E+00
 
   -0.46350E+06         0.18839E+07         0.00000E+00
    0.18839E+07        -0.14078E+08         0.00000E+00
    0.00000E+00         0.00000E+00         0.00000E+00
 
   -0.39444E+06         0.20906E+07         0.00000E+00
    0.20906E+07        -0.14151E+08         0.00000E+00
    0.00000E+00         0.00000E+00         0.00000E+00
 
   -0.32852E+06         0.23051E+07         0.00000E+00
    0.23051E+07        -0.14222E+08         0.00000E+00
    0.00000E+00         0.00000E+00         0.00000E+00
 
   -0.26631E+06         0.25276E+07         0.00000E+00
    0.25276E+07        -0.14291E+08         0.00000E+00
    0.00000E+00         0.00000E+00         0.00000E+00
 
   -0.20833E+06         0.27576E+07         0.00000E+00
    0.27576E+07        -0.14357E+08         0.00000E+00
    0.00000E+00         0.00000E+00         0.00000E+00
 
   -0.15509E+06         0.29950E+07         0.00000E+00
    0.29950E+07        -0.14421E+08         0.00000E+00
    0.00000E+00         0.00000E+00         0.00000E+00
 
   -0.10723E+06         0.32399E+07         0.00000E+00
    0.32399E+07        -0.14482E+08         0.00000E+00
    0.00000E+00         0.00000E+00         0.00000E+00
 
   -0.65489E+05         0.34920E+07         0.00000E+00
    0.34920E+07        -0.14539E+08         0.00000E+00
    0.00000E+00         0.00000E+00         0.00000E+00
 
   -0.30069E+05         0.37500E+07         0.00000E+00
    0.37500E+07        -0.14593E+08         0.00000E+00
    0.00000E+00         0.00000E+00         0.00000E+00
 
   -0.55982E+03         0.40137E+07         0.00000E+00
    0.40137E+07        -0.14643E+08         0.00000E+00
    0.00000E+00         0.00000E+00         0.00000E+00
 
    0.23035E+05         0.42841E+07         0.00000E+00
    0.42841E+07        -0.14693E+08         0.00000E+00
    0.00000E+00         0.00000E+00         0.00000E+00
 
    0.38890E+05         0.45632E+07         0.00000E+00
    0.45632E+07        -0.14740E+08         0.00000E+00
    0.00000E+00         0.00000E+00         0.00000E+00
 
    0.44594E+05         0.48489E+07         0.00000E+00
    0.48489E+07        -0.14777E+08         0.00000E+00
    0.00000E+00         0.00000E+00         0.00000E+00
 
    0.38593E+05         0.51385E+07         0.00000E+00
    0.51385E+07        -0.14803E+08         0.00000E+00
    0.00000E+00         0.00000E+00         0.00000E+00
 
    0.24400E+05         0.54227E+07         0.00000E+00
    0.54227E+07        -0.14823E+08         0.00000E+00
    0.00000E+00         0.00000E+00         0.00000E+00
 
    0.13541E+05         0.56980E+07         0.00000E+00
    0.56980E+07        -0.14849E+08         0.00000E+00
    0.00000E+00         0.00000E+00         0.00000E+00
 
    0.99966E+04         0.59881E+07         0.00000E+00
    0.59881E+07        -0.14926E+08         0.00000E+00
    0.00000E+00         0.00000E+00         0.00000E+00
 
   -0.58165E+05         0.62584E+07         0.00000E+00
    0.62584E+07        -0.14997E+08         0.00000E+00
    0.00000E+00         0.00000E+00        -0.62770E+05
 
   -0.27964E+07        -0.82088E+05         0.00000E+00
   -0.82088E+05        -0.13548E+08         0.00000E+00
    0.00000E+00         0.00000E+00         0.00000E+00
 
   -0.29322E+07        -0.21239E+06         0.00000E+00
   -0.21239E+06        -0.13559E+08         0.00000E+00
    0.00000E+00         0.00000E+00         0.00000E+00
 
   -0.30437E+07        -0.33009E+06         0.00000E+00
   -0.33009E+06        -0.13579E+08         0.00000E+00
    0.00000E+00         0.00000E+00         0.00000E+00
 
   -0.31326E+07        -0.43514E+06         0.00000E+00
   -0.43514E+06        -0.13606E+08         0.00000E+00
    0.00000E+00         0.00000E+00         0.00000E+00
 
   -0.32004E+07        -0.52750E+06         0.00000E+00
   -0.52750E+06        -0.13642E+08         0.00000E+00
    0.00000E+00         0.00000E+00         0.00000E+00
 
   -0.32488E+07        -0.60715E+06         0.00000E+00
   -0.60715E+06        -0.13684E+08         0.00000E+00
    0.00000E+00         0.00000E+00         0.00000E+00
 
   -0.32790E+07        -0.67414E+06         0.00000E+00
   -0.67414E+06        -0.13731E+08         0.00000E+00
    0.00000E+00         0.00000E+00         0.00000E+00
 
   -0.32924E+07        -0.72855E+06         0.00000E+00
   -0.72855E+06        -0.13785E+08         0.00000E+00
    0.00000E+00         0.00000E+00         0.00000E+00
 
   -0.32905E+07        -0.77048E+06         0.00000E+00
   -0.77048E+06        -0.13843E+08         0.00000E+00
    0.00000E+00         0.00000E+00         0.00000E+00
 
   -0.32745E+07        -0.80006E+06         0.00000E+00
   -0.80006E+06        -0.13905E+08         0.00000E+00
    0.00000E+00         0.00000E+00         0.00000E+00
 
   -0.32454E+07        -0.81746E+06         0.00000E+00
   -0.81746E+06        -0.13972E+08         0.00000E+00
    0.00000E+00         0.00000E+00         0.00000E+00
 
   -0.32045E+07        -0.82285E+06         0.00000E+00
   -0.82285E+06        -0.14041E+08         0.00000E+00
    0.00000E+00         0.00000E+00         0.00000E+00
 
   -0.31528E+07        -0.81643E+06         0.00000E+00
   -0.81643E+06        -0.14113E+08         0.00000E+00
    0.00000E+00         0.00000E+00         0.00000E+00
 
   -0.30913E+07        -0.79840E+06         0.00000E+00
   -0.79840E+06        -0.14188E+08         0.00000E+00
    0.00000E+00         0.00000E+00         0.00000E+00
 
   -0.30210E+07        -0.76899E+06         0.00000E+00
   -0.76899E+06        -0.14265E+08         0.00000E+00
    0.00000E+00         0.00000E+00         0.00000E+00
 
   -0.29427E+07        -0.72840E+06         0.00000E+00
   -0.72840E+06        -0.14343E+08         0.00000E+00
    0.00000E+00         0.00000E+00         0.00000E+00
 
   -0.28573E+07        -0.67687E+06         0.00000E+00
   -0.67687E+06        -0.14423E+08         0.00000E+00
    0.00000E+00         0.00000E+00         0.00000E+00
 
   -0.27655E+07        -0.61460E+06         0.00000E+00
   -0.61460E+06        -0.14504E+08         0.00000E+00
    0.00000E+00         0.00000E+00         0.00000E+00
 
   -0.26682E+07        -0.54182E+06         0.00000E+00
   -0.54182E+06        -0.14587E+08         0.00000E+00
    0.00000E+00         0.00000E+00         0.00000E+00
 
   -0.25659E+07        -0.45873E+06         0.00000E+00
   -0.45873E+06        -0.14670E+08         0.00000E+00
    0.00000E+00         0.00000E+00         0.00000E+00
 
   -0.24594E+07        -0.36553E+06         0.00000E+00
   -0.36553E+06        -0.14753E+08         0.00000E+00
    0.00000E+00         0.00000E+00         0.00000E+00
 
   -0.23492E+07        -0.26240E+06         0.00000E+00
   -0.26240E+06        -0.14837E+08         0.00000E+00
    0.00000E+00         0.00000E+00         0.00000E+00
 
   -0.22360E+07        -0.14951E+06         0.00000E+00
   -0.14951E+06        -0.14922E+08         0.00000E+00
    0.00000E+00         0.00000E+00         0.00000E+00
 
   -0.21203E+07        -0.27005E+05         0.00000E+00
   -0.27005E+05        -0.15006E+08         0.00000E+00
    0.00000E+00         0.00000E+00         0.00000E+00
 
   -0.20027E+07         0.10497E+06         0.00000E+00
    0.10497E+06        -0.15091E+08         0.00000E+00
    0.00000E+00         0.00000E+00         0.00000E+00
 
   -0.18836E+07         0.24630E+06         0.00000E+00
    0.24630E+06        -0.15176E+08         0.00000E+00
    0.00000E+00         0.00000E+00         0.00000E+00
 
   -0.17637E+07         0.39689E+06         0.00000E+00
    0.39689E+06        -0.15260E+08         0.00000E+00
    0.00000E+00         0.00000E+00         0.00000E+00
 
   -0.16433E+07         0.55666E+06         0.00000E+00
    0.55666E+06        -0.15345E+08         0.00000E+00
    0.00000E+00         0.00000E+00         0.00000E+00
 
   -0.15231E+07         0.72555E+06         0.00000E+00
    0.72555E+06        -0.15429E+08         0.00000E+00
    0.00000E+00         0.00000E+00         0.00000E+00
 
   -0.14036E+07         0.90349E+06         0.00000E+00
    0.90349E+06        -0.15513E+08         0.00000E+00
    0.00000E+00         0.00000E+00         0.00000E+00
 
   -0.12853E+07         0.10905E+07         0.00000E+00
    0.10905E+07        -0.15596E+08         0.00000E+00
    0.00000E+00         0.00000E+00         0.00000E+00
 
   -0.11688E+07         0.12864E+07         0.00000E+00
    0.12864E+07        -0.15679E+08         0.00000E+00
    0.00000E+00         0.00000E+00         0.00000E+00
 
   -0.10547E+07         0.14913E+07         0.00000E+00
    0.14913E+07        -0.15761E+08         0.00000E+00
    0.00000E+00         0.00000E+00         0.00000E+00
 
   -0.94352E+06         0.17052E+07         0.00000E+00
    0.17052E+07        -0.15843E+08         0.00000E+00
    0.00000E+00         0.00000E+00         0.00000E+00
 
   -0.83603E+06         0.19278E+07         0.00000E+00
    0.19278E+07        -0.15923E+08         0.00000E+00
    0.00000E+00         0.00000E+00         0.00000E+00
 
   -0.73288E+06         0.21592E+07         0.00000E+00
    0.21592E+07        -0.16002E+08         0.00000E+00
    0.00000E+00         0.00000E+00         0.00000E+00
 
   -0.63489E+06         0.23994E+07         0.00000E+00
    0.23994E+07        -0.16080E+08         0.00000E+00
    0.00000E+00         0.00000E+00         0.00000E+00
 
   -0.54294E+06         0.26481E+07         0.00000E+00
    0.26481E+07        -0.16157E+08         0.00000E+00
    0.00000E+00         0.00000E+00         0.00000E+00
 
   -0.45731E+06         0.29041E+07         0.00000E+00
    0.29041E+07        -0.16230E+08         0.00000E+00
    0.00000E+00         0.00000E+00         0.00000E+00
 
   -0.37819E+06         0.31680E+07         0.00000E+00
    0.31680E+07        -0.16304E+08         0.00000E+00
    0.00000E+00         0.00000E+00         0.00000E+00
 
   -0.30763E+06         0.34420E+07         0.00000E+00
    0.34420E+07        -0.16378E+08         0.00000E+00
    0.00000E+00         0.00000E+00         0.00000E+00
 
   -0.24933E+06         0.37253E+07         0.00000E+00
    0.37253E+07        -0.16444E+08         0.00000E+00
    0.00000E+00         0.00000E+00         0.00000E+00
 
   -0.20466E+06         0.40110E+07         0.00000E+00
    0.40110E+07        -0.16497E+08         0.00000E+00
    0.00000E+00         0.00000E+00         0.00000E+00
 
   -0.16807E+06         0.42906E+07         0.00000E+00
    0.42906E+07        -0.16548E+08         0.00000E+00
    0.00000E+00         0.00000E+00         0.00000E+00
 
   -0.13210E+06         0.45706E+07         0.00000E+00
    0.45706E+07        -0.16624E+08         0.00000E+00
    0.00000E+00         0.00000E+00         0.00000E+00
 
   -0.10808E+06         0.48512E+07         0.00000E+00
    0.48512E+07        -0.16734E+08         0.00000E+00
    0.00000E+00         0.00000E+00        -0.16023E+05
 
   -0.16923E+06         0.51123E+07         0.00000E+00
    0.51123E+07        -0.16828E+08         0.00000E+00
    0.00000E+00         0.00000E+00        -0.11385E+06
 
   -0.25120E+06         0.53647E+07         0.00000E+00
    0.53647E+07        -0.16921E+08         0.00000E+00
    0.00000E+00         0.00000E+00        -0.22005E+06
 
   -0.42781E+06         0.55780E+07         0.00000E+00
    0.55780E+07        -0.16983E+08         0.00000E+00
    0.00000E+00         0.00000E+00        -0.41197E+06
 
   -0.63327E+06         0.57819E+07         0.00000E+00
    0.57819E+07        -0.17071E+08         0.00000E+00
    0.00000E+00         0.00000E+00        -0.62825E+06
 
   -0.53787E+07        -0.11240E+06         0.00000E+00
   -0.11240E+06        -0.15324E+08         0.00000E+00
    0.00000E+00         0.00000E+00         0.00000E+00
 
   -0.54409E+07        -0.29005E+06         0.00000E+00
   -0.29005E+06        -0.15335E+08         0.00000E+00
    0.00000E+00         0.00000E+00         0.00000E+00
 
   -0.54788E+07        -0.45080E+06         0.00000E+00
   -0.45080E+06        -0.15355E+08         0.00000E+00
    0.00000E+00         0.00000E+00         0.00000E+00
 
   -0.54943E+07        -0.59469E+06         0.00000E+00
   -0.59469E+06        -0.15383E+08         0.00000E+00
    0.00000E+00         0.00000E+00         0.00000E+00
 
   -0.54893E+07        -0.72191E+06         0.00000E+00
   -0.72191E+06        -0.15418E+08         0.00000E+00
    0.00000E+00         0.00000E+00         0.00000E+00
 
   -0.54653E+07        -0.83272E+06         0.00000E+00
   -0.83272E+06        -0.15460E+08         0.00000E+00
    0.00000E+00         0.00000E+00         0.00000E+00
 
   -0.54242E+07        -0.92738E+06         0.00000E+00
   -0.92738E+06        -0.15507E+08         0.00000E+00
    0.00000E+00         0.00000E+00         0.00000E+00
 
   -0.53674E+07        -0.10062E+07         0.00000E+00
   -0.10062E+07        -0.15559E+08         0.00000E+00
    0.00000E+00         0.00000E+00         0.00000E+00
 
   -0.52963E+07        -0.10696E+07         0.00000E+00
   -0.10696E+07        -0.15616E+08         0.00000E+00
    0.00000E+00         0.00000E+00         0.00000E+00
 
   -0.52125E+07        -0.11179E+07         0.00000E+00
   -0.11179E+07        -0.15676E+08         0.00000E+00
    0.00000E+00         0.00000E+00         0.00000E+00
 
   -0.51170E+07        -0.11515E+07         0.00000E+00
   -0.11515E+07        -0.15739E+08         0.00000E+00
    0.00000E+00         0.00000E+00         0.00000E+00
 
   -0.50112E+07        -0.11708E+07         0.00000E+00
   -0.11708E+07        -0.15805E+08         0.00000E+00
    0.00000E+00         0.00000E+00         0.00000E+00
 
   -0.48961E+07        -0.11763E+07         0.00000E+00
   -0.11763E+07        -0.15874E+08         0.00000E+00
    0.00000E+00         0.00000E+00         0.00000E+00
 
   -0.47728E+07        -0.11683E+07         0.00000E+00
   -0.11683E+07        -0.15944E+08         0.00000E+00
    0.00000E+00         0.00000E+00         0.00000E+00
 
   -0.46423E+07        -0.11473E+07         0.00000E+00
   -0.11473E+07        -0.16016E+08         0.00000E+00
    0.00000E+00         0.00000E+00         0.00000E+00
 
   -0.45053E+07        -0.11137E+07         0.00000E+00
   -0.11137E+07        -0.16089E+08         0.00000E+00
    0.00000E+00         0.00000E+00         0.00000E+00
 
   -0.43628E+07        -0.10679E+07         0.00000E+00
   -0.10679E+07        -0.16163E+08         0.00000E+00
    0.00000E+00         0.00000E+00         0.00000E+00
 
   -0.42154E+07        -0.10103E+07         0.00000E+00
   -0.10103E+07        -0.16237E+08         0.00000E+00
    0.00000E+00         0.00000E+00         0.00000E+00
 
   -0.40639E+07        -0.94126E+06         0.00000E+00
   -0.94126E+06        -0.16313E+08         0.00000E+00
    0.00000E+00         0.00000E+00         0.00000E+00
 
   -0.39088E+07        -0.86121E+06         0.00000E+00
   -0.86121E+06        -0.16389E+08         0.00000E+00
    0.00000E+00         0.00000E+00         0.00000E+00
 
   -0.37507E+07        -0.77044E+06         0.00000E+00
   -0.77044E+06        -0.16465E+08         0.00000E+00
    0.00000E+00         0.00000E+00         0.00000E+00
 
   -0.35902E+07        -0.66926E+06         0.00000E+00
   -0.66926E+06        -0.16542E+08         0.00000E+00
    0.00000E+00         0.00000E+00         0.00000E+00
 
   -0.34276E+07        -0.55796E+06         0.00000E+00
   -0.55796E+06        -0.16619E+08         0.00000E+00
    0.00000E+00         0.00000E+00         0.00000E+00
 
   -0.32635E+07        -0.43677E+06         0.00000E+00
   -0.43677E+06        -0.16696E+08         0.00000E+00
    0.00000E+00         0.00000E+00         0.00000E+00
 
   -0.30982E+07        -0.30589E+06         0.00000E+00
   -0.30589E+06        -0.16774E+08         0.00000E+00
    0.00000E+00         0.00000E+00         0.00000E+00
 
   -0.29321E+07        -0.16549E+06         0.00000E+00
   -0.16549E+06        -0.16853E+08         0.00000E+00
    0.00000E+00         0.00000E+00         0.00000E+00
 
   -0.27655E+07        -0.15689E+05         0.00000E+00
   -0.15689E+05        -0.16931E+08         0.00000E+00
    0.00000E+00         0.00000E+00         0.00000E+00
 
   -0.25990E+07         0.14343E+06         0.00000E+00
    0.14343E+06        -0.17010E+08         0.00000E+00
    0.00000E+00         0.00000E+00         0.00000E+00
 
   -0.24328E+07         0.31181E+06         0.00000E+00
    0.31181E+06        -0.17090E+08         0.00000E+00
    0.00000E+00         0.00000E+00         0.00000E+00
 
   -0.22674E+07         0.48947E+06         0.00000E+00
    0.48947E+06        -0.17170E+08         0.00000E+00
    0.00000E+00         0.00000E+00         0.00000E+00
 
   -0.21031E+07         0.67644E+06         0.00000E+00
    0.67644E+06        -0.17250E+08         0.00000E+00
    0.00000E+00         0.00000E+00         0.00000E+00
 
   -0.19406E+07         0.87278E+06         0.00000E+00
    0.87278E+06        -0.17331E+08         0.00000E+00
    0.00000E+00         0.00000E+00         0.00000E+00
 
   -0.17803E+07         0.10786E+07         0.00000E+00
    0.10786E+07        -0.17413E+08         0.00000E+00
    0.00000E+00         0.00000E+00         0.00000E+00
 
   -0.16229E+07         0.12940E+07         0.00000E+00
    0.12940E+07        -0.17494E+08         0.00000E+00
    0.00000E+00         0.00000E+00         0.00000E+00
 
   -0.14691E+07         0.15191E+07         0.00000E+00
    0.15191E+07        -0.17576E+08         0.00000E+00
    0.00000E+00         0.00000E+00         0.00000E+00
 
   -0.13198E+07         0.17541E+07         0.00000E+00
    0.17541E+07        -0.17658E+08         0.00000E+00
    0.00000E+00         0.00000E+00         0.00000E+00
 
   -0.11757E+07         0.19985E+07         0.00000E+00
    0.19985E+07        -0.17739E+08         0.00000E+00
    0.00000E+00         0.00000E+00         0.00000E+00
 
   -0.10376E+07         0.22531E+07         0.00000E+00
    0.22531E+07        -0.17821E+08         0.00000E+00
    0.00000E+00         0.00000E+00         0.00000E+00
 
   -0.90880E+06         0.25206E+07         0.00000E+00
    0.25206E+07        -0.17904E+08         0.00000E+00
    0.00000E+00         0.00000E+00         0.00000E+00
 
   -0.79209E+06         0.27965E+07         0.00000E+00
    0.27965E+07        -0.17974E+08         0.00000E+00
    0.00000E+00         0.00000E+00         0.00000E+00
 
   -0.68427E+06         0.30723E+07         0.00000E+00
    0.30723E+07        -0.18038E+08         0.00000E+00
    0.00000E+00         0.00000E+00         0.00000E+00
 
   -0.57759E+06         0.33506E+07         0.00000E+00
    0.33506E+07        -0.18126E+08         0.00000E+00
    0.00000E+00         0.00000E+00         0.00000E+00
 
   -0.52091E+06         0.36287E+07         0.00000E+00
    0.36287E+07        -0.18236E+08         0.00000E+00
    0.00000E+00         0.00000E+00        -0.52803E+05
 
   -0.50482E+06         0.39028E+07         0.00000E+00
    0.39028E+07        -0.18340E+08         0.00000E+00
    0.00000E+00         0.00000E+00        -0.14333E+06
 
   -0.55197E+06         0.41633E+07         0.00000E+00
    0.41633E+07        -0.18421E+08         0.00000E+00
    0.00000E+00         0.00000E+00        -0.29415E+06
 
   -0.67227E+06         0.44023E+07         0.00000E+00
    0.44023E+07        -0.18483E+08         0.00000E+00
    0.00000E+00         0.00000E+00        -0.51150E+06
 
   -0.82497E+06         0.46424E+07         0.00000E+00
    0.46424E+07        -0.18576E+08         0.00000E+00
    0.00000E+00         0.00000E+00        -0.75305E+06
 
   -0.98780E+06         0.48688E+07         0.00000E+00
    0.48688E+07        -0.18673E+08         0.00000E+00
    0.00000E+00         0.00000E+00        -0.98501E+06
 
   -0.11755E+07         0.50876E+07         0.00000E+00
    0.50876E+07        -0.18774E+08         0.00000E+00
    0.00000E+00         0.00000E+00        -0.12028E+07
 
   -0.13844E+07         0.53047E+07         0.00000E+00
    0.53047E+07        -0.18868E+08         0.00000E+00
    0.00000E+00         0.00000E+00        -0.14005E+07
 
   -0.83631E+07        -0.14294E+06         0.00000E+00
   -0.14294E+06        -0.17253E+08         0.00000E+00
    0.00000E+00         0.00000E+00         0.00000E+00
 
   -0.83272E+07        -0.36751E+06         0.00000E+00
   -0.36751E+06        -0.17264E+08         0.00000E+00
    0.00000E+00         0.00000E+00         0.00000E+00
 
   -0.82683E+07        -0.56960E+06         0.00000E+00
   -0.56960E+06        -0.17283E+08         0.00000E+00
    0.00000E+00         0.00000E+00         0.00000E+00
 
   -0.81885E+07        -0.75002E+06         0.00000E+00
   -0.75002E+06        -0.17309E+08         0.00000E+00
    0.00000E+00         0.00000E+00         0.00000E+00
 
   -0.80902E+07        -0.90929E+06         0.00000E+00
   -0.90929E+06        -0.17342E+08         0.00000E+00
    0.00000E+00         0.00000E+00         0.00000E+00
 
   -0.79751E+07        -0.10480E+07         0.00000E+00
   -0.10480E+07        -0.17381E+08         0.00000E+00
    0.00000E+00         0.00000E+00         0.00000E+00
 
   -0.78452E+07        -0.11668E+07         0.00000E+00
   -0.11668E+07        -0.17423E+08         0.00000E+00
    0.00000E+00         0.00000E+00         0.00000E+00
 
   -0.77020E+07        -0.12663E+07         0.00000E+00
   -0.12663E+07        -0.17470E+08         0.00000E+00
    0.00000E+00         0.00000E+00         0.00000E+00
 
   -0.75472E+07        -0.13472E+07         0.00000E+00
   -0.13472E+07        -0.17520E+08         0.00000E+00
    0.00000E+00         0.00000E+00         0.00000E+00
 
   -0.73821E+07        -0.14102E+07         0.00000E+00
   -0.14102E+07        -0.17573E+08         0.00000E+00
    0.00000E+00         0.00000E+00         0.00000E+00
 
   -0.72082E+07        -0.14559E+07         0.00000E+00
   -0.14559E+07        -0.17628E+08         0.00000E+00
    0.00000E+00         0.00000E+00         0.00000E+00
 
   -0.70267E+07        -0.14851E+07         0.00000E+00
   -0.14851E+07        -0.17685E+08         0.00000E+00
    0.00000E+00         0.00000E+00         0.00000E+00
 
   -0.68387E+07        -0.14984E+07         0.00000E+00
   -0.14984E+07        -0.17742E+08         0.00000E+00
    0.00000E+00         0.00000E+00         0.00000E+00
 
   -0.66453E+07        -0.14965E+07         0.00000E+00
   -0.14965E+07        -0.17801E+08         0.00000E+00
    0.00000E+00         0.00000E+00         0.00000E+00
 
   -0.64474E+07        -0.14802E+07         0.00000E+00
   -0.14802E+07        -0.17860E+08         0.00000E+00
    0.00000E+00         0.00000E+00         0.00000E+00
 
   -0.62458E+07        -0.14502E+07         0.00000E+00
   -0.14502E+07        -0.17919E+08         0.00000E+00
    0.00000E+00         0.00000E+00         0.00000E+00
 
   -0.60413E+07        -0.14070E+07         0.00000E+00
   -0.14070E+07        -0.17979E+08         0.00000E+00
    0.00000E+00         0.00000E+00         0.00000E+00
 
   -0.58344E+07        -0.13514E+07         0.00000E+00
   -0.13514E+07        -0.18039E+08         0.00000E+00
    0.00000E+00         0.00000E+00         0.00000E+00
 
   -0.56257E+07        -0.12839E+07         0.00000E+00
   -0.12839E+07        -0.18098E+08         0.00000E+00
    0.00000E+00         0.00000E+00         0.00000E+00
 
   -0.54157E+07        -0.12051E+07         0.00000E+00
   -0.12051E+07        -0.18158E+08         0.00000E+00
    0.00000E+00         0.00000E+00         0.00000E+00
 
   -0.52047E+07        -0.11156E+07         0.00000E+00
   -0.11156E+07        -0.18218E+08         0.00000E+00
    0.00000E+00         0.00000E+00         0.00000E+00
 
   -0.49930E+07        -0.10157E+07         0.00000E+00
   -0.10157E+07        -0.18277E+08         0.00000E+00
    0.00000E+00         0.00000E+00         0.00000E+00
 
   -0.47809E+07        -0.90600E+06         0.00000E+00
   -0.90600E+06        -0.18337E+08         0.00000E+00
    0.00000E+00         0.00000E+00         0.00000E+00
 
   -0.45686E+07        -0.78672E+06         0.00000E+00
   -0.78672E+06        -0.18398E+08         0.00000E+00
    0.00000E+00         0.00000E+00         0.00000E+00
 
   -0.43562E+07        -0.65817E+06         0.00000E+00
   -0.65817E+06        -0.18458E+08         0.00000E+00
    0.00000E+00         0.00000E+00         0.00000E+00
 
   -0.41438E+07        -0.52059E+06         0.00000E+00
   -0.52059E+06        -0.18520E+08         0.00000E+00
    0.00000E+00         0.00000E+00         0.00000E+00
 
   -0.39315E+07        -0.37413E+06         0.00000E+00
   -0.37413E+06        -0.18582E+08         0.00000E+00
    0.00000E+00         0.00000E+00         0.00000E+00
 
   -0.37195E+07        -0.21886E+06         0.00000E+00
   -0.21886E+06        -0.18645E+08         0.00000E+00
    0.00000E+00         0.00000E+00         0.00000E+00
 
   -0.35078E+07        -0.54793E+05         0.00000E+00
   -0.54793E+05        -0.18710E+08         0.00000E+00
    0.00000E+00         0.00000E+00         0.00000E+00
 
   -0.32965E+07         0.11814E+06         0.00000E+00
    0.11814E+06        -0.18775E+08         0.00000E+00
    0.00000E+00         0.00000E+00         0.00000E+00
 
   -0.30858E+07         0.30010E+06         0.00000E+00
    0.30010E+06        -0.18843E+08         0.00000E+00
    0.00000E+00         0.00000E+00         0.00000E+00
 
   -0.28759E+07         0.49131E+06         0.00000E+00
    0.49131E+06        -0.18911E+08         0.00000E+00
    0.00000E+00         0.00000E+00         0.00000E+00
 
   -0.26672E+07         0.69212E+06         0.00000E+00
    0.69212E+06        -0.18982E+08         0.00000E+00
    0.00000E+00         0.00000E+00         0.00000E+00
 
   -0.24599E+07         0.90290E+06         0.00000E+00
    0.90290E+06        -0.19054E+08         0.00000E+00
    0.00000E+00         0.00000E+00         0.00000E+00
 
   -0.22546E+07         0.11240E+07         0.00000E+00
    0.11240E+07        -0.19127E+08         0.00000E+00
    0.00000E+00         0.00000E+00         0.00000E+00
 
   -0.20520E+07         0.13563E+07         0.00000E+00
    0.13563E+07        -0.19202E+08         0.00000E+00
    0.00000E+00         0.00000E+00         0.00000E+00
 
   -0.18542E+07         0.16019E+07         0.00000E+00
    0.16019E+07        -0.19280E+08         0.00000E+00
    0.00000E+00         0.00000E+00         0.00000E+00
 
   -0.16624E+07         0.18578E+07         0.00000E+00
    0.18578E+07        -0.19354E+08         0.00000E+00
    0.00000E+00         0.00000E+00         0.00000E+00
 
   -0.14716E+07         0.21174E+07         0.00000E+00
    0.21174E+07        -0.19421E+08         0.00000E+00
    0.00000E+00         0.00000E+00         0.00000E+00
 
   -0.13150E+07         0.23836E+07         0.00000E+00
    0.23836E+07        -0.19518E+08         0.00000E+00
    0.00000E+00         0.00000E+00        -0.43360E+05
 
   -0.11932E+07         0.26544E+07         0.00000E+00
    0.26544E+07        -0.19624E+08         0.00000E+00
    0.00000E+00         0.00000E+00        -0.12748E+06
 
   -0.11415E+07         0.29204E+07         0.00000E+00
    0.29204E+07        -0.19705E+08         0.00000E+00
    0.00000E+00         0.00000E+00        -0.28856E+06
 
   -0.11729E+07         0.31789E+07         0.00000E+00
    0.31789E+07        -0.19780E+08         0.00000E+00
    0.00000E+00         0.00000E+00        -0.53633E+06
 
   -0.12274E+07         0.34308E+07         0.00000E+00
    0.34308E+07        -0.19871E+08         0.00000E+00
    0.00000E+00         0.00000E+00        -0.79448E+06
 
   -0.13100E+07         0.36781E+07         0.00000E+00
    0.36781E+07        -0.19971E+08         0.00000E+00
    0.00000E+00         0.00000E+00        -0.10508E+07
 
   -0.14241E+07         0.39227E+07         0.00000E+00
    0.39227E+07        -0.20074E+08         0.00000E+00
    0.00000E+00         0.00000E+00        -0.12944E+07
 
   -0.15633E+07         0.41669E+07         0.00000E+00
    0.41669E+07        -0.20170E+08         0.00000E+00
    0.00000E+00         0.00000E+00        -0.15169E+07
 
   -0.17298E+07         0.44147E+07         0.00000E+00
    0.44147E+07        -0.20261E+08         0.00000E+00
    0.00000E+00         0.00000E+00        -0.17280E+07
 
   -0.19141E+07         0.46684E+07         0.00000E+00
    0.46684E+07        -0.20343E+08         0.00000E+00
    0.00000E+00         0.00000E+00        -0.19285E+07
 
   -0.21144E+07         0.49245E+07         0.00000E+00
    0.49245E+07        -0.20416E+08         0.00000E+00
    0.00000E+00         0.00000E+00        -0.21224E+07
 
   -0.11732E+08        -0.17411E+06         0.00000E+00
   -0.17411E+06        -0.19331E+08         0.00000E+00
    0.00000E+00         0.00000E+00         0.00000E+00
 
   -0.11569E+08        -0.43897E+06         0.00000E+00
   -0.43897E+06        -0.19339E+08         0.00000E+00
    0.00000E+00         0.00000E+00         0.00000E+00
 
   -0.11387E+08        -0.67676E+06         0.00000E+00
   -0.67676E+06        -0.19355E+08         0.00000E+00
    0.00000E+00         0.00000E+00         0.00000E+00
 
   -0.11188E+08        -0.88775E+06         0.00000E+00
   -0.88775E+06        -0.19377E+08         0.00000E+00
    0.00000E+00         0.00000E+00         0.00000E+00
 
   -0.10974E+08        -0.10730E+07         0.00000E+00
   -0.10730E+07        -0.19403E+08         0.00000E+00
    0.00000E+00         0.00000E+00         0.00000E+00
 
   -0.10748E+08        -0.12336E+07         0.00000E+00
   -0.12336E+07        -0.19434E+08         0.00000E+00
    0.00000E+00         0.00000E+00         0.00000E+00
 
   -0.10511E+08        -0.13704E+07         0.00000E+00
   -0.13704E+07        -0.19468E+08         0.00000E+00
    0.00000E+00         0.00000E+00         0.00000E+00
 
   -0.10264E+08        -0.14843E+07         0.00000E+00
   -0.14843E+07        -0.19505E+08         0.00000E+00
    0.00000E+00         0.00000E+00         0.00000E+00
 
   -0.10010E+08        -0.15760E+07         0.00000E+00
   -0.15760E+07        -0.19543E+08         0.00000E+00
    0.00000E+00         0.00000E+00         0.00000E+00
 
   -0.97499E+07        -0.16468E+07         0.00000E+00
   -0.16468E+07        -0.19582E+08         0.00000E+00
    0.00000E+00         0.00000E+00         0.00000E+00
 
   -0.94854E+07        -0.16977E+07         0.00000E+00
   -0.16977E+07        -0.19622E+08         0.00000E+00
    0.00000E+00         0.00000E+00         0.00000E+00
 
   -0.92178E+07        -0.17297E+07         0.00000E+00
   -0.17297E+07        -0.19661E+08         0.00000E+00
    0.00000E+00         0.00000E+00         0.00000E+00
 
   -0.89482E+07        -0.17441E+07         0.00000E+00
   -0.17441E+07        -0.19700E+08         0.00000E+00
    0.00000E+00         0.00000E+00         0.00000E+00
 
   -0.86777E+07        -0.17420E+07         0.00000E+00
   -0.17420E+07        -0.19738E+08         0.00000E+00
    0.00000E+00         0.00000E+00         0.00000E+00
 
   -0.84071E+07        -0.17243E+07         0.00000E+00
   -0.17243E+07        -0.19775E+08         0.00000E+00
    0.00000E+00         0.00000E+00         0.00000E+00
 
   -0.81370E+07        -0.16923E+07         0.00000E+00
   -0.16923E+07        -0.19811E+08         0.00000E+00
    0.00000E+00         0.00000E+00         0.00000E+00
 
   -0.78681E+07        -0.16469E+07         0.00000E+00
   -0.16469E+07        -0.19845E+08         0.00000E+00
    0.00000E+00         0.00000E+00         0.00000E+00
 
   -0.76006E+07        -0.15891E+07         0.00000E+00
   -0.15891E+07        -0.19879E+08         0.00000E+00
    0.00000E+00         0.00000E+00         0.00000E+00
 
   -0.73348E+07        -0.15197E+07         0.00000E+00
   -0.15197E+07        -0.19913E+08         0.00000E+00
    0.00000E+00         0.00000E+00         0.00000E+00
 
   -0.70709E+07        -0.14395E+07         0.00000E+00
   -0.14395E+07        -0.19945E+08         0.00000E+00
    0.00000E+00         0.00000E+00         0.00000E+00
 
   -0.68089E+07        -0.13493E+07         0.00000E+00
   -0.13493E+07        -0.19977E+08         0.00000E+00
    0.00000E+00         0.00000E+00         0.00000E+00
 
   -0.65487E+07        -0.12497E+07         0.00000E+00
   -0.12497E+07        -0.20009E+08         0.00000E+00
    0.00000E+00         0.00000E+00         0.00000E+00
 
   -0.62903E+07        -0.11411E+07         0.00000E+00
   -0.11411E+07        -0.20041E+08         0.00000E+00
    0.00000E+00         0.00000E+00         0.00000E+00
 
   -0.60335E+07        -0.10242E+07         0.00000E+00
   -0.10242E+07        -0.20073E+08         0.00000E+00
    0.00000E+00         0.00000E+00         0.00000E+00
 
   -0.57780E+07        -0.89914E+06         0.00000E+00
   -0.89914E+06        -0.20107E+08         0.00000E+00
    0.00000E+00         0.00000E+00         0.00000E+00
 
   -0.55236E+07        -0.76631E+06         0.00000E+00
   -0.76631E+06        -0.20141E+08         0.00000E+00
    0.00000E+00         0.00000E+00         0.00000E+00
 
   -0.52699E+07        -0.62585E+06         0.00000E+00
   -0.62585E+06        -0.20177E+08         0.00000E+00
    0.00000E+00         0.00000E+00         0.00000E+00
 
   -0.50166E+07        -0.47785E+06         0.00000E+00
   -0.47785E+06        -0.20214E+08         0.00000E+00
    0.00000E+00         0.00000E+00         0.00000E+00
 
   -0.47633E+07        -0.32229E+06         0.00000E+00
   -0.32229E+06        -0.20253E+08         0.00000E+00
    0.00000E+00         0.00000E+00         0.00000E+00
 
   -0.45096E+07        -0.15903E+06         0.00000E+00
   -0.15903E+06        -0.20295E+08         0.00000E+00
    0.00000E+00         0.00000E+00         0.00000E+00
 
   -0.42552E+07         0.12180E+05         0.00000E+00
    0.12180E+05        -0.20340E+08         0.00000E+00
    0.00000E+00         0.00000E+00         0.00000E+00
 
   -0.39998E+07         0.19172E+06         0.00000E+00
    0.19172E+06        -0.20387E+08         0.00000E+00
    0.00000E+00         0.00000E+00         0.00000E+00
 
   -0.37428E+07         0.38011E+06         0.00000E+00
    0.38011E+06        -0.20438E+08         0.00000E+00
    0.00000E+00         0.00000E+00         0.00000E+00
 
   -0.34842E+07         0.57813E+06         0.00000E+00
    0.57813E+06        -0.20492E+08         0.00000E+00
    0.00000E+00         0.00000E+00         0.00000E+00
 
   -0.32242E+07         0.78728E+06         0.00000E+00
    0.78728E+06        -0.20550E+08         0.00000E+00
    0.00000E+00         0.00000E+00         0.00000E+00
 
   -0.29623E+07         0.10066E+07         0.00000E+00
    0.10066E+07        -0.20612E+08         0.00000E+00
    0.00000E+00         0.00000E+00         0.00000E+00
 
   -0.26987E+07         0.12334E+07         0.00000E+00
    0.12334E+07        -0.20672E+08         0.00000E+00
    0.00000E+00         0.00000E+00        -0.61684E+04
 
   -0.24609E+07         0.14684E+07         0.00000E+00
    0.14684E+07        -0.20737E+08         0.00000E+00
    0.00000E+00         0.00000E+00        -0.58882E+05
 
   -0.22509E+07         0.17127E+07         0.00000E+00
    0.17127E+07        -0.20828E+08         0.00000E+00
    0.00000E+00         0.00000E+00        -0.15533E+06
 
   -0.21321E+07         0.19571E+07         0.00000E+00
    0.19571E+07        -0.20904E+08         0.00000E+00
    0.00000E+00         0.00000E+00        -0.37133E+06
 
   -0.20610E+07         0.21977E+07         0.00000E+00
    0.21977E+07        -0.20986E+08         0.00000E+00
    0.00000E+00         0.00000E+00        -0.63616E+06
 
   -0.20240E+07         0.24358E+07         0.00000E+00
    0.24358E+07        -0.21087E+08         0.00000E+00
    0.00000E+00         0.00000E+00        -0.91237E+06
 
   -0.20201E+07         0.26773E+07         0.00000E+00
    0.26773E+07        -0.21191E+08         0.00000E+00
    0.00000E+00         0.00000E+00        -0.11835E+07
 
   -0.20489E+07         0.29289E+07         0.00000E+00
    0.29289E+07        -0.21295E+08         0.00000E+00
    0.00000E+00         0.00000E+00        -0.14421E+07
 
   -0.21119E+07         0.31868E+07         0.00000E+00
    0.31868E+07        -0.21397E+08         0.00000E+00
    0.00000E+00         0.00000E+00        -0.16904E+07
 
   -0.22030E+07         0.34551E+07         0.00000E+00
    0.34551E+07        -0.21493E+08         0.00000E+00
    0.00000E+00         0.00000E+00        -0.19297E+07
 
   -0.23205E+07         0.37317E+07         0.00000E+00
    0.37317E+07        -0.21585E+08         0.00000E+00
    0.00000E+00         0.00000E+00        -0.21624E+07
 
   -0.24622E+07         0.40148E+07         0.00000E+00
    0.40148E+07        -0.21669E+08         0.00000E+00
    0.00000E+00         0.00000E+00        -0.23870E+07
 
   -0.26274E+07         0.43019E+07         0.00000E+00
    0.43019E+07        -0.21747E+08         0.00000E+00
    0.00000E+00         0.00000E+00        -0.26049E+07
 
   -0.28165E+07         0.45987E+07         0.00000E+00
    0.45987E+07        -0.21814E+08         0.00000E+00
    0.00000E+00         0.00000E+00        -0.28149E+07
 
   -0.15432E+08        -0.19317E+06         0.00000E+00
   -0.19317E+06        -0.21530E+08         0.00000E+00
    0.00000E+00         0.00000E+00         0.00000E+00
 
   -0.15116E+08        -0.49188E+06         0.00000E+00
   -0.49188E+06        -0.21539E+08         0.00000E+00
    0.00000E+00         0.00000E+00         0.00000E+00
 
   -0.14787E+08        -0.75686E+06         0.00000E+00
   -0.75686E+06        -0.21549E+08         0.00000E+00
    0.00000E+00         0.00000E+00         0.00000E+00
 
   -0.14445E+08        -0.99116E+06         0.00000E+00
   -0.99116E+06        -0.21563E+08         0.00000E+00
    0.00000E+00         0.00000E+00         0.00000E+00
 
   -0.14093E+08        -0.11951E+07         0.00000E+00
   -0.11951E+07        -0.21582E+08         0.00000E+00
    0.00000E+00         0.00000E+00         0.00000E+00
 
   -0.13733E+08        -0.13689E+07         0.00000E+00
   -0.13689E+07        -0.21603E+08         0.00000E+00
    0.00000E+00         0.00000E+00         0.00000E+00
 
   -0.13367E+08        -0.15135E+07         0.00000E+00
   -0.15135E+07        -0.21624E+08         0.00000E+00
    0.00000E+00         0.00000E+00         0.00000E+00
 
   -0.12997E+08        -0.16304E+07         0.00000E+00
   -0.16304E+07        -0.21644E+08         0.00000E+00
    0.00000E+00         0.00000E+00         0.00000E+00
 
   -0.12627E+08        -0.17214E+07         0.00000E+00
   -0.17214E+07        -0.21663E+08         0.00000E+00
    0.00000E+00         0.00000E+00         0.00000E+00
 
   -0.12258E+08        -0.17882E+07         0.00000E+00
   -0.17882E+07        -0.21679E+08         0.00000E+00
    0.00000E+00         0.00000E+00         0.00000E+00
 
   -0.11891E+08        -0.18325E+07         0.00000E+00
   -0.18325E+07        -0.21692E+08         0.00000E+00
    0.00000E+00         0.00000E+00         0.00000E+00
 
   -0.11529E+08        -0.18562E+07         0.00000E+00
   -0.18562E+07        -0.21703E+08         0.00000E+00
    0.00000E+00         0.00000E+00         0.00000E+00
 
   -0.11172E+08        -0.18613E+07         0.00000E+00
   -0.18613E+07        -0.21710E+08         0.00000E+00
    0.00000E+00         0.00000E+00         0.00000E+00
 
   -0.10821E+08        -0.18496E+07         0.00000E+00
   -0.18496E+07        -0.21714E+08         0.00000E+00
    0.00000E+00         0.00000E+00         0.00000E+00
 
   -0.10477E+08        -0.18228E+07         0.00000E+00
   -0.18228E+07        -0.21716E+08         0.00000E+00
    0.00000E+00         0.00000E+00         0.00000E+00
 
   -0.10139E+08        -0.17822E+07         0.00000E+00
   -0.17822E+07        -0.21715E+08         0.00000E+00
    0.00000E+00         0.00000E+00         0.00000E+00
 
   -0.98081E+07        -0.17292E+07         0.00000E+00
   -0.17292E+07        -0.21712E+08         0.00000E+00
    0.00000E+00         0.00000E+00         0.00000E+00
 
   -0.94838E+07        -0.16652E+07         0.00000E+00
   -0.16652E+07        -0.21707E+08         0.00000E+00
    0.00000E+00         0.00000E+00         0.00000E+00
 
   -0.91659E+07        -0.15913E+07         0.00000E+00
   -0.15913E+07        -0.21701E+08         0.00000E+00
    0.00000E+00         0.00000E+00         0.00000E+00
 
   -0.88539E+07        -0.15083E+07         0.00000E+00
   -0.15083E+07        -0.21695E+08         0.00000E+00
    0.00000E+00         0.00000E+00         0.00000E+00
 
   -0.85474E+07        -0.14171E+07         0.00000E+00
   -0.14171E+07        -0.21688E+08         0.00000E+00
    0.00000E+00         0.00000E+00         0.00000E+00
 
   -0.82457E+07        -0.13183E+07         0.00000E+00
   -0.13183E+07        -0.21682E+08         0.00000E+00
    0.00000E+00         0.00000E+00         0.00000E+00
 
   -0.79484E+07        -0.12125E+07         0.00000E+00
   -0.12125E+07        -0.21676E+08         0.00000E+00
    0.00000E+00         0.00000E+00         0.00000E+00
 
   -0.76547E+07        -0.11002E+07         0.00000E+00
   -0.11002E+07        -0.21672E+08         0.00000E+00
    0.00000E+00         0.00000E+00         0.00000E+00
 
   -0.73639E+07        -0.98179E+06         0.00000E+00
   -0.98179E+06        -0.21670E+08         0.00000E+00
    0.00000E+00         0.00000E+00         0.00000E+00
 
   -0.70752E+07        -0.85745E+06         0.00000E+00
   -0.85745E+06        -0.21669E+08         0.00000E+00
    0.00000E+00         0.00000E+00         0.00000E+00
 
   -0.67880E+07        -0.72741E+06         0.00000E+00
   -0.72741E+06        -0.21671E+08         0.00000E+00
    0.00000E+00         0.00000E+00         0.00000E+00
 
   -0.65013E+07        -0.59176E+06         0.00000E+00
   -0.59176E+06        -0.21676E+08         0.00000E+00
    0.00000E+00         0.00000E+00         0.00000E+00
 
   -0.62143E+07        -0.45050E+06         0.00000E+00
   -0.45050E+06        -0.21685E+08         0.00000E+00
    0.00000E+00         0.00000E+00         0.00000E+00
 
   -0.59259E+07        -0.30354E+06         0.00000E+00
   -0.30354E+06        -0.21697E+08         0.00000E+00
    0.00000E+00         0.00000E+00         0.00000E+00
 
   -0.56352E+07        -0.15064E+06         0.00000E+00
   -0.15064E+06        -0.21714E+08         0.00000E+00
    0.00000E+00         0.00000E+00         0.00000E+00
 
   -0.53410E+07         0.85879E+04         0.00000E+00
    0.85879E+04        -0.21736E+08         0.00000E+00
    0.00000E+00         0.00000E+00         0.00000E+00
 
   -0.50422E+07         0.17475E+06         0.00000E+00
    0.17475E+06        -0.21763E+08         0.00000E+00
    0.00000E+00         0.00000E+00         0.00000E+00
 
   -0.47373E+07         0.34821E+06         0.00000E+00
    0.34821E+06        -0.21796E+08         0.00000E+00
    0.00000E+00         0.00000E+00         0.00000E+00
 
   -0.44260E+07         0.52770E+06         0.00000E+00
    0.52770E+06        -0.21834E+08         0.00000E+00
    0.00000E+00         0.00000E+00        -0.49289E+04
 
   -0.41262E+07         0.71389E+06         0.00000E+00
    0.71389E+06        -0.21864E+08         0.00000E+00
    0.00000E+00         0.00000E+00        -0.48402E+05
 
   -0.38253E+07         0.90943E+06         0.00000E+00
    0.90943E+06        -0.21920E+08         0.00000E+00
    0.00000E+00         0.00000E+00        -0.10612E+06
 
   -0.35856E+07         0.11096E+07         0.00000E+00
    0.11096E+07        -0.21992E+08         0.00000E+00
    0.00000E+00         0.00000E+00        -0.26880E+06
 
   -0.34083E+07         0.13060E+07         0.00000E+00
    0.13060E+07        -0.22064E+08         0.00000E+00
    0.00000E+00         0.00000E+00        -0.51938E+06
 
   -0.32603E+07         0.15032E+07         0.00000E+00
    0.15032E+07        -0.22151E+08         0.00000E+00
    0.00000E+00         0.00000E+00        -0.78548E+06
 
   -0.31389E+07         0.17114E+07         0.00000E+00
    0.17114E+07        -0.22246E+08         0.00000E+00
    0.00000E+00         0.00000E+00        -0.10515E+07
 
   -0.30488E+07         0.19337E+07         0.00000E+00
    0.19337E+07        -0.22343E+08         0.00000E+00
    0.00000E+00         0.00000E+00        -0.13216E+07
 
   -0.29888E+07         0.21723E+07         0.00000E+00
    0.21723E+07        -0.22443E+08         0.00000E+00
    0.00000E+00         0.00000E+00        -0.15947E+07
 
   -0.29605E+07         0.24259E+07         0.00000E+00
    0.24259E+07        -0.22546E+08         0.00000E+00
    0.00000E+00         0.00000E+00        -0.18695E+07
 
   -0.29639E+07         0.26958E+07         0.00000E+00
    0.26958E+07        -0.22650E+08         0.00000E+00
    0.00000E+00         0.00000E+00        -0.21440E+07
 
   -0.29998E+07         0.29804E+07         0.00000E+00
    0.29804E+07        -0.22754E+08         0.00000E+00
    0.00000E+00         0.00000E+00        -0.24177E+07
 
   -0.30678E+07         0.32781E+07         0.00000E+00
    0.32781E+07        -0.22856E+08         0.00000E+00
    0.00000E+00         0.00000E+00        -0.26893E+07
 
   -0.31682E+07         0.35882E+07         0.00000E+00
    0.35882E+07        -0.22955E+08         0.00000E+00
    0.00000E+00         0.00000E+00        -0.29574E+07
 
   -0.33063E+07         0.39056E+07         0.00000E+00
    0.39056E+07        -0.23049E+08         0.00000E+00
    0.00000E+00         0.00000E+00        -0.32139E+07
 
   -0.34839E+07         0.42237E+07         0.00000E+00
    0.42237E+07        -0.23147E+08         0.00000E+00
    0.00000E+00         0.00000E+00        -0.34598E+07
 
   -0.19377E+08        -0.20572E+06         0.00000E+00
   -0.20572E+06        -0.23895E+08         0.00000E+00
    0.00000E+00         0.00000E+00         0.00000E+00
 
   -0.18895E+08        -0.52070E+06         0.00000E+00
   -0.52070E+06        -0.23886E+08         0.00000E+00
    0.00000E+00         0.00000E+00         0.00000E+00
 
   -0.18396E+08        -0.80570E+06         0.00000E+00
   -0.80570E+06        -0.23891E+08         0.00000E+00
    0.00000E+00         0.00000E+00         0.00000E+00
 
   -0.17882E+08        -0.10505E+07         0.00000E+00
   -0.10505E+07        -0.23900E+08         0.00000E+00
    0.00000E+00         0.00000E+00         0.00000E+00
 
   -0.17359E+08        -0.12544E+07         0.00000E+00
   -0.12544E+07        -0.23902E+08         0.00000E+00
    0.00000E+00         0.00000E+00         0.00000E+00
 
   -0.16834E+08        -0.14191E+07         0.00000E+00
   -0.14191E+07        -0.23896E+08         0.00000E+00
    0.00000E+00         0.00000E+00         0.00000E+00
 
   -0.16313E+08        -0.15483E+07         0.00000E+00
   -0.15483E+07        -0.23887E+08         0.00000E+00
    0.00000E+00         0.00000E+00         0.00000E+00
 
   -0.15801E+08        -0.16452E+07         0.00000E+00
   -0.16452E+07        -0.23873E+08         0.00000E+00
    0.00000E+00         0.00000E+00         0.00000E+00
 
   -0.15301E+08        -0.17135E+07         0.00000E+00
   -0.17135E+07        -0.23850E+08         0.00000E+00
    0.00000E+00         0.00000E+00         0.00000E+00
 
   -0.14814E+08        -0.17565E+07         0.00000E+00
   -0.17565E+07        -0.23820E+08         0.00000E+00
    0.00000E+00         0.00000E+00         0.00000E+00
 
   -0.14342E+08        -0.17777E+07         0.00000E+00
   -0.17777E+07        -0.23783E+08         0.00000E+00
    0.00000E+00         0.00000E+00         0.00000E+00
 
   -0.13885E+08        -0.17798E+07         0.00000E+00
   -0.17798E+07        -0.23740E+08         0.00000E+00
    0.00000E+00         0.00000E+00         0.00000E+00
 
   -0.13443E+08        -0.17650E+07         0.00000E+00
   -0.17650E+07        -0.23693E+08         0.00000E+00
    0.00000E+00         0.00000E+00         0.00000E+00
 
   -0.13018E+08        -0.17352E+07         0.00000E+00
   -0.17352E+07        -0.23643E+08         0.00000E+00
    0.00000E+00         0.00000E+00         0.00000E+00
 
   -0.12609E+08        -0.16931E+07         0.00000E+00
   -0.16931E+07        -0.23588E+08         0.00000E+00
    0.00000E+00         0.00000E+00         0.00000E+00
 
   -0.12214E+08        -0.16412E+07         0.00000E+00
   -0.16412E+07        -0.23531E+08         0.00000E+00
    0.00000E+00         0.00000E+00         0.00000E+00
 
   -0.11832E+08        -0.15807E+07         0.00000E+00
   -0.15807E+07        -0.23473E+08         0.00000E+00
    0.00000E+00         0.00000E+00         0.00000E+00
 
   -0.11463E+08        -0.15126E+07         0.00000E+00
   -0.15126E+07        -0.23415E+08         0.00000E+00
    0.00000E+00         0.00000E+00         0.00000E+00
 
   -0.11105E+08        -0.14376E+07         0.00000E+00
   -0.14376E+07        -0.23357E+08         0.00000E+00
    0.00000E+00         0.00000E+00         0.00000E+00
 
   -0.10757E+08        -0.13567E+07         0.00000E+00
   -0.13567E+07        -0.23301E+08         0.00000E+00
    0.00000E+00         0.00000E+00         0.00000E+00
 
   -0.10417E+08        -0.12704E+07         0.00000E+00
   -0.12704E+07        -0.23247E+08         0.00000E+00
    0.00000E+00         0.00000E+00         0.00000E+00
 
   -0.10085E+08        -0.11793E+07         0.00000E+00
   -0.11793E+07        -0.23196E+08         0.00000E+00
    0.00000E+00         0.00000E+00         0.00000E+00
 
   -0.97598E+07        -0.10838E+07         0.00000E+00
   -0.10838E+07        -0.23147E+08         0.00000E+00
    0.00000E+00         0.00000E+00         0.00000E+00
 
   -0.94397E+07        -0.98409E+06         0.00000E+00
   -0.98409E+06        -0.23102E+08         0.00000E+00
    0.00000E+00         0.00000E+00         0.00000E+00
 
   -0.91239E+07        -0.88044E+06         0.00000E+00
   -0.88044E+06        -0.23062E+08         0.00000E+00
    0.00000E+00         0.00000E+00         0.00000E+00
 
   -0.88113E+07        -0.77303E+06         0.00000E+00
   -0.77303E+06        -0.23025E+08         0.00000E+00
    0.00000E+00         0.00000E+00         0.00000E+00
 
   -0.85007E+07        -0.66199E+06         0.00000E+00
   -0.66199E+06        -0.22994E+08         0.00000E+00
    0.00000E+00         0.00000E+00         0.00000E+00
 
   -0.81910E+07        -0.54742E+06         0.00000E+00
   -0.54742E+06        -0.22968E+08         0.00000E+00
    0.00000E+00         0.00000E+00         0.00000E+00
 
   -0.78810E+07        -0.42939E+06         0.00000E+00
   -0.42939E+06        -0.22947E+08         0.00000E+00
    0.00000E+00         0.00000E+00         0.00000E+00
 
   -0.75693E+07        -0.30798E+06         0.00000E+00
   -0.30798E+06        -0.22933E+08         0.00000E+00
    0.00000E+00         0.00000E+00         0.00000E+00
 
   -0.72544E+07        -0.18326E+06         0.00000E+00
   -0.18326E+06        -0.22925E+08         0.00000E+00
    0.00000E+00         0.00000E+00         0.00000E+00
 
   -0.69347E+07        -0.55299E+05         0.00000E+00
   -0.55299E+05        -0.22924E+08         0.00000E+00
    0.00000E+00         0.00000E+00         0.00000E+00
 
   -0.66079E+07         0.75863E+05         0.00000E+00
    0.75863E+05        -0.22930E+08         0.00000E+00
    0.00000E+00         0.00000E+00         0.00000E+00
 
   -0.62782E+07         0.21056E+06         0.00000E+00
    0.21056E+06        -0.22940E+08         0.00000E+00
    0.00000E+00         0.00000E+00        -0.13697E+05
 
   -0.59533E+07         0.34814E+06         0.00000E+00
    0.34814E+06        -0.22952E+08         0.00000E+00
    0.00000E+00         0.00000E+00        -0.56721E+05
 
   -0.56211E+07         0.48838E+06         0.00000E+00
    0.48838E+06        -0.22992E+08         0.00000E+00
    0.00000E+00         0.00000E+00        -0.10354E+06
 
   -0.53255E+07         0.62870E+06         0.00000E+00
    0.62870E+06        -0.23041E+08         0.00000E+00
    0.00000E+00         0.00000E+00        -0.23403E+06
 
   -0.50815E+07         0.76881E+06         0.00000E+00
    0.76881E+06        -0.23100E+08         0.00000E+00
    0.00000E+00         0.00000E+00        -0.45182E+06
 
   -0.48547E+07         0.91658E+06         0.00000E+00
    0.91658E+06        -0.23168E+08         0.00000E+00
    0.00000E+00         0.00000E+00        -0.67914E+06
 
   -0.46473E+07         0.10770E+07         0.00000E+00
    0.10770E+07        -0.23243E+08         0.00000E+00
    0.00000E+00         0.00000E+00        -0.91978E+06
 
   -0.44594E+07         0.12505E+07         0.00000E+00
    0.12505E+07        -0.23327E+08         0.00000E+00
    0.00000E+00         0.00000E+00        -0.11762E+07
 
   -0.42907E+07         0.14394E+07         0.00000E+00
    0.14394E+07        -0.23421E+08         0.00000E+00
    0.00000E+00         0.00000E+00        -0.14483E+07
 
   -0.41439E+07         0.16460E+07         0.00000E+00
    0.16460E+07        -0.23524E+08         0.00000E+00
    0.00000E+00         0.00000E+00        -0.17373E+07
 
   -0.40220E+07         0.18732E+07         0.00000E+00
    0.18732E+07        -0.23638E+08         0.00000E+00
    0.00000E+00         0.00000E+00        -0.20435E+07
 
   -0.39318E+07         0.21228E+07         0.00000E+00
    0.21228E+07        -0.23761E+08         0.00000E+00
    0.00000E+00         0.00000E+00        -0.23643E+07
 
   -0.38786E+07         0.23960E+07         0.00000E+00
    0.23960E+07        -0.23892E+08         0.00000E+00
    0.00000E+00         0.00000E+00        -0.26968E+07
 
   -0.38668E+07         0.26926E+07         0.00000E+00
    0.26926E+07        -0.24031E+08         0.00000E+00
    0.00000E+00         0.00000E+00        -0.30366E+07
 
   -0.39023E+07         0.30044E+07         0.00000E+00
    0.30044E+07        -0.24175E+08         0.00000E+00
    0.00000E+00         0.00000E+00        -0.33754E+07
 
   -0.39926E+07         0.33412E+07         0.00000E+00
    0.33412E+07        -0.24321E+08         0.00000E+00
    0.00000E+00         0.00000E+00        -0.37066E+07
 
   -0.41150E+07         0.36860E+07         0.00000E+00
    0.36860E+07        -0.24454E+08         0.00000E+00
    0.00000E+00         0.00000E+00        -0.40254E+07
 
   -0.23531E+08        -0.24049E+06         0.00000E+00
   -0.24049E+06        -0.26239E+08         0.00000E+00
    0.00000E+00         0.00000E+00        -0.10271E+07
 
   -0.22823E+08        -0.59393E+06         0.00000E+00
   -0.59393E+06        -0.26290E+08         0.00000E+00
    0.00000E+00         0.00000E+00        -0.87314E+06
 
   -0.22064E+08        -0.85566E+06         0.00000E+00
   -0.85566E+06        -0.26299E+08         0.00000E+00
    0.00000E+00         0.00000E+00        -0.73905E+06
 
   -0.21303E+08        -0.10486E+07         0.00000E+00
   -0.10486E+07        -0.26275E+08         0.00000E+00
    0.00000E+00         0.00000E+00        -0.61432E+06
 
   -0.20554E+08        -0.11858E+07         0.00000E+00
   -0.11858E+07        -0.26239E+08         0.00000E+00
    0.00000E+00         0.00000E+00        -0.49887E+06
 
   -0.19833E+08        -0.12778E+07         0.00000E+00
   -0.12778E+07        -0.26184E+08         0.00000E+00
    0.00000E+00         0.00000E+00        -0.38980E+06
 
   -0.19145E+08        -0.13351E+07         0.00000E+00
   -0.13351E+07        -0.26110E+08         0.00000E+00
    0.00000E+00         0.00000E+00        -0.31455E+06
 
   -0.18494E+08        -0.13661E+07         0.00000E+00
   -0.13661E+07        -0.26020E+08         0.00000E+00
    0.00000E+00         0.00000E+00        -0.26393E+06
 
   -0.17881E+08        -0.13783E+07         0.00000E+00
   -0.13783E+07        -0.25918E+08         0.00000E+00
    0.00000E+00         0.00000E+00        -0.21451E+06
 
   -0.17300E+08        -0.13768E+07         0.00000E+00
   -0.13768E+07        -0.25803E+08         0.00000E+00
    0.00000E+00         0.00000E+00        -0.16501E+06
 
   -0.16749E+08        -0.13637E+07         0.00000E+00
   -0.13637E+07        -0.25683E+08         0.00000E+00
    0.00000E+00         0.00000E+00        -0.11831E+06
 
   -0.16225E+08        -0.13414E+07         0.00000E+00
   -0.13414E+07        -0.25557E+08         0.00000E+00
    0.00000E+00         0.00000E+00        -0.72912E+05
 
   -0.15727E+08        -0.13127E+07         0.00000E+00
   -0.13127E+07        -0.25427E+08         0.00000E+00
    0.00000E+00         0.00000E+00        -0.28634E+05
 
   -0.15252E+08        -0.12783E+07         0.00000E+00
   -0.12783E+07        -0.25295E+08         0.00000E+00
    0.00000E+00         0.00000E+00         0.00000E+00
 
   -0.14800E+08        -0.12368E+07         0.00000E+00
   -0.12368E+07        -0.25163E+08         0.00000E+00
    0.00000E+00         0.00000E+00         0.00000E+00
 
   -0.14367E+08        -0.11886E+07         0.00000E+00
   -0.11886E+07        -0.25040E+08         0.00000E+00
    0.00000E+00         0.00000E+00         0.00000E+00
 
   -0.13954E+08        -0.11349E+07         0.00000E+00
   -0.11349E+07        -0.24919E+08         0.00000E+00
    0.00000E+00         0.00000E+00         0.00000E+00
 
   -0.13557E+08        -0.10776E+07         0.00000E+00
   -0.10776E+07        -0.24801E+08         0.00000E+00
    0.00000E+00         0.00000E+00         0.00000E+00
 
   -0.13175E+08        -0.10175E+07         0.00000E+00
   -0.10175E+07        -0.24688E+08         0.00000E+00
    0.00000E+00         0.00000E+00         0.00000E+00
 
   -0.12806E+08        -0.95471E+06         0.00000E+00
   -0.95471E+06        -0.24580E+08         0.00000E+00
    0.00000E+00         0.00000E+00         0.00000E+00
 
   -0.12447E+08        -0.88954E+06         0.00000E+00
   -0.88954E+06        -0.24479E+08         0.00000E+00
    0.00000E+00         0.00000E+00         0.00000E+00
 
   -0.12098E+08        -0.82212E+06         0.00000E+00
   -0.82212E+06        -0.24385E+08         0.00000E+00
    0.00000E+00         0.00000E+00         0.00000E+00
 
   -0.11756E+08        -0.75253E+06         0.00000E+00
   -0.75253E+06        -0.24297E+08         0.00000E+00
    0.00000E+00         0.00000E+00         0.00000E+00
 
   -0.11421E+08        -0.68084E+06         0.00000E+00
   -0.68084E+06        -0.24217E+08         0.00000E+00
    0.00000E+00         0.00000E+00         0.00000E+00
 
   -0.11090E+08        -0.60708E+06         0.00000E+00
   -0.60708E+06        -0.24144E+08         0.00000E+00
    0.00000E+00         0.00000E+00         0.00000E+00
 
   -0.10763E+08        -0.53128E+06         0.00000E+00
   -0.53128E+06        -0.24079E+08         0.00000E+00
    0.00000E+00         0.00000E+00         0.00000E+00
 
   -0.10438E+08        -0.45346E+06         0.00000E+00
   -0.45346E+06        -0.24023E+08         0.00000E+00
    0.00000E+00         0.00000E+00         0.00000E+00
 
   -0.10115E+08        -0.37366E+06         0.00000E+00
   -0.37366E+06        -0.23975E+08         0.00000E+00
    0.00000E+00         0.00000E+00         0.00000E+00
 
   -0.97924E+07        -0.29195E+06         0.00000E+00
   -0.29195E+06        -0.23936E+08         0.00000E+00
    0.00000E+00         0.00000E+00         0.00000E+00
 
   -0.94686E+07        -0.20849E+06         0.00000E+00
   -0.20849E+06        -0.23905E+08         0.00000E+00
    0.00000E+00         0.00000E+00         0.00000E+00
 
   -0.91430E+07        -0.12354E+06         0.00000E+00
   -0.12354E+06        -0.23884E+08         0.00000E+00
    0.00000E+00         0.00000E+00         0.00000E+00
 
   -0.88143E+07        -0.37556E+05         0.00000E+00
   -0.37556E+05        -0.23873E+08         0.00000E+00
    0.00000E+00         0.00000E+00         0.00000E+00
 
   -0.84814E+07         0.48745E+05         0.00000E+00
    0.48745E+05        -0.23871E+08         0.00000E+00
    0.00000E+00         0.00000E+00         0.00000E+00
 
   -0.81453E+07         0.13419E+06         0.00000E+00
    0.13419E+06        -0.23883E+08         0.00000E+00
    0.00000E+00         0.00000E+00        -0.66086E+04
 
   -0.78147E+07         0.21945E+06         0.00000E+00
    0.21945E+06        -0.23910E+08         0.00000E+00
    0.00000E+00         0.00000E+00        -0.43657E+05
 
   -0.74852E+07         0.30494E+06         0.00000E+00
    0.30494E+06        -0.23940E+08         0.00000E+00
    0.00000E+00         0.00000E+00        -0.94271E+05
 
   -0.71779E+07         0.39035E+06         0.00000E+00
    0.39035E+06        -0.23972E+08         0.00000E+00
    0.00000E+00         0.00000E+00        -0.20343E+06
 
   -0.68966E+07         0.47961E+06         0.00000E+00
    0.47961E+06        -0.24014E+08         0.00000E+00
    0.00000E+00         0.00000E+00        -0.37333E+06
 
   -0.66267E+07         0.57569E+06         0.00000E+00
    0.57569E+06        -0.24075E+08         0.00000E+00
    0.00000E+00         0.00000E+00        -0.56949E+06
 
   -0.63648E+07         0.67956E+06         0.00000E+00
    0.67956E+06        -0.24147E+08         0.00000E+00
    0.00000E+00         0.00000E+00        -0.78507E+06
 
   -0.61112E+07         0.79324E+06         0.00000E+00
    0.79324E+06        -0.24233E+08         0.00000E+00
    0.00000E+00         0.00000E+00        -0.10232E+07
 
   -0.58654E+07         0.91960E+06         0.00000E+00
    0.91960E+06        -0.24332E+08         0.00000E+00
    0.00000E+00         0.00000E+00        -0.12871E+07
 
   -0.56259E+07         0.10594E+07         0.00000E+00
    0.10594E+07        -0.24447E+08         0.00000E+00
    0.00000E+00         0.00000E+00        -0.15807E+07
 
   -0.53970E+07         0.12170E+07         0.00000E+00
    0.12170E+07        -0.24578E+08         0.00000E+00
    0.00000E+00         0.00000E+00        -0.19054E+07
 
   -0.51813E+07         0.13977E+07         0.00000E+00
    0.13977E+07        -0.24725E+08         0.00000E+00
    0.00000E+00         0.00000E+00        -0.22652E+07
 
   -0.49894E+07         0.16063E+07         0.00000E+00
    0.16063E+07        -0.24891E+08         0.00000E+00
    0.00000E+00         0.00000E+00        -0.26592E+07
 
   -0.48330E+07         0.18489E+07         0.00000E+00
    0.18489E+07        -0.25078E+08         0.00000E+00
    0.00000E+00         0.00000E+00        -0.30862E+07
 
   -0.47232E+07         0.21358E+07         0.00000E+00
    0.21358E+07        -0.25283E+08         0.00000E+00
    0.00000E+00         0.00000E+00        -0.35442E+07
 
   -0.46680E+07         0.24569E+07         0.00000E+00
    0.24569E+07        -0.25509E+08         0.00000E+00
    0.00000E+00         0.00000E+00        -0.40275E+07
 
   -0.47143E+07         0.28412E+07         0.00000E+00
    0.28412E+07        -0.25765E+08         0.00000E+00
    0.00000E+00         0.00000E+00        -0.45231E+07
 
   -0.27494E+08        -0.32744E+06         0.00000E+00
   -0.32744E+06        -0.28744E+08         0.00000E+00
    0.00000E+00         0.00000E+00        -0.51492E+07
 
   -0.26373E+08        -0.41895E+06         0.00000E+00
   -0.41895E+06        -0.28628E+08         0.00000E+00
    0.00000E+00         0.00000E+00        -0.40788E+07
 
   -0.25319E+08        -0.48362E+06         0.00000E+00
   -0.48362E+06        -0.28485E+08         0.00000E+00
    0.00000E+00         0.00000E+00        -0.32197E+07
 
   -0.24341E+08        -0.52835E+06         0.00000E+00
   -0.52835E+06        -0.28319E+08         0.00000E+00
    0.00000E+00         0.00000E+00        -0.25084E+07
 
   -0.23423E+08        -0.56140E+06         0.00000E+00
   -0.56140E+06        -0.28126E+08         0.00000E+00
    0.00000E+00         0.00000E+00        -0.19671E+07
 
   -0.22561E+08        -0.58070E+06         0.00000E+00
   -0.58070E+06        -0.27921E+08         0.00000E+00
    0.00000E+00         0.00000E+00        -0.15888E+07
 
   -0.21768E+08        -0.58881E+06         0.00000E+00
   -0.58881E+06        -0.27706E+08         0.00000E+00
    0.00000E+00         0.00000E+00        -0.12989E+07
 
   -0.21039E+08        -0.58824E+06         0.00000E+00
   -0.58824E+06        -0.27487E+08         0.00000E+00
    0.00000E+00         0.00000E+00        -0.10890E+07
 
   -0.20368E+08        -0.58134E+06         0.00000E+00
   -0.58134E+06        -0.27270E+08         0.00000E+00
    0.00000E+00         0.00000E+00        -0.90384E+06
 
   -0.19738E+08        -0.56838E+06         0.00000E+00
   -0.56838E+06        -0.27059E+08         0.00000E+00
    0.00000E+00         0.00000E+00        -0.73272E+06
 
   -0.19146E+08        -0.54945E+06         0.00000E+00
   -0.54945E+06        -0.26850E+08         0.00000E+00
    0.00000E+00         0.00000E+00        -0.57237E+06
 
   -0.18592E+08        -0.52789E+06         0.00000E+00
   -0.52789E+06        -0.26647E+08         0.00000E+00
    0.00000E+00         0.00000E+00        -0.42386E+06
 
   -0.18071E+08        -0.50352E+06         0.00000E+00
   -0.50352E+06        -0.26452E+08         0.00000E+00
    0.00000E+00         0.00000E+00        -0.28619E+06
 
   -0.17576E+08        -0.47721E+06         0.00000E+00
   -0.47721E+06        -0.26265E+08         0.00000E+00
    0.00000E+00         0.00000E+00        -0.15913E+06
 
   -0.17107E+08        -0.45313E+06         0.00000E+00
   -0.45313E+06        -0.26087E+08         0.00000E+00
    0.00000E+00         0.00000E+00        -0.66693E+05
 
   -0.16662E+08        -0.43178E+06         0.00000E+00
   -0.43178E+06        -0.25911E+08         0.00000E+00
    0.00000E+00         0.00000E+00        -0.16771E+05
 
   -0.16237E+08        -0.41131E+06         0.00000E+00
   -0.41131E+06        -0.25745E+08         0.00000E+00
    0.00000E+00         0.00000E+00         0.00000E+00
 
   -0.15830E+08        -0.38990E+06         0.00000E+00
   -0.38990E+06        -0.25588E+08         0.00000E+00
    0.00000E+00         0.00000E+00         0.00000E+00
 
   -0.15439E+08        -0.36743E+06         0.00000E+00
   -0.36743E+06        -0.25439E+08         0.00000E+00
    0.00000E+00         0.00000E+00         0.00000E+00
 
   -0.15061E+08        -0.34403E+06         0.00000E+00
   -0.34403E+06        -0.25300E+08         0.00000E+00
    0.00000E+00         0.00000E+00         0.00000E+00
 
   -0.14694E+08        -0.31982E+06         0.00000E+00
   -0.31982E+06        -0.25170E+08         0.00000E+00
    0.00000E+00         0.00000E+00         0.00000E+00
 
   -0.14338E+08        -0.29486E+06         0.00000E+00
   -0.29486E+06        -0.25049E+08         0.00000E+00
    0.00000E+00         0.00000E+00         0.00000E+00
 
   -0.13989E+08        -0.26919E+06         0.00000E+00
   -0.26919E+06        -0.24938E+08         0.00000E+00
    0.00000E+00         0.00000E+00         0.00000E+00
 
   -0.13646E+08        -0.24283E+06         0.00000E+00
   -0.24283E+06        -0.24838E+08         0.00000E+00
    0.00000E+00         0.00000E+00         0.00000E+00
 
   -0.13308E+08        -0.21578E+06         0.00000E+00
   -0.21578E+06        -0.24747E+08         0.00000E+00
    0.00000E+00         0.00000E+00         0.00000E+00
 
   -0.12975E+08        -0.18804E+06         0.00000E+00
   -0.18804E+06        -0.24668E+08         0.00000E+00
    0.00000E+00         0.00000E+00         0.00000E+00
 
   -0.12643E+08        -0.15960E+06         0.00000E+00
   -0.15960E+06        -0.24599E+08         0.00000E+00
    0.00000E+00         0.00000E+00         0.00000E+00
 
   -0.12314E+08        -0.13045E+06         0.00000E+00
   -0.13045E+06        -0.24542E+08         0.00000E+00
    0.00000E+00         0.00000E+00         0.00000E+00
 
   -0.11985E+08        -0.10061E+06         0.00000E+00
   -0.10061E+06        -0.24496E+08         0.00000E+00
    0.00000E+00         0.00000E+00         0.00000E+00
 
   -0.11656E+08        -0.70141E+05         0.00000E+00
   -0.70141E+05        -0.24462E+08         0.00000E+00
    0.00000E+00         0.00000E+00         0.00000E+00
 
   -0.11328E+08        -0.39152E+05         0.00000E+00
   -0.39152E+05        -0.24439E+08         0.00000E+00
    0.00000E+00         0.00000E+00         0.00000E+00
 
   -0.10998E+08        -0.78533E+04         0.00000E+00
   -0.78533E+04        -0.24429E+08         0.00000E+00
    0.00000E+00         0.00000E+00         0.00000E+00
 
   -0.10669E+08         0.23402E+05         0.00000E+00
    0.23402E+05        -0.24431E+08         0.00000E+00
    0.00000E+00         0.00000E+00         0.00000E+00
 
   -0.10340E+08         0.54154E+05         0.00000E+00
    0.54154E+05        -0.24446E+08         0.00000E+00
    0.00000E+00         0.00000E+00         0.00000E+00
 
   -0.10011E+08         0.83637E+05         0.00000E+00
    0.83637E+05        -0.24479E+08         0.00000E+00
    0.00000E+00         0.00000E+00         0.00000E+00
 
   -0.96830E+07         0.11077E+06         0.00000E+00
    0.11077E+06        -0.24527E+08         0.00000E+00
    0.00000E+00         0.00000E+00         0.00000E+00
 
   -0.93582E+07         0.13895E+06         0.00000E+00
    0.13895E+06        -0.24589E+08         0.00000E+00
    0.00000E+00         0.00000E+00        -0.19141E+05
 
   -0.90513E+07         0.17124E+06         0.00000E+00
    0.17124E+06        -0.24660E+08         0.00000E+00
    0.00000E+00         0.00000E+00        -0.10854E+06
 
   -0.87574E+07         0.20546E+06         0.00000E+00
    0.20546E+06        -0.24737E+08         0.00000E+00
    0.00000E+00         0.00000E+00        -0.25773E+06
 
   -0.84679E+07         0.24127E+06         0.00000E+00
    0.24127E+06        -0.24828E+08         0.00000E+00
    0.00000E+00         0.00000E+00        -0.44511E+06
 
   -0.81758E+07         0.28009E+06         0.00000E+00
    0.28009E+06        -0.24934E+08         0.00000E+00
    0.00000E+00         0.00000E+00        -0.65768E+06
 
   -0.78800E+07         0.32318E+06         0.00000E+00
    0.32318E+06        -0.25057E+08         0.00000E+00
    0.00000E+00         0.00000E+00        -0.89933E+06
 
   -0.75789E+07         0.37293E+06         0.00000E+00
    0.37293E+06        -0.25198E+08         0.00000E+00
    0.00000E+00         0.00000E+00        -0.11750E+07
 
   -0.72701E+07         0.43020E+06         0.00000E+00
    0.43020E+06        -0.25360E+08         0.00000E+00
    0.00000E+00         0.00000E+00        -0.14923E+07
 
   -0.69501E+07         0.49706E+06         0.00000E+00
    0.49706E+06        -0.25545E+08         0.00000E+00
    0.00000E+00         0.00000E+00        -0.18604E+07
 
   -0.66210E+07         0.57821E+06         0.00000E+00
    0.57821E+06        -0.25758E+08         0.00000E+00
    0.00000E+00         0.00000E+00        -0.22881E+07
 
   -0.62851E+07         0.67905E+06         0.00000E+00
    0.67905E+06        -0.26003E+08         0.00000E+00
    0.00000E+00         0.00000E+00        -0.27868E+07
 
   -0.59551E+07         0.80725E+06         0.00000E+00
    0.80725E+06        -0.26285E+08         0.00000E+00
    0.00000E+00         0.00000E+00        -0.33660E+07
 
   -0.56391E+07         0.98026E+06         0.00000E+00
    0.98026E+06        -0.26610E+08         0.00000E+00
    0.00000E+00         0.00000E+00        -0.40415E+07
 
   -0.53330E+07         0.11910E+07         0.00000E+00
    0.11910E+07        -0.26980E+08         0.00000E+00
    0.00000E+00         0.00000E+00        -0.48325E+07
 
TENSORS stresstot double 
   -0.49998E+08         0.11700E+01         0.00000E+00
    0.11700E+01        -0.50000E+08         0.00000E+00
    0.00000E+00         0.00000E+00        -0.50000E+08
 
   -0.49998E+08         0.35996E+01         0.00000E+00
    0.35996E+01        -0.50000E+08         0.00000E+00
    0.00000E+00         0.00000E+00        -0.50000E+08
 
   -0.49998E+08         0.60430E+01         0.00000E+00
    0.60430E+01        -0.50000E+08         0.00000E+00
    0.00000E+00         0.00000E+00        -0.50000E+08
 
   -0.49998E+08         0.84960E+01         0.00000E+00
    0.84960E+01        -0.50000E+08         0.00000E+00
    0.00000E+00         0.00000E+00        -0.50000E+08
 
   -0.49998E+08         0.10955E+02         0.00000E+00
    0.10955E+02        -0.50000E+08         0.00000E+00
    0.00000E+00         0.00000E+00        -0.50000E+08
 
   -0.49998E+08         0.13416E+02         0.00000E+00
    0.13416E+02        -0.50000E+08         0.00000E+00
    0.00000E+00         0.00000E+00        -0.50000E+08
 
   -0.49998E+08         0.15878E+02         0.00000E+00
    0.15878E+02        -0.50000E+08         0.00000E+00
    0.00000E+00         0.00000E+00        -0.50000E+08
 
   -0.49998E+08         0.18336E+02         0.00000E+00
    0.18336E+02        -0.50000E+08         0.00000E+00
    0.00000E+00         0.00000E+00        -0.50000E+08
 
   -0.49998E+08         0.20787E+02         0.00000E+00
    0.20787E+02        -0.50000E+08         0.00000E+00
    0.00000E+00         0.00000E+00        -0.50000E+08
 
   -0.49998E+08         0.23230E+02         0.00000E+00
    0.23230E+02        -0.50000E+08         0.00000E+00
    0.00000E+00         0.00000E+00        -0.50000E+08
 
   -0.49998E+08         0.25661E+02         0.00000E+00
    0.25661E+02        -0.50000E+08         0.00000E+00
    0.00000E+00         0.00000E+00        -0.50000E+08
 
   -0.49998E+08         0.28078E+02         0.00000E+00
    0.28078E+02        -0.50000E+08         0.00000E+00
    0.00000E+00         0.00000E+00        -0.50000E+08
 
   -0.49998E+08         0.30477E+02         0.00000E+00
    0.30477E+02        -0.50000E+08         0.00000E+00
    0.00000E+00         0.00000E+00        -0.50000E+08
 
   -0.49998E+08         0.32855E+02         0.00000E+00
    0.32855E+02        -0.50000E+08         0.00000E+00
    0.00000E+00         0.00000E+00        -0.50000E+08
 
   -0.49998E+08         0.35212E+02         0.00000E+00
    0.35212E+02        -0.50000E+08         0.00000E+00
    0.00000E+00         0.00000E+00        -0.50000E+08
 
   -0.49998E+08         0.37542E+02         0.00000E+00
    0.37542E+02        -0.50000E+08         0.00000E+00
    0.00000E+00         0.00000E+00        -0.50000E+08
 
   -0.49998E+08         0.39844E+02         0.00000E+00
    0.39844E+02        -0.50000E+08         0.00000E+00
    0.00000E+00         0.00000E+00        -0.50000E+08
 
   -0.49998E+08         0.42116E+02         0.00000E+00
    0.42116E+02        -0.50000E+08         0.00000E+00
    0.00000E+00         0.00000E+00        -0.50000E+08
 
   -0.49998E+08         0.44353E+02         0.00000E+00
    0.44353E+02        -0.50000E+08         0.00000E+00
    0.00000E+00         0.00000E+00        -0.50000E+08
 
   -0.49998E+08         0.46555E+02         0.00000E+00
    0.46555E+02        -0.50000E+08         0.00000E+00
    0.00000E+00         0.00000E+00        -0.50000E+08
 
   -0.49998E+08         0.48717E+02         0.00000E+00
    0.48717E+02        -0.50000E+08         0.00000E+00
    0.00000E+00         0.00000E+00        -0.50000E+08
 
   -0.49999E+08         0.50839E+02         0.00000E+00
    0.50839E+02        -0.50000E+08         0.00000E+00
    0.00000E+00         0.00000E+00        -0.50000E+08
 
   -0.49999E+08         0.52916E+02         0.00000E+00
    0.52916E+02        -0.50000E+08         0.00000E+00
    0.00000E+00         0.00000E+00        -0.50000E+08
 
   -0.49999E+08         0.54947E+02         0.00000E+00
    0.54947E+02        -0.50000E+08         0.00000E+00
    0.00000E+00         0.00000E+00        -0.50000E+08
 
   -0.49999E+08         0.56929E+02         0.00000E+00
    0.56929E+02        -0.50000E+08         0.00000E+00
    0.00000E+00         0.00000E+00        -0.50000E+08
 
   -0.49999E+08         0.58859E+02         0.00000E+00
    0.58859E+02        -0.50000E+08         0.00000E+00
    0.00000E+00         0.00000E+00        -0.50000E+08
 
   -0.49999E+08         0.60736E+02         0.00000E+00
    0.60736E+02        -0.50000E+08         0.00000E+00
    0.00000E+00         0.00000E+00        -0.50000E+08
 
   -0.49999E+08         0.62557E+02         0.00000E+00
    0.62557E+02        -0.50000E+08         0.00000E+00
    0.00000E+00         0.00000E+00        -0.50000E+08
 
   -0.49999E+08         0.64319E+02         0.00000E+00
    0.64319E+02        -0.50000E+08         0.00000E+00
    0.00000E+00         0.00000E+00        -0.50000E+08
 
   -0.49999E+08         0.66021E+02         0.00000E+00
    0.66021E+02        -0.50000E+08         0.00000E+00
    0.00000E+00         0.00000E+00        -0.50000E+08
 
   -0.49999E+08         0.67660E+02         0.00000E+00
    0.67660E+02        -0.50000E+08         0.00000E+00
    0.00000E+00         0.00000E+00        -0.50000E+08
 
   -0.49999E+08         0.69234E+02         0.00000E+00
    0.69234E+02        -0.50000E+08         0.00000E+00
    0.00000E+00         0.00000E+00        -0.50000E+08
 
   -0.49999E+08         0.70741E+02         0.00000E+00
    0.70741E+02        -0.50000E+08         0.00000E+00
    0.00000E+00         0.00000E+00        -0.50000E+08
 
   -0.49999E+08         0.72178E+02         0.00000E+00
    0.72178E+02        -0.49999E+08         0.00000E+00
    0.00000E+00         0.00000E+00        -0.50000E+08
 
   -0.49999E+08         0.73545E+02         0.00000E+00
    0.73545E+02        -0.49999E+08         0.00000E+00
    0.00000E+00         0.00000E+00        -0.50000E+08
 
   -0.49999E+08         0.74839E+02         0.00000E+00
    0.74839E+02        -0.49999E+08         0.00000E+00
    0.00000E+00         0.00000E+00        -0.50000E+08
 
   -0.49999E+08         0.76057E+02         0.00000E+00
    0.76057E+02        -0.49999E+08         0.00000E+00
    0.00000E+00         0.00000E+00        -0.50000E+08
 
   -0.49999E+08         0.77199E+02         0.00000E+00
    0.77199E+02        -0.49999E+08         0.00000E+00
    0.00000E+00         0.00000E+00        -0.50000E+08
 
   -0.49999E+08         0.78262E+02         0.00000E+00
    0.78262E+02        -0.49999E+08         0.00000E+00
    0.00000E+00         0.00000E+00        -0.50000E+08
 
   -0.49999E+08         0.79245E+02         0.00000E+00
    0.79245E+02        -0.49999E+08         0.00000E+00
    0.00000E+00         0.00000E+00        -0.50000E+08
 
   -0.49999E+08         0.80147E+02         0.00000E+00
    0.80147E+02        -0.49999E+08         0.00000E+00
    0.00000E+00         0.00000E+00        -0.50000E+08
 
   -0.49999E+08         0.80965E+02         0.00000E+00
    0.80965E+02        -0.49999E+08         0.00000E+00
    0.00000E+00         0.00000E+00        -0.50000E+08
 
   -0.50000E+08         0.81699E+02         0.00000E+00
    0.81699E+02        -0.49999E+08         0.00000E+00
    0.00000E+00         0.00000E+00        -0.50000E+08
 
   -0.50000E+08         0.82347E+02         0.00000E+00
    0.82347E+02        -0.49999E+08         0.00000E+00
    0.00000E+00         0.00000E+00        -0.50000E+08
 
   -0.50000E+08         0.82907E+02         0.00000E+00
    0.82907E+02        -0.49999E+08         0.00000E+00
    0.00000E+00         0.00000E+00        -0.50000E+08
 
   -0.50000E+08         0.83380E+02         0.00000E+00
    0.83380E+02        -0.49999E+08         0.00000E+00
    0.00000E+00         0.00000E+00        -0.50000E+08
 
   -0.50000E+08         0.83763E+02         0.00000E+00
    0.83763E+02        -0.49999E+08         0.00000E+00
    0.00000E+00         0.00000E+00        -0.50000E+08
 
   -0.50000E+08         0.84057E+02         0.00000E+00
    0.84057E+02        -0.49999E+08         0.00000E+00
    0.00000E+00         0.00000E+00        -0.50000E+08
 
   -0.50000E+08         0.84261E+02         0.00000E+00
    0.84261E+02        -0.49999E+08         0.00000E+00
    0.00000E+00         0.00000E+00        -0.50000E+08
 
   -0.50000E+08         0.84377E+02         0.00000E+00
    0.84377E+02        -0.49999E+08         0.00000E+00
    0.00000E+00         0.00000E+00        -0.50000E+08
 
   -0.49998E+08         0.35930E+01         0.00000E+00
    0.35930E+01        -0.50000E+08         0.00000E+00
    0.00000E+00         0.00000E+00        -0.50000E+08
 
   -0.49998E+08         0.10912E+02         0.00000E+00
    0.10912E+02        -0.50000E+08         0.00000E+00
    0.00000E+00         0.00000E+00        -0.50000E+08
 
   -0.49998E+08         0.18269E+02         0.00000E+00
    0.18269E+02        -0.50000E+08         0.00000E+00
    0.00000E+00         0.00000E+00        -0.50000E+08
 
   -0.49998E+08         0.25655E+02         0.00000E+00
    0.25655E+02        -0.50000E+08         0.00000E+00
    0.00000E+00         0.00000E+00        -0.50000E+08
 
   -0.49998E+08         0.33060E+02         0.00000E+00
    0.33060E+02        -0.50000E+08         0.00000E+00
    0.00000E+00         0.00000E+00        -0.50000E+08
 
   -0.49998E+08         0.40474E+02         0.00000E+00
    0.40474E+02        -0.50000E+08         0.00000E+00
    0.00000E+00         0.00000E+00        -0.50000E+08
 
   -0.49998E+08         0.47887E+02         0.00000E+00
    0.47887E+02        -0.50000E+08         0.00000E+00
    0.00000E+00         0.00000E+00        -0.50000E+08
 
   -0.49998E+08         0.55291E+02         0.00000E+00
    0.55291E+02        -0.50000E+08         0.00000E+00
    0.00000E+00         0.00000E+00        -0.50000E+08
 
   -0.49998E+08         0.62678E+02         0.00000E+00
    0.62678E+02        -0.50000E+08         0.00000E+00
    0.00000E+00         0.00000E+00        -0.50000E+08
 
   -0.49998E+08         0.70038E+02         0.00000E+00
    0.70038E+02        -0.50000E+08         0.00000E+00
    0.00000E+00         0.00000E+00        -0.50000E+08
 
   -0.49998E+08         0.77363E+02         0.00000E+00
    0.77363E+02        -0.50000E+08         0.00000E+00
    0.00000E+00         0.00000E+00        -0.50000E+08
 
   -0.49998E+08         0.84644E+02         0.00000E+00
    0.84644E+02        -0.50000E+08         0.00000E+00
    0.00000E+00         0.00000E+00        -0.50000E+08
 
   -0.49998E+08         0.91873E+02         0.00000E+00
    0.91873E+02        -0.50000E+08         0.00000E+00
    0.00000E+00         0.00000E+00        -0.50000E+08
 
   -0.49998E+08         0.99042E+02         0.00000E+00
    0.99042E+02        -0.50000E+08         0.00000E+00
    0.00000E+00         0.00000E+00        -0.50000E+08
 
   -0.49998E+08         0.10614E+03         0.00000E+00
    0.10614E+03        -0.50000E+08         0.00000E+00
    0.00000E+00         0.00000E+00        -0.50000E+08
 
   -0.49998E+08         0.11317E+03         0.00000E+00
    0.11317E+03        -0.50000E+08         0.00000E+00
    0.00000E+00         0.00000E+00        -0.50000E+08
 
   -0.49998E+08         0.12010E+03         0.00000E+00
    0.12010E+03        -0.50000E+08         0.00000E+00
    0.00000E+00         0.00000E+00        -0.50000E+08
 
   -0.49998E+08         0.12695E+03         0.00000E+00
    0.12695E+03        -0.50000E+08         0.00000E+00
    0.00000E+00         0.00000E+00        -0.50000E+08
 
   -0.49998E+08         0.13369E+03         0.00000E+00
    0.13369E+03        -0.50000E+08         0.00000E+00
    0.00000E+00         0.00000E+00        -0.50000E+08
 
   -0.49998E+08         0.14033E+03         0.00000E+00
    0.14033E+03        -0.50000E+08         0.00000E+00
    0.00000E+00         0.00000E+00        -0.50000E+08
 
   -0.49998E+08         0.14685E+03         0.00000E+00
    0.14685E+03        -0.50000E+08         0.00000E+00
    0.00000E+00         0.00000E+00        -0.50000E+08
 
   -0.49998E+08         0.15324E+03         0.00000E+00
    0.15324E+03        -0.50000E+08         0.00000E+00
    0.00000E+00         0.00000E+00        -0.50000E+08
 
   -0.49999E+08         0.15950E+03         0.00000E+00
    0.15950E+03        -0.50000E+08         0.00000E+00
    0.00000E+00         0.00000E+00        -0.50000E+08
 
   -0.49999E+08         0.16562E+03         0.00000E+00
    0.16562E+03        -0.50000E+08         0.00000E+00
    0.00000E+00         0.00000E+00        -0.50000E+08
 
   -0.49999E+08         0.17159E+03         0.00000E+00
    0.17159E+03        -0.50000E+08         0.00000E+00
    0.00000E+00         0.00000E+00        -0.50000E+08
 
   -0.49999E+08         0.17741E+03         0.00000E+00
    0.17741E+03        -0.50000E+08         0.00000E+00
    0.00000E+00         0.00000E+00        -0.50000E+08
 
   -0.49999E+08         0.18307E+03         0.00000E+00
    0.18307E+03        -0.50000E+08         0.00000E+00
    0.00000E+00         0.00000E+00        -0.50000E+08
 
   -0.49999E+08         0.18856E+03         0.00000E+00
    0.18856E+03        -0.50000E+08         0.00000E+00
    0.00000E+00         0.00000E+00        -0.50000E+08
 
   -0.49999E+08         0.19387E+03         0.00000E+00
    0.19387E+03        -0.50000E+08         0.00000E+00
    0.00000E+00         0.00000E+00        -0.50000E+08
 
   -0.49999E+08         0.19900E+03         0.00000E+00
    0.19900E+03        -0.50000E+08         0.00000E+00
    0.00000E+00         0.00000E+00        -0.50000E+08
 
   -0.49999E+08         0.20394E+03         0.00000E+00
    0.20394E+03        -0.50000E+08         0.00000E+00
    0.00000E+00         0.00000E+00        -0.50000E+08
 
   -0.49999E+08         0.20868E+03         0.00000E+00
    0.20868E+03        -0.50000E+08         0.00000E+00
    0.00000E+00         0.00000E+00        -0.50000E+08
 
   -0.49999E+08         0.21322E+03         0.00000E+00
    0.21322E+03        -0.49999E+08         0.00000E+00
    0.00000E+00         0.00000E+00        -0.50000E+08
 
   -0.49999E+08         0.21755E+03         0.00000E+00
    0.21755E+03        -0.49999E+08         0.00000E+00
    0.00000E+00         0.00000E+00        -0.50000E+08
 
   -0.49999E+08         0.22167E+03         0.00000E+00
    0.22167E+03        -0.49999E+08         0.00000E+00
    0.00000E+00         0.00000E+00        -0.50000E+08
 
   -0.49999E+08         0.22557E+03         0.00000E+00
    0.22557E+03        -0.49999E+08         0.00000E+00
    0.00000E+00         0.00000E+00        -0.50000E+08
 
   -0.49999E+08         0.22924E+03         0.00000E+00
    0.22924E+03        -0.49999E+08         0.00000E+00
    0.00000E+00         0.00000E+00        -0.50000E+08
 
   -0.49999E+08         0.23269E+03         0.00000E+00
    0.23269E+03        -0.49999E+08         0.00000E+00
    0.00000E+00         0.00000E+00        -0.50000E+08
 
   -0.49999E+08         0.23589E+03         0.00000E+00
    0.23589E+03        -0.49999E+08         0.00000E+00
    0.00000E+00         0.00000E+00        -0.50000E+08
 
   -0.49999E+08         0.23885E+03         0.00000E+00
    0.23885E+03        -0.49999E+08         0.00000E+00
    0.00000E+00         0.00000E+00        -0.50000E+08
 
   -0.49999E+08         0.24157E+03         0.00000E+00
    0.24157E+03        -0.49999E+08         0.00000E+00
    0.00000E+00         0.00000E+00        -0.50000E+08
 
   -0.49999E+08         0.24404E+03         0.00000E+00
    0.24404E+03        -0.49999E+08         0.00000E+00
    0.00000E+00         0.00000E+00        -0.50000E+08
 
   -0.50000E+08         0.24625E+03         0.00000E+00
    0.24625E+03        -0.49999E+08         0.00000E+00
    0.00000E+00         0.00000E+00        -0.50000E+08
 
   -0.50000E+08         0.24820E+03         0.00000E+00
    0.24820E+03        -0.49999E+08         0.00000E+00
    0.00000E+00         0.00000E+00        -0.50000E+08
 
   -0.50000E+08         0.24989E+03         0.00000E+00
    0.24989E+03        -0.49999E+08         0.00000E+00
    0.00000E+00         0.00000E+00        -0.50000E+08
 
   -0.50000E+08         0.25131E+03         0.00000E+00
    0.25131E+03        -0.49999E+08         0.00000E+00
    0.00000E+00         0.00000E+00        -0.50000E+08
 
   -0.50000E+08         0.25246E+03         0.00000E+00
    0.25246E+03        -0.49999E+08         0.00000E+00
    0.00000E+00         0.00000E+00        -0.50000E+08
 
   -0.50000E+08         0.25334E+03         0.00000E+00
    0.25334E+03        -0.49999E+08         0.00000E+00
    0.00000E+00         0.00000E+00        -0.50000E+08
 
   -0.50000E+08         0.25394E+03         0.00000E+00
    0.25394E+03        -0.49999E+08         0.00000E+00
    0.00000E+00         0.00000E+00        -0.50000E+08
 
   -0.50000E+08         0.25427E+03         0.00000E+00
    0.25427E+03        -0.49999E+08         0.00000E+00
    0.00000E+00         0.00000E+00        -0.50000E+08
 
   -0.49998E+08         0.60655E+01         0.00000E+00
    0.60655E+01        -0.50000E+08         0.00000E+00
    0.00000E+00         0.00000E+00        -0.50000E+08
 
   -0.49998E+08         0.18399E+02         0.00000E+00
    0.18399E+02        -0.50000E+08         0.00000E+00
    0.00000E+00         0.00000E+00        -0.50000E+08
 
   -0.49998E+08         0.30787E+02         0.00000E+00
    0.30787E+02        -0.50000E+08         0.00000E+00
    0.00000E+00         0.00000E+00        -0.50000E+08
 
   -0.49998E+08         0.43217E+02         0.00000E+00
    0.43217E+02        -0.50000E+08         0.00000E+00
    0.00000E+00         0.00000E+00        -0.50000E+08
 
   -0.49998E+08         0.55675E+02         0.00000E+00
    0.55675E+02        -0.50000E+08         0.00000E+00
    0.00000E+00         0.00000E+00        -0.50000E+08
 
   -0.49998E+08         0.68145E+02         0.00000E+00
    0.68145E+02        -0.50000E+08         0.00000E+00
    0.00000E+00         0.00000E+00        -0.50000E+08
 
   -0.49998E+08         0.80615E+02         0.00000E+00
    0.80615E+02        -0.50000E+08         0.00000E+00
    0.00000E+00         0.00000E+00        -0.50000E+08
 
   -0.49998E+08         0.93068E+02         0.00000E+00
    0.93068E+02        -0.50000E+08         0.00000E+00
    0.00000E+00         0.00000E+00        -0.50000E+08
 
   -0.49998E+08         0.10549E+03         0.00000E+00
    0.10549E+03        -0.50000E+08         0.00000E+00
    0.00000E+00         0.00000E+00        -0.50000E+08
 
   -0.49998E+08         0.11787E+03         0.00000E+00
    0.11787E+03        -0.50000E+08         0.00000E+00
    0.00000E+00         0.00000E+00        -0.50000E+08
 
   -0.49998E+08         0.13019E+03         0.00000E+00
    0.13019E+03        -0.50000E+08         0.00000E+00
    0.00000E+00         0.00000E+00        -0.50000E+08
 
   -0.49998E+08         0.14244E+03         0.00000E+00
    0.14244E+03        -0.50000E+08         0.00000E+00
    0.00000E+00         0.00000E+00        -0.50000E+08
 
   -0.49998E+08         0.15460E+03         0.00000E+00
    0.15460E+03        -0.50000E+08         0.00000E+00
    0.00000E+00         0.00000E+00        -0.50000E+08
 
   -0.49998E+08         0.16665E+03         0.00000E+00
    0.16665E+03        -0.50000E+08         0.00000E+00
    0.00000E+00         0.00000E+00        -0.50000E+08
 
   -0.49998E+08         0.17860E+03         0.00000E+00
    0.17860E+03        -0.50000E+08         0.00000E+00
    0.00000E+00         0.00000E+00        -0.50000E+08
 
   -0.49998E+08         0.19041E+03         0.00000E+00
    0.19041E+03        -0.50000E+08         0.00000E+00
    0.00000E+00         0.00000E+00        -0.50000E+08
 
   -0.49998E+08         0.20208E+03         0.00000E+00
    0.20208E+03        -0.50000E+08         0.00000E+00
    0.00000E+00         0.00000E+00        -0.50000E+08
 
   -0.49998E+08         0.21359E+03         0.00000E+00
    0.21359E+03        -0.50000E+08         0.00000E+00
    0.00000E+00         0.00000E+00        -0.50000E+08
 
   -0.49998E+08         0.22494E+03         0.00000E+00
    0.22494E+03        -0.50000E+08         0.00000E+00
    0.00000E+00         0.00000E+00        -0.50000E+08
 
   -0.49998E+08         0.23610E+03         0.00000E+00
    0.23610E+03        -0.50000E+08         0.00000E+00
    0.00000E+00         0.00000E+00        -0.50000E+08
 
   -0.49998E+08         0.24706E+03         0.00000E+00
    0.24706E+03        -0.50000E+08         0.00000E+00
    0.00000E+00         0.00000E+00        -0.50000E+08
 
   -0.49998E+08         0.25781E+03         0.00000E+00
    0.25781E+03        -0.50000E+08         0.00000E+00
    0.00000E+00         0.00000E+00        -0.50000E+08
 
   -0.49998E+08         0.26835E+03         0.00000E+00
    0.26835E+03        -0.50000E+08         0.00000E+00
    0.00000E+00         0.00000E+00        -0.50000E+08
 
   -0.49999E+08         0.27864E+03         0.00000E+00
    0.27864E+03        -0.50000E+08         0.00000E+00
    0.00000E+00         0.00000E+00        -0.50000E+08
 
   -0.49999E+08         0.28869E+03         0.00000E+00
    0.28869E+03        -0.50000E+08         0.00000E+00
    0.00000E+00         0.00000E+00        -0.50000E+08
 
   -0.49999E+08         0.29848E+03         0.00000E+00
    0.29848E+03        -0.50000E+08         0.00000E+00
    0.00000E+00         0.00000E+00        -0.50000E+08
 
   -0.49999E+08         0.30799E+03         0.00000E+00
    0.30799E+03        -0.50000E+08         0.00000E+00
    0.00000E+00         0.00000E+00        -0.50000E+08
 
   -0.49999E+08         0.31722E+03         0.00000E+00
    0.31722E+03        -0.50000E+08         0.00000E+00
    0.00000E+00         0.00000E+00        -0.50000E+08
 
   -0.49999E+08         0.32616E+03         0.00000E+00
    0.32616E+03        -0.50000E+08         0.00000E+00
    0.00000E+00         0.00000E+00        -0.50000E+08
 
   -0.49999E+08         0.33479E+03         0.00000E+00
    0.33479E+03        -0.50000E+08         0.00000E+00
    0.00000E+00         0.00000E+00        -0.50000E+08
 
   -0.49999E+08         0.34310E+03         0.00000E+00
    0.34310E+03        -0.50000E+08         0.00000E+00
    0.00000E+00         0.00000E+00        -0.50000E+08
 
   -0.49999E+08         0.35107E+03         0.00000E+00
    0.35107E+03        -0.50000E+08         0.00000E+00
    0.00000E+00         0.00000E+00        -0.50000E+08
 
   -0.49999E+08         0.35871E+03         0.00000E+00
    0.35871E+03        -0.49999E+08         0.00000E+00
    0.00000E+00         0.00000E+00        -0.50000E+08
 
   -0.49999E+08         0.36600E+03         0.00000E+00
    0.36600E+03        -0.49999E+08         0.00000E+00
    0.00000E+00         0.00000E+00        -0.50000E+08
 
   -0.49999E+08         0.37293E+03         0.00000E+00
    0.37293E+03        -0.49999E+08         0.00000E+00
    0.00000E+00         0.00000E+00        -0.50000E+08
 
   -0.49999E+08         0.37949E+03         0.00000E+00
    0.37949E+03        -0.49999E+08         0.00000E+00
    0.00000E+00         0.00000E+00        -0.50000E+08
 
   -0.49999E+08         0.38567E+03         0.00000E+00
    0.38567E+03        -0.49999E+08         0.00000E+00
    0.00000E+00         0.00000E+00        -0.50000E+08
 
   -0.49999E+08         0.39145E+03         0.00000E+00
    0.39145E+03        -0.49999E+08         0.00000E+00
    0.00000E+00         0.00000E+00        -0.50000E+08
 
   -0.49999E+08         0.39684E+03         0.00000E+00
    0.39684E+03        -0.49999E+08         0.00000E+00
    0.00000E+00         0.00000E+00        -0.50000E+08
 
   -0.49999E+08         0.40183E+03         0.00000E+00
    0.40183E+03        -0.49999E+08         0.00000E+00
    0.00000E+00         0.00000E+00        -0.50000E+08
 
   -0.49999E+08         0.40640E+03         0.00000E+00
    0.40640E+03        -0.49999E+08         0.00000E+00
    0.00000E+00         0.00000E+00        -0.50000E+08
 
   -0.49999E+08         0.41054E+03         0.00000E+00
    0.41054E+03        -0.49999E+08         0.00000E+00
    0.00000E+00         0.00000E+00        -0.50000E+08
 
   -0.49999E+08         0.41426E+03         0.00000E+00
    0.41426E+03        -0.49999E+08         0.00000E+00
    0.00000E+00         0.00000E+00        -0.50000E+08
 
   -0.50000E+08         0.41754E+03         0.00000E+00
    0.41754E+03        -0.49999E+08         0.00000E+00
    0.00000E+00         0.00000E+00        -0.50000E+08
 
   -0.50000E+08         0.42037E+03         0.00000E+00
    0.42037E+03        -0.49999E+08         0.00000E+00
    0.00000E+00         0.00000E+00        -0.50000E+08
 
   -0.50000E+08         0.42276E+03         0.00000E+00
    0.42276E+03        -0.49999E+08         0.00000E+00
    0.00000E+00         0.00000E+00        -0.50000E+08
 
   -0.50000E+08         0.42468E+03         0.00000E+00
    0.42468E+03        -0.49999E+08         0.00000E+00
    0.00000E+00         0.00000E+00        -0.50000E+08
 
   -0.50000E+08         0.42615E+03         0.00000E+00
    0.42615E+03        -0.49999E+08         0.00000E+00
    0.00000E+00         0.00000E+00        -0.50000E+08
 
   -0.50000E+08         0.42715E+03         0.00000E+00
    0.42715E+03        -0.49999E+08         0.00000E+00
    0.00000E+00         0.00000E+00        -0.50000E+08
 
   -0.50000E+08         0.42768E+03         0.00000E+00
    0.42768E+03        -0.49999E+08         0.00000E+00
    0.00000E+00         0.00000E+00        -0.50000E+08
 
   -0.49998E+08         0.86209E+01         0.00000E+00
    0.86209E+01        -0.50000E+08         0.00000E+00
    0.00000E+00         0.00000E+00        -0.50000E+08
 
   -0.49998E+08         0.26144E+02         0.00000E+00
    0.26144E+02        -0.50000E+08         0.00000E+00
    0.00000E+00         0.00000E+00        -0.50000E+08
 
   -0.49998E+08         0.43743E+02         0.00000E+00
    0.43743E+02        -0.50000E+08         0.00000E+00
    0.00000E+00         0.00000E+00        -0.50000E+08
 
   -0.49998E+08         0.61398E+02         0.00000E+00
    0.61398E+02        -0.50000E+08         0.00000E+00
    0.00000E+00         0.00000E+00        -0.50000E+08
 
   -0.49998E+08         0.79090E+02         0.00000E+00
    0.79090E+02        -0.50000E+08         0.00000E+00
    0.00000E+00         0.00000E+00        -0.50000E+08
 
   -0.49998E+08         0.96798E+02         0.00000E+00
    0.96798E+02        -0.50000E+08         0.00000E+00
    0.00000E+00         0.00000E+00        -0.50000E+08
 
   -0.49998E+08         0.11450E+03         0.00000E+00
    0.11450E+03        -0.50000E+08         0.00000E+00
    0.00000E+00         0.00000E+00        -0.50000E+08
 
   -0.49998E+08         0.13218E+03         0.00000E+00
    0.13218E+03        -0.50000E+08         0.00000E+00
    0.00000E+00         0.00000E+00        -0.50000E+08
 
   -0.49998E+08         0.14982E+03         0.00000E+00
    0.14982E+03        -0.50000E+08         0.00000E+00
    0.00000E+00         0.00000E+00        -0.50000E+08
 
   -0.49998E+08         0.16739E+03         0.00000E+00
    0.16739E+03        -0.50000E+08         0.00000E+00
    0.00000E+00         0.00000E+00        -0.50000E+08
 
   -0.49998E+08         0.18488E+03         0.00000E+00
    0.18488E+03        -0.50000E+08         0.00000E+00
    0.00000E+00         0.00000E+00        -0.50000E+08
 
   -0.49998E+08         0.20227E+03         0.00000E+00
    0.20227E+03        -0.50000E+08         0.00000E+00
    0.00000E+00         0.00000E+00        -0.50000E+08
 
   -0.49998E+08         0.21953E+03         0.00000E+00
    0.21953E+03        -0.50000E+08         0.00000E+00
    0.00000E+00         0.00000E+00        -0.50000E+08
 
   -0.49998E+08         0.23664E+03         0.00000E+00
    0.23664E+03        -0.50000E+08         0.00000E+00
    0.00000E+00         0.00000E+00        -0.50000E+08
 
   -0.49998E+08         0.25359E+03         0.00000E+00
    0.25359E+03        -0.50000E+08         0.00000E+00
    0.00000E+00         0.00000E+00        -0.50000E+08
 
   -0.49998E+08         0.27036E+03         0.00000E+00
    0.27036E+03        -0.50000E+08         0.00000E+00
    0.00000E+00         0.00000E+00        -0.50000E+08
 
   -0.49998E+08         0.28693E+03         0.00000E+00
    0.28693E+03        -0.50000E+08         0.00000E+00
    0.00000E+00         0.00000E+00        -0.50000E+08
 
   -0.49998E+08         0.30327E+03         0.00000E+00
    0.30327E+03        -0.50000E+08         0.00000E+00
    0.00000E+00         0.00000E+00        -0.50000E+08
 
   -0.49998E+08         0.31938E+03         0.00000E+00
    0.31938E+03        -0.50000E+08         0.00000E+00
    0.00000E+00         0.00000E+00        -0.50000E+08
 
   -0.49998E+08         0.33522E+03         0.00000E+00
    0.33522E+03        -0.50000E+08         0.00000E+00
    0.00000E+00         0.00000E+00        -0.50000E+08
 
   -0.49998E+08         0.35078E+03         0.00000E+00
    0.35078E+03        -0.50000E+08         0.00000E+00
    0.00000E+00         0.00000E+00        -0.50000E+08
 
   -0.49998E+08         0.36604E+03         0.00000E+00
    0.36604E+03        -0.50000E+08         0.00000E+00
    0.00000E+00         0.00000E+00        -0.50000E+08
 
   -0.49998E+08         0.38099E+03         0.00000E+00
    0.38099E+03        -0.50000E+08         0.00000E+00
    0.00000E+00         0.00000E+00        -0.50000E+08
 
   -0.49998E+08         0.39561E+03         0.00000E+00
    0.39561E+03        -0.50000E+08         0.00000E+00
    0.00000E+00         0.00000E+00        -0.50000E+08
 
   -0.49998E+08         0.40987E+03         0.00000E+00
    0.40987E+03        -0.50000E+08         0.00000E+00
    0.00000E+00         0.00000E+00        -0.50000E+08
 
   -0.49999E+08         0.42376E+03         0.00000E+00
    0.42376E+03        -0.50000E+08         0.00000E+00
    0.00000E+00         0.00000E+00        -0.50000E+08
 
   -0.49999E+08         0.43727E+03         0.00000E+00
    0.43727E+03        -0.50000E+08         0.00000E+00
    0.00000E+00         0.00000E+00        -0.50000E+08
 
   -0.49999E+08         0.45037E+03         0.00000E+00
    0.45037E+03        -0.50000E+08         0.00000E+00
    0.00000E+00         0.00000E+00        -0.50000E+08
 
   -0.49999E+08         0.46306E+03         0.00000E+00
    0.46306E+03        -0.50000E+08         0.00000E+00
    0.00000E+00         0.00000E+00        -0.50000E+08
 
   -0.49999E+08         0.47530E+03         0.00000E+00
    0.47530E+03        -0.50000E+08         0.00000E+00
    0.00000E+00         0.00000E+00        -0.50000E+08
 
   -0.49999E+08         0.48710E+03         0.00000E+00
    0.48710E+03        -0.50000E+08         0.00000E+00
    0.00000E+00         0.00000E+00        -0.50000E+08
 
   -0.49999E+08         0.49842E+03         0.00000E+00
    0.49842E+03        -0.49999E+08         0.00000E+00
    0.00000E+00         0.00000E+00        -0.50000E+08
 
   -0.49999E+08         0.50927E+03         0.00000E+00
    0.50927E+03        -0.49999E+08         0.00000E+00
    0.00000E+00         0.00000E+00        -0.50000E+08
 
   -0.49999E+08         0.51961E+03         0.00000E+00
    0.51961E+03        -0.49999E+08         0.00000E+00
    0.00000E+00         0.00000E+00        -0.50000E+08
 
   -0.49999E+08         0.52945E+03         0.00000E+00
    0.52945E+03        -0.49999E+08         0.00000E+00
    0.00000E+00         0.00000E+00        -0.50000E+08
 
   -0.49999E+08         0.53876E+03         0.00000E+00
    0.53876E+03        -0.49999E+08         0.00000E+00
    0.00000E+00         0.00000E+00        -0.50000E+08
 
   -0.49999E+08         0.54752E+03         0.00000E+00
    0.54752E+03        -0.49999E+08         0.00000E+00
    0.00000E+00         0.00000E+00        -0.50000E+08
 
   -0.49999E+08         0.55574E+03         0.00000E+00
    0.55574E+03        -0.49999E+08         0.00000E+00
    0.00000E+00         0.00000E+00        -0.50000E+08
 
   -0.49999E+08         0.56339E+03         0.00000E+00
    0.56339E+03        -0.49999E+08         0.00000E+00
    0.00000E+00         0.00000E+00        -0.50000E+08
 
   -0.49999E+08         0.57046E+03         0.00000E+00
    0.57046E+03        -0.49999E+08         0.00000E+00
    0.00000E+00         0.00000E+00        -0.50000E+08
 
   -0.49999E+08         0.57694E+03         0.00000E+00
    0.57694E+03        -0.49999E+08         0.00000E+00
    0.00000E+00         0.00000E+00        -0.50000E+08
 
   -0.49999E+08         0.58283E+03         0.00000E+00
    0.58283E+03        -0.49999E+08         0.00000E+00
    0.00000E+00         0.00000E+00        -0.50000E+08
 
   -0.49999E+08         0.58810E+03         0.00000E+00
    0.58810E+03        -0.49999E+08         0.00000E+00
    0.00000E+00         0.00000E+00        -0.50000E+08
 
   -0.50000E+08         0.59275E+03         0.00000E+00
    0.59275E+03        -0.49999E+08         0.00000E+00
    0.00000E+00         0.00000E+00        -0.50000E+08
 
   -0.50000E+08         0.59677E+03         0.00000E+00
    0.59677E+03        -0.49999E+08         0.00000E+00
    0.00000E+00         0.00000E+00        -0.50000E+08
 
   -0.50000E+08         0.60014E+03         0.00000E+00
    0.60014E+03        -0.49999E+08         0.00000E+00
    0.00000E+00         0.00000E+00        -0.50000E+08
 
   -0.50000E+08         0.60287E+03         0.00000E+00
    0.60287E+03        -0.49999E+08         0.00000E+00
    0.00000E+00         0.00000E+00        -0.50000E+08
 
   -0.50000E+08         0.60495E+03         0.00000E+00
    0.60495E+03        -0.49999E+08         0.00000E+00
    0.00000E+00         0.00000E+00        -0.50000E+08
 
   -0.50000E+08         0.60635E+03         0.00000E+00
    0.60635E+03        -0.49999E+08         0.00000E+00
    0.00000E+00         0.00000E+00        -0.50000E+08
 
   -0.50000E+08         0.60709E+03         0.00000E+00
    0.60709E+03        -0.49999E+08         0.00000E+00
    0.00000E+00         0.00000E+00        -0.50000E+08
 
   -0.49998E+08         0.11298E+02         0.00000E+00
    0.11298E+02        -0.50000E+08         0.00000E+00
    0.00000E+00         0.00000E+00        -0.50000E+08
 
   -0.49998E+08         0.34259E+02         0.00000E+00
    0.34259E+02        -0.50000E+08         0.00000E+00
    0.00000E+00         0.00000E+00        -0.50000E+08
 
   -0.49998E+08         0.57318E+02         0.00000E+00
    0.57318E+02        -0.50000E+08         0.00000E+00
    0.00000E+00         0.00000E+00        -0.50000E+08
 
   -0.49998E+08         0.80449E+02         0.00000E+00
    0.80449E+02        -0.50000E+08         0.00000E+00
    0.00000E+00         0.00000E+00        -0.50000E+08
 
   -0.49998E+08         0.10363E+03         0.00000E+00
    0.10363E+03        -0.50000E+08         0.00000E+00
    0.00000E+00         0.00000E+00        -0.50000E+08
 
   -0.49998E+08         0.12682E+03         0.00000E+00
    0.12682E+03        -0.50000E+08         0.00000E+00
    0.00000E+00         0.00000E+00        -0.50000E+08
 
   -0.49998E+08         0.15002E+03         0.00000E+00
    0.15002E+03        -0.50000E+08         0.00000E+00
    0.00000E+00         0.00000E+00        -0.50000E+08
 
   -0.49998E+08         0.17318E+03         0.00000E+00
    0.17318E+03        -0.50000E+08         0.00000E+00
    0.00000E+00         0.00000E+00        -0.50000E+08
 
   -0.49998E+08         0.19628E+03         0.00000E+00
    0.19628E+03        -0.50000E+08         0.00000E+00
    0.00000E+00         0.00000E+00        -0.50000E+08
 
   -0.49998E+08         0.21929E+03         0.00000E+00
    0.21929E+03        -0.50000E+08         0.00000E+00
    0.00000E+00         0.00000E+00        -0.50000E+08
 
   -0.49998E+08         0.24220E+03         0.00000E+00
    0.24220E+03        -0.50000E+08         0.00000E+00
    0.00000E+00         0.00000E+00        -0.50000E+08
 
   -0.49998E+08         0.26497E+03         0.00000E+00
    0.26497E+03        -0.50000E+08         0.00000E+00
    0.00000E+00         0.00000E+00        -0.50000E+08
 
   -0.49998E+08         0.28757E+03         0.00000E+00
    0.28757E+03        -0.50000E+08         0.00000E+00
    0.00000E+00         0.00000E+00        -0.50000E+08
 
   -0.49998E+08         0.30999E+03         0.00000E+00
    0.30999E+03        -0.50000E+08         0.00000E+00
    0.00000E+00         0.00000E+00        -0.50000E+08
 
   -0.49998E+08         0.33219E+03         0.00000E+00
    0.33219E+03        -0.50000E+08         0.00000E+00
    0.00000E+00         0.00000E+00        -0.50000E+08
 
   -0.49998E+08         0.35415E+03         0.00000E+00
    0.35415E+03        -0.50000E+08         0.00000E+00
    0.00000E+00         0.00000E+00        -0.50000E+08
 
   -0.49998E+08         0.37585E+03         0.00000E+00
    0.37585E+03        -0.50000E+08         0.00000E+00
    0.00000E+00         0.00000E+00        -0.50000E+08
 
   -0.49998E+08         0.39725E+03         0.00000E+00
    0.39725E+03        -0.50000E+08         0.00000E+00
    0.00000E+00         0.00000E+00        -0.50000E+08
 
   -0.49998E+08         0.41834E+03         0.00000E+00
    0.41834E+03        -0.50000E+08         0.00000E+00
    0.00000E+00         0.00000E+00        -0.50000E+08
 
   -0.49998E+08         0.43908E+03         0.00000E+00
    0.43908E+03        -0.50000E+08         0.00000E+00
    0.00000E+00         0.00000E+00        -0.50000E+08
 
   -0.49998E+08         0.45946E+03         0.00000E+00
    0.45946E+03        -0.50000E+08         0.00000E+00
    0.00000E+00         0.00000E+00        -0.50000E+08
 
   -0.49998E+08         0.47945E+03         0.00000E+00
    0.47945E+03        -0.50000E+08         0.00000E+00
    0.00000E+00         0.00000E+00        -0.50000E+08
 
   -0.49998E+08         0.49903E+03         0.00000E+00
    0.49903E+03        -0.50000E+08         0.00000E+00
    0.00000E+00         0.00000E+00        -0.50000E+08
 
   -0.49998E+08         0.51817E+03         0.00000E+00
    0.51817E+03        -0.50000E+08         0.00000E+00
    0.00000E+00         0.00000E+00        -0.50000E+08
 
   -0.49998E+08         0.53684E+03         0.00000E+00
    0.53684E+03        -0.50000E+08         0.00000E+00
    0.00000E+00         0.00000E+00        -0.50000E+08
 
   -0.49998E+08         0.55504E+03         0.00000E+00
    0.55504E+03        -0.50000E+08         0.00000E+00
    0.00000E+00         0.00000E+00        -0.50000E+08
 
   -0.49999E+08         0.57273E+03         0.00000E+00
    0.57273E+03        -0.50000E+08         0.00000E+00
    0.00000E+00         0.00000E+00        -0.50000E+08
 
   -0.49999E+08         0.58988E+03         0.00000E+00
    0.58988E+03        -0.50000E+08         0.00000E+00
    0.00000E+00         0.00000E+00        -0.50000E+08
 
   -0.49999E+08         0.60649E+03         0.00000E+00
    0.60649E+03        -0.50000E+08         0.00000E+00
    0.00000E+00         0.00000E+00        -0.50000E+08
 
   -0.49999E+08         0.62253E+03         0.00000E+00
    0.62253E+03        -0.50000E+08         0.00000E+00
    0.00000E+00         0.00000E+00        -0.50000E+08
 
   -0.49999E+08         0.63797E+03         0.00000E+00
    0.63797E+03        -0.49999E+08         0.00000E+00
    0.00000E+00         0.00000E+00        -0.50000E+08
 
   -0.49999E+08         0.65281E+03         0.00000E+00
    0.65281E+03        -0.49999E+08         0.00000E+00
    0.00000E+00         0.00000E+00        -0.50000E+08
 
   -0.49999E+08         0.66701E+03         0.00000E+00
    0.66701E+03        -0.49999E+08         0.00000E+00
    0.00000E+00         0.00000E+00        -0.50000E+08
 
   -0.49999E+08         0.68055E+03         0.00000E+00
    0.68055E+03        -0.49999E+08         0.00000E+00
    0.00000E+00         0.00000E+00        -0.50000E+08
 
   -0.49999E+08         0.69343E+03         0.00000E+00
    0.69343E+03        -0.49999E+08         0.00000E+00
    0.00000E+00         0.00000E+00        -0.50000E+08
 
   -0.49999E+08         0.70562E+03         0.00000E+00
    0.70562E+03        -0.49999E+08         0.00000E+00
    0.00000E+00         0.00000E+00        -0.50000E+08
 
   -0.49999E+08         0.71710E+03         0.00000E+00
    0.71710E+03        -0.49999E+08         0.00000E+00
    0.00000E+00         0.00000E+00        -0.50000E+08
 
   -0.49999E+08         0.72785E+03         0.00000E+00
    0.72785E+03        -0.49999E+08         0.00000E+00
    0.00000E+00         0.00000E+00        -0.50000E+08
 
   -0.49999E+08         0.73787E+03         0.00000E+00
    0.73787E+03        -0.49999E+08         0.00000E+00
    0.00000E+00         0.00000E+00        -0.50000E+08
 
   -0.49999E+08         0.74713E+03         0.00000E+00
    0.74713E+03        -0.49999E+08         0.00000E+00
    0.00000E+00         0.00000E+00        -0.50000E+08
 
   -0.49999E+08         0.75562E+03         0.00000E+00
    0.75562E+03        -0.49999E+08         0.00000E+00
    0.00000E+00         0.00000E+00        -0.50000E+08
 
   -0.49999E+08         0.76332E+03         0.00000E+00
    0.76332E+03        -0.49999E+08         0.00000E+00
    0.00000E+00         0.00000E+00        -0.50000E+08
 
   -0.49999E+08         0.77022E+03         0.00000E+00
    0.77022E+03        -0.49999E+08         0.00000E+00
    0.00000E+00         0.00000E+00        -0.50000E+08
 
   -0.50000E+08         0.77630E+03         0.00000E+00
    0.77630E+03        -0.49999E+08         0.00000E+00
    0.00000E+00         0.00000E+00        -0.50000E+08
 
   -0.50000E+08         0.78156E+03         0.00000E+00
    0.78156E+03        -0.49999E+08         0.00000E+00
    0.00000E+00         0.00000E+00        -0.50000E+08
 
   -0.50000E+08         0.78598E+03         0.00000E+00
    0.78598E+03        -0.49999E+08         0.00000E+00
    0.00000E+00         0.00000E+00        -0.50000E+08
 
   -0.50000E+08         0.78955E+03         0.00000E+00
    0.78955E+03        -0.49999E+08         0.00000E+00
    0.00000E+00         0.00000E+00        -0.50000E+08
 
   -0.50000E+08         0.79225E+03         0.00000E+00
    0.79225E+03        -0.49999E+08         0.00000E+00
    0.00000E+00         0.00000E+00        -0.50000E+08
 
   -0.50000E+08         0.79409E+03         0.00000E+00
    0.79409E+03        -0.49999E+08         0.00000E+00
    0.00000E+00         0.00000E+00        -0.50000E+08
 
   -0.50000E+08         0.79504E+03         0.00000E+00
    0.79504E+03        -0.49999E+08         0.00000E+00
    0.00000E+00         0.00000E+00        -0.50000E+08
 
   -0.49998E+08         0.14135E+02         0.00000E+00
    0.14135E+02        -0.50000E+08         0.00000E+00
    0.00000E+00         0.00000E+00        -0.50000E+08
 
   -0.49998E+08         0.42859E+02         0.00000E+00
    0.42859E+02        -0.50000E+08         0.00000E+00
    0.00000E+00         0.00000E+00        -0.50000E+08
 
   -0.49998E+08         0.71704E+02         0.00000E+00
    0.71704E+02        -0.50000E+08         0.00000E+00
    0.00000E+00         0.00000E+00        -0.50000E+08
 
   -0.49998E+08         0.10064E+03         0.00000E+00
    0.10064E+03        -0.50000E+08         0.00000E+00
    0.00000E+00         0.00000E+00        -0.50000E+08
 
   -0.49998E+08         0.12963E+03         0.00000E+00
    0.12963E+03        -0.50000E+08         0.00000E+00
    0.00000E+00         0.00000E+00        -0.50000E+08
 
   -0.49998E+08         0.15865E+03         0.00000E+00
    0.15865E+03        -0.50000E+08         0.00000E+00
    0.00000E+00         0.00000E+00        -0.50000E+08
 
   -0.49998E+08         0.18766E+03         0.00000E+00
    0.18766E+03        -0.50000E+08         0.00000E+00
    0.00000E+00         0.00000E+00        -0.50000E+08
 
   -0.49998E+08         0.21662E+03         0.00000E+00
    0.21662E+03        -0.50000E+08         0.00000E+00
    0.00000E+00         0.00000E+00        -0.50000E+08
 
   -0.49998E+08         0.24552E+03         0.00000E+00
    0.24552E+03        -0.50000E+08         0.00000E+00
    0.00000E+00         0.00000E+00        -0.50000E+08
 
   -0.49998E+08         0.27430E+03         0.00000E+00
    0.27430E+03        -0.50000E+08         0.00000E+00
    0.00000E+00         0.00000E+00        -0.50000E+08
 
   -0.49998E+08         0.30295E+03         0.00000E+00
    0.30295E+03        -0.50000E+08         0.00000E+00
    0.00000E+00         0.00000E+00        -0.50000E+08
 
   -0.49998E+08         0.33142E+03         0.00000E+00
    0.33142E+03        -0.50000E+08         0.00000E+00
    0.00000E+00         0.00000E+00        -0.50000E+08
 
   -0.49998E+08         0.35969E+03         0.00000E+00
    0.35969E+03        -0.50000E+08         0.00000E+00
    0.00000E+00         0.00000E+00        -0.50000E+08
 
   -0.49998E+08         0.38773E+03         0.00000E+00
    0.38773E+03        -0.50000E+08         0.00000E+00
    0.00000E+00         0.00000E+00        -0.50000E+08
 
   -0.49998E+08         0.41549E+03         0.00000E+00
    0.41549E+03        -0.50000E+08         0.00000E+00
    0.00000E+00         0.00000E+00        -0.50000E+08
 
   -0.49998E+08         0.44295E+03         0.00000E+00
    0.44295E+03        -0.50000E+08         0.00000E+00
    0.00000E+00         0.00000E+00        -0.50000E+08
 
   -0.49998E+08         0.47008E+03         0.00000E+00
    0.47008E+03        -0.50000E+08         0.00000E+00
    0.00000E+00         0.00000E+00        -0.50000E+08
 
   -0.49998E+08         0.49684E+03         0.00000E+00
    0.49684E+03        -0.50000E+08         0.00000E+00
    0.00000E+00         0.00000E+00        -0.50000E+08
 
   -0.49998E+08         0.52321E+03         0.00000E+00
    0.52321E+03        -0.50000E+08         0.00000E+00
    0.00000E+00         0.00000E+00        -0.50000E+08
 
   -0.49998E+08         0.54916E+03         0.00000E+00
    0.54916E+03        -0.50000E+08         0.00000E+00
    0.00000E+00         0.00000E+00        -0.50000E+08
 
   -0.49998E+08         0.57464E+03         0.00000E+00
    0.57464E+03        -0.50000E+08         0.00000E+00
    0.00000E+00         0.00000E+00        -0.50000E+08
 
   -0.49998E+08         0.59964E+03         0.00000E+00
    0.59964E+03        -0.50000E+08         0.00000E+00
    0.00000E+00         0.00000E+00        -0.50000E+08
 
   -0.49998E+08         0.62411E+03         0.00000E+00
    0.62411E+03        -0.50000E+08         0.00000E+00
    0.00000E+00         0.00000E+00        -0.50000E+08
 
   -0.49998E+08         0.64804E+03         0.00000E+00
    0.64804E+03        -0.50000E+08         0.00000E+00
    0.00000E+00         0.00000E+00        -0.50000E+08
 
   -0.49998E+08         0.67140E+03         0.00000E+00
    0.67140E+03        -0.50000E+08         0.00000E+00
    0.00000E+00         0.00000E+00        -0.50000E+08
 
   -0.49998E+08         0.69415E+03         0.00000E+00
    0.69415E+03        -0.50000E+08         0.00000E+00
    0.00000E+00         0.00000E+00        -0.50000E+08
 
   -0.49998E+08         0.71626E+03         0.00000E+00
    0.71626E+03        -0.50000E+08         0.00000E+00
    0.00000E+00         0.00000E+00        -0.50000E+08
 
   -0.49998E+08         0.73772E+03         0.00000E+00
    0.73772E+03        -0.50000E+08         0.00000E+00
    0.00000E+00         0.00000E+00        -0.50000E+08
 
   -0.49999E+08         0.75848E+03         0.00000E+00
    0.75848E+03        -0.50000E+08         0.00000E+00
    0.00000E+00         0.00000E+00        -0.50000E+08
 
   -0.49999E+08         0.77854E+03         0.00000E+00
    0.77854E+03        -0.49999E+08         0.00000E+00
    0.00000E+00         0.00000E+00        -0.50000E+08
 
   -0.49999E+08         0.79785E+03         0.00000E+00
    0.79785E+03        -0.49999E+08         0.00000E+00
    0.00000E+00         0.00000E+00        -0.50000E+08
 
   -0.49999E+08         0.81639E+03         0.00000E+00
    0.81639E+03        -0.49999E+08         0.00000E+00
    0.00000E+00         0.00000E+00        -0.50000E+08
 
   -0.49999E+08         0.83414E+03         0.00000E+00
    0.83414E+03        -0.49999E+08         0.00000E+00
    0.00000E+00         0.00000E+00        -0.50000E+08
 
   -0.49999E+08         0.85108E+03         0.00000E+00
    0.85108E+03        -0.49999E+08         0.00000E+00
    0.00000E+00         0.00000E+00        -0.50000E+08
 
   -0.49999E+08         0.86718E+03         0.00000E+00
    0.86718E+03        -0.49999E+08         0.00000E+00
    0.00000E+00         0.00000E+00        -0.50000E+08
 
   -0.49999E+08         0.88242E+03         0.00000E+00
    0.88242E+03        -0.49999E+08         0.00000E+00
    0.00000E+00         0.00000E+00        -0.50000E+08
 
   -0.49999E+08         0.89677E+03         0.00000E+00
    0.89677E+03        -0.49999E+08         0.00000E+00
    0.00000E+00         0.00000E+00        -0.50000E+08
 
   -0.49999E+08         0.91022E+03         0.00000E+00
    0.91022E+03        -0.49999E+08         0.00000E+00
    0.00000E+00         0.00000E+00        -0.50000E+08
 
   -0.49999E+08         0.92274E+03         0.00000E+00
    0.92274E+03        -0.49999E+08         0.00000E+00
    0.00000E+00         0.00000E+00        -0.50000E+08
 
   -0.49999E+08         0.93432E+03         0.00000E+00
    0.93432E+03        -0.49999E+08         0.00000E+00
    0.00000E+00         0.00000E+00        -0.50000E+08
 
   -0.49999E+08         0.94493E+03         0.00000E+00
    0.94493E+03        -0.49999E+08         0.00000E+00
    0.00000E+00         0.00000E+00        -0.50000E+08
 
   -0.49999E+08         0.95455E+03         0.00000E+00
    0.95455E+03        -0.49999E+08         0.00000E+00
    0.00000E+00         0.00000E+00        -0.50000E+08
 
   -0.49999E+08         0.96318E+03         0.00000E+00
    0.96318E+03        -0.49999E+08         0.00000E+00
    0.00000E+00         0.00000E+00        -0.50000E+08
 
   -0.49999E+08         0.97078E+03         0.00000E+00
    0.97078E+03        -0.49999E+08         0.00000E+00
    0.00000E+00         0.00000E+00        -0.50000E+08
 
   -0.50000E+08         0.97735E+03         0.00000E+00
    0.97735E+03        -0.49999E+08         0.00000E+00
    0.00000E+00         0.00000E+00        -0.50000E+08
 
   -0.50000E+08         0.98288E+03         0.00000E+00
    0.98288E+03        -0.49999E+08         0.00000E+00
    0.00000E+00         0.00000E+00        -0.50000E+08
 
   -0.50000E+08         0.98733E+03         0.00000E+00
    0.98733E+03        -0.49999E+08         0.00000E+00
    0.00000E+00         0.00000E+00        -0.50000E+08
 
   -0.50000E+08         0.99071E+03         0.00000E+00
    0.99071E+03        -0.49999E+08         0.00000E+00
    0.00000E+00         0.00000E+00        -0.50000E+08
 
   -0.50000E+08         0.99301E+03         0.00000E+00
    0.99301E+03        -0.49999E+08         0.00000E+00
    0.00000E+00         0.00000E+00        -0.50000E+08
 
   -0.50000E+08         0.99419E+03         0.00000E+00
    0.99419E+03        -0.49999E+08         0.00000E+00
    0.00000E+00         0.00000E+00        -0.50000E+08
 
   -0.49998E+08         0.17173E+02         0.00000E+00
    0.17173E+02        -0.50000E+08         0.00000E+00
    0.00000E+00         0.00000E+00        -0.50000E+08
 
   -0.49998E+08         0.52066E+02         0.00000E+00
    0.52066E+02        -0.50000E+08         0.00000E+00
    0.00000E+00         0.00000E+00        -0.50000E+08
 
   -0.49998E+08         0.87106E+02         0.00000E+00
    0.87106E+02        -0.50000E+08         0.00000E+00
    0.00000E+00         0.00000E+00        -0.50000E+08
 
   -0.49998E+08         0.12225E+03         0.00000E+00
    0.12225E+03        -0.50000E+08         0.00000E+00
    0.00000E+00         0.00000E+00        -0.50000E+08
 
   -0.49998E+08         0.15747E+03         0.00000E+00
    0.15747E+03        -0.50000E+08         0.00000E+00
    0.00000E+00         0.00000E+00        -0.50000E+08
 
   -0.49998E+08         0.19272E+03         0.00000E+00
    0.19272E+03        -0.50000E+08         0.00000E+00
    0.00000E+00         0.00000E+00        -0.50000E+08
 
   -0.49998E+08         0.22795E+03         0.00000E+00
    0.22795E+03        -0.50000E+08         0.00000E+00
    0.00000E+00         0.00000E+00        -0.50000E+08
 
   -0.49998E+08         0.26313E+03         0.00000E+00
    0.26313E+03        -0.50000E+08         0.00000E+00
    0.00000E+00         0.00000E+00        -0.50000E+08
 
   -0.49998E+08         0.29823E+03         0.00000E+00
    0.29823E+03        -0.50000E+08         0.00000E+00
    0.00000E+00         0.00000E+00        -0.50000E+08
 
   -0.49998E+08         0.33319E+03         0.00000E+00
    0.33319E+03        -0.50000E+08         0.00000E+00
    0.00000E+00         0.00000E+00        -0.50000E+08
 
   -0.49998E+08         0.36798E+03         0.00000E+00
    0.36798E+03        -0.50000E+08         0.00000E+00
    0.00000E+00         0.00000E+00        -0.50000E+08
 
   -0.49998E+08         0.40256E+03         0.00000E+00
    0.40256E+03        -0.50000E+08         0.00000E+00
    0.00000E+00         0.00000E+00        -0.50000E+08
 
   -0.49998E+08         0.43690E+03         0.00000E+00
    0.43690E+03        -0.50000E+08         0.00000E+00
    0.00000E+00         0.00000E+00        -0.50000E+08
 
   -0.49998E+08         0.47094E+03         0.00000E+00
    0.47094E+03        -0.50000E+08         0.00000E+00
    0.00000E+00         0.00000E+00        -0.50000E+08
 
   -0.49998E+08         0.50466E+03         0.00000E+00
    0.50466E+03        -0.50000E+08         0.00000E+00
    0.00000E+00         0.00000E+00        -0.50000E+08
 
   -0.49998E+08         0.53801E+03         0.00000E+00
    0.53801E+03        -0.50000E+08         0.00000E+00
    0.00000E+00         0.00000E+00        -0.50000E+08
 
   -0.49998E+08         0.57096E+03         0.00000E+00
    0.57096E+03        -0.50000E+08         0.00000E+00
    0.00000E+00         0.00000E+00        -0.50000E+08
 
   -0.49998E+08         0.60346E+03         0.00000E+00
    0.60346E+03        -0.50000E+08         0.00000E+00
    0.00000E+00         0.00000E+00        -0.50000E+08
 
   -0.49998E+08         0.63548E+03         0.00000E+00
    0.63548E+03        -0.50000E+08         0.00000E+00
    0.00000E+00         0.00000E+00        -0.50000E+08
 
   -0.49998E+08         0.66698E+03         0.00000E+00
    0.66698E+03        -0.50000E+08         0.00000E+00
    0.00000E+00         0.00000E+00        -0.50000E+08
 
   -0.49998E+08         0.69793E+03         0.00000E+00
    0.69793E+03        -0.50000E+08         0.00000E+00
    0.00000E+00         0.00000E+00        -0.50000E+08
 
   -0.49998E+08         0.72828E+03         0.00000E+00
    0.72828E+03        -0.50000E+08         0.00000E+00
    0.00000E+00         0.00000E+00        -0.50000E+08
 
   -0.49998E+08         0.75801E+03         0.00000E+00
    0.75801E+03        -0.50000E+08         0.00000E+00
    0.00000E+00         0.00000E+00        -0.50000E+08
 
   -0.49998E+08         0.78706E+03         0.00000E+00
    0.78706E+03        -0.50000E+08         0.00000E+00
    0.00000E+00         0.00000E+00        -0.50000E+08
 
   -0.49998E+08         0.81542E+03         0.00000E+00
    0.81542E+03        -0.50000E+08         0.00000E+00
    0.00000E+00         0.00000E+00        -0.50000E+08
 
   -0.49998E+08         0.84305E+03         0.00000E+00
    0.84305E+03        -0.50000E+08         0.00000E+00
    0.00000E+00         0.00000E+00        -0.50000E+08
 
   -0.49998E+08         0.86990E+03         0.00000E+00
    0.86990E+03        -0.50000E+08         0.00000E+00
    0.00000E+00         0.00000E+00        -0.50000E+08
 
   -0.49998E+08         0.89595E+03         0.00000E+00
    0.89595E+03        -0.50000E+08         0.00000E+00
    0.00000E+00         0.00000E+00        -0.50000E+08
 
   -0.49998E+08         0.92117E+03         0.00000E+00
    0.92117E+03        -0.49999E+08         0.00000E+00
    0.00000E+00         0.00000E+00        -0.50000E+08
 
   -0.49998E+08         0.94552E+03         0.00000E+00
    0.94552E+03        -0.49999E+08         0.00000E+00
    0.00000E+00         0.00000E+00        -0.50000E+08
 
   -0.49999E+08         0.96896E+03         0.00000E+00
    0.96896E+03        -0.49999E+08         0.00000E+00
    0.00000E+00         0.00000E+00        -0.50000E+08
 
   -0.49999E+08         0.99148E+03         0.00000E+00
    0.99148E+03        -0.49999E+08         0.00000E+00
    0.00000E+00         0.00000E+00        -0.50000E+08
 
   -0.49999E+08         0.10130E+04         0.00000E+00
    0.10130E+04        -0.49999E+08         0.00000E+00
    0.00000E+00         0.00000E+00        -0.50000E+08
 
   -0.49999E+08         0.10336E+04         0.00000E+00
    0.10336E+04        -0.49999E+08         0.00000E+00
    0.00000E+00         0.00000E+00        -0.50000E+08
 
   -0.49999E+08         0.10532E+04         0.00000E+00
    0.10532E+04        -0.49999E+08         0.00000E+00
    0.00000E+00         0.00000E+00        -0.50000E+08
 
   -0.49999E+08         0.10717E+04         0.00000E+00
    0.10717E+04        -0.49999E+08         0.00000E+00
    0.00000E+00         0.00000E+00        -0.50000E+08
 
   -0.49999E+08         0.10891E+04         0.00000E+00
    0.10891E+04        -0.49999E+08         0.00000E+00
    0.00000E+00         0.00000E+00        -0.50000E+08
 
   -0.49999E+08         0.11054E+04         0.00000E+00
    0.11054E+04        -0.49999E+08         0.00000E+00
    0.00000E+00         0.00000E+00        -0.50000E+08
 
   -0.49999E+08         0.11206E+04         0.00000E+00
    0.11206E+04        -0.49999E+08         0.00000E+00
    0.00000E+00         0.00000E+00        -0.50000E+08
 
   -0.49999E+08         0.11347E+04         0.00000E+00
    0.11347E+04        -0.49999E+08         0.00000E+00
    0.00000E+00         0.00000E+00        -0.50000E+08
 
   -0.49999E+08         0.11475E+04         0.00000E+00
    0.11475E+04        -0.49999E+08         0.00000E+00
    0.00000E+00         0.00000E+00        -0.50000E+08
 
   -0.49999E+08         0.11592E+04         0.00000E+00
    0.11592E+04        -0.49999E+08         0.00000E+00
    0.00000E+00         0.00000E+00        -0.50000E+08
 
   -0.49999E+08         0.11697E+04         0.00000E+00
    0.11697E+04        -0.49999E+08         0.00000E+00
    0.00000E+00         0.00000E+00        -0.50000E+08
 
   -0.49999E+08         0.11789E+04         0.00000E+00
    0.11789E+04        -0.49999E+08         0.00000E+00
    0.00000E+00         0.00000E+00        -0.50000E+08
 
   -0.50000E+08         0.11869E+04         0.00000E+00
    0.11869E+04        -0.49999E+08         0.00000E+00
    0.00000E+00         0.00000E+00        -0.50000E+08
 
   -0.50000E+08         0.11936E+04         0.00000E+00
    0.11936E+04        -0.49999E+08         0.00000E+00
    0.00000E+00         0.00000E+00        -0.50000E+08
 
   -0.50000E+08         0.11990E+04         0.00000E+00
    0.11990E+04        -0.49999E+08         0.00000E+00
    0.00000E+00         0.00000E+00        -0.50000E+08
 
   -0.50000E+08         0.12031E+04         0.00000E+00
    0.12031E+04        -0.49999E+08         0.00000E+00
    0.00000E+00         0.00000E+00        -0.50000E+08
 
   -0.50000E+08         0.12059E+04         0.00000E+00
    0.12059E+04        -0.49999E+08         0.00000E+00
    0.00000E+00         0.00000E+00        -0.50000E+08
 
   -0.50000E+08         0.12073E+04         0.00000E+00
    0.12073E+04        -0.49999E+08         0.00000E+00
    0.00000E+00         0.00000E+00        -0.50000E+08
 
   -0.49998E+08         0.20454E+02         0.00000E+00
    0.20454E+02        -0.50000E+08         0.00000E+00
    0.00000E+00         0.00000E+00        -0.50000E+08
 
   -0.49998E+08         0.62010E+02         0.00000E+00
    0.62010E+02        -0.50000E+08         0.00000E+00
    0.00000E+00         0.00000E+00        -0.50000E+08
 
   -0.49998E+08         0.10374E+03         0.00000E+00
    0.10374E+03        -0.50000E+08         0.00000E+00
    0.00000E+00         0.00000E+00        -0.50000E+08
 
   -0.49998E+08         0.14560E+03         0.00000E+00
    0.14560E+03        -0.50000E+08         0.00000E+00
    0.00000E+00         0.00000E+00        -0.50000E+08
 
   -0.49998E+08         0.18754E+03         0.00000E+00
    0.18754E+03        -0.50000E+08         0.00000E+00
    0.00000E+00         0.00000E+00        -0.50000E+08
 
   -0.49998E+08         0.22951E+03         0.00000E+00
    0.22951E+03        -0.50000E+08         0.00000E+00
    0.00000E+00         0.00000E+00        -0.50000E+08
 
   -0.49998E+08         0.27147E+03         0.00000E+00
    0.27147E+03        -0.50000E+08         0.00000E+00
    0.00000E+00         0.00000E+00        -0.50000E+08
 
   -0.49998E+08         0.31337E+03         0.00000E+00
    0.31337E+03        -0.50000E+08         0.00000E+00
    0.00000E+00         0.00000E+00        -0.50000E+08
 
   -0.49998E+08         0.35516E+03         0.00000E+00
    0.35516E+03        -0.50000E+08         0.00000E+00
    0.00000E+00         0.00000E+00        -0.50000E+08
 
   -0.49998E+08         0.39679E+03         0.00000E+00
    0.39679E+03        -0.50000E+08         0.00000E+00
    0.00000E+00         0.00000E+00        -0.50000E+08
 
   -0.49998E+08         0.43822E+03         0.00000E+00
    0.43822E+03        -0.50000E+08         0.00000E+00
    0.00000E+00         0.00000E+00        -0.50000E+08
 
   -0.49998E+08         0.47940E+03         0.00000E+00
    0.47940E+03        -0.50000E+08         0.00000E+00
    0.00000E+00         0.00000E+00        -0.50000E+08
 
   -0.49998E+08         0.52028E+03         0.00000E+00
    0.52028E+03        -0.50000E+08         0.00000E+00
    0.00000E+00         0.00000E+00        -0.50000E+08
 
   -0.49998E+08         0.56081E+03         0.00000E+00
    0.56081E+03        -0.50000E+08         0.00000E+00
    0.00000E+00         0.00000E+00        -0.50000E+08
 
   -0.49998E+08         0.60096E+03         0.00000E+00
    0.60096E+03        -0.50000E+08         0.00000E+00
    0.00000E+00         0.00000E+00        -0.50000E+08
 
   -0.49998E+08         0.64067E+03         0.00000E+00
    0.64067E+03        -0.50000E+08         0.00000E+00
    0.00000E+00         0.00000E+00        -0.50000E+08
 
   -0.49998E+08         0.67989E+03         0.00000E+00
    0.67989E+03        -0.50000E+08         0.00000E+00
    0.00000E+00         0.00000E+00        -0.50000E+08
 
   -0.49998E+08         0.71859E+03         0.00000E+00
    0.71859E+03        -0.50000E+08         0.00000E+00
    0.00000E+00         0.00000E+00        -0.50000E+08
 
   -0.49998E+08         0.75672E+03         0.00000E+00
    0.75672E+03        -0.50000E+08         0.00000E+00
    0.00000E+00         0.00000E+00        -0.50000E+08
 
   -0.49998E+08         0.79422E+03         0.00000E+00
    0.79422E+03        -0.50000E+08         0.00000E+00
    0.00000E+00         0.00000E+00        -0.50000E+08
 
   -0.49998E+08         0.83106E+03         0.00000E+00
    0.83106E+03        -0.50000E+08         0.00000E+00
    0.00000E+00         0.00000E+00        -0.50000E+08
 
   -0.49998E+08         0.86720E+03         0.00000E+00
    0.86720E+03        -0.50000E+08         0.00000E+00
    0.00000E+00         0.00000E+00        -0.50000E+08
 
   -0.49998E+08         0.90259E+03         0.00000E+00
    0.90259E+03        -0.50000E+08         0.00000E+00
    0.00000E+00         0.00000E+00        -0.50000E+08
 
   -0.49998E+08         0.93718E+03         0.00000E+00
    0.93718E+03        -0.50000E+08         0.00000E+00
    0.00000E+00         0.00000E+00        -0.50000E+08
 
   -0.49998E+08         0.97095E+03         0.00000E+00
    0.97095E+03        -0.50000E+08         0.00000E+00
    0.00000E+00         0.00000E+00        -0.50000E+08
 
   -0.49998E+08         0.10038E+04         0.00000E+00
    0.10038E+04        -0.50000E+08         0.00000E+00
    0.00000E+00         0.00000E+00        -0.50000E+08
 
   -0.49998E+08         0.10358E+04         0.00000E+00
    0.10358E+04        -0.50000E+08         0.00000E+00
    0.00000E+00         0.00000E+00        -0.50000E+08
 
   -0.49998E+08         0.10668E+04         0.00000E+00
    0.10668E+04        -0.49999E+08         0.00000E+00
    0.00000E+00         0.00000E+00        -0.50000E+08
 
   -0.49998E+08         0.10968E+04         0.00000E+00
    0.10968E+04        -0.49999E+08         0.00000E+00
    0.00000E+00         0.00000E+00        -0.50000E+08
 
   -0.49998E+08         0.11258E+04         0.00000E+00
    0.11258E+04        -0.49999E+08         0.00000E+00
    0.00000E+00         0.00000E+00        -0.50000E+08
 
   -0.49998E+08         0.11537E+04         0.00000E+00
    0.11537E+04        -0.49999E+08         0.00000E+00
    0.00000E+00         0.00000E+00        -0.50000E+08
 
   -0.49998E+08         0.11805E+04         0.00000E+00
    0.11805E+04        -0.49999E+08         0.00000E+00
    0.00000E+00         0.00000E+00        -0.50000E+08
 
   -0.49999E+08         0.12062E+04         0.00000E+00
    0.12062E+04        -0.49999E+08         0.00000E+00
    0.00000E+00         0.00000E+00        -0.50000E+08
 
   -0.49999E+08         0.12307E+04         0.00000E+00
    0.12307E+04        -0.49999E+08         0.00000E+00
    0.00000E+00         0.00000E+00        -0.50000E+08
 
   -0.49999E+08         0.12539E+04         0.00000E+00
    0.12539E+04        -0.49999E+08         0.00000E+00
    0.00000E+00         0.00000E+00        -0.50000E+08
 
   -0.49999E+08         0.12760E+04         0.00000E+00
    0.12760E+04        -0.49999E+08         0.00000E+00
    0.00000E+00         0.00000E+00        -0.50000E+08
 
   -0.49999E+08         0.12967E+04         0.00000E+00
    0.12967E+04        -0.49999E+08         0.00000E+00
    0.00000E+00         0.00000E+00        -0.50000E+08
 
   -0.49999E+08         0.13162E+04         0.00000E+00
    0.13162E+04        -0.49999E+08         0.00000E+00
    0.00000E+00         0.00000E+00        -0.50000E+08
 
   -0.49999E+08         0.13342E+04         0.00000E+00
    0.13342E+04        -0.49999E+08         0.00000E+00
    0.00000E+00         0.00000E+00        -0.50000E+08
 
   -0.49999E+08         0.13510E+04         0.00000E+00
    0.13510E+04        -0.49999E+08         0.00000E+00
    0.00000E+00         0.00000E+00        -0.50000E+08
 
   -0.49999E+08         0.13663E+04         0.00000E+00
    0.13663E+04        -0.49999E+08         0.00000E+00
    0.00000E+00         0.00000E+00        -0.50000E+08
 
   -0.49999E+08         0.13802E+04         0.00000E+00
    0.13802E+04        -0.49999E+08         0.00000E+00
    0.00000E+00         0.00000E+00        -0.50000E+08
 
   -0.49999E+08         0.13927E+04         0.00000E+00
    0.13927E+04        -0.49999E+08         0.00000E+00
    0.00000E+00         0.00000E+00        -0.50000E+08
 
   -0.49999E+08         0.14037E+04         0.00000E+00
    0.14037E+04        -0.49999E+08         0.00000E+00
    0.00000E+00         0.00000E+00        -0.50000E+08
 
   -0.49999E+08         0.14132E+04         0.00000E+00
    0.14132E+04        -0.49999E+08         0.00000E+00
    0.00000E+00         0.00000E+00        -0.50000E+08
 
   -0.50000E+08         0.14212E+04         0.00000E+00
    0.14212E+04        -0.49999E+08         0.00000E+00
    0.00000E+00         0.00000E+00        -0.50000E+08
 
   -0.50000E+08         0.14276E+04         0.00000E+00
    0.14276E+04        -0.49999E+08         0.00000E+00
    0.00000E+00         0.00000E+00        -0.50000E+08
 
   -0.50000E+08         0.14325E+04         0.00000E+00
    0.14325E+04        -0.49999E+08         0.00000E+00
    0.00000E+00         0.00000E+00        -0.50000E+08
 
   -0.50000E+08         0.14358E+04         0.00000E+00
    0.14358E+04        -0.49999E+08         0.00000E+00
    0.00000E+00         0.00000E+00        -0.50000E+08
 
   -0.50000E+08         0.14375E+04         0.00000E+00
    0.14375E+04        -0.49999E+08         0.00000E+00
    0.00000E+00         0.00000E+00        -0.50000E+08
 
   -0.49997E+08         0.24025E+02         0.00000E+00
    0.24025E+02        -0.50000E+08         0.00000E+00
    0.00000E+00         0.00000E+00        -0.50000E+08
 
   -0.49997E+08         0.72833E+02         0.00000E+00
    0.72833E+02        -0.50000E+08         0.00000E+00
    0.00000E+00         0.00000E+00        -0.50000E+08
 
   -0.49997E+08         0.12185E+03         0.00000E+00
    0.12185E+03        -0.50000E+08         0.00000E+00
    0.00000E+00         0.00000E+00        -0.50000E+08
 
   -0.49997E+08         0.17101E+03         0.00000E+00
    0.17101E+03        -0.50000E+08         0.00000E+00
    0.00000E+00         0.00000E+00        -0.50000E+08
 
   -0.49997E+08         0.22026E+03         0.00000E+00
    0.22026E+03        -0.50000E+08         0.00000E+00
    0.00000E+00         0.00000E+00        -0.50000E+08
 
   -0.49997E+08         0.26956E+03         0.00000E+00
    0.26956E+03        -0.50000E+08         0.00000E+00
    0.00000E+00         0.00000E+00        -0.50000E+08
 
   -0.49997E+08         0.31883E+03         0.00000E+00
    0.31883E+03        -0.50000E+08         0.00000E+00
    0.00000E+00         0.00000E+00        -0.50000E+08
 
   -0.49997E+08         0.36803E+03         0.00000E+00
    0.36803E+03        -0.50000E+08         0.00000E+00
    0.00000E+00         0.00000E+00        -0.50000E+08
 
   -0.49997E+08         0.41711E+03         0.00000E+00
    0.41711E+03        -0.50000E+08         0.00000E+00
    0.00000E+00         0.00000E+00        -0.50000E+08
 
   -0.49997E+08         0.46600E+03         0.00000E+00
    0.46600E+03        -0.50000E+08         0.00000E+00
    0.00000E+00         0.00000E+00        -0.50000E+08
 
   -0.49997E+08         0.51464E+03         0.00000E+00
    0.51464E+03        -0.50000E+08         0.00000E+00
    0.00000E+00         0.00000E+00        -0.50000E+08
 
   -0.49997E+08         0.56300E+03         0.00000E+00
    0.56300E+03        -0.50000E+08         0.00000E+00
    0.00000E+00         0.00000E+00        -0.50000E+08
 
   -0.49997E+08         0.61100E+03         0.00000E+00
    0.61100E+03        -0.50000E+08         0.00000E+00
    0.00000E+00         0.00000E+00        -0.50000E+08
 
   -0.49997E+08         0.65860E+03         0.00000E+00
    0.65860E+03        -0.50000E+08         0.00000E+00
    0.00000E+00         0.00000E+00        -0.50000E+08
 
   -0.49997E+08         0.70574E+03         0.00000E+00
    0.70574E+03        -0.50000E+08         0.00000E+00
    0.00000E+00         0.00000E+00        -0.50000E+08
 
   -0.49997E+08         0.75237E+03         0.00000E+00
    0.75237E+03        -0.50000E+08         0.00000E+00
    0.00000E+00         0.00000E+00        -0.50000E+08
 
   -0.49997E+08         0.79843E+03         0.00000E+00
    0.79843E+03        -0.50000E+08         0.00000E+00
    0.00000E+00         0.00000E+00        -0.50000E+08
 
   -0.49998E+08         0.84386E+03         0.00000E+00
    0.84386E+03        -0.50000E+08         0.00000E+00
    0.00000E+00         0.00000E+00        -0.50000E+08
 
   -0.49998E+08         0.88863E+03         0.00000E+00
    0.88863E+03        -0.50000E+08         0.00000E+00
    0.00000E+00         0.00000E+00        -0.50000E+08
 
   -0.49998E+08         0.93266E+03         0.00000E+00
    0.93266E+03        -0.50000E+08         0.00000E+00
    0.00000E+00         0.00000E+00        -0.50000E+08
 
   -0.49998E+08         0.97592E+03         0.00000E+00
    0.97592E+03        -0.50000E+08         0.00000E+00
    0.00000E+00         0.00000E+00        -0.50000E+08
 
   -0.49998E+08         0.10183E+04         0.00000E+00
    0.10183E+04        -0.50000E+08         0.00000E+00
    0.00000E+00         0.00000E+00        -0.50000E+08
 
   -0.49998E+08         0.10599E+04         0.00000E+00
    0.10599E+04        -0.50000E+08         0.00000E+00
    0.00000E+00         0.00000E+00        -0.50000E+08
 
   -0.49998E+08         0.11005E+04         0.00000E+00
    0.11005E+04        -0.50000E+08         0.00000E+00
    0.00000E+00         0.00000E+00        -0.50000E+08
 
   -0.49998E+08         0.11402E+04         0.00000E+00
    0.11402E+04        -0.50000E+08         0.00000E+00
    0.00000E+00         0.00000E+00        -0.50000E+08
 
   -0.49998E+08         0.11788E+04         0.00000E+00
    0.11788E+04        -0.50000E+08         0.00000E+00
    0.00000E+00         0.00000E+00        -0.50000E+08
 
   -0.49998E+08         0.12163E+04         0.00000E+00
    0.12163E+04        -0.49999E+08         0.00000E+00
    0.00000E+00         0.00000E+00        -0.50000E+08
 
   -0.49998E+08         0.12527E+04         0.00000E+00
    0.12527E+04        -0.49999E+08         0.00000E+00
    0.00000E+00         0.00000E+00        -0.50000E+08
 
   -0.49998E+08         0.12879E+04         0.00000E+00
    0.12879E+04        -0.49999E+08         0.00000E+00
    0.00000E+00         0.00000E+00        -0.50000E+08
 
   -0.49998E+08         0.13220E+04         0.00000E+00
    0.13220E+04        -0.49999E+08         0.00000E+00
    0.00000E+00         0.00000E+00        -0.50000E+08
 
   -0.49998E+08         0.13547E+04         0.00000E+00
    0.13547E+04        -0.49999E+08         0.00000E+00
    0.00000E+00         0.00000E+00        -0.50000E+08
 
   -0.49998E+08         0.13862E+04         0.00000E+00
    0.13862E+04        -0.49999E+08         0.00000E+00
    0.00000E+00         0.00000E+00        -0.50000E+08
 
   -0.49998E+08         0.14163E+04         0.00000E+00
    0.14163E+04        -0.49999E+08         0.00000E+00
    0.00000E+00         0.00000E+00        -0.50000E+08
 
   -0.49998E+08         0.14451E+04         0.00000E+00
    0.14451E+04        -0.49999E+08         0.00000E+00
    0.00000E+00         0.00000E+00        -0.50000E+08
 
   -0.49999E+08         0.14724E+04         0.00000E+00
    0.14724E+04        -0.49999E+08         0.00000E+00
    0.00000E+00         0.00000E+00        -0.50000E+08
 
   -0.49999E+08         0.14982E+04         0.00000E+00
    0.14982E+04        -0.49999E+08         0.00000E+00
    0.00000E+00         0.00000E+00        -0.50000E+08
 
   -0.49999E+08         0.15226E+04         0.00000E+00
    0.15226E+04        -0.49999E+08         0.00000E+00
    0.00000E+00         0.00000E+00        -0.50000E+08
 
   -0.49999E+08         0.15454E+04         0.00000E+00
    0.15454E+04        -0.49999E+08         0.00000E+00
    0.00000E+00         0.00000E+00        -0.50000E+08
 
   -0.49999E+08         0.15667E+04         0.00000E+00
    0.15667E+04        -0.49999E+08         0.00000E+00
    0.00000E+00         0.00000E+00        -0.50000E+08
 
   -0.49999E+08         0.15863E+04         0.00000E+00
    0.15863E+04        -0.49999E+08         0.00000E+00
    0.00000E+00         0.00000E+00        -0.50000E+08
 
   -0.49999E+08         0.16043E+04         0.00000E+00
    0.16043E+04        -0.49999E+08         0.00000E+00
    0.00000E+00         0.00000E+00        -0.50000E+08
 
   -0.49999E+08         0.16206E+04         0.00000E+00
    0.16206E+04        -0.49999E+08         0.00000E+00
    0.00000E+00         0.00000E+00        -0.50000E+08
 
   -0.49999E+08         0.16353E+04         0.00000E+00
    0.16353E+04        -0.49999E+08         0.00000E+00
    0.00000E+00         0.00000E+00        -0.50000E+08
 
   -0.49999E+08         0.16482E+04         0.00000E+00
    0.16482E+04        -0.49999E+08         0.00000E+00
    0.00000E+00         0.00000E+00        -0.50000E+08
 
   -0.49999E+08         0.16593E+04         0.00000E+00
    0.16593E+04        -0.49999E+08         0.00000E+00
    0.00000E+00         0.00000E+00        -0.50000E+08
 
   -0.50000E+08         0.16687E+04         0.00000E+00
    0.16687E+04        -0.49999E+08         0.00000E+00
    0.00000E+00         0.00000E+00        -0.50000E+08
 
   -0.50000E+08         0.16763E+04         0.00000E+00
    0.16763E+04        -0.49999E+08         0.00000E+00
    0.00000E+00         0.00000E+00        -0.50000E+08
 
   -0.50000E+08         0.16820E+04         0.00000E+00
    0.16820E+04        -0.49998E+08         0.00000E+00
    0.00000E+00         0.00000E+00        -0.50000E+08
 
   -0.50000E+08         0.16859E+04         0.00000E+00
    0.16859E+04        -0.49998E+08         0.00000E+00
    0.00000E+00         0.00000E+00        -0.50000E+08
 
   -0.50000E+08         0.16879E+04         0.00000E+00
    0.16879E+04        -0.49998E+08         0.00000E+00
    0.00000E+00         0.00000E+00        -0.50000E+08
 
   -0.49997E+08         0.27936E+02         0.00000E+00
    0.27936E+02        -0.50000E+08         0.00000E+00
    0.00000E+00         0.00000E+00        -0.50000E+08
 
   -0.49997E+08         0.84688E+02         0.00000E+00
    0.84688E+02        -0.50000E+08         0.00000E+00
    0.00000E+00         0.00000E+00        -0.50000E+08
 
   -0.49997E+08         0.14168E+03         0.00000E+00
    0.14168E+03        -0.50000E+08         0.00000E+00
    0.00000E+00         0.00000E+00        -0.50000E+08
 
   -0.49997E+08         0.19883E+03         0.00000E+00
    0.19883E+03        -0.50000E+08         0.00000E+00
    0.00000E+00         0.00000E+00        -0.50000E+08
 
   -0.49997E+08         0.25610E+03         0.00000E+00
    0.25610E+03        -0.50000E+08         0.00000E+00
    0.00000E+00         0.00000E+00        -0.50000E+08
 
   -0.49997E+08         0.31341E+03         0.00000E+00
    0.31341E+03        -0.50000E+08         0.00000E+00
    0.00000E+00         0.00000E+00        -0.50000E+08
 
   -0.49997E+08         0.37070E+03         0.00000E+00
    0.37070E+03        -0.50000E+08         0.00000E+00
    0.00000E+00         0.00000E+00        -0.50000E+08
 
   -0.49997E+08         0.42790E+03         0.00000E+00
    0.42790E+03        -0.50000E+08         0.00000E+00
    0.00000E+00         0.00000E+00        -0.50000E+08
 
   -0.49997E+08         0.48495E+03         0.00000E+00
    0.48495E+03        -0.50000E+08         0.00000E+00
    0.00000E+00         0.00000E+00        -0.50000E+08
 
   -0.49997E+08         0.54179E+03         0.00000E+00
    0.54179E+03        -0.50000E+08         0.00000E+00
    0.00000E+00         0.00000E+00        -0.50000E+08
 
   -0.49997E+08         0.59834E+03         0.00000E+00
    0.59834E+03        -0.50000E+08         0.00000E+00
    0.00000E+00         0.00000E+00        -0.50000E+08
 
   -0.49997E+08         0.65455E+03         0.00000E+00
    0.65455E+03        -0.50000E+08         0.00000E+00
    0.00000E+00         0.00000E+00        -0.50000E+08
 
   -0.49997E+08         0.71036E+03         0.00000E+00
    0.71036E+03        -0.50000E+08         0.00000E+00
    0.00000E+00         0.00000E+00        -0.50000E+08
 
   -0.49997E+08         0.76569E+03         0.00000E+00
    0.76569E+03        -0.50000E+08         0.00000E+00
    0.00000E+00         0.00000E+00        -0.50000E+08
 
   -0.49997E+08         0.82049E+03         0.00000E+00
    0.82049E+03        -0.50000E+08         0.00000E+00
    0.00000E+00         0.00000E+00        -0.50000E+08
 
   -0.49997E+08         0.87468E+03         0.00000E+00
    0.87468E+03        -0.50000E+08         0.00000E+00
    0.00000E+00         0.00000E+00        -0.50000E+08
 
   -0.49997E+08         0.92822E+03         0.00000E+00
    0.92822E+03        -0.50000E+08         0.00000E+00
    0.00000E+00         0.00000E+00        -0.50000E+08
 
   -0.49997E+08         0.98104E+03         0.00000E+00
    0.98104E+03        -0.50000E+08         0.00000E+00
    0.00000E+00         0.00000E+00        -0.50000E+08
 
   -0.49997E+08         0.10331E+04         0.00000E+00
    0.10331E+04        -0.50000E+08         0.00000E+00
    0.00000E+00         0.00000E+00        -0.50000E+08
 
   -0.49997E+08         0.10843E+04         0.00000E+00
    0.10843E+04        -0.50000E+08         0.00000E+00
    0.00000E+00         0.00000E+00        -0.50000E+08
 
   -0.49997E+08         0.11345E+04         0.00000E+00
    0.11345E+04        -0.50000E+08         0.00000E+00
    0.00000E+00         0.00000E+00        -0.50000E+08
 
   -0.49997E+08         0.11838E+04         0.00000E+00
    0.11838E+04        -0.50000E+08         0.00000E+00
    0.00000E+00         0.00000E+00        -0.50000E+08
 
   -0.49998E+08         0.12321E+04         0.00000E+00
    0.12321E+04        -0.50000E+08         0.00000E+00
    0.00000E+00         0.00000E+00        -0.50000E+08
 
   -0.49998E+08         0.12793E+04         0.00000E+00
    0.12793E+04        -0.50000E+08         0.00000E+00
    0.00000E+00         0.00000E+00        -0.50000E+08
 
   -0.49998E+08         0.13254E+04         0.00000E+00
    0.13254E+04        -0.50000E+08         0.00000E+00
    0.00000E+00         0.00000E+00        -0.50000E+08
 
   -0.49998E+08         0.13703E+04         0.00000E+00
    0.13703E+04        -0.49999E+08         0.00000E+00
    0.00000E+00         0.00000E+00        -0.50000E+08
 
   -0.49998E+08         0.14139E+04         0.00000E+00
    0.14139E+04        -0.49999E+08         0.00000E+00
    0.00000E+00         0.00000E+00        -0.50000E+08
 
   -0.49998E+08         0.14562E+04         0.00000E+00
    0.14562E+04        -0.49999E+08         0.00000E+00
    0.00000E+00         0.00000E+00        -0.50000E+08
 
   -0.49998E+08         0.14972E+04         0.00000E+00
    0.14972E+04        -0.49999E+08         0.00000E+00
    0.00000E+00         0.00000E+00        -0.50000E+08
 
   -0.49998E+08         0.15367E+04         0.00000E+00
    0.15367E+04        -0.49999E+08         0.00000E+00
    0.00000E+00         0.00000E+00        -0.50000E+08
 
   -0.49998E+08         0.15748E+04         0.00000E+00
    0.15748E+04        -0.49999E+08         0.00000E+00
    0.00000E+00         0.00000E+00        -0.50000E+08
 
   -0.49998E+08         0.16114E+04         0.00000E+00
    0.16114E+04        -0.49999E+08         0.00000E+00
    0.00000E+00         0.00000E+00        -0.50000E+08
 
   -0.49998E+08         0.16464E+04         0.00000E+00
    0.16464E+04        -0.49999E+08         0.00000E+00
    0.00000E+00         0.00000E+00        -0.50000E+08
 
   -0.49998E+08         0.16798E+04         0.00000E+00
    0.16798E+04        -0.49999E+08         0.00000E+00
    0.00000E+00         0.00000E+00        -0.50000E+08
 
   -0.49998E+08         0.17116E+04         0.00000E+00
    0.17116E+04        -0.49999E+08         0.00000E+00
    0.00000E+00         0.00000E+00        -0.50000E+08
 
   -0.49998E+08         0.17416E+04         0.00000E+00
    0.17416E+04        -0.49999E+08         0.00000E+00
    0.00000E+00         0.00000E+00        -0.50000E+08
 
   -0.49999E+08         0.17699E+04         0.00000E+00
    0.17699E+04        -0.49999E+08         0.00000E+00
    0.00000E+00         0.00000E+00        -0.50000E+08
 
   -0.49999E+08         0.17964E+04         0.00000E+00
    0.17964E+04        -0.49999E+08         0.00000E+00
    0.00000E+00         0.00000E+00        -0.50000E+08
 
   -0.49999E+08         0.18211E+04         0.00000E+00
    0.18211E+04        -0.49999E+08         0.00000E+00
    0.00000E+00         0.00000E+00        -0.50000E+08
 
   -0.49999E+08         0.18439E+04         0.00000E+00
    0.18439E+04        -0.49999E+08         0.00000E+00
    0.00000E+00         0.00000E+00        -0.50000E+08
 
   -0.49999E+08         0.18649E+04         0.00000E+00
    0.18649E+04        -0.49999E+08         0.00000E+00
    0.00000E+00         0.00000E+00        -0.50000E+08
 
   -0.49999E+08         0.18838E+04         0.00000E+00
    0.18838E+04        -0.49999E+08         0.00000E+00
    0.00000E+00         0.00000E+00        -0.50000E+08
 
   -0.49999E+08         0.19009E+04         0.00000E+00
    0.19009E+04        -0.49999E+08         0.00000E+00
    0.00000E+00         0.00000E+00        -0.50000E+08
 
   -0.49999E+08         0.19159E+04         0.00000E+00
    0.19159E+04        -0.49999E+08         0.00000E+00
    0.00000E+00         0.00000E+00        -0.50000E+08
 
   -0.49999E+08         0.19288E+04         0.00000E+00
    0.19288E+04        -0.49999E+08         0.00000E+00
    0.00000E+00         0.00000E+00        -0.50000E+08
 
   -0.49999E+08         0.19397E+04         0.00000E+00
    0.19397E+04        -0.49998E+08         0.00000E+00
    0.00000E+00         0.00000E+00        -0.50000E+08
 
   -0.50000E+08         0.19485E+04         0.00000E+00
    0.19485E+04        -0.49998E+08         0.00000E+00
    0.00000E+00         0.00000E+00        -0.50000E+08
 
   -0.50000E+08         0.19552E+04         0.00000E+00
    0.19552E+04        -0.49998E+08         0.00000E+00
    0.00000E+00         0.00000E+00        -0.50000E+08
 
   -0.50000E+08         0.19597E+04         0.00000E+00
    0.19597E+04        -0.49998E+08         0.00000E+00
    0.00000E+00         0.00000E+00        -0.50000E+08
 
   -0.50000E+08         0.19620E+04         0.00000E+00
    0.19620E+04        -0.49998E+08         0.00000E+00
    0.00000E+00         0.00000E+00        -0.50000E+08
 
   -0.49997E+08         0.32244E+02         0.00000E+00
    0.32244E+02        -0.50000E+08         0.00000E+00
    0.00000E+00         0.00000E+00        -0.50000E+08
 
   -0.49997E+08         0.97742E+02         0.00000E+00
    0.97742E+02        -0.50000E+08         0.00000E+00
    0.00000E+00         0.00000E+00        -0.50000E+08
 
   -0.49997E+08         0.16351E+03         0.00000E+00
    0.16351E+03        -0.50000E+08         0.00000E+00
    0.00000E+00         0.00000E+00        -0.50000E+08
 
   -0.49997E+08         0.22948E+03         0.00000E+00
    0.22948E+03        -0.50000E+08         0.00000E+00
    0.00000E+00         0.00000E+00        -0.50000E+08
 
   -0.49997E+08         0.29556E+03         0.00000E+00
    0.29556E+03        -0.50000E+08         0.00000E+00
    0.00000E+00         0.00000E+00        -0.50000E+08
 
   -0.49997E+08         0.36170E+03         0.00000E+00
    0.36170E+03        -0.50000E+08         0.00000E+00
    0.00000E+00         0.00000E+00        -0.50000E+08
 
   -0.49997E+08         0.42781E+03         0.00000E+00
    0.42781E+03        -0.50000E+08         0.00000E+00
    0.00000E+00         0.00000E+00        -0.50000E+08
 
   -0.49997E+08         0.49382E+03         0.00000E+00
    0.49382E+03        -0.50000E+08         0.00000E+00
    0.00000E+00         0.00000E+00        -0.50000E+08
 
   -0.49997E+08         0.55965E+03         0.00000E+00
    0.55965E+03        -0.50000E+08         0.00000E+00
    0.00000E+00         0.00000E+00        -0.50000E+08
 
   -0.49997E+08         0.62523E+03         0.00000E+00
    0.62523E+03        -0.50000E+08         0.00000E+00
    0.00000E+00         0.00000E+00        -0.50000E+08
 
   -0.49997E+08         0.69049E+03         0.00000E+00
    0.69049E+03        -0.50000E+08         0.00000E+00
    0.00000E+00         0.00000E+00        -0.50000E+08
 
   -0.49997E+08         0.75535E+03         0.00000E+00
    0.75535E+03        -0.50000E+08         0.00000E+00
    0.00000E+00         0.00000E+00        -0.50000E+08
 
   -0.49997E+08         0.81974E+03         0.00000E+00
    0.81974E+03        -0.50000E+08         0.00000E+00
    0.00000E+00         0.00000E+00        -0.50000E+08
 
   -0.49997E+08         0.88358E+03         0.00000E+00
    0.88358E+03        -0.50000E+08         0.00000E+00
    0.00000E+00         0.00000E+00        -0.50000E+08
 
   -0.49997E+08         0.94681E+03         0.00000E+00
    0.94681E+03        -0.50000E+08         0.00000E+00
    0.00000E+00         0.00000E+00        -0.50000E+08
 
   -0.49997E+08         0.10093E+04         0.00000E+00
    0.10093E+04        -0.50000E+08         0.00000E+00
    0.00000E+00         0.00000E+00        -0.50000E+08
 
   -0.49997E+08         0.10711E+04         0.00000E+00
    0.10711E+04        -0.50000E+08         0.00000E+00
    0.00000E+00         0.00000E+00        -0.50000E+08
 
   -0.49997E+08         0.11320E+04         0.00000E+00
    0.11320E+04        -0.50000E+08         0.00000E+00
    0.00000E+00         0.00000E+00        -0.50000E+08
 
   -0.49997E+08         0.11921E+04         0.00000E+00
    0.11921E+04        -0.50000E+08         0.00000E+00
    0.00000E+00         0.00000E+00        -0.50000E+08
 
   -0.49997E+08         0.12511E+04         0.00000E+00
    0.12511E+04        -0.50000E+08         0.00000E+00
    0.00000E+00         0.00000E+00        -0.50000E+08
 
   -0.49997E+08         0.13091E+04         0.00000E+00
    0.13091E+04        -0.50000E+08         0.00000E+00
    0.00000E+00         0.00000E+00        -0.50000E+08
 
   -0.49997E+08         0.13660E+04         0.00000E+00
    0.13660E+04        -0.50000E+08         0.00000E+00
    0.00000E+00         0.00000E+00        -0.50000E+08
 
   -0.49997E+08         0.14217E+04         0.00000E+00
    0.14217E+04        -0.50000E+08         0.00000E+00
    0.00000E+00         0.00000E+00        -0.50000E+08
 
   -0.49997E+08         0.14762E+04         0.00000E+00
    0.14762E+04        -0.49999E+08         0.00000E+00
    0.00000E+00         0.00000E+00        -0.50000E+08
 
   -0.49997E+08         0.15293E+04         0.00000E+00
    0.15293E+04        -0.49999E+08         0.00000E+00
    0.00000E+00         0.00000E+00        -0.50000E+08
 
   -0.49997E+08         0.15811E+04         0.00000E+00
    0.15811E+04        -0.49999E+08         0.00000E+00
    0.00000E+00         0.00000E+00        -0.50000E+08
 
   -0.49998E+08         0.16314E+04         0.00000E+00
    0.16314E+04        -0.49999E+08         0.00000E+00
    0.00000E+00         0.00000E+00        -0.50000E+08
 
   -0.49998E+08         0.16802E+04         0.00000E+00
    0.16802E+04        -0.49999E+08         0.00000E+00
    0.00000E+00         0.00000E+00        -0.50000E+08
 
   -0.49998E+08         0.17275E+04         0.00000E+00
    0.17275E+04        -0.49999E+08         0.00000E+00
    0.00000E+00         0.00000E+00        -0.50000E+08
 
   -0.49998E+08         0.17731E+04         0.00000E+00
    0.17731E+04        -0.49999E+08         0.00000E+00
    0.00000E+00         0.00000E+00        -0.50000E+08
 
   -0.49998E+08         0.18170E+04         0.00000E+00
    0.18170E+04        -0.49999E+08         0.00000E+00
    0.00000E+00         0.00000E+00        -0.50000E+08
 
   -0.49998E+08         0.18592E+04         0.00000E+00
    0.18592E+04        -0.49999E+08         0.00000E+00
    0.00000E+00         0.00000E+00        -0.50000E+08
 
   -0.49998E+08         0.18996E+04         0.00000E+00
    0.18996E+04        -0.49999E+08         0.00000E+00
    0.00000E+00         0.00000E+00        -0.50000E+08
 
   -0.49998E+08         0.19382E+04         0.00000E+00
    0.19382E+04        -0.49999E+08         0.00000E+00
    0.00000E+00         0.00000E+00        -0.50000E+08
 
   -0.49998E+08         0.19748E+04         0.00000E+00
    0.19748E+04        -0.49999E+08         0.00000E+00
    0.00000E+00         0.00000E+00        -0.50000E+08
 
   -0.49998E+08         0.20094E+04         0.00000E+00
    0.20094E+04        -0.49999E+08         0.00000E+00
    0.00000E+00         0.00000E+00        -0.50000E+08
 
   -0.49998E+08         0.20421E+04         0.00000E+00
    0.20421E+04        -0.49999E+08         0.00000E+00
    0.00000E+00         0.00000E+00        -0.50000E+08
 
   -0.49999E+08         0.20727E+04         0.00000E+00
    0.20727E+04        -0.49999E+08         0.00000E+00
    0.00000E+00         0.00000E+00        -0.50000E+08
 
   -0.49999E+08         0.21012E+04         0.00000E+00
    0.21012E+04        -0.49999E+08         0.00000E+00
    0.00000E+00         0.00000E+00        -0.50000E+08
 
   -0.49999E+08         0.21275E+04         0.00000E+00
    0.21275E+04        -0.49999E+08         0.00000E+00
    0.00000E+00         0.00000E+00        -0.50000E+08
 
   -0.49999E+08         0.21516E+04         0.00000E+00
    0.21516E+04        -0.49999E+08         0.00000E+00
    0.00000E+00         0.00000E+00        -0.50000E+08
 
   -0.49999E+08         0.21735E+04         0.00000E+00
    0.21735E+04        -0.49999E+08         0.00000E+00
    0.00000E+00         0.00000E+00        -0.50000E+08
 
   -0.49999E+08         0.21932E+04         0.00000E+00
    0.21932E+04        -0.49998E+08         0.00000E+00
    0.00000E+00         0.00000E+00        -0.50000E+08
 
   -0.49999E+08         0.22105E+04         0.00000E+00
    0.22105E+04        -0.49998E+08         0.00000E+00
    0.00000E+00         0.00000E+00        -0.50000E+08
 
   -0.49999E+08         0.22254E+04         0.00000E+00
    0.22254E+04        -0.49998E+08         0.00000E+00
    0.00000E+00         0.00000E+00        -0.50000E+08
 
   -0.49999E+08         0.22380E+04         0.00000E+00
    0.22380E+04        -0.49998E+08         0.00000E+00
    0.00000E+00         0.00000E+00        -0.50000E+08
 
   -0.50000E+08         0.22481E+04         0.00000E+00
    0.22481E+04        -0.49998E+08         0.00000E+00
    0.00000E+00         0.00000E+00        -0.50000E+08
 
   -0.50000E+08         0.22558E+04         0.00000E+00
    0.22558E+04        -0.49998E+08         0.00000E+00
    0.00000E+00         0.00000E+00        -0.50000E+08
 
   -0.50000E+08         0.22610E+04         0.00000E+00
    0.22610E+04        -0.49998E+08         0.00000E+00
    0.00000E+00         0.00000E+00        -0.50000E+08
 
   -0.50000E+08         0.22638E+04         0.00000E+00
    0.22638E+04        -0.49998E+08         0.00000E+00
    0.00000E+00         0.00000E+00        -0.50000E+08
 
   -0.49996E+08         0.37009E+02         0.00000E+00
    0.37009E+02        -0.50000E+08         0.00000E+00
    0.00000E+00         0.00000E+00        -0.50000E+08
 
   -0.49996E+08         0.11218E+03         0.00000E+00
    0.11218E+03        -0.50000E+08         0.00000E+00
    0.00000E+00         0.00000E+00        -0.50000E+08
 
   -0.49996E+08         0.18766E+03         0.00000E+00
    0.18766E+03        -0.50000E+08         0.00000E+00
    0.00000E+00         0.00000E+00        -0.50000E+08
 
   -0.49996E+08         0.26337E+03         0.00000E+00
    0.26337E+03        -0.50000E+08         0.00000E+00
    0.00000E+00         0.00000E+00        -0.50000E+08
 
   -0.49996E+08         0.33921E+03         0.00000E+00
    0.33921E+03        -0.50000E+08         0.00000E+00
    0.00000E+00         0.00000E+00        -0.50000E+08
 
   -0.49996E+08         0.41510E+03         0.00000E+00
    0.41510E+03        -0.50000E+08         0.00000E+00
    0.00000E+00         0.00000E+00        -0.50000E+08
 
   -0.49996E+08         0.49097E+03         0.00000E+00
    0.49097E+03        -0.50000E+08         0.00000E+00
    0.00000E+00         0.00000E+00        -0.50000E+08
 
   -0.49996E+08         0.56671E+03         0.00000E+00
    0.56671E+03        -0.50000E+08         0.00000E+00
    0.00000E+00         0.00000E+00        -0.50000E+08
 
   -0.49996E+08         0.64226E+03         0.00000E+00
    0.64226E+03        -0.50000E+08         0.00000E+00
    0.00000E+00         0.00000E+00        -0.50000E+08
 
   -0.49996E+08         0.71751E+03         0.00000E+00
    0.71751E+03        -0.50000E+08         0.00000E+00
    0.00000E+00         0.00000E+00        -0.50000E+08
 
   -0.49996E+08         0.79239E+03         0.00000E+00
    0.79239E+03        -0.50000E+08         0.00000E+00
    0.00000E+00         0.00000E+00        -0.50000E+08
 
   -0.49996E+08         0.86681E+03         0.00000E+00
    0.86681E+03        -0.50000E+08         0.00000E+00
    0.00000E+00         0.00000E+00        -0.50000E+08
 
   -0.49996E+08         0.94069E+03         0.00000E+00
    0.94069E+03        -0.50000E+08         0.00000E+00
    0.00000E+00         0.00000E+00        -0.50000E+08
 
   -0.49997E+08         0.10139E+04         0.00000E+00
    0.10139E+04        -0.50000E+08         0.00000E+00
    0.00000E+00         0.00000E+00        -0.50000E+08
 
   -0.49997E+08         0.10865E+04         0.00000E+00
    0.10865E+04        -0.50000E+08         0.00000E+00
    0.00000E+00         0.00000E+00        -0.50000E+08
 
   -0.49997E+08         0.11582E+04         0.00000E+00
    0.11582E+04        -0.50000E+08         0.00000E+00
    0.00000E+00         0.00000E+00        -0.50000E+08
 
   -0.49997E+08         0.12291E+04         0.00000E+00
    0.12291E+04        -0.50000E+08         0.00000E+00
    0.00000E+00         0.00000E+00        -0.50000E+08
 
   -0.49997E+08         0.12990E+04         0.00000E+00
    0.12990E+04        -0.50000E+08         0.00000E+00
    0.00000E+00         0.00000E+00        -0.50000E+08
 
   -0.49997E+08         0.13679E+04         0.00000E+00
    0.13679E+04        -0.50000E+08         0.00000E+00
    0.00000E+00         0.00000E+00        -0.50000E+08
 
   -0.49997E+08         0.14356E+04         0.00000E+00
    0.14356E+04        -0.50000E+08         0.00000E+00
    0.00000E+00         0.00000E+00        -0.50000E+08
 
   -0.49997E+08         0.15022E+04         0.00000E+00
    0.15022E+04        -0.50000E+08         0.00000E+00
    0.00000E+00         0.00000E+00        -0.50000E+08
 
   -0.49997E+08         0.15674E+04         0.00000E+00
    0.15674E+04        -0.50000E+08         0.00000E+00
    0.00000E+00         0.00000E+00        -0.50000E+08
 
   -0.49997E+08         0.16313E+04         0.00000E+00
    0.16313E+04        -0.49999E+08         0.00000E+00
    0.00000E+00         0.00000E+00        -0.50000E+08
 
   -0.49997E+08         0.16938E+04         0.00000E+00
    0.16938E+04        -0.49999E+08         0.00000E+00
    0.00000E+00         0.00000E+00        -0.50000E+08
 
   -0.49997E+08         0.17548E+04         0.00000E+00
    0.17548E+04        -0.49999E+08         0.00000E+00
    0.00000E+00         0.00000E+00        -0.50000E+08
 
   -0.49997E+08         0.18142E+04         0.00000E+00
    0.18142E+04        -0.49999E+08         0.00000E+00
    0.00000E+00         0.00000E+00        -0.50000E+08
 
   -0.49997E+08         0.18719E+04         0.00000E+00
    0.18719E+04        -0.49999E+08         0.00000E+00
    0.00000E+00         0.00000E+00        -0.50000E+08
 
   -0.49997E+08         0.19279E+04         0.00000E+00
    0.19279E+04        -0.49999E+08         0.00000E+00
    0.00000E+00         0.00000E+00        -0.50000E+08
 
   -0.49997E+08         0.19821E+04         0.00000E+00
    0.19821E+04        -0.49999E+08         0.00000E+00
    0.00000E+00         0.00000E+00        -0.50000E+08
 
   -0.49998E+08         0.20344E+04         0.00000E+00
    0.20344E+04        -0.49999E+08         0.00000E+00
    0.00000E+00         0.00000E+00        -0.50000E+08
 
   -0.49998E+08         0.20848E+04         0.00000E+00
    0.20848E+04        -0.49999E+08         0.00000E+00
    0.00000E+00         0.00000E+00        -0.50000E+08
 
   -0.49998E+08         0.21332E+04         0.00000E+00
    0.21332E+04        -0.49999E+08         0.00000E+00
    0.00000E+00         0.00000E+00        -0.50000E+08
 
   -0.49998E+08         0.21795E+04         0.00000E+00
    0.21795E+04        -0.49999E+08         0.00000E+00
    0.00000E+00         0.00000E+00        -0.50000E+08
 
   -0.49998E+08         0.22237E+04         0.00000E+00
    0.22237E+04        -0.49999E+08         0.00000E+00
    0.00000E+00         0.00000E+00        -0.50000E+08
 
   -0.49998E+08         0.22658E+04         0.00000E+00
    0.22658E+04        -0.49999E+08         0.00000E+00
    0.00000E+00         0.00000E+00        -0.50000E+08
 
   -0.49998E+08         0.23055E+04         0.00000E+00
    0.23055E+04        -0.49999E+08         0.00000E+00
    0.00000E+00         0.00000E+00        -0.50000E+08
 
   -0.49998E+08         0.23430E+04         0.00000E+00
    0.23430E+04        -0.49999E+08         0.00000E+00
    0.00000E+00         0.00000E+00        -0.50000E+08
 
   -0.49998E+08         0.23781E+04         0.00000E+00
    0.23781E+04        -0.49999E+08         0.00000E+00
    0.00000E+00         0.00000E+00        -0.50000E+08
 
   -0.49998E+08         0.24107E+04         0.00000E+00
    0.24107E+04        -0.49999E+08         0.00000E+00
    0.00000E+00         0.00000E+00        -0.50000E+08
 
   -0.49999E+08         0.24409E+04         0.00000E+00
    0.24409E+04        -0.49999E+08         0.00000E+00
    0.00000E+00         0.00000E+00        -0.50000E+08
 
   -0.49999E+08         0.24686E+04         0.00000E+00
    0.24686E+04        -0.49998E+08         0.00000E+00
    0.00000E+00         0.00000E+00        -0.50000E+08
 
   -0.49999E+08         0.24938E+04         0.00000E+00
    0.24938E+04        -0.49998E+08         0.00000E+00
    0.00000E+00         0.00000E+00        -0.50000E+08
 
   -0.49999E+08         0.25163E+04         0.00000E+00
    0.25163E+04        -0.49998E+08         0.00000E+00
    0.00000E+00         0.00000E+00        -0.50000E+08
 
   -0.49999E+08         0.25361E+04         0.00000E+00
    0.25361E+04        -0.49998E+08         0.00000E+00
    0.00000E+00         0.00000E+00        -0.50000E+08
 
   -0.49999E+08         0.25533E+04         0.00000E+00
    0.25533E+04        -0.49998E+08         0.00000E+00
    0.00000E+00         0.00000E+00        -0.50000E+08
 
   -0.49999E+08         0.25677E+04         0.00000E+00
    0.25677E+04        -0.49998E+08         0.00000E+00
    0.00000E+00         0.00000E+00        -0.50000E+08
 
   -0.50000E+08         0.25794E+04         0.00000E+00
    0.25794E+04        -0.49998E+08         0.00000E+00
    0.00000E+00         0.00000E+00        -0.50000E+08
 
   -0.50000E+08         0.25882E+04         0.00000E+00
    0.25882E+04        -0.49998E+08         0.00000E+00
    0.00000E+00         0.00000E+00        -0.50000E+08
 
   -0.50000E+08         0.25942E+04         0.00000E+00
    0.25942E+04        -0.49998E+08         0.00000E+00
    0.00000E+00         0.00000E+00        -0.50000E+08
 
   -0.50000E+08         0.25973E+04         0.00000E+00
    0.25973E+04        -0.49998E+08         0.00000E+00
    0.00000E+00         0.00000E+00        -0.50000E+08
 
   -0.49996E+08         0.42299E+02         0.00000E+00
    0.42299E+02        -0.50000E+08         0.00000E+00
    0.00000E+00         0.00000E+00        -0.50000E+08
 
   -0.49996E+08         0.12821E+03         0.00000E+00
    0.12821E+03        -0.50000E+08         0.00000E+00
    0.00000E+00         0.00000E+00        -0.50000E+08
 
   -0.49996E+08         0.21447E+03         0.00000E+00
    0.21447E+03        -0.50000E+08         0.00000E+00
    0.00000E+00         0.00000E+00        -0.50000E+08
 
   -0.49996E+08         0.30098E+03         0.00000E+00
    0.30098E+03        -0.50000E+08         0.00000E+00
    0.00000E+00         0.00000E+00        -0.50000E+08
 
   -0.49996E+08         0.38765E+03         0.00000E+00
    0.38765E+03        -0.50000E+08         0.00000E+00
    0.00000E+00         0.00000E+00        -0.50000E+08
 
   -0.49996E+08         0.47438E+03         0.00000E+00
    0.47438E+03        -0.50000E+08         0.00000E+00
    0.00000E+00         0.00000E+00        -0.50000E+08
 
   -0.49996E+08         0.56107E+03         0.00000E+00
    0.56107E+03        -0.50000E+08         0.00000E+00
    0.00000E+00         0.00000E+00        -0.50000E+08
 
   -0.49996E+08         0.64762E+03         0.00000E+00
    0.64762E+03        -0.50000E+08         0.00000E+00
    0.00000E+00         0.00000E+00        -0.50000E+08
 
   -0.49996E+08         0.73393E+03         0.00000E+00
    0.73393E+03        -0.50000E+08         0.00000E+00
    0.00000E+00         0.00000E+00        -0.50000E+08
 
   -0.49996E+08         0.81992E+03         0.00000E+00
    0.81992E+03        -0.50000E+08         0.00000E+00
    0.00000E+00         0.00000E+00        -0.50000E+08
 
   -0.49996E+08         0.90547E+03         0.00000E+00
    0.90547E+03        -0.50000E+08         0.00000E+00
    0.00000E+00         0.00000E+00        -0.50000E+08
 
   -0.49996E+08         0.99050E+03         0.00000E+00
    0.99050E+03        -0.50000E+08         0.00000E+00
    0.00000E+00         0.00000E+00        -0.50000E+08
 
   -0.49996E+08         0.10749E+04         0.00000E+00
    0.10749E+04        -0.50000E+08         0.00000E+00
    0.00000E+00         0.00000E+00        -0.50000E+08
 
   -0.49996E+08         0.11586E+04         0.00000E+00
    0.11586E+04        -0.50000E+08         0.00000E+00
    0.00000E+00         0.00000E+00        -0.50000E+08
 
   -0.49996E+08         0.12415E+04         0.00000E+00
    0.12415E+04        -0.50000E+08         0.00000E+00
    0.00000E+00         0.00000E+00        -0.50000E+08
 
   -0.49996E+08         0.13234E+04         0.00000E+00
    0.13234E+04        -0.50000E+08         0.00000E+00
    0.00000E+00         0.00000E+00        -0.50000E+08
 
   -0.49996E+08         0.14044E+04         0.00000E+00
    0.14044E+04        -0.50000E+08         0.00000E+00
    0.00000E+00         0.00000E+00        -0.50000E+08
 
   -0.49996E+08         0.14843E+04         0.00000E+00
    0.14843E+04        -0.50000E+08         0.00000E+00
    0.00000E+00         0.00000E+00        -0.50000E+08
 
   -0.49996E+08         0.15629E+04         0.00000E+00
    0.15629E+04        -0.50000E+08         0.00000E+00
    0.00000E+00         0.00000E+00        -0.50000E+08
 
   -0.49996E+08         0.16403E+04         0.00000E+00
    0.16403E+04        -0.50000E+08         0.00000E+00
    0.00000E+00         0.00000E+00        -0.50000E+08
 
   -0.49996E+08         0.17163E+04         0.00000E+00
    0.17163E+04        -0.50000E+08         0.00000E+00
    0.00000E+00         0.00000E+00        -0.50000E+08
 
   -0.49997E+08         0.17909E+04         0.00000E+00
    0.17909E+04        -0.49999E+08         0.00000E+00
    0.00000E+00         0.00000E+00        -0.50000E+08
 
   -0.49997E+08         0.18639E+04         0.00000E+00
    0.18639E+04        -0.49999E+08         0.00000E+00
    0.00000E+00         0.00000E+00        -0.50000E+08
 
   -0.49997E+08         0.19353E+04         0.00000E+00
    0.19353E+04        -0.49999E+08         0.00000E+00
    0.00000E+00         0.00000E+00        -0.50000E+08
 
   -0.49997E+08         0.20049E+04         0.00000E+00
    0.20049E+04        -0.49999E+08         0.00000E+00
    0.00000E+00         0.00000E+00        -0.50000E+08
 
   -0.49997E+08         0.20727E+04         0.00000E+00
    0.20727E+04        -0.49999E+08         0.00000E+00
    0.00000E+00         0.00000E+00        -0.50000E+08
 
   -0.49997E+08         0.21387E+04         0.00000E+00
    0.21387E+04        -0.49999E+08         0.00000E+00
    0.00000E+00         0.00000E+00        -0.50000E+08
 
   -0.49997E+08         0.22026E+04         0.00000E+00
    0.22026E+04        -0.49999E+08         0.00000E+00
    0.00000E+00         0.00000E+00        -0.50000E+08
 
   -0.49997E+08         0.22646E+04         0.00000E+00
    0.22646E+04        -0.49999E+08         0.00000E+00
    0.00000E+00         0.00000E+00        -0.50000E+08
 
   -0.49997E+08         0.23243E+04         0.00000E+00
    0.23243E+04        -0.49999E+08         0.00000E+00
    0.00000E+00         0.00000E+00        -0.50000E+08
 
   -0.49997E+08         0.23819E+04         0.00000E+00
    0.23819E+04        -0.49999E+08         0.00000E+00
    0.00000E+00         0.00000E+00        -0.50000E+08
 
   -0.49997E+08         0.24372E+04         0.00000E+00
    0.24372E+04        -0.49999E+08         0.00000E+00
    0.00000E+00         0.00000E+00        -0.50000E+08
 
   -0.49998E+08         0.24901E+04         0.00000E+00
    0.24901E+04        -0.49999E+08         0.00000E+00
    0.00000E+00         0.00000E+00        -0.50000E+08
 
   -0.49998E+08         0.25406E+04         0.00000E+00
    0.25406E+04        -0.49999E+08         0.00000E+00
    0.00000E+00         0.00000E+00        -0.50000E+08
 
   -0.49998E+08         0.25886E+04         0.00000E+00
    0.25886E+04        -0.49999E+08         0.00000E+00
    0.00000E+00         0.00000E+00        -0.50000E+08
 
   -0.49998E+08         0.26340E+04         0.00000E+00
    0.26340E+04        -0.49999E+08         0.00000E+00
    0.00000E+00         0.00000E+00        -0.50000E+08
 
   -0.49998E+08         0.26767E+04         0.00000E+00
    0.26767E+04        -0.49999E+08         0.00000E+00
    0.00000E+00         0.00000E+00        -0.50000E+08
 
   -0.49998E+08         0.27168E+04         0.00000E+00
    0.27168E+04        -0.49999E+08         0.00000E+00
    0.00000E+00         0.00000E+00        -0.50000E+08
 
   -0.49998E+08         0.27542E+04         0.00000E+00
    0.27542E+04        -0.49998E+08         0.00000E+00
    0.00000E+00         0.00000E+00        -0.50000E+08
 
   -0.49998E+08         0.27887E+04         0.00000E+00
    0.27887E+04        -0.49998E+08         0.00000E+00
    0.00000E+00         0.00000E+00        -0.50000E+08
 
   -0.49999E+08         0.28203E+04         0.00000E+00
    0.28203E+04        -0.49998E+08         0.00000E+00
    0.00000E+00         0.00000E+00        -0.50000E+08
 
   -0.49999E+08         0.28490E+04         0.00000E+00
    0.28490E+04        -0.49998E+08         0.00000E+00
    0.00000E+00         0.00000E+00        -0.50000E+08
 
   -0.49999E+08         0.28747E+04         0.00000E+00
    0.28747E+04        -0.49998E+08         0.00000E+00
    0.00000E+00         0.00000E+00        -0.50000E+08
 
   -0.49999E+08         0.28974E+04         0.00000E+00
    0.28974E+04        -0.49998E+08         0.00000E+00
    0.00000E+00         0.00000E+00        -0.50000E+08
 
   -0.49999E+08         0.29170E+04         0.00000E+00
    0.29170E+04        -0.49998E+08         0.00000E+00
    0.00000E+00         0.00000E+00        -0.50000E+08
 
   -0.49999E+08         0.29335E+04         0.00000E+00
    0.29335E+04        -0.49998E+08         0.00000E+00
    0.00000E+00         0.00000E+00        -0.50000E+08
 
   -0.49999E+08         0.29468E+04         0.00000E+00
    0.29468E+04        -0.49998E+08         0.00000E+00
    0.00000E+00         0.00000E+00        -0.50000E+08
 
   -0.50000E+08         0.29569E+04         0.00000E+00
    0.29569E+04        -0.49998E+08         0.00000E+00
    0.00000E+00         0.00000E+00        -0.50000E+08
 
   -0.50000E+08         0.29638E+04         0.00000E+00
    0.29638E+04        -0.49998E+08         0.00000E+00
    0.00000E+00         0.00000E+00        -0.50000E+08
 
   -0.50000E+08         0.29674E+04         0.00000E+00
    0.29674E+04        -0.49998E+08         0.00000E+00
    0.00000E+00         0.00000E+00        -0.50000E+08
 
   -0.49996E+08         0.48190E+02         0.00000E+00
    0.48190E+02        -0.50000E+08         0.00000E+00
    0.00000E+00         0.00000E+00        -0.50000E+08
 
   -0.49996E+08         0.14605E+03         0.00000E+00
    0.14605E+03        -0.50000E+08         0.00000E+00
    0.00000E+00         0.00000E+00        -0.50000E+08
 
   -0.49996E+08         0.24431E+03         0.00000E+00
    0.24431E+03        -0.50000E+08         0.00000E+00
    0.00000E+00         0.00000E+00        -0.50000E+08
 
   -0.49996E+08         0.34286E+03         0.00000E+00
    0.34286E+03        -0.50000E+08         0.00000E+00
    0.00000E+00         0.00000E+00        -0.50000E+08
 
   -0.49995E+08         0.44158E+03         0.00000E+00
    0.44158E+03        -0.50000E+08         0.00000E+00
    0.00000E+00         0.00000E+00        -0.50000E+08
 
   -0.49995E+08         0.54036E+03         0.00000E+00
    0.54036E+03        -0.50000E+08         0.00000E+00
    0.00000E+00         0.00000E+00        -0.50000E+08
 
   -0.49996E+08         0.63909E+03         0.00000E+00
    0.63909E+03        -0.50000E+08         0.00000E+00
    0.00000E+00         0.00000E+00        -0.50000E+08
 
   -0.49996E+08         0.73767E+03         0.00000E+00
    0.73767E+03        -0.50000E+08         0.00000E+00
    0.00000E+00         0.00000E+00        -0.50000E+08
 
   -0.49996E+08         0.83597E+03         0.00000E+00
    0.83597E+03        -0.50000E+08         0.00000E+00
    0.00000E+00         0.00000E+00        -0.50000E+08
 
   -0.49996E+08         0.93390E+03         0.00000E+00
    0.93390E+03        -0.50000E+08         0.00000E+00
    0.00000E+00         0.00000E+00        -0.50000E+08
 
   -0.49996E+08         0.10313E+04         0.00000E+00
    0.10313E+04        -0.50000E+08         0.00000E+00
    0.00000E+00         0.00000E+00        -0.50000E+08
 
   -0.49996E+08         0.11282E+04         0.00000E+00
    0.11282E+04        -0.50000E+08         0.00000E+00
    0.00000E+00         0.00000E+00        -0.50000E+08
 
   -0.49996E+08         0.12243E+04         0.00000E+00
    0.12243E+04        -0.50000E+08         0.00000E+00
    0.00000E+00         0.00000E+00        -0.50000E+08
 
   -0.49996E+08         0.13196E+04         0.00000E+00
    0.13196E+04        -0.50000E+08         0.00000E+00
    0.00000E+00         0.00000E+00        -0.50000E+08
 
   -0.49996E+08         0.14140E+04         0.00000E+00
    0.14140E+04        -0.50000E+08         0.00000E+00
    0.00000E+00         0.00000E+00        -0.50000E+08
 
   -0.49996E+08         0.15073E+04         0.00000E+00
    0.15073E+04        -0.50000E+08         0.00000E+00
    0.00000E+00         0.00000E+00        -0.50000E+08
 
   -0.49996E+08         0.15995E+04         0.00000E+00
    0.15995E+04        -0.50000E+08         0.00000E+00
    0.00000E+00         0.00000E+00        -0.50000E+08
 
   -0.49996E+08         0.16904E+04         0.00000E+00
    0.16904E+04        -0.50000E+08         0.00000E+00
    0.00000E+00         0.00000E+00        -0.50000E+08
 
   -0.49996E+08         0.17800E+04         0.00000E+00
    0.17800E+04        -0.50000E+08         0.00000E+00
    0.00000E+00         0.00000E+00        -0.50000E+08
 
   -0.49996E+08         0.18681E+04         0.00000E+00
    0.18681E+04        -0.50000E+08         0.00000E+00
    0.00000E+00         0.00000E+00        -0.50000E+08
 
   -0.49996E+08         0.19547E+04         0.00000E+00
    0.19547E+04        -0.49999E+08         0.00000E+00
    0.00000E+00         0.00000E+00        -0.50000E+08
 
   -0.49996E+08         0.20396E+04         0.00000E+00
    0.20396E+04        -0.49999E+08         0.00000E+00
    0.00000E+00         0.00000E+00        -0.50000E+08
 
   -0.49996E+08         0.21227E+04         0.00000E+00
    0.21227E+04        -0.49999E+08         0.00000E+00
    0.00000E+00         0.00000E+00        -0.50000E+08
 
   -0.49996E+08         0.22039E+04         0.00000E+00
    0.22039E+04        -0.49999E+08         0.00000E+00
    0.00000E+00         0.00000E+00        -0.50000E+08
 
   -0.49996E+08         0.22832E+04         0.00000E+00
    0.22832E+04        -0.49999E+08         0.00000E+00
    0.00000E+00         0.00000E+00        -0.50000E+08
 
   -0.49997E+08         0.23604E+04         0.00000E+00
    0.23604E+04        -0.49999E+08         0.00000E+00
    0.00000E+00         0.00000E+00        -0.50000E+08
 
   -0.49997E+08         0.24355E+04         0.00000E+00
    0.24355E+04        -0.49999E+08         0.00000E+00
    0.00000E+00         0.00000E+00        -0.50000E+08
 
   -0.49997E+08         0.25083E+04         0.00000E+00
    0.25083E+04        -0.49999E+08         0.00000E+00
    0.00000E+00         0.00000E+00        -0.50000E+08
 
   -0.49997E+08         0.25788E+04         0.00000E+00
    0.25788E+04        -0.49999E+08         0.00000E+00
    0.00000E+00         0.00000E+00        -0.50000E+08
 
   -0.49997E+08         0.26469E+04         0.00000E+00
    0.26469E+04        -0.49999E+08         0.00000E+00
    0.00000E+00         0.00000E+00        -0.50000E+08
 
   -0.49997E+08         0.27124E+04         0.00000E+00
    0.27124E+04        -0.49999E+08         0.00000E+00
    0.00000E+00         0.00000E+00        -0.50000E+08
 
   -0.49997E+08         0.27753E+04         0.00000E+00
    0.27753E+04        -0.49999E+08         0.00000E+00
    0.00000E+00         0.00000E+00        -0.50000E+08
 
   -0.49997E+08         0.28356E+04         0.00000E+00
    0.28356E+04        -0.49999E+08         0.00000E+00
    0.00000E+00         0.00000E+00        -0.50000E+08
 
   -0.49997E+08         0.28930E+04         0.00000E+00
    0.28930E+04        -0.49999E+08         0.00000E+00
    0.00000E+00         0.00000E+00        -0.50000E+08
 
   -0.49998E+08         0.29477E+04         0.00000E+00
    0.29477E+04        -0.49999E+08         0.00000E+00
    0.00000E+00         0.00000E+00        -0.50000E+08
 
   -0.49998E+08         0.29994E+04         0.00000E+00
    0.29994E+04        -0.49999E+08         0.00000E+00
    0.00000E+00         0.00000E+00        -0.50000E+08
 
   -0.49998E+08         0.30481E+04         0.00000E+00
    0.30481E+04        -0.49998E+08         0.00000E+00
    0.00000E+00         0.00000E+00        -0.50000E+08
 
   -0.49998E+08         0.30937E+04         0.00000E+00
    0.30937E+04        -0.49998E+08         0.00000E+00
    0.00000E+00         0.00000E+00        -0.50000E+08
 
   -0.49998E+08         0.31362E+04         0.00000E+00
    0.31362E+04        -0.49998E+08         0.00000E+00
    0.00000E+00         0.00000E+00        -0.50000E+08
 
   -0.49998E+08         0.31755E+04         0.00000E+00
    0.31755E+04        -0.49998E+08         0.00000E+00
    0.00000E+00         0.00000E+00        -0.50000E+08
 
   -0.49998E+08         0.32115E+04         0.00000E+00
    0.32115E+04        -0.49998E+08         0.00000E+00
    0.00000E+00         0.00000E+00        -0.50000E+08
 
   -0.49999E+08         0.32442E+04         0.00000E+00
    0.32442E+04        -0.49998E+08         0.00000E+00
    0.00000E+00         0.00000E+00        -0.50000E+08
 
   -0.49999E+08         0.32735E+04         0.00000E+00
    0.32735E+04        -0.49998E+08         0.00000E+00
    0.00000E+00         0.00000E+00        -0.50000E+08
 
   -0.49999E+08         0.32993E+04         0.00000E+00
    0.32993E+04        -0.49998E+08         0.00000E+00
    0.00000E+00         0.00000E+00        -0.50000E+08
 
   -0.49999E+08         0.33216E+04         0.00000E+00
    0.33216E+04        -0.49998E+08         0.00000E+00
    0.00000E+00         0.00000E+00        -0.50000E+08
 
   -0.49999E+08         0.33404E+04         0.00000E+00
    0.33404E+04        -0.49998E+08         0.00000E+00
    0.00000E+00         0.00000E+00        -0.50000E+08
 
   -0.49999E+08         0.33556E+04         0.00000E+00
    0.33556E+04        -0.49998E+08         0.00000E+00
    0.00000E+00         0.00000E+00        -0.50000E+08
 
   -0.50000E+08         0.33671E+04         0.00000E+00
    0.33671E+04        -0.49998E+08         0.00000E+00
    0.00000E+00         0.00000E+00        -0.50000E+08
 
   -0.50000E+08         0.33749E+04         0.00000E+00
    0.33749E+04        -0.49997E+08         0.00000E+00
    0.00000E+00         0.00000E+00        -0.50000E+08
 
   -0.50000E+08         0.33790E+04         0.00000E+00
    0.33790E+04        -0.49997E+08         0.00000E+00
    0.00000E+00         0.00000E+00        -0.50000E+08
 
   -0.49995E+08         0.54763E+02         0.00000E+00
    0.54763E+02        -0.50000E+08         0.00000E+00
    0.00000E+00         0.00000E+00        -0.50000E+08
 
   -0.49995E+08         0.16597E+03         0.00000E+00
    0.16597E+03        -0.50000E+08         0.00000E+00
    0.00000E+00         0.00000E+00        -0.50000E+08
 
   -0.49995E+08         0.27761E+03         0.00000E+00
    0.27761E+03        -0.50000E+08         0.00000E+00
    0.00000E+00         0.00000E+00        -0.50000E+08
 
   -0.49995E+08         0.38958E+03         0.00000E+00
    0.38958E+03        -0.50000E+08         0.00000E+00
    0.00000E+00         0.00000E+00        -0.50000E+08
 
   -0.49995E+08         0.50174E+03         0.00000E+00
    0.50174E+03        -0.50000E+08         0.00000E+00
    0.00000E+00         0.00000E+00        -0.50000E+08
 
   -0.49995E+08         0.61397E+03         0.00000E+00
    0.61397E+03        -0.50000E+08         0.00000E+00
    0.00000E+00         0.00000E+00        -0.50000E+08
 
   -0.49995E+08         0.72615E+03         0.00000E+00
    0.72615E+03        -0.50000E+08         0.00000E+00
    0.00000E+00         0.00000E+00        -0.50000E+08
 
   -0.49995E+08         0.83814E+03         0.00000E+00
    0.83814E+03        -0.50000E+08         0.00000E+00
    0.00000E+00         0.00000E+00        -0.50000E+08
 
   -0.49995E+08         0.94981E+03         0.00000E+00
    0.94981E+03        -0.50000E+08         0.00000E+00
    0.00000E+00         0.00000E+00        -0.50000E+08
 
   -0.49995E+08         0.10611E+04         0.00000E+00
    0.10611E+04        -0.50000E+08         0.00000E+00
    0.00000E+00         0.00000E+00        -0.50000E+08
 
   -0.49995E+08         0.11717E+04         0.00000E+00
    0.11717E+04        -0.50000E+08         0.00000E+00
    0.00000E+00         0.00000E+00        -0.50000E+08
 
   -0.49995E+08         0.12817E+04         0.00000E+00
    0.12817E+04        -0.50000E+08         0.00000E+00
    0.00000E+00         0.00000E+00        -0.50000E+08
 
   -0.49995E+08         0.13909E+04         0.00000E+00
    0.13909E+04        -0.50000E+08         0.00000E+00
    0.00000E+00         0.00000E+00        -0.50000E+08
 
   -0.49995E+08         0.14992E+04         0.00000E+00
    0.14992E+04        -0.50000E+08         0.00000E+00
    0.00000E+00         0.00000E+00        -0.50000E+08
 
   -0.49995E+08         0.16064E+04         0.00000E+00
    0.16064E+04        -0.50000E+08         0.00000E+00
    0.00000E+00         0.00000E+00        -0.50000E+08
 
   -0.49995E+08         0.17124E+04         0.00000E+00
    0.17124E+04        -0.50000E+08         0.00000E+00
    0.00000E+00         0.00000E+00        -0.50000E+08
 
   -0.49995E+08         0.18171E+04         0.00000E+00
    0.18171E+04        -0.50000E+08         0.00000E+00
    0.00000E+00         0.00000E+00        -0.50000E+08
 
   -0.49995E+08         0.19204E+04         0.00000E+00
    0.19204E+04        -0.50000E+08         0.00000E+00
    0.00000E+00         0.00000E+00        -0.50000E+08
 
   -0.49995E+08         0.20221E+04         0.00000E+00
    0.20221E+04        -0.50000E+08         0.00000E+00
    0.00000E+00         0.00000E+00        -0.50000E+08
 
   -0.49996E+08         0.21222E+04         0.00000E+00
    0.21222E+04        -0.49999E+08         0.00000E+00
    0.00000E+00         0.00000E+00        -0.50000E+08
 
   -0.49996E+08         0.22205E+04         0.00000E+00
    0.22205E+04        -0.49999E+08         0.00000E+00
    0.00000E+00         0.00000E+00        -0.50000E+08
 
   -0.49996E+08         0.23169E+04         0.00000E+00
    0.23169E+04        -0.49999E+08         0.00000E+00
    0.00000E+00         0.00000E+00        -0.50000E+08
 
   -0.49996E+08         0.24113E+04         0.00000E+00
    0.24113E+04        -0.49999E+08         0.00000E+00
    0.00000E+00         0.00000E+00        -0.50000E+08
 
   -0.49996E+08         0.25035E+04         0.00000E+00
    0.25035E+04        -0.49999E+08         0.00000E+00
    0.00000E+00         0.00000E+00        -0.50000E+08
 
   -0.49996E+08         0.25936E+04         0.00000E+00
    0.25936E+04        -0.49999E+08         0.00000E+00
    0.00000E+00         0.00000E+00        -0.50000E+08
 
   -0.49996E+08         0.26813E+04         0.00000E+00
    0.26813E+04        -0.49999E+08         0.00000E+00
    0.00000E+00         0.00000E+00        -0.50000E+08
 
   -0.49996E+08         0.27665E+04         0.00000E+00
    0.27665E+04        -0.49999E+08         0.00000E+00
    0.00000E+00         0.00000E+00        -0.50000E+08
 
   -0.49996E+08         0.28492E+04         0.00000E+00
    0.28492E+04        -0.49999E+08         0.00000E+00
    0.00000E+00         0.00000E+00        -0.50000E+08
 
   -0.49996E+08         0.29293E+04         0.00000E+00
    0.29293E+04        -0.49999E+08         0.00000E+00
    0.00000E+00         0.00000E+00        -0.50000E+08
 
   -0.49997E+08         0.30065E+04         0.00000E+00
    0.30065E+04        -0.49999E+08         0.00000E+00
    0.00000E+00         0.00000E+00        -0.50000E+08
 
   -0.49997E+08         0.30809E+04         0.00000E+00
    0.30809E+04        -0.49999E+08         0.00000E+00
    0.00000E+00         0.00000E+00        -0.50000E+08
 
   -0.49997E+08         0.31524E+04         0.00000E+00
    0.31524E+04        -0.49999E+08         0.00000E+00
    0.00000E+00         0.00000E+00        -0.50000E+08
 
   -0.49997E+08         0.32208E+04         0.00000E+00
    0.32208E+04        -0.49999E+08         0.00000E+00
    0.00000E+00         0.00000E+00        -0.50000E+08
 
   -0.49997E+08         0.32861E+04         0.00000E+00
    0.32861E+04        -0.49998E+08         0.00000E+00
    0.00000E+00         0.00000E+00        -0.50000E+08
 
   -0.49997E+08         0.33481E+04         0.00000E+00
    0.33481E+04        -0.49998E+08         0.00000E+00
    0.00000E+00         0.00000E+00        -0.50000E+08
 
   -0.49997E+08         0.34068E+04         0.00000E+00
    0.34068E+04        -0.49998E+08         0.00000E+00
    0.00000E+00         0.00000E+00        -0.50000E+08
 
   -0.49998E+08         0.34621E+04         0.00000E+00
    0.34621E+04        -0.49998E+08         0.00000E+00
    0.00000E+00         0.00000E+00        -0.50000E+08
 
   -0.49998E+08         0.35140E+04         0.00000E+00
    0.35140E+04        -0.49998E+08         0.00000E+00
    0.00000E+00         0.00000E+00        -0.50000E+08
 
   -0.49998E+08         0.35622E+04         0.00000E+00
    0.35622E+04        -0.49998E+08         0.00000E+00
    0.00000E+00         0.00000E+00        -0.50000E+08
 
   -0.49998E+08         0.36068E+04         0.00000E+00
    0.36068E+04        -0.49998E+08         0.00000E+00
    0.00000E+00         0.00000E+00        -0.50000E+08
 
   -0.49998E+08         0.36477E+04         0.00000E+00
    0.36477E+04        -0.49998E+08         0.00000E+00
    0.00000E+00         0.00000E+00        -0.50000E+08
 
   -0.49998E+08         0.36849E+04         0.00000E+00
    0.36849E+04        -0.49998E+08         0.00000E+00
    0.00000E+00         0.00000E+00        -0.50000E+08
 
   -0.49999E+08         0.37181E+04         0.00000E+00
    0.37181E+04        -0.49998E+08         0.00000E+00
    0.00000E+00         0.00000E+00        -0.50000E+08
 
   -0.49999E+08         0.37475E+04         0.00000E+00
    0.37475E+04        -0.49998E+08         0.00000E+00
    0.00000E+00         0.00000E+00        -0.50000E+08
 
   -0.49999E+08         0.37728E+04         0.00000E+00
    0.37728E+04        -0.49998E+08         0.00000E+00
    0.00000E+00         0.00000E+00        -0.50000E+08
 
   -0.49999E+08         0.37942E+04         0.00000E+00
    0.37942E+04        -0.49997E+08         0.00000E+00
    0.00000E+00         0.00000E+00        -0.50000E+08
 
   -0.49999E+08         0.38114E+04         0.00000E+00
    0.38114E+04        -0.49997E+08         0.00000E+00
    0.00000E+00         0.00000E+00        -0.50000E+08
 
   -0.50000E+08         0.38245E+04         0.00000E+00
    0.38245E+04        -0.49997E+08         0.00000E+00
    0.00000E+00         0.00000E+00        -0.50000E+08
 
   -0.50000E+08         0.38334E+04         0.00000E+00
    0.38334E+04        -0.49997E+08         0.00000E+00
    0.00000E+00         0.00000E+00        -0.50000E+08
 
   -0.50000E+08         0.38381E+04         0.00000E+00
    0.38381E+04        -0.49997E+08         0.00000E+00
    0.00000E+00         0.00000E+00        -0.50000E+08
 
   -0.49994E+08         0.62114E+02         0.00000E+00
    0.62114E+02        -0.50000E+08         0.00000E+00
    0.00000E+00         0.00000E+00        -0.50000E+08
 
   -0.49994E+08         0.18823E+03         0.00000E+00
    0.18823E+03        -0.50000E+08         0.00000E+00
    0.00000E+00         0.00000E+00        -0.50000E+08
 
   -0.49994E+08         0.31484E+03         0.00000E+00
    0.31484E+03        -0.50000E+08         0.00000E+00
    0.00000E+00         0.00000E+00        -0.50000E+08
 
   -0.49994E+08         0.44182E+03         0.00000E+00
    0.44182E+03        -0.50000E+08         0.00000E+00
    0.00000E+00         0.00000E+00        -0.50000E+08
 
   -0.49994E+08         0.56900E+03         0.00000E+00
    0.56900E+03        -0.50000E+08         0.00000E+00
    0.00000E+00         0.00000E+00        -0.50000E+08
 
   -0.49994E+08         0.69627E+03         0.00000E+00
    0.69627E+03        -0.50000E+08         0.00000E+00
    0.00000E+00         0.00000E+00        -0.50000E+08
 
   -0.49994E+08         0.82346E+03         0.00000E+00
    0.82346E+03        -0.50000E+08         0.00000E+00
    0.00000E+00         0.00000E+00        -0.50000E+08
 
   -0.49994E+08         0.95043E+03         0.00000E+00
    0.95043E+03        -0.50000E+08         0.00000E+00
    0.00000E+00         0.00000E+00        -0.50000E+08
 
   -0.49994E+08         0.10771E+04         0.00000E+00
    0.10771E+04        -0.50000E+08         0.00000E+00
    0.00000E+00         0.00000E+00        -0.50000E+08
 
   -0.49994E+08         0.12032E+04         0.00000E+00
    0.12032E+04        -0.50000E+08         0.00000E+00
    0.00000E+00         0.00000E+00        -0.50000E+08
 
   -0.49994E+08         0.13287E+04         0.00000E+00
    0.13287E+04        -0.50000E+08         0.00000E+00
    0.00000E+00         0.00000E+00        -0.50000E+08
 
   -0.49994E+08         0.14534E+04         0.00000E+00
    0.14534E+04        -0.50000E+08         0.00000E+00
    0.00000E+00         0.00000E+00        -0.50000E+08
 
   -0.49995E+08         0.15771E+04         0.00000E+00
    0.15771E+04        -0.50000E+08         0.00000E+00
    0.00000E+00         0.00000E+00        -0.50000E+08
 
   -0.49995E+08         0.16999E+04         0.00000E+00
    0.16999E+04        -0.50000E+08         0.00000E+00
    0.00000E+00         0.00000E+00        -0.50000E+08
 
   -0.49995E+08         0.18214E+04         0.00000E+00
    0.18214E+04        -0.50000E+08         0.00000E+00
    0.00000E+00         0.00000E+00        -0.50000E+08
 
   -0.49995E+08         0.19415E+04         0.00000E+00
    0.19415E+04        -0.50000E+08         0.00000E+00
    0.00000E+00         0.00000E+00        -0.50000E+08
 
   -0.49995E+08         0.20602E+04         0.00000E+00
    0.20602E+04        -0.50000E+08         0.00000E+00
    0.00000E+00         0.00000E+00        -0.50000E+08
 
   -0.49995E+08         0.21773E+04         0.00000E+00
    0.21773E+04        -0.50000E+08         0.00000E+00
    0.00000E+00         0.00000E+00        -0.50000E+08
 
   -0.49995E+08         0.22926E+04         0.00000E+00
    0.22926E+04        -0.49999E+08         0.00000E+00
    0.00000E+00         0.00000E+00        -0.50000E+08
 
   -0.49995E+08         0.24060E+04         0.00000E+00
    0.24060E+04        -0.49999E+08         0.00000E+00
    0.00000E+00         0.00000E+00        -0.50000E+08
 
   -0.49995E+08         0.25175E+04         0.00000E+00
    0.25175E+04        -0.49999E+08         0.00000E+00
    0.00000E+00         0.00000E+00        -0.50000E+08
 
   -0.49995E+08         0.26267E+04         0.00000E+00
    0.26267E+04        -0.49999E+08         0.00000E+00
    0.00000E+00         0.00000E+00        -0.50000E+08
 
   -0.49995E+08         0.27337E+04         0.00000E+00
    0.27337E+04        -0.49999E+08         0.00000E+00
    0.00000E+00         0.00000E+00        -0.50000E+08
 
   -0.49995E+08         0.28383E+04         0.00000E+00
    0.28383E+04        -0.49999E+08         0.00000E+00
    0.00000E+00         0.00000E+00        -0.50000E+08
 
   -0.49996E+08         0.29403E+04         0.00000E+00
    0.29403E+04        -0.49999E+08         0.00000E+00
    0.00000E+00         0.00000E+00        -0.50000E+08
 
   -0.49996E+08         0.30397E+04         0.00000E+00
    0.30397E+04        -0.49999E+08         0.00000E+00
    0.00000E+00         0.00000E+00        -0.50000E+08
 
   -0.49996E+08         0.31364E+04         0.00000E+00
    0.31364E+04        -0.49999E+08         0.00000E+00
    0.00000E+00         0.00000E+00        -0.50000E+08
 
   -0.49996E+08         0.32301E+04         0.00000E+00
    0.32301E+04        -0.49999E+08         0.00000E+00
    0.00000E+00         0.00000E+00        -0.50000E+08
 
   -0.49996E+08         0.33208E+04         0.00000E+00
    0.33208E+04        -0.49999E+08         0.00000E+00
    0.00000E+00         0.00000E+00        -0.50000E+08
 
   -0.49996E+08         0.34084E+04         0.00000E+00
    0.34084E+04        -0.49999E+08         0.00000E+00
    0.00000E+00         0.00000E+00        -0.50000E+08
 
   -0.49996E+08         0.34927E+04         0.00000E+00
    0.34927E+04        -0.49999E+08         0.00000E+00
    0.00000E+00         0.00000E+00        -0.50000E+08
 
   -0.49996E+08         0.35737E+04         0.00000E+00
    0.35737E+04        -0.49998E+08         0.00000E+00
    0.00000E+00         0.00000E+00        -0.50000E+08
 
   -0.49997E+08         0.36512E+04         0.00000E+00
    0.36512E+04        -0.49998E+08         0.00000E+00
    0.00000E+00         0.00000E+00        -0.50000E+08
 
   -0.49997E+08         0.37252E+04         0.00000E+00
    0.37252E+04        -0.49998E+08         0.00000E+00
    0.00000E+00         0.00000E+00        -0.50000E+08
 
   -0.49997E+08         0.37955E+04         0.00000E+00
    0.37955E+04        -0.49998E+08         0.00000E+00
    0.00000E+00         0.00000E+00        -0.50000E+08
 
   -0.49997E+08         0.38620E+04         0.00000E+00
    0.38620E+04        -0.49998E+08         0.00000E+00
    0.00000E+00         0.00000E+00        -0.50000E+08
 
   -0.49997E+08         0.39247E+04         0.00000E+00
    0.39247E+04        -0.49998E+08         0.00000E+00
    0.00000E+00         0.00000E+00        -0.50000E+08
 
   -0.49997E+08         0.39834E+04         0.00000E+00
    0.39834E+04        -0.49998E+08         0.00000E+00
    0.00000E+00         0.00000E+00        -0.50000E+08
 
   -0.49998E+08         0.40381E+04         0.00000E+00
    0.40381E+04        -0.49998E+08         0.00000E+00
    0.00000E+00         0.00000E+00        -0.50000E+08
 
   -0.49998E+08         0.40887E+04         0.00000E+00
    0.40887E+04        -0.49998E+08         0.00000E+00
    0.00000E+00         0.00000E+00        -0.50000E+08
 
   -0.49998E+08         0.41351E+04         0.00000E+00
    0.41351E+04        -0.49998E+08         0.00000E+00
    0.00000E+00         0.00000E+00        -0.50000E+08
 
   -0.49998E+08         0.41771E+04         0.00000E+00
    0.41771E+04        -0.49998E+08         0.00000E+00
    0.00000E+00         0.00000E+00        -0.50000E+08
 
   -0.49998E+08         0.42148E+04         0.00000E+00
    0.42148E+04        -0.49997E+08         0.00000E+00
    0.00000E+00         0.00000E+00        -0.50000E+08
 
   -0.49999E+08         0.42481E+04         0.00000E+00
    0.42481E+04        -0.49997E+08         0.00000E+00
    0.00000E+00         0.00000E+00        -0.50000E+08
 
   -0.49999E+08         0.42769E+04         0.00000E+00
    0.42769E+04        -0.49997E+08         0.00000E+00
    0.00000E+00         0.00000E+00        -0.50000E+08
 
   -0.49999E+08         0.43011E+04         0.00000E+00
    0.43011E+04        -0.49997E+08         0.00000E+00
    0.00000E+00         0.00000E+00        -0.50000E+08
 
   -0.49999E+08         0.43206E+04         0.00000E+00
    0.43206E+04        -0.49997E+08         0.00000E+00
    0.00000E+00         0.00000E+00        -0.50000E+08
 
   -0.49999E+08         0.43355E+04         0.00000E+00
    0.43355E+04        -0.49997E+08         0.00000E+00
    0.00000E+00         0.00000E+00        -0.50000E+08
 
   -0.50000E+08         0.43457E+04         0.00000E+00
    0.43457E+04        -0.49997E+08         0.00000E+00
    0.00000E+00         0.00000E+00        -0.50000E+08
 
   -0.50000E+08         0.43510E+04         0.00000E+00
    0.43510E+04        -0.49997E+08         0.00000E+00
    0.00000E+00         0.00000E+00        -0.50000E+08
 
   -0.49994E+08         0.70346E+02         0.00000E+00
    0.70346E+02        -0.50000E+08         0.00000E+00
    0.00000E+00         0.00000E+00        -0.50000E+08
 
   -0.49994E+08         0.21316E+03         0.00000E+00
    0.21316E+03        -0.50000E+08         0.00000E+00
    0.00000E+00         0.00000E+00        -0.50000E+08
 
   -0.49994E+08         0.35653E+03         0.00000E+00
    0.35653E+03        -0.50000E+08         0.00000E+00
    0.00000E+00         0.00000E+00        -0.50000E+08
 
   -0.49994E+08         0.50030E+03         0.00000E+00
    0.50030E+03        -0.50000E+08         0.00000E+00
    0.00000E+00         0.00000E+00        -0.50000E+08
 
   -0.49994E+08         0.64431E+03         0.00000E+00
    0.64431E+03        -0.50000E+08         0.00000E+00
    0.00000E+00         0.00000E+00        -0.50000E+08
 
   -0.49994E+08         0.78839E+03         0.00000E+00
    0.78839E+03        -0.50000E+08         0.00000E+00
    0.00000E+00         0.00000E+00        -0.50000E+08
 
   -0.49994E+08         0.93239E+03         0.00000E+00
    0.93239E+03        -0.50000E+08         0.00000E+00
    0.00000E+00         0.00000E+00        -0.50000E+08
 
   -0.49994E+08         0.10761E+04         0.00000E+00
    0.10761E+04        -0.50000E+08         0.00000E+00
    0.00000E+00         0.00000E+00        -0.50000E+08
 
   -0.49994E+08         0.12195E+04         0.00000E+00
    0.12195E+04        -0.50000E+08         0.00000E+00
    0.00000E+00         0.00000E+00        -0.50000E+08
 
   -0.49994E+08         0.13623E+04         0.00000E+00
    0.13623E+04        -0.50000E+08         0.00000E+00
    0.00000E+00         0.00000E+00        -0.50000E+08
 
   -0.49994E+08         0.15043E+04         0.00000E+00
    0.15043E+04        -0.50000E+08         0.00000E+00
    0.00000E+00         0.00000E+00        -0.50000E+08
 
   -0.49994E+08         0.16455E+04         0.00000E+00
    0.16455E+04        -0.50000E+08         0.00000E+00
    0.00000E+00         0.00000E+00        -0.50000E+08
 
   -0.49994E+08         0.17856E+04         0.00000E+00
    0.17856E+04        -0.50000E+08         0.00000E+00
    0.00000E+00         0.00000E+00        -0.50000E+08
 
   -0.49994E+08         0.19245E+04         0.00000E+00
    0.19245E+04        -0.50000E+08         0.00000E+00
    0.00000E+00         0.00000E+00        -0.50000E+08
 
   -0.49994E+08         0.20620E+04         0.00000E+00
    0.20620E+04        -0.50000E+08         0.00000E+00
    0.00000E+00         0.00000E+00        -0.50000E+08
 
   -0.49994E+08         0.21980E+04         0.00000E+00
    0.21980E+04        -0.50000E+08         0.00000E+00
    0.00000E+00         0.00000E+00        -0.50000E+08
 
   -0.49994E+08         0.23323E+04         0.00000E+00
    0.23323E+04        -0.50000E+08         0.00000E+00
    0.00000E+00         0.00000E+00        -0.50000E+08
 
   -0.49994E+08         0.24648E+04         0.00000E+00
    0.24648E+04        -0.49999E+08         0.00000E+00
    0.00000E+00         0.00000E+00        -0.50000E+08
 
   -0.49994E+08         0.25953E+04         0.00000E+00
    0.25953E+04        -0.49999E+08         0.00000E+00
    0.00000E+00         0.00000E+00        -0.50000E+08
 
   -0.49994E+08         0.27237E+04         0.00000E+00
    0.27237E+04        -0.49999E+08         0.00000E+00
    0.00000E+00         0.00000E+00        -0.50000E+08
 
   -0.49995E+08         0.28498E+04         0.00000E+00
    0.28498E+04        -0.49999E+08         0.00000E+00
    0.00000E+00         0.00000E+00        -0.50000E+08
 
   -0.49995E+08         0.29735E+04         0.00000E+00
    0.29735E+04        -0.49999E+08         0.00000E+00
    0.00000E+00         0.00000E+00        -0.50000E+08
 
   -0.49995E+08         0.30945E+04         0.00000E+00
    0.30945E+04        -0.49999E+08         0.00000E+00
    0.00000E+00         0.00000E+00        -0.50000E+08
 
   -0.49995E+08         0.32129E+04         0.00000E+00
    0.32129E+04        -0.49999E+08         0.00000E+00
    0.00000E+00         0.00000E+00        -0.50000E+08
 
   -0.49995E+08         0.33283E+04         0.00000E+00
    0.33283E+04        -0.49999E+08         0.00000E+00
    0.00000E+00         0.00000E+00        -0.50000E+08
 
   -0.49995E+08         0.34408E+04         0.00000E+00
    0.34408E+04        -0.49999E+08         0.00000E+00
    0.00000E+00         0.00000E+00        -0.50000E+08
 
   -0.49995E+08         0.35501E+04         0.00000E+00
    0.35501E+04        -0.49999E+08         0.00000E+00
    0.00000E+00         0.00000E+00        -0.50000E+08
 
   -0.49995E+08         0.36562E+04         0.00000E+00
    0.36562E+04        -0.49999E+08         0.00000E+00
    0.00000E+00         0.00000E+00        -0.50000E+08
 
   -0.49996E+08         0.37588E+04         0.00000E+00
    0.37588E+04        -0.49999E+08         0.00000E+00
    0.00000E+00         0.00000E+00        -0.50000E+08
 
   -0.49996E+08         0.38579E+04         0.00000E+00
    0.38579E+04        -0.49999E+08         0.00000E+00
    0.00000E+00         0.00000E+00        -0.50000E+08
 
   -0.49996E+08         0.39533E+04         0.00000E+00
    0.39533E+04        -0.49998E+08         0.00000E+00
    0.00000E+00         0.00000E+00        -0.50000E+08
 
   -0.49996E+08         0.40450E+04         0.00000E+00
    0.40450E+04        -0.49998E+08         0.00000E+00
    0.00000E+00         0.00000E+00        -0.50000E+08
 
   -0.49996E+08         0.41327E+04         0.00000E+00
    0.41327E+04        -0.49998E+08         0.00000E+00
    0.00000E+00         0.00000E+00        -0.50000E+08
 
   -0.49996E+08         0.42164E+04         0.00000E+00
    0.42164E+04        -0.49998E+08         0.00000E+00
    0.00000E+00         0.00000E+00        -0.50000E+08
 
   -0.49997E+08         0.42959E+04         0.00000E+00
    0.42959E+04        -0.49998E+08         0.00000E+00
    0.00000E+00         0.00000E+00        -0.50000E+08
 
   -0.49997E+08         0.43712E+04         0.00000E+00
    0.43712E+04        -0.49998E+08         0.00000E+00
    0.00000E+00         0.00000E+00        -0.50000E+08
 
   -0.49997E+08         0.44422E+04         0.00000E+00
    0.44422E+04        -0.49998E+08         0.00000E+00
    0.00000E+00         0.00000E+00        -0.50000E+08
 
   -0.49997E+08         0.45086E+04         0.00000E+00
    0.45086E+04        -0.49998E+08         0.00000E+00
    0.00000E+00         0.00000E+00        -0.50000E+08
 
   -0.49997E+08         0.45705E+04         0.00000E+00
    0.45705E+04        -0.49998E+08         0.00000E+00
    0.00000E+00         0.00000E+00        -0.50000E+08
 
   -0.49998E+08         0.46277E+04         0.00000E+00
    0.46277E+04        -0.49997E+08         0.00000E+00
    0.00000E+00         0.00000E+00        -0.50000E+08
 
   -0.49998E+08         0.46802E+04         0.00000E+00
    0.46802E+04        -0.49997E+08         0.00000E+00
    0.00000E+00         0.00000E+00        -0.50000E+08
 
   -0.49998E+08         0.47278E+04         0.00000E+00
    0.47278E+04        -0.49997E+08         0.00000E+00
    0.00000E+00         0.00000E+00        -0.50000E+08
 
   -0.49998E+08         0.47705E+04         0.00000E+00
    0.47705E+04        -0.49997E+08         0.00000E+00
    0.00000E+00         0.00000E+00        -0.50000E+08
 
   -0.49998E+08         0.48082E+04         0.00000E+00
    0.48082E+04        -0.49997E+08         0.00000E+00
    0.00000E+00         0.00000E+00        -0.50000E+08
 
   -0.49999E+08         0.48408E+04         0.00000E+00
    0.48408E+04        -0.49997E+08         0.00000E+00
    0.00000E+00         0.00000E+00        -0.50000E+08
 
   -0.49999E+08         0.48682E+04         0.00000E+00
    0.48682E+04        -0.49997E+08         0.00000E+00
    0.00000E+00         0.00000E+00        -0.50000E+08
 
   -0.49999E+08         0.48903E+04         0.00000E+00
    0.48903E+04        -0.49997E+08         0.00000E+00
    0.00000E+00         0.00000E+00        -0.50000E+08
 
   -0.49999E+08         0.49072E+04         0.00000E+00
    0.49072E+04        -0.49997E+08         0.00000E+00
    0.00000E+00         0.00000E+00        -0.50000E+08
 
   -0.50000E+08         0.49187E+04         0.00000E+00
    0.49187E+04        -0.49996E+08         0.00000E+00
    0.00000E+00         0.00000E+00        -0.50000E+08
 
   -0.50000E+08         0.49248E+04         0.00000E+00
    0.49248E+04        -0.49996E+08         0.00000E+00
    0.00000E+00         0.00000E+00        -0.50000E+08
 
   -0.49993E+08         0.79576E+02         0.00000E+00
    0.79576E+02        -0.50000E+08         0.00000E+00
    0.00000E+00         0.00000E+00        -0.50000E+08
 
   -0.49993E+08         0.24110E+03         0.00000E+00
    0.24110E+03        -0.50000E+08         0.00000E+00
    0.00000E+00         0.00000E+00        -0.50000E+08
 
   -0.49993E+08         0.40325E+03         0.00000E+00
    0.40325E+03        -0.50000E+08         0.00000E+00
    0.00000E+00         0.00000E+00        -0.50000E+08
 
   -0.49993E+08         0.56585E+03         0.00000E+00
    0.56585E+03        -0.50000E+08         0.00000E+00
    0.00000E+00         0.00000E+00        -0.50000E+08
 
   -0.49993E+08         0.72871E+03         0.00000E+00
    0.72871E+03        -0.50000E+08         0.00000E+00
    0.00000E+00         0.00000E+00        -0.50000E+08
 
   -0.49993E+08         0.89164E+03         0.00000E+00
    0.89164E+03        -0.50000E+08         0.00000E+00
    0.00000E+00         0.00000E+00        -0.50000E+08
 
   -0.49993E+08         0.10545E+04         0.00000E+00
    0.10545E+04        -0.50000E+08         0.00000E+00
    0.00000E+00         0.00000E+00        -0.50000E+08
 
   -0.49993E+08         0.12170E+04         0.00000E+00
    0.12170E+04        -0.50000E+08         0.00000E+00
    0.00000E+00         0.00000E+00        -0.50000E+08
 
   -0.49993E+08         0.13791E+04         0.00000E+00
    0.13791E+04        -0.50000E+08         0.00000E+00
    0.00000E+00         0.00000E+00        -0.50000E+08
 
   -0.49993E+08         0.15405E+04         0.00000E+00
    0.15405E+04        -0.50000E+08         0.00000E+00
    0.00000E+00         0.00000E+00        -0.50000E+08
 
   -0.49993E+08         0.17011E+04         0.00000E+00
    0.17011E+04        -0.50000E+08         0.00000E+00
    0.00000E+00         0.00000E+00        -0.50000E+08
 
   -0.49993E+08         0.18607E+04         0.00000E+00
    0.18607E+04        -0.50000E+08         0.00000E+00
    0.00000E+00         0.00000E+00        -0.50000E+08
 
   -0.49993E+08         0.20191E+04         0.00000E+00
    0.20191E+04        -0.50000E+08         0.00000E+00
    0.00000E+00         0.00000E+00        -0.50000E+08
 
   -0.49993E+08         0.21761E+04         0.00000E+00
    0.21761E+04        -0.50000E+08         0.00000E+00
    0.00000E+00         0.00000E+00        -0.50000E+08
 
   -0.49993E+08         0.23316E+04         0.00000E+00
    0.23316E+04        -0.50000E+08         0.00000E+00
    0.00000E+00         0.00000E+00        -0.50000E+08
 
   -0.49993E+08         0.24854E+04         0.00000E+00
    0.24854E+04        -0.50000E+08         0.00000E+00
    0.00000E+00         0.00000E+00        -0.50000E+08
 
   -0.49993E+08         0.26372E+04         0.00000E+00
    0.26372E+04        -0.49999E+08         0.00000E+00
    0.00000E+00         0.00000E+00        -0.50000E+08
 
   -0.49994E+08         0.27870E+04         0.00000E+00
    0.27870E+04        -0.49999E+08         0.00000E+00
    0.00000E+00         0.00000E+00        -0.50000E+08
 
   -0.49994E+08         0.29345E+04         0.00000E+00
    0.29345E+04        -0.49999E+08         0.00000E+00
    0.00000E+00         0.00000E+00        -0.50000E+08
 
   -0.49994E+08         0.30796E+04         0.00000E+00
    0.30796E+04        -0.49999E+08         0.00000E+00
    0.00000E+00         0.00000E+00        -0.50000E+08
 
   -0.49994E+08         0.32221E+04         0.00000E+00
    0.32221E+04        -0.49999E+08         0.00000E+00
    0.00000E+00         0.00000E+00        -0.50000E+08
 
   -0.49994E+08         0.33619E+04         0.00000E+00
    0.33619E+04        -0.49999E+08         0.00000E+00
    0.00000E+00         0.00000E+00        -0.50000E+08
 
   -0.49994E+08         0.34987E+04         0.00000E+00
    0.34987E+04        -0.49999E+08         0.00000E+00
    0.00000E+00         0.00000E+00        -0.50000E+08
 
   -0.49994E+08         0.36325E+04         0.00000E+00
    0.36325E+04        -0.49999E+08         0.00000E+00
    0.00000E+00         0.00000E+00        -0.50000E+08
 
   -0.49994E+08         0.37630E+04         0.00000E+00
    0.37630E+04        -0.49999E+08         0.00000E+00
    0.00000E+00         0.00000E+00        -0.50000E+08
 
   -0.49995E+08         0.38901E+04         0.00000E+00
    0.38901E+04        -0.49999E+08         0.00000E+00
    0.00000E+00         0.00000E+00        -0.50000E+08
 
   -0.49995E+08         0.40136E+04         0.00000E+00
    0.40136E+04        -0.49999E+08         0.00000E+00
    0.00000E+00         0.00000E+00        -0.50000E+08
 
   -0.49995E+08         0.41335E+04         0.00000E+00
    0.41335E+04        -0.49999E+08         0.00000E+00
    0.00000E+00         0.00000E+00        -0.50000E+08
 
   -0.49995E+08         0.42495E+04         0.00000E+00
    0.42495E+04        -0.49998E+08         0.00000E+00
    0.00000E+00         0.00000E+00        -0.50000E+08
 
   -0.49995E+08         0.43614E+04         0.00000E+00
    0.43614E+04        -0.49998E+08         0.00000E+00
    0.00000E+00         0.00000E+00        -0.50000E+08
 
   -0.49995E+08         0.44693E+04         0.00000E+00
    0.44693E+04        -0.49998E+08         0.00000E+00
    0.00000E+00         0.00000E+00        -0.50000E+08
 
   -0.49996E+08         0.45728E+04         0.00000E+00
    0.45728E+04        -0.49998E+08         0.00000E+00
    0.00000E+00         0.00000E+00        -0.50000E+08
 
   -0.49996E+08         0.46720E+04         0.00000E+00
    0.46720E+04        -0.49998E+08         0.00000E+00
    0.00000E+00         0.00000E+00        -0.50000E+08
 
   -0.49996E+08         0.47666E+04         0.00000E+00
    0.47666E+04        -0.49998E+08         0.00000E+00
    0.00000E+00         0.00000E+00        -0.50000E+08
 
   -0.49996E+08         0.48565E+04         0.00000E+00
    0.48565E+04        -0.49998E+08         0.00000E+00
    0.00000E+00         0.00000E+00        -0.50000E+08
 
   -0.49996E+08         0.49416E+04         0.00000E+00
    0.49416E+04        -0.49998E+08         0.00000E+00
    0.00000E+00         0.00000E+00        -0.50000E+08
 
   -0.49997E+08         0.50217E+04         0.00000E+00
    0.50217E+04        -0.49998E+08         0.00000E+00
    0.00000E+00         0.00000E+00        -0.50000E+08
 
   -0.49997E+08         0.50968E+04         0.00000E+00
    0.50968E+04        -0.49997E+08         0.00000E+00
    0.00000E+00         0.00000E+00        -0.50000E+08
 
   -0.49997E+08         0.51668E+04         0.00000E+00
    0.51668E+04        -0.49997E+08         0.00000E+00
    0.00000E+00         0.00000E+00        -0.50000E+08
 
   -0.49997E+08         0.52315E+04         0.00000E+00
    0.52315E+04        -0.49997E+08         0.00000E+00
    0.00000E+00         0.00000E+00        -0.50000E+08
 
   -0.49998E+08         0.52908E+04         0.00000E+00
    0.52908E+04        -0.49997E+08         0.00000E+00
    0.00000E+00         0.00000E+00        -0.50000E+08
 
   -0.49998E+08         0.53446E+04         0.00000E+00
    0.53446E+04        -0.49997E+08         0.00000E+00
    0.00000E+00         0.00000E+00        -0.50000E+08
 
   -0.49998E+08         0.53929E+04         0.00000E+00
    0.53929E+04        -0.49997E+08         0.00000E+00
    0.00000E+00         0.00000E+00        -0.50000E+08
 
   -0.49998E+08         0.54354E+04         0.00000E+00
    0.54354E+04        -0.49997E+08         0.00000E+00
    0.00000E+00         0.00000E+00        -0.50000E+08
 
   -0.49999E+08         0.54723E+04         0.00000E+00
    0.54723E+04        -0.49996E+08         0.00000E+00
    0.00000E+00         0.00000E+00        -0.50000E+08
 
   -0.49999E+08         0.55033E+04         0.00000E+00
    0.55033E+04        -0.49996E+08         0.00000E+00
    0.00000E+00         0.00000E+00        -0.50000E+08
 
   -0.49999E+08         0.55284E+04         0.00000E+00
    0.55284E+04        -0.49996E+08         0.00000E+00
    0.00000E+00         0.00000E+00        -0.50000E+08
 
   -0.49999E+08         0.55475E+04         0.00000E+00
    0.55475E+04        -0.49996E+08         0.00000E+00
    0.00000E+00         0.00000E+00        -0.50000E+08
 
   -0.50000E+08         0.55605E+04         0.00000E+00
    0.55605E+04        -0.49996E+08         0.00000E+00
    0.00000E+00         0.00000E+00        -0.50000E+08
 
   -0.50000E+08         0.55674E+04         0.00000E+00
    0.55674E+04        -0.49996E+08         0.00000E+00
    0.00000E+00         0.00000E+00        -0.50000E+08
 
   -0.49992E+08         0.89934E+02         0.00000E+00
    0.89934E+02        -0.50000E+08         0.00000E+00
    0.00000E+00         0.00000E+00        -0.50000E+08
 
   -0.49992E+08         0.27246E+03         0.00000E+00
    0.27246E+03        -0.50000E+08         0.00000E+00
    0.00000E+00         0.00000E+00        -0.50000E+08
 
   -0.49992E+08         0.45568E+03         0.00000E+00
    0.45568E+03        -0.50000E+08         0.00000E+00
    0.00000E+00         0.00000E+00        -0.50000E+08
 
   -0.49992E+08         0.63940E+03         0.00000E+00
    0.63940E+03        -0.50000E+08         0.00000E+00
    0.00000E+00         0.00000E+00        -0.50000E+08
 
   -0.49992E+08         0.82340E+03         0.00000E+00
    0.82340E+03        -0.50000E+08         0.00000E+00
    0.00000E+00         0.00000E+00        -0.50000E+08
 
   -0.49992E+08         0.10075E+04         0.00000E+00
    0.10075E+04        -0.50000E+08         0.00000E+00
    0.00000E+00         0.00000E+00        -0.50000E+08
 
   -0.49992E+08         0.11914E+04         0.00000E+00
    0.11914E+04        -0.50000E+08         0.00000E+00
    0.00000E+00         0.00000E+00        -0.50000E+08
 
   -0.49992E+08         0.13751E+04         0.00000E+00
    0.13751E+04        -0.50000E+08         0.00000E+00
    0.00000E+00         0.00000E+00        -0.50000E+08
 
   -0.49992E+08         0.15582E+04         0.00000E+00
    0.15582E+04        -0.50000E+08         0.00000E+00
    0.00000E+00         0.00000E+00        -0.50000E+08
 
   -0.49992E+08         0.17405E+04         0.00000E+00
    0.17405E+04        -0.50000E+08         0.00000E+00
    0.00000E+00         0.00000E+00        -0.50000E+08
 
   -0.49992E+08         0.19219E+04         0.00000E+00
    0.19219E+04        -0.50000E+08         0.00000E+00
    0.00000E+00         0.00000E+00        -0.50000E+08
 
   -0.49992E+08         0.21022E+04         0.00000E+00
    0.21022E+04        -0.50000E+08         0.00000E+00
    0.00000E+00         0.00000E+00        -0.50000E+08
 
   -0.49992E+08         0.22811E+04         0.00000E+00
    0.22811E+04        -0.50000E+08         0.00000E+00
    0.00000E+00         0.00000E+00        -0.50000E+08
 
   -0.49992E+08         0.24584E+04         0.00000E+00
    0.24584E+04        -0.50000E+08         0.00000E+00
    0.00000E+00         0.00000E+00        -0.50000E+08
 
   -0.49992E+08         0.26340E+04         0.00000E+00
    0.26340E+04        -0.50000E+08         0.00000E+00
    0.00000E+00         0.00000E+00        -0.50000E+08
 
   -0.49993E+08         0.28076E+04         0.00000E+00
    0.28076E+04        -0.49999E+08         0.00000E+00
    0.00000E+00         0.00000E+00        -0.50000E+08
 
   -0.49993E+08         0.29791E+04         0.00000E+00
    0.29791E+04        -0.49999E+08         0.00000E+00
    0.00000E+00         0.00000E+00        -0.50000E+08
 
   -0.49993E+08         0.31482E+04         0.00000E+00
    0.31482E+04        -0.49999E+08         0.00000E+00
    0.00000E+00         0.00000E+00        -0.50000E+08
 
   -0.49993E+08         0.33148E+04         0.00000E+00
    0.33148E+04        -0.49999E+08         0.00000E+00
    0.00000E+00         0.00000E+00        -0.50000E+08
 
   -0.49993E+08         0.34787E+04         0.00000E+00
    0.34787E+04        -0.49999E+08         0.00000E+00
    0.00000E+00         0.00000E+00        -0.50000E+08
 
   -0.49993E+08         0.36396E+04         0.00000E+00
    0.36396E+04        -0.49999E+08         0.00000E+00
    0.00000E+00         0.00000E+00        -0.50000E+08
 
   -0.49993E+08         0.37974E+04         0.00000E+00
    0.37974E+04        -0.49999E+08         0.00000E+00
    0.00000E+00         0.00000E+00        -0.50000E+08
 
   -0.49993E+08         0.39519E+04         0.00000E+00
    0.39519E+04        -0.49999E+08         0.00000E+00
    0.00000E+00         0.00000E+00        -0.50000E+08
 
   -0.49994E+08         0.41029E+04         0.00000E+00
    0.41029E+04        -0.49999E+08         0.00000E+00
    0.00000E+00         0.00000E+00        -0.50000E+08
 
   -0.49994E+08         0.42502E+04         0.00000E+00
    0.42502E+04        -0.49999E+08         0.00000E+00
    0.00000E+00         0.00000E+00        -0.50000E+08
 
   -0.49994E+08         0.43938E+04         0.00000E+00
    0.43938E+04        -0.49999E+08         0.00000E+00
    0.00000E+00         0.00000E+00        -0.50000E+08
 
   -0.49994E+08         0.45333E+04         0.00000E+00
    0.45333E+04        -0.49998E+08         0.00000E+00
    0.00000E+00         0.00000E+00        -0.50000E+08
 
   -0.49994E+08         0.46686E+04         0.00000E+00
    0.46686E+04        -0.49998E+08         0.00000E+00
    0.00000E+00         0.00000E+00        -0.50000E+08
 
   -0.49994E+08         0.47995E+04         0.00000E+00
    0.47995E+04        -0.49998E+08         0.00000E+00
    0.00000E+00         0.00000E+00        -0.50000E+08
 
   -0.49995E+08         0.49259E+04         0.00000E+00
    0.49259E+04        -0.49998E+08         0.00000E+00
    0.00000E+00         0.00000E+00        -0.50000E+08
 
   -0.49995E+08         0.50477E+04         0.00000E+00
    0.50477E+04        -0.49998E+08         0.00000E+00
    0.00000E+00         0.00000E+00        -0.50000E+08
 
   -0.49995E+08         0.51646E+04         0.00000E+00
    0.51646E+04        -0.49998E+08         0.00000E+00
    0.00000E+00         0.00000E+00        -0.50000E+08
 
   -0.49995E+08         0.52765E+04         0.00000E+00
    0.52765E+04        -0.49998E+08         0.00000E+00
    0.00000E+00         0.00000E+00        -0.50000E+08
 
   -0.49995E+08         0.53833E+04         0.00000E+00
    0.53833E+04        -0.49998E+08         0.00000E+00
    0.00000E+00         0.00000E+00        -0.50000E+08
 
   -0.49996E+08         0.54848E+04         0.00000E+00
    0.54848E+04        -0.49998E+08         0.00000E+00
    0.00000E+00         0.00000E+00        -0.50000E+08
 
   -0.49996E+08         0.55809E+04         0.00000E+00
    0.55809E+04        -0.49997E+08         0.00000E+00
    0.00000E+00         0.00000E+00        -0.50000E+08
 
   -0.49996E+08         0.56714E+04         0.00000E+00
    0.56714E+04        -0.49997E+08         0.00000E+00
    0.00000E+00         0.00000E+00        -0.50000E+08
 
   -0.49996E+08         0.57562E+04         0.00000E+00
    0.57562E+04        -0.49997E+08         0.00000E+00
    0.00000E+00         0.00000E+00        -0.50000E+08
 
   -0.49997E+08         0.58352E+04         0.00000E+00
    0.58352E+04        -0.49997E+08         0.00000E+00
    0.00000E+00         0.00000E+00        -0.50000E+08
 
   -0.49997E+08         0.59082E+04         0.00000E+00
    0.59082E+04        -0.49997E+08         0.00000E+00
    0.00000E+00         0.00000E+00        -0.50000E+08
 
   -0.49997E+08         0.59752E+04         0.00000E+00
    0.59752E+04        -0.49997E+08         0.00000E+00
    0.00000E+00         0.00000E+00        -0.50000E+08
 
   -0.49998E+08         0.60360E+04         0.00000E+00
    0.60360E+04        -0.49997E+08         0.00000E+00
    0.00000E+00         0.00000E+00        -0.50000E+08
 
   -0.49998E+08         0.60905E+04         0.00000E+00
    0.60905E+04        -0.49996E+08         0.00000E+00
    0.00000E+00         0.00000E+00        -0.50000E+08
 
   -0.49998E+08         0.61386E+04         0.00000E+00
    0.61386E+04        -0.49996E+08         0.00000E+00
    0.00000E+00         0.00000E+00        -0.50000E+08
 
   -0.49998E+08         0.61802E+04         0.00000E+00
    0.61802E+04        -0.49996E+08         0.00000E+00
    0.00000E+00         0.00000E+00        -0.50000E+08
 
   -0.49999E+08         0.62152E+04         0.00000E+00
    0.62152E+04        -0.49996E+08         0.00000E+00
    0.00000E+00         0.00000E+00        -0.50000E+08
 
   -0.49999E+08         0.62436E+04         0.00000E+00
    0.62436E+04        -0.49996E+08         0.00000E+00
    0.00000E+00         0.00000E+00        -0.50000E+08
 
   -0.49999E+08         0.62652E+04         0.00000E+00
    0.62652E+04        -0.49996E+08         0.00000E+00
    0.00000E+00         0.00000E+00        -0.50000E+08
 
   -0.50000E+08         0.62800E+04         0.00000E+00
    0.62800E+04        -0.49995E+08         0.00000E+00
    0.00000E+00         0.00000E+00        -0.50000E+08
 
   -0.50000E+08         0.62878E+04         0.00000E+00
    0.62878E+04        -0.49995E+08         0.00000E+00
    0.00000E+00         0.00000E+00        -0.50000E+08
 
   -0.49991E+08         0.10157E+03         0.00000E+00
    0.10157E+03        -0.50000E+08         0.00000E+00
    0.00000E+00         0.00000E+00        -0.50000E+08
 
   -0.49991E+08         0.30767E+03         0.00000E+00
    0.30767E+03        -0.50000E+08         0.00000E+00
    0.00000E+00         0.00000E+00        -0.50000E+08
 
   -0.49991E+08         0.51455E+03         0.00000E+00
    0.51455E+03        -0.50000E+08         0.00000E+00
    0.00000E+00         0.00000E+00        -0.50000E+08
 
   -0.49991E+08         0.72197E+03         0.00000E+00
    0.72197E+03        -0.50000E+08         0.00000E+00
    0.00000E+00         0.00000E+00        -0.50000E+08
 
   -0.49991E+08         0.92971E+03         0.00000E+00
    0.92971E+03        -0.50000E+08         0.00000E+00
    0.00000E+00         0.00000E+00        -0.50000E+08
 
   -0.49991E+08         0.11375E+04         0.00000E+00
    0.11375E+04        -0.50000E+08         0.00000E+00
    0.00000E+00         0.00000E+00        -0.50000E+08
 
   -0.49991E+08         0.13452E+04         0.00000E+00
    0.13452E+04        -0.50000E+08         0.00000E+00
    0.00000E+00         0.00000E+00        -0.50000E+08
 
   -0.49991E+08         0.15525E+04         0.00000E+00
    0.15525E+04        -0.50000E+08         0.00000E+00
    0.00000E+00         0.00000E+00        -0.50000E+08
 
   -0.49991E+08         0.17591E+04         0.00000E+00
    0.17591E+04        -0.50000E+08         0.00000E+00
    0.00000E+00         0.00000E+00        -0.50000E+08
 
   -0.49991E+08         0.19650E+04         0.00000E+00
    0.19650E+04        -0.50000E+08         0.00000E+00
    0.00000E+00         0.00000E+00        -0.50000E+08
 
   -0.49991E+08         0.21697E+04         0.00000E+00
    0.21697E+04        -0.50000E+08         0.00000E+00
    0.00000E+00         0.00000E+00        -0.50000E+08
 
   -0.49991E+08         0.23731E+04         0.00000E+00
    0.23731E+04        -0.50000E+08         0.00000E+00
    0.00000E+00         0.00000E+00        -0.50000E+08
 
   -0.49991E+08         0.25750E+04         0.00000E+00
    0.25750E+04        -0.50000E+08         0.00000E+00
    0.00000E+00         0.00000E+00        -0.50000E+08
 
   -0.49991E+08         0.27752E+04         0.00000E+00
    0.27752E+04        -0.50000E+08         0.00000E+00
    0.00000E+00         0.00000E+00        -0.50000E+08
 
   -0.49992E+08         0.29733E+04         0.00000E+00
    0.29733E+04        -0.49999E+08         0.00000E+00
    0.00000E+00         0.00000E+00        -0.50000E+08
 
   -0.49992E+08         0.31693E+04         0.00000E+00
    0.31693E+04        -0.49999E+08         0.00000E+00
    0.00000E+00         0.00000E+00        -0.50000E+08
 
   -0.49992E+08         0.33628E+04         0.00000E+00
    0.33628E+04        -0.49999E+08         0.00000E+00
    0.00000E+00         0.00000E+00        -0.50000E+08
 
   -0.49992E+08         0.35536E+04         0.00000E+00
    0.35536E+04        -0.49999E+08         0.00000E+00
    0.00000E+00         0.00000E+00        -0.50000E+08
 
   -0.49992E+08         0.37416E+04         0.00000E+00
    0.37416E+04        -0.49999E+08         0.00000E+00
    0.00000E+00         0.00000E+00        -0.50000E+08
 
   -0.49992E+08         0.39264E+04         0.00000E+00
    0.39264E+04        -0.49999E+08         0.00000E+00
    0.00000E+00         0.00000E+00        -0.50000E+08
 
   -0.49992E+08         0.41080E+04         0.00000E+00
    0.41080E+04        -0.49999E+08         0.00000E+00
    0.00000E+00         0.00000E+00        -0.50000E+08
 
   -0.49992E+08         0.42860E+04         0.00000E+00
    0.42860E+04        -0.49999E+08         0.00000E+00
    0.00000E+00         0.00000E+00        -0.50000E+08
 
   -0.49993E+08         0.44603E+04         0.00000E+00
    0.44603E+04        -0.49999E+08         0.00000E+00
    0.00000E+00         0.00000E+00        -0.50000E+08
 
   -0.49993E+08         0.46307E+04         0.00000E+00
    0.46307E+04        -0.49999E+08         0.00000E+00
    0.00000E+00         0.00000E+00        -0.50000E+08
 
   -0.49993E+08         0.47969E+04         0.00000E+00
    0.47969E+04        -0.49999E+08         0.00000E+00
    0.00000E+00         0.00000E+00        -0.50000E+08
 
   -0.49993E+08         0.49588E+04         0.00000E+00
    0.49588E+04        -0.49998E+08         0.00000E+00
    0.00000E+00         0.00000E+00        -0.50000E+08
 
   -0.49993E+08         0.51162E+04         0.00000E+00
    0.51162E+04        -0.49998E+08         0.00000E+00
    0.00000E+00         0.00000E+00        -0.50000E+08
 
   -0.49994E+08         0.52688E+04         0.00000E+00
    0.52688E+04        -0.49998E+08         0.00000E+00
    0.00000E+00         0.00000E+00        -0.50000E+08
 
   -0.49994E+08         0.54166E+04         0.00000E+00
    0.54166E+04        -0.49998E+08         0.00000E+00
    0.00000E+00         0.00000E+00        -0.50000E+08
 
   -0.49994E+08         0.55592E+04         0.00000E+00
    0.55592E+04        -0.49998E+08         0.00000E+00
    0.00000E+00         0.00000E+00        -0.50000E+08
 
   -0.49994E+08         0.56965E+04         0.00000E+00
    0.56965E+04        -0.49998E+08         0.00000E+00
    0.00000E+00         0.00000E+00        -0.50000E+08
 
   -0.49994E+08         0.58284E+04         0.00000E+00
    0.58284E+04        -0.49998E+08         0.00000E+00
    0.00000E+00         0.00000E+00        -0.50000E+08
 
   -0.49995E+08         0.59547E+04         0.00000E+00
    0.59547E+04        -0.49997E+08         0.00000E+00
    0.00000E+00         0.00000E+00        -0.50000E+08
 
   -0.49995E+08         0.60751E+04         0.00000E+00
    0.60751E+04        -0.49997E+08         0.00000E+00
    0.00000E+00         0.00000E+00        -0.50000E+08
 
   -0.49995E+08         0.61896E+04         0.00000E+00
    0.61896E+04        -0.49997E+08         0.00000E+00
    0.00000E+00         0.00000E+00        -0.50000E+08
 
   -0.49995E+08         0.62980E+04         0.00000E+00
    0.62980E+04        -0.49997E+08         0.00000E+00
    0.00000E+00         0.00000E+00        -0.50000E+08
 
   -0.49996E+08         0.64001E+04         0.00000E+00
    0.64001E+04        -0.49997E+08         0.00000E+00
    0.00000E+00         0.00000E+00        -0.50000E+08
 
   -0.49996E+08         0.64958E+04         0.00000E+00
    0.64958E+04        -0.49997E+08         0.00000E+00
    0.00000E+00         0.00000E+00        -0.50000E+08
 
   -0.49996E+08         0.65849E+04         0.00000E+00
    0.65849E+04        -0.49997E+08         0.00000E+00
    0.00000E+00         0.00000E+00        -0.50000E+08
 
   -0.49997E+08         0.66673E+04         0.00000E+00
    0.66673E+04        -0.49996E+08         0.00000E+00
    0.00000E+00         0.00000E+00        -0.50000E+08
 
   -0.49997E+08         0.67429E+04         0.00000E+00
    0.67429E+04        -0.49996E+08         0.00000E+00
    0.00000E+00         0.00000E+00        -0.50000E+08
 
   -0.49997E+08         0.68115E+04         0.00000E+00
    0.68115E+04        -0.49996E+08         0.00000E+00
    0.00000E+00         0.00000E+00        -0.50000E+08
 
   -0.49998E+08         0.68730E+04         0.00000E+00
    0.68730E+04        -0.49996E+08         0.00000E+00
    0.00000E+00         0.00000E+00        -0.50000E+08
 
   -0.49998E+08         0.69273E+04         0.00000E+00
    0.69273E+04        -0.49996E+08         0.00000E+00
    0.00000E+00         0.00000E+00        -0.50000E+08
 
   -0.49998E+08         0.69743E+04         0.00000E+00
    0.69743E+04        -0.49996E+08         0.00000E+00
    0.00000E+00         0.00000E+00        -0.50000E+08
 
   -0.49998E+08         0.70138E+04         0.00000E+00
    0.70138E+04        -0.49995E+08         0.00000E+00
    0.00000E+00         0.00000E+00        -0.50000E+08
 
   -0.49999E+08         0.70459E+04         0.00000E+00
    0.70459E+04        -0.49995E+08         0.00000E+00
    0.00000E+00         0.00000E+00        -0.50000E+08
 
   -0.49999E+08         0.70703E+04         0.00000E+00
    0.70703E+04        -0.49995E+08         0.00000E+00
    0.00000E+00         0.00000E+00        -0.50000E+08
 
   -0.49999E+08         0.70870E+04         0.00000E+00
    0.70870E+04        -0.49995E+08         0.00000E+00
    0.00000E+00         0.00000E+00        -0.50000E+08
 
   -0.50000E+08         0.70960E+04         0.00000E+00
    0.70960E+04        -0.49995E+08         0.00000E+00
    0.00000E+00         0.00000E+00        -0.50000E+08
 
   -0.49990E+08         0.11464E+03         0.00000E+00
    0.11464E+03        -0.50000E+08         0.00000E+00
    0.00000E+00         0.00000E+00        -0.50000E+08
 
   -0.49990E+08         0.34723E+03         0.00000E+00
    0.34723E+03        -0.50000E+08         0.00000E+00
    0.00000E+00         0.00000E+00        -0.50000E+08
 
   -0.49990E+08         0.58068E+03         0.00000E+00
    0.58068E+03        -0.50000E+08         0.00000E+00
    0.00000E+00         0.00000E+00        -0.50000E+08
 
   -0.49990E+08         0.81474E+03         0.00000E+00
    0.81474E+03        -0.50000E+08         0.00000E+00
    0.00000E+00         0.00000E+00        -0.50000E+08
 
   -0.49990E+08         0.10491E+04         0.00000E+00
    0.10491E+04        -0.50000E+08         0.00000E+00
    0.00000E+00         0.00000E+00        -0.50000E+08
 
   -0.49990E+08         0.12836E+04         0.00000E+00
    0.12836E+04        -0.50000E+08         0.00000E+00
    0.00000E+00         0.00000E+00        -0.50000E+08
 
   -0.49990E+08         0.15179E+04         0.00000E+00
    0.15179E+04        -0.50000E+08         0.00000E+00
    0.00000E+00         0.00000E+00        -0.50000E+08
 
   -0.49990E+08         0.17517E+04         0.00000E+00
    0.17517E+04        -0.50000E+08         0.00000E+00
    0.00000E+00         0.00000E+00        -0.50000E+08
 
   -0.49990E+08         0.19849E+04         0.00000E+00
    0.19849E+04        -0.50000E+08         0.00000E+00
    0.00000E+00         0.00000E+00        -0.50000E+08
 
   -0.49990E+08         0.22171E+04         0.00000E+00
    0.22171E+04        -0.50000E+08         0.00000E+00
    0.00000E+00         0.00000E+00        -0.50000E+08
 
   -0.49990E+08         0.24480E+04         0.00000E+00
    0.24480E+04        -0.50000E+08         0.00000E+00
    0.00000E+00         0.00000E+00        -0.50000E+08
 
   -0.49990E+08         0.26775E+04         0.00000E+00
    0.26775E+04        -0.50000E+08         0.00000E+00
    0.00000E+00         0.00000E+00        -0.50000E+08
 
   -0.49990E+08         0.29052E+04         0.00000E+00
    0.29052E+04        -0.50000E+08         0.00000E+00
    0.00000E+00         0.00000E+00        -0.50000E+08
 
   -0.49990E+08         0.31309E+04         0.00000E+00
    0.31309E+04        -0.49999E+08         0.00000E+00
    0.00000E+00         0.00000E+00        -0.50000E+08
 
   -0.49990E+08         0.33544E+04         0.00000E+00
    0.33544E+04        -0.49999E+08         0.00000E+00
    0.00000E+00         0.00000E+00        -0.50000E+08
 
   -0.49991E+08         0.35753E+04         0.00000E+00
    0.35753E+04        -0.49999E+08         0.00000E+00
    0.00000E+00         0.00000E+00        -0.50000E+08
 
   -0.49991E+08         0.37935E+04         0.00000E+00
    0.37935E+04        -0.49999E+08         0.00000E+00
    0.00000E+00         0.00000E+00        -0.50000E+08
 
   -0.49991E+08         0.40087E+04         0.00000E+00
    0.40087E+04        -0.49999E+08         0.00000E+00
    0.00000E+00         0.00000E+00        -0.50000E+08
 
   -0.49991E+08         0.42207E+04         0.00000E+00
    0.42207E+04        -0.49999E+08         0.00000E+00
    0.00000E+00         0.00000E+00        -0.50000E+08
 
   -0.49991E+08         0.44291E+04         0.00000E+00
    0.44291E+04        -0.49999E+08         0.00000E+00
    0.00000E+00         0.00000E+00        -0.50000E+08
 
   -0.49991E+08         0.46338E+04         0.00000E+00
    0.46338E+04        -0.49999E+08         0.00000E+00
    0.00000E+00         0.00000E+00        -0.50000E+08
 
   -0.49991E+08         0.48346E+04         0.00000E+00
    0.48346E+04        -0.49999E+08         0.00000E+00
    0.00000E+00         0.00000E+00        -0.50000E+08
 
   -0.49992E+08         0.50311E+04         0.00000E+00
    0.50311E+04        -0.49999E+08         0.00000E+00
    0.00000E+00         0.00000E+00        -0.50000E+08
 
   -0.49992E+08         0.52232E+04         0.00000E+00
    0.52232E+04        -0.49998E+08         0.00000E+00
    0.00000E+00         0.00000E+00        -0.50000E+08
 
   -0.49992E+08         0.54106E+04         0.00000E+00
    0.54106E+04        -0.49998E+08         0.00000E+00
    0.00000E+00         0.00000E+00        -0.50000E+08
 
   -0.49992E+08         0.55931E+04         0.00000E+00
    0.55931E+04        -0.49998E+08         0.00000E+00
    0.00000E+00         0.00000E+00        -0.50000E+08
 
   -0.49992E+08         0.57705E+04         0.00000E+00
    0.57705E+04        -0.49998E+08         0.00000E+00
    0.00000E+00         0.00000E+00        -0.50000E+08
 
   -0.49993E+08         0.59426E+04         0.00000E+00
    0.59426E+04        -0.49998E+08         0.00000E+00
    0.00000E+00         0.00000E+00        -0.50000E+08
 
   -0.49993E+08         0.61092E+04         0.00000E+00
    0.61092E+04        -0.49998E+08         0.00000E+00
    0.00000E+00         0.00000E+00        -0.50000E+08
 
   -0.49993E+08         0.62699E+04         0.00000E+00
    0.62699E+04        -0.49998E+08         0.00000E+00
    0.00000E+00         0.00000E+00        -0.50000E+08
 
   -0.49993E+08         0.64248E+04         0.00000E+00
    0.64248E+04        -0.49997E+08         0.00000E+00
    0.00000E+00         0.00000E+00        -0.50000E+08
 
   -0.49994E+08         0.65735E+04         0.00000E+00
    0.65735E+04        -0.49997E+08         0.00000E+00
    0.00000E+00         0.00000E+00        -0.50000E+08
 
   -0.49994E+08         0.67158E+04         0.00000E+00
    0.67158E+04        -0.49997E+08         0.00000E+00
    0.00000E+00         0.00000E+00        -0.50000E+08
 
   -0.49994E+08         0.68516E+04         0.00000E+00
    0.68516E+04        -0.49997E+08         0.00000E+00
    0.00000E+00         0.00000E+00        -0.50000E+08
 
   -0.49995E+08         0.69807E+04         0.00000E+00
    0.69807E+04        -0.49997E+08         0.00000E+00
    0.00000E+00         0.00000E+00        -0.50000E+08
 
   -0.49995E+08         0.71028E+04         0.00000E+00
    0.71028E+04        -0.49997E+08         0.00000E+00
    0.00000E+00         0.00000E+00        -0.50000E+08
 
   -0.49995E+08         0.72179E+04         0.00000E+00
    0.72179E+04        -0.49997E+08         0.00000E+00
    0.00000E+00         0.00000E+00        -0.50000E+08
 
   -0.49996E+08         0.73258E+04         0.00000E+00
    0.73258E+04        -0.49996E+08         0.00000E+00
    0.00000E+00         0.00000E+00        -0.50000E+08
 
   -0.49996E+08         0.74263E+04         0.00000E+00
    0.74263E+04        -0.49996E+08         0.00000E+00
    0.00000E+00         0.00000E+00        -0.50000E+08
 
   -0.49996E+08         0.75192E+04         0.00000E+00
    0.75192E+04        -0.49996E+08         0.00000E+00
    0.00000E+00         0.00000E+00        -0.50000E+08
 
   -0.49997E+08         0.76044E+04         0.00000E+00
    0.76044E+04        -0.49996E+08         0.00000E+00
    0.00000E+00         0.00000E+00        -0.50000E+08
 
   -0.49997E+08         0.76818E+04         0.00000E+00
    0.76818E+04        -0.49996E+08         0.00000E+00
    0.00000E+00         0.00000E+00        -0.50000E+08
 
   -0.49997E+08         0.77512E+04         0.00000E+00
    0.77512E+04        -0.49995E+08         0.00000E+00
    0.00000E+00         0.00000E+00        -0.50000E+08
 
   -0.49998E+08         0.78124E+04         0.00000E+00
    0.78124E+04        -0.49995E+08         0.00000E+00
    0.00000E+00         0.00000E+00        -0.50000E+08
 
   -0.49998E+08         0.78654E+04         0.00000E+00
    0.78654E+04        -0.49995E+08         0.00000E+00
    0.00000E+00         0.00000E+00        -0.50000E+08
 
   -0.49998E+08         0.79101E+04         0.00000E+00
    0.79101E+04        -0.49995E+08         0.00000E+00
    0.00000E+00         0.00000E+00        -0.50000E+08
 
   -0.49999E+08         0.79463E+04         0.00000E+00
    0.79463E+04        -0.49995E+08         0.00000E+00
    0.00000E+00         0.00000E+00        -0.50000E+08
 
   -0.49999E+08         0.79739E+04         0.00000E+00
    0.79739E+04        -0.49994E+08         0.00000E+00
    0.00000E+00         0.00000E+00        -0.50000E+08
 
   -0.49999E+08         0.79928E+04         0.00000E+00
    0.79928E+04        -0.49994E+08         0.00000E+00
    0.00000E+00         0.00000E+00        -0.50000E+08
 
   -0.50000E+08         0.80030E+04         0.00000E+00
    0.80030E+04        -0.49994E+08         0.00000E+00
    0.00000E+00         0.00000E+00        -0.50000E+08
 
   -0.49989E+08         0.12934E+03         0.00000E+00
    0.12934E+03        -0.50000E+08         0.00000E+00
    0.00000E+00         0.00000E+00        -0.50000E+08
 
   -0.49989E+08         0.39170E+03         0.00000E+00
    0.39170E+03        -0.50000E+08         0.00000E+00
    0.00000E+00         0.00000E+00        -0.50000E+08
 
   -0.49989E+08         0.65502E+03         0.00000E+00
    0.65502E+03        -0.50000E+08         0.00000E+00
    0.00000E+00         0.00000E+00        -0.50000E+08
 
   -0.49989E+08         0.91900E+03         0.00000E+00
    0.91900E+03        -0.50000E+08         0.00000E+00
    0.00000E+00         0.00000E+00        -0.50000E+08
 
   -0.49989E+08         0.11833E+04         0.00000E+00
    0.11833E+04        -0.50000E+08         0.00000E+00
    0.00000E+00         0.00000E+00        -0.50000E+08
 
   -0.49989E+08         0.14478E+04         0.00000E+00
    0.14478E+04        -0.50000E+08         0.00000E+00
    0.00000E+00         0.00000E+00        -0.50000E+08
 
   -0.49989E+08         0.17120E+04         0.00000E+00
    0.17120E+04        -0.50000E+08         0.00000E+00
    0.00000E+00         0.00000E+00        -0.50000E+08
 
   -0.49989E+08         0.19756E+04         0.00000E+00
    0.19756E+04        -0.50000E+08         0.00000E+00
    0.00000E+00         0.00000E+00        -0.50000E+08
 
   -0.49989E+08         0.22385E+04         0.00000E+00
    0.22385E+04        -0.50000E+08         0.00000E+00
    0.00000E+00         0.00000E+00        -0.50000E+08
 
   -0.49989E+08         0.25003E+04         0.00000E+00
    0.25003E+04        -0.50000E+08         0.00000E+00
    0.00000E+00         0.00000E+00        -0.50000E+08
 
   -0.49989E+08         0.27607E+04         0.00000E+00
    0.27607E+04        -0.50000E+08         0.00000E+00
    0.00000E+00         0.00000E+00        -0.50000E+08
 
   -0.49989E+08         0.30193E+04         0.00000E+00
    0.30193E+04        -0.50000E+08         0.00000E+00
    0.00000E+00         0.00000E+00        -0.50000E+08
 
   -0.49989E+08         0.32760E+04         0.00000E+00
    0.32760E+04        -0.50000E+08         0.00000E+00
    0.00000E+00         0.00000E+00        -0.50000E+08
 
   -0.49989E+08         0.35305E+04         0.00000E+00
    0.35305E+04        -0.49999E+08         0.00000E+00
    0.00000E+00         0.00000E+00        -0.50000E+08
 
   -0.49989E+08         0.37824E+04         0.00000E+00
    0.37824E+04        -0.49999E+08         0.00000E+00
    0.00000E+00         0.00000E+00        -0.50000E+08
 
   -0.49989E+08         0.40314E+04         0.00000E+00
    0.40314E+04        -0.49999E+08         0.00000E+00
    0.00000E+00         0.00000E+00        -0.50000E+08
 
   -0.49990E+08         0.42774E+04         0.00000E+00
    0.42774E+04        -0.49999E+08         0.00000E+00
    0.00000E+00         0.00000E+00        -0.50000E+08
 
   -0.49990E+08         0.45199E+04         0.00000E+00
    0.45199E+04        -0.49999E+08         0.00000E+00
    0.00000E+00         0.00000E+00        -0.50000E+08
 
   -0.49990E+08         0.47588E+04         0.00000E+00
    0.47588E+04        -0.49999E+08         0.00000E+00
    0.00000E+00         0.00000E+00        -0.50000E+08
 
   -0.49990E+08         0.49937E+04         0.00000E+00
    0.49937E+04        -0.49999E+08         0.00000E+00
    0.00000E+00         0.00000E+00        -0.50000E+08
 
   -0.49990E+08         0.52244E+04         0.00000E+00
    0.52244E+04        -0.49999E+08         0.00000E+00
    0.00000E+00         0.00000E+00        -0.50000E+08
 
   -0.49990E+08         0.54506E+04         0.00000E+00
    0.54506E+04        -0.49999E+08         0.00000E+00
    0.00000E+00         0.00000E+00        -0.50000E+08
 
   -0.49991E+08         0.56721E+04         0.00000E+00
    0.56721E+04        -0.49998E+08         0.00000E+00
    0.00000E+00         0.00000E+00        -0.50000E+08
 
   -0.49991E+08         0.58885E+04         0.00000E+00
    0.58885E+04        -0.49998E+08         0.00000E+00
    0.00000E+00         0.00000E+00        -0.50000E+08
 
   -0.49991E+08         0.60997E+04         0.00000E+00
    0.60997E+04        -0.49998E+08         0.00000E+00
    0.00000E+00         0.00000E+00        -0.50000E+08
 
   -0.49991E+08         0.63054E+04         0.00000E+00
    0.63054E+04        -0.49998E+08         0.00000E+00
    0.00000E+00         0.00000E+00        -0.50000E+08
 
   -0.49992E+08         0.65053E+04         0.00000E+00
    0.65053E+04        -0.49998E+08         0.00000E+00
    0.00000E+00         0.00000E+00        -0.50000E+08
 
   -0.49992E+08         0.66992E+04         0.00000E+00
    0.66992E+04        -0.49998E+08         0.00000E+00
    0.00000E+00         0.00000E+00        -0.50000E+08
 
   -0.49992E+08         0.68868E+04         0.00000E+00
    0.68868E+04        -0.49998E+08         0.00000E+00
    0.00000E+00         0.00000E+00        -0.50000E+08
 
   -0.49992E+08         0.70680E+04         0.00000E+00
    0.70680E+04        -0.49997E+08         0.00000E+00
    0.00000E+00         0.00000E+00        -0.50000E+08
 
   -0.49993E+08         0.72424E+04         0.00000E+00
    0.72424E+04        -0.49997E+08         0.00000E+00
    0.00000E+00         0.00000E+00        -0.50000E+08
 
   -0.49993E+08         0.74099E+04         0.00000E+00
    0.74099E+04        -0.49997E+08         0.00000E+00
    0.00000E+00         0.00000E+00        -0.50000E+08
 
   -0.49993E+08         0.75703E+04         0.00000E+00
    0.75703E+04        -0.49997E+08         0.00000E+00
    0.00000E+00         0.00000E+00        -0.50000E+08
 
   -0.49994E+08         0.77233E+04         0.00000E+00
    0.77233E+04        -0.49997E+08         0.00000E+00
    0.00000E+00         0.00000E+00        -0.50000E+08
 
   -0.49994E+08         0.78687E+04         0.00000E+00
    0.78687E+04        -0.49996E+08         0.00000E+00
    0.00000E+00         0.00000E+00        -0.50000E+08
 
   -0.49994E+08         0.80064E+04         0.00000E+00
    0.80064E+04        -0.49996E+08         0.00000E+00
    0.00000E+00         0.00000E+00        -0.50000E+08
 
   -0.49995E+08         0.81361E+04         0.00000E+00
    0.81361E+04        -0.49996E+08         0.00000E+00
    0.00000E+00         0.00000E+00        -0.50000E+08
 
   -0.49995E+08         0.82577E+04         0.00000E+00
    0.82577E+04        -0.49996E+08         0.00000E+00
    0.00000E+00         0.00000E+00        -0.50000E+08
 
   -0.49995E+08         0.83709E+04         0.00000E+00
    0.83709E+04        -0.49996E+08         0.00000E+00
    0.00000E+00         0.00000E+00        -0.50000E+08
 
   -0.49996E+08         0.84756E+04         0.00000E+00
    0.84756E+04        -0.49995E+08         0.00000E+00
    0.00000E+00         0.00000E+00        -0.50000E+08
 
   -0.49996E+08         0.85716E+04         0.00000E+00
    0.85716E+04        -0.49995E+08         0.00000E+00
    0.00000E+00         0.00000E+00        -0.50000E+08
 
   -0.49996E+08         0.86588E+04         0.00000E+00
    0.86588E+04        -0.49995E+08         0.00000E+00
    0.00000E+00         0.00000E+00        -0.50000E+08
 
   -0.49997E+08         0.87371E+04         0.00000E+00
    0.87371E+04        -0.49995E+08         0.00000E+00
    0.00000E+00         0.00000E+00        -0.50000E+08
 
   -0.49997E+08         0.88061E+04         0.00000E+00
    0.88061E+04        -0.49995E+08         0.00000E+00
    0.00000E+00         0.00000E+00        -0.50000E+08
 
   -0.49998E+08         0.88659E+04         0.00000E+00
    0.88659E+04        -0.49994E+08         0.00000E+00
    0.00000E+00         0.00000E+00        -0.50000E+08
 
   -0.49998E+08         0.89163E+04         0.00000E+00
    0.89163E+04        -0.49994E+08         0.00000E+00
    0.00000E+00         0.00000E+00        -0.50000E+08
 
   -0.49998E+08         0.89572E+04         0.00000E+00
    0.89572E+04        -0.49994E+08         0.00000E+00
    0.00000E+00         0.00000E+00        -0.50000E+08
 
   -0.49999E+08         0.89884E+04         0.00000E+00
    0.89884E+04        -0.49994E+08         0.00000E+00
    0.00000E+00         0.00000E+00        -0.50000E+08
 
   -0.49999E+08         0.90098E+04         0.00000E+00
    0.90098E+04        -0.49994E+08         0.00000E+00
    0.00000E+00         0.00000E+00        -0.50000E+08
 
   -0.50000E+08         0.90214E+04         0.00000E+00
    0.90214E+04        -0.49993E+08         0.00000E+00
    0.00000E+00         0.00000E+00        -0.50000E+08
 
   -0.49987E+08         0.14587E+03         0.00000E+00
    0.14587E+03        -0.50000E+08         0.00000E+00
    0.00000E+00         0.00000E+00        -0.50000E+08
 
   -0.49987E+08         0.44171E+03         0.00000E+00
    0.44171E+03        -0.50000E+08         0.00000E+00
    0.00000E+00         0.00000E+00        -0.50000E+08
 
   -0.49987E+08         0.73860E+03         0.00000E+00
    0.73860E+03        -0.50000E+08         0.00000E+00
    0.00000E+00         0.00000E+00        -0.50000E+08
 
   -0.49987E+08         0.10362E+04         0.00000E+00
    0.10362E+04        -0.50000E+08         0.00000E+00
    0.00000E+00         0.00000E+00        -0.50000E+08
 
   -0.49987E+08         0.13342E+04         0.00000E+00
    0.13342E+04        -0.50000E+08         0.00000E+00
    0.00000E+00         0.00000E+00        -0.50000E+08
 
   -0.49987E+08         0.16323E+04         0.00000E+00
    0.16323E+04        -0.50000E+08         0.00000E+00
    0.00000E+00         0.00000E+00        -0.50000E+08
 
   -0.49987E+08         0.19301E+04         0.00000E+00
    0.19301E+04        -0.50000E+08         0.00000E+00
    0.00000E+00         0.00000E+00        -0.50000E+08
 
   -0.49987E+08         0.22273E+04         0.00000E+00
    0.22273E+04        -0.50000E+08         0.00000E+00
    0.00000E+00         0.00000E+00        -0.50000E+08
 
   -0.49987E+08         0.25236E+04         0.00000E+00
    0.25236E+04        -0.50000E+08         0.00000E+00
    0.00000E+00         0.00000E+00        -0.50000E+08
 
   -0.49987E+08         0.28186E+04         0.00000E+00
    0.28186E+04        -0.50000E+08         0.00000E+00
    0.00000E+00         0.00000E+00        -0.50000E+08
 
   -0.49988E+08         0.31120E+04         0.00000E+00
    0.31120E+04        -0.50000E+08         0.00000E+00
    0.00000E+00         0.00000E+00        -0.50000E+08
 
   -0.49988E+08         0.34035E+04         0.00000E+00
    0.34035E+04        -0.50000E+08         0.00000E+00
    0.00000E+00         0.00000E+00        -0.50000E+08
 
   -0.49988E+08         0.36928E+04         0.00000E+00
    0.36928E+04        -0.49999E+08         0.00000E+00
    0.00000E+00         0.00000E+00        -0.50000E+08
 
   -0.49988E+08         0.39795E+04         0.00000E+00
    0.39795E+04        -0.49999E+08         0.00000E+00
    0.00000E+00         0.00000E+00        -0.50000E+08
 
   -0.49988E+08         0.42633E+04         0.00000E+00
    0.42633E+04        -0.49999E+08         0.00000E+00
    0.00000E+00         0.00000E+00        -0.50000E+08
 
   -0.49988E+08         0.45439E+04         0.00000E+00
    0.45439E+04        -0.49999E+08         0.00000E+00
    0.00000E+00         0.00000E+00        -0.50000E+08
 
   -0.49988E+08         0.48210E+04         0.00000E+00
    0.48210E+04        -0.49999E+08         0.00000E+00
    0.00000E+00         0.00000E+00        -0.50000E+08
 
   -0.49988E+08         0.50942E+04         0.00000E+00
    0.50942E+04        -0.49999E+08         0.00000E+00
    0.00000E+00         0.00000E+00        -0.50000E+08
 
   -0.49989E+08         0.53633E+04         0.00000E+00
    0.53633E+04        -0.49999E+08         0.00000E+00
    0.00000E+00         0.00000E+00        -0.50000E+08
 
   -0.49989E+08         0.56280E+04         0.00000E+00
    0.56280E+04        -0.49999E+08         0.00000E+00
    0.00000E+00         0.00000E+00        -0.50000E+08
 
   -0.49989E+08         0.58878E+04         0.00000E+00
    0.58878E+04        -0.49999E+08         0.00000E+00
    0.00000E+00         0.00000E+00        -0.50000E+08
 
   -0.49989E+08         0.61426E+04         0.00000E+00
    0.61426E+04        -0.49998E+08         0.00000E+00
    0.00000E+00         0.00000E+00        -0.50000E+08
 
   -0.49989E+08         0.63921E+04         0.00000E+00
    0.63921E+04        -0.49998E+08         0.00000E+00
    0.00000E+00         0.00000E+00        -0.50000E+08
 
   -0.49990E+08         0.66359E+04         0.00000E+00
    0.66359E+04        -0.49998E+08         0.00000E+00
    0.00000E+00         0.00000E+00        -0.50000E+08
 
   -0.49990E+08         0.68737E+04         0.00000E+00
    0.68737E+04        -0.49998E+08         0.00000E+00
    0.00000E+00         0.00000E+00        -0.50000E+08
 
   -0.49990E+08         0.71054E+04         0.00000E+00
    0.71054E+04        -0.49998E+08         0.00000E+00
    0.00000E+00         0.00000E+00        -0.50000E+08
 
   -0.49991E+08         0.73305E+04         0.00000E+00
    0.73305E+04        -0.49998E+08         0.00000E+00
    0.00000E+00         0.00000E+00        -0.50000E+08
 
   -0.49991E+08         0.75489E+04         0.00000E+00
    0.75489E+04        -0.49997E+08         0.00000E+00
    0.00000E+00         0.00000E+00        -0.50000E+08
 
   -0.49991E+08         0.77602E+04         0.00000E+00
    0.77602E+04        -0.49997E+08         0.00000E+00
    0.00000E+00         0.00000E+00        -0.50000E+08
 
   -0.49991E+08         0.79642E+04         0.00000E+00
    0.79642E+04        -0.49997E+08         0.00000E+00
    0.00000E+00         0.00000E+00        -0.50000E+08
 
   -0.49992E+08         0.81607E+04         0.00000E+00
    0.81607E+04        -0.49997E+08         0.00000E+00
    0.00000E+00         0.00000E+00        -0.50000E+08
 
   -0.49992E+08         0.83494E+04         0.00000E+00
    0.83494E+04        -0.49997E+08         0.00000E+00
    0.00000E+00         0.00000E+00        -0.50000E+08
 
   -0.49992E+08         0.85300E+04         0.00000E+00
    0.85300E+04        -0.49996E+08         0.00000E+00
    0.00000E+00         0.00000E+00        -0.50000E+08
 
   -0.49993E+08         0.87023E+04         0.00000E+00
    0.87023E+04        -0.49996E+08         0.00000E+00
    0.00000E+00         0.00000E+00        -0.50000E+08
 
   -0.49993E+08         0.88661E+04         0.00000E+00
    0.88661E+04        -0.49996E+08         0.00000E+00
    0.00000E+00         0.00000E+00        -0.50000E+08
 
   -0.49994E+08         0.90211E+04         0.00000E+00
    0.90211E+04        -0.49996E+08         0.00000E+00
    0.00000E+00         0.00000E+00        -0.50000E+08
 
   -0.49994E+08         0.91672E+04         0.00000E+00
    0.91672E+04        -0.49996E+08         0.00000E+00
    0.00000E+00         0.00000E+00        -0.50000E+08
 
   -0.49994E+08         0.93041E+04         0.00000E+00
    0.93041E+04        -0.49995E+08         0.00000E+00
    0.00000E+00         0.00000E+00        -0.50000E+08
 
   -0.49995E+08         0.94316E+04         0.00000E+00
    0.94316E+04        -0.49995E+08         0.00000E+00
    0.00000E+00         0.00000E+00        -0.50000E+08
 
   -0.49995E+08         0.95496E+04         0.00000E+00
    0.95496E+04        -0.49995E+08         0.00000E+00
    0.00000E+00         0.00000E+00        -0.50000E+08
 
   -0.49996E+08         0.96578E+04         0.00000E+00
    0.96578E+04        -0.49995E+08         0.00000E+00
    0.00000E+00         0.00000E+00        -0.50000E+08
 
   -0.49996E+08         0.97560E+04         0.00000E+00
    0.97560E+04        -0.49994E+08         0.00000E+00
    0.00000E+00         0.00000E+00        -0.50000E+08
 
   -0.49996E+08         0.98442E+04         0.00000E+00
    0.98442E+04        -0.49994E+08         0.00000E+00
    0.00000E+00         0.00000E+00        -0.50000E+08
 
   -0.49997E+08         0.99220E+04         0.00000E+00
    0.99220E+04        -0.49994E+08         0.00000E+00
    0.00000E+00         0.00000E+00        -0.50000E+08
 
   -0.49997E+08         0.99894E+04         0.00000E+00
    0.99894E+04        -0.49994E+08         0.00000E+00
    0.00000E+00         0.00000E+00        -0.50000E+08
 
   -0.49998E+08         0.10046E+05         0.00000E+00
    0.10046E+05        -0.49994E+08         0.00000E+00
    0.00000E+00         0.00000E+00        -0.50000E+08
 
   -0.49998E+08         0.10092E+05         0.00000E+00
    0.10092E+05        -0.49993E+08         0.00000E+00
    0.00000E+00         0.00000E+00        -0.50000E+08
 
   -0.49999E+08         0.10128E+05         0.00000E+00
    0.10128E+05        -0.49993E+08         0.00000E+00
    0.00000E+00         0.00000E+00        -0.50000E+08
 
   -0.49999E+08         0.10152E+05         0.00000E+00
    0.10152E+05        -0.49993E+08         0.00000E+00
    0.00000E+00         0.00000E+00        -0.50000E+08
 
   -0.50000E+08         0.10165E+05         0.00000E+00
    0.10165E+05        -0.49993E+08         0.00000E+00
    0.00000E+00         0.00000E+00        -0.50000E+08
 
   -0.49986E+08         0.16447E+03         0.00000E+00
    0.16447E+03        -0.50000E+08         0.00000E+00
    0.00000E+00         0.00000E+00        -0.50000E+08
 
   -0.49986E+08         0.49795E+03         0.00000E+00
    0.49795E+03        -0.50000E+08         0.00000E+00
    0.00000E+00         0.00000E+00        -0.50000E+08
 
   -0.49986E+08         0.83260E+03         0.00000E+00
    0.83260E+03        -0.50000E+08         0.00000E+00
    0.00000E+00         0.00000E+00        -0.50000E+08
 
   -0.49986E+08         0.11680E+04         0.00000E+00
    0.11680E+04        -0.50000E+08         0.00000E+00
    0.00000E+00         0.00000E+00        -0.50000E+08
 
   -0.49986E+08         0.15039E+04         0.00000E+00
    0.15039E+04        -0.50000E+08         0.00000E+00
    0.00000E+00         0.00000E+00        -0.50000E+08
 
   -0.49986E+08         0.18398E+04         0.00000E+00
    0.18398E+04        -0.50000E+08         0.00000E+00
    0.00000E+00         0.00000E+00        -0.50000E+08
 
   -0.49986E+08         0.21754E+04         0.00000E+00
    0.21754E+04        -0.50000E+08         0.00000E+00
    0.00000E+00         0.00000E+00        -0.50000E+08
 
   -0.49986E+08         0.25103E+04         0.00000E+00
    0.25103E+04        -0.50000E+08         0.00000E+00
    0.00000E+00         0.00000E+00        -0.50000E+08
 
   -0.49986E+08         0.28441E+04         0.00000E+00
    0.28441E+04        -0.50000E+08         0.00000E+00
    0.00000E+00         0.00000E+00        -0.50000E+08
 
   -0.49986E+08         0.31765E+04         0.00000E+00
    0.31765E+04        -0.50000E+08         0.00000E+00
    0.00000E+00         0.00000E+00        -0.50000E+08
 
   -0.49986E+08         0.35070E+04         0.00000E+00
    0.35070E+04        -0.50000E+08         0.00000E+00
    0.00000E+00         0.00000E+00        -0.50000E+08
 
   -0.49986E+08         0.38354E+04         0.00000E+00
    0.38354E+04        -0.49999E+08         0.00000E+00
    0.00000E+00         0.00000E+00        -0.50000E+08
 
   -0.49986E+08         0.41612E+04         0.00000E+00
    0.41612E+04        -0.49999E+08         0.00000E+00
    0.00000E+00         0.00000E+00        -0.50000E+08
 
   -0.49986E+08         0.44842E+04         0.00000E+00
    0.44842E+04        -0.49999E+08         0.00000E+00
    0.00000E+00         0.00000E+00        -0.50000E+08
 
   -0.49986E+08         0.48038E+04         0.00000E+00
    0.48038E+04        -0.49999E+08         0.00000E+00
    0.00000E+00         0.00000E+00        -0.50000E+08
 
   -0.49987E+08         0.51199E+04         0.00000E+00
    0.51199E+04        -0.49999E+08         0.00000E+00
    0.00000E+00         0.00000E+00        -0.50000E+08
 
   -0.49987E+08         0.54319E+04         0.00000E+00
    0.54319E+04        -0.49999E+08         0.00000E+00
    0.00000E+00         0.00000E+00        -0.50000E+08
 
   -0.49987E+08         0.57396E+04         0.00000E+00
    0.57396E+04        -0.49999E+08         0.00000E+00
    0.00000E+00         0.00000E+00        -0.50000E+08
 
   -0.49987E+08         0.60427E+04         0.00000E+00
    0.60427E+04        -0.49999E+08         0.00000E+00
    0.00000E+00         0.00000E+00        -0.50000E+08
 
   -0.49987E+08         0.63406E+04         0.00000E+00
    0.63406E+04        -0.49998E+08         0.00000E+00
    0.00000E+00         0.00000E+00        -0.50000E+08
 
   -0.49988E+08         0.66333E+04         0.00000E+00
    0.66333E+04        -0.49998E+08         0.00000E+00
    0.00000E+00         0.00000E+00        -0.50000E+08
 
   -0.49988E+08         0.69202E+04         0.00000E+00
    0.69202E+04        -0.49998E+08         0.00000E+00
    0.00000E+00         0.00000E+00        -0.50000E+08
 
   -0.49988E+08         0.72010E+04         0.00000E+00
    0.72010E+04        -0.49998E+08         0.00000E+00
    0.00000E+00         0.00000E+00        -0.50000E+08
 
   -0.49988E+08         0.74755E+04         0.00000E+00
    0.74755E+04        -0.49998E+08         0.00000E+00
    0.00000E+00         0.00000E+00        -0.50000E+08
 
   -0.49989E+08         0.77433E+04         0.00000E+00
    0.77433E+04        -0.49998E+08         0.00000E+00
    0.00000E+00         0.00000E+00        -0.50000E+08
 
   -0.49989E+08         0.80041E+04         0.00000E+00
    0.80041E+04        -0.49997E+08         0.00000E+00
    0.00000E+00         0.00000E+00        -0.50000E+08
 
   -0.49989E+08         0.82576E+04         0.00000E+00
    0.82576E+04        -0.49997E+08         0.00000E+00
    0.00000E+00         0.00000E+00        -0.50000E+08
 
   -0.49990E+08         0.85034E+04         0.00000E+00
    0.85034E+04        -0.49997E+08         0.00000E+00
    0.00000E+00         0.00000E+00        -0.50000E+08
 
   -0.49990E+08         0.87413E+04         0.00000E+00
    0.87413E+04        -0.49997E+08         0.00000E+00
    0.00000E+00         0.00000E+00        -0.50000E+08
 
   -0.49990E+08         0.89710E+04         0.00000E+00
    0.89710E+04        -0.49997E+08         0.00000E+00
    0.00000E+00         0.00000E+00        -0.50000E+08
 
   -0.49991E+08         0.91922E+04         0.00000E+00
    0.91922E+04        -0.49996E+08         0.00000E+00
    0.00000E+00         0.00000E+00        -0.50000E+08
 
   -0.49991E+08         0.94045E+04         0.00000E+00
    0.94045E+04        -0.49996E+08         0.00000E+00
    0.00000E+00         0.00000E+00        -0.50000E+08
 
   -0.49992E+08         0.96079E+04         0.00000E+00
    0.96079E+04        -0.49996E+08         0.00000E+00
    0.00000E+00         0.00000E+00        -0.50000E+08
 
   -0.49992E+08         0.98019E+04         0.00000E+00
    0.98019E+04        -0.49996E+08         0.00000E+00
    0.00000E+00         0.00000E+00        -0.50000E+08
 
   -0.49992E+08         0.99862E+04         0.00000E+00
    0.99862E+04        -0.49996E+08         0.00000E+00
    0.00000E+00         0.00000E+00        -0.50000E+08
 
   -0.49993E+08         0.10161E+05         0.00000E+00
    0.10161E+05        -0.49995E+08         0.00000E+00
    0.00000E+00         0.00000E+00        -0.50000E+08
 
   -0.49993E+08         0.10325E+05         0.00000E+00
    0.10325E+05        -0.49995E+08         0.00000E+00
    0.00000E+00         0.00000E+00        -0.50000E+08
 
   -0.49994E+08         0.10479E+05         0.00000E+00
    0.10479E+05        -0.49995E+08         0.00000E+00
    0.00000E+00         0.00000E+00        -0.50000E+08
 
   -0.49994E+08         0.10623E+05         0.00000E+00
    0.10623E+05        -0.49995E+08         0.00000E+00
    0.00000E+00         0.00000E+00        -0.50000E+08
 
   -0.49995E+08         0.10756E+05         0.00000E+00
    0.10756E+05        -0.49994E+08         0.00000E+00
    0.00000E+00         0.00000E+00        -0.50000E+08
 
   -0.49995E+08         0.10878E+05         0.00000E+00
    0.10878E+05        -0.49994E+08         0.00000E+00
    0.00000E+00         0.00000E+00        -0.50000E+08
 
   -0.49996E+08         0.10988E+05         0.00000E+00
    0.10988E+05        -0.49994E+08         0.00000E+00
    0.00000E+00         0.00000E+00        -0.50000E+08
 
   -0.49996E+08         0.11088E+05         0.00000E+00
    0.11088E+05        -0.49994E+08         0.00000E+00
    0.00000E+00         0.00000E+00        -0.50000E+08
 
   -0.49997E+08         0.11175E+05         0.00000E+00
    0.11175E+05        -0.49993E+08         0.00000E+00
    0.00000E+00         0.00000E+00        -0.50000E+08
 
   -0.49997E+08         0.11251E+05         0.00000E+00
    0.11251E+05        -0.49993E+08         0.00000E+00
    0.00000E+00         0.00000E+00        -0.50000E+08
 
   -0.49998E+08         0.11315E+05         0.00000E+00
    0.11315E+05        -0.49993E+08         0.00000E+00
    0.00000E+00         0.00000E+00        -0.50000E+08
 
   -0.49998E+08         0.11367E+05         0.00000E+00
    0.11367E+05        -0.49992E+08         0.00000E+00
    0.00000E+00         0.00000E+00        -0.50000E+08
 
   -0.49999E+08         0.11407E+05         0.00000E+00
    0.11407E+05        -0.49992E+08         0.00000E+00
    0.00000E+00         0.00000E+00        -0.50000E+08
 
   -0.49999E+08         0.11435E+05         0.00000E+00
    0.11435E+05        -0.49992E+08         0.00000E+00
    0.00000E+00         0.00000E+00        -0.50000E+08
 
   -0.50000E+08         0.11450E+05         0.00000E+00
    0.11450E+05        -0.49992E+08         0.00000E+00
    0.00000E+00         0.00000E+00        -0.50000E+08
 
   -0.49984E+08         0.18539E+03         0.00000E+00
    0.18539E+03        -0.50000E+08         0.00000E+00
    0.00000E+00         0.00000E+00        -0.50000E+08
 
   -0.49984E+08         0.56122E+03         0.00000E+00
    0.56122E+03        -0.50000E+08         0.00000E+00
    0.00000E+00         0.00000E+00        -0.50000E+08
 
   -0.49984E+08         0.93833E+03         0.00000E+00
    0.93833E+03        -0.50000E+08         0.00000E+00
    0.00000E+00         0.00000E+00        -0.50000E+08
 
   -0.49984E+08         0.13163E+04         0.00000E+00
    0.13163E+04        -0.50000E+08         0.00000E+00
    0.00000E+00         0.00000E+00        -0.50000E+08
 
   -0.49984E+08         0.16947E+04         0.00000E+00
    0.16947E+04        -0.50000E+08         0.00000E+00
    0.00000E+00         0.00000E+00        -0.50000E+08
 
   -0.49984E+08         0.20732E+04         0.00000E+00
    0.20732E+04        -0.50000E+08         0.00000E+00
    0.00000E+00         0.00000E+00        -0.50000E+08
 
   -0.49984E+08         0.24512E+04         0.00000E+00
    0.24512E+04        -0.50000E+08         0.00000E+00
    0.00000E+00         0.00000E+00        -0.50000E+08
 
   -0.49984E+08         0.28284E+04         0.00000E+00
    0.28284E+04        -0.50000E+08         0.00000E+00
    0.00000E+00         0.00000E+00        -0.50000E+08
 
   -0.49984E+08         0.32044E+04         0.00000E+00
    0.32044E+04        -0.50000E+08         0.00000E+00
    0.00000E+00         0.00000E+00        -0.50000E+08
 
   -0.49984E+08         0.35788E+04         0.00000E+00
    0.35788E+04        -0.50000E+08         0.00000E+00
    0.00000E+00         0.00000E+00        -0.50000E+08
 
   -0.49984E+08         0.39511E+04         0.00000E+00
    0.39511E+04        -0.50000E+08         0.00000E+00
    0.00000E+00         0.00000E+00        -0.50000E+08
 
   -0.49984E+08         0.43209E+04         0.00000E+00
    0.43209E+04        -0.49999E+08         0.00000E+00
    0.00000E+00         0.00000E+00        -0.50000E+08
 
   -0.49984E+08         0.46878E+04         0.00000E+00
    0.46878E+04        -0.49999E+08         0.00000E+00
    0.00000E+00         0.00000E+00        -0.50000E+08
 
   -0.49985E+08         0.50515E+04         0.00000E+00
    0.50515E+04        -0.49999E+08         0.00000E+00
    0.00000E+00         0.00000E+00        -0.50000E+08
 
   -0.49985E+08         0.54114E+04         0.00000E+00
    0.54114E+04        -0.49999E+08         0.00000E+00
    0.00000E+00         0.00000E+00        -0.50000E+08
 
   -0.49985E+08         0.57672E+04         0.00000E+00
    0.57672E+04        -0.49999E+08         0.00000E+00
    0.00000E+00         0.00000E+00        -0.50000E+08
 
   -0.49985E+08         0.61186E+04         0.00000E+00
    0.61186E+04        -0.49999E+08         0.00000E+00
    0.00000E+00         0.00000E+00        -0.50000E+08
 
   -0.49985E+08         0.64650E+04         0.00000E+00
    0.64650E+04        -0.49999E+08         0.00000E+00
    0.00000E+00         0.00000E+00        -0.50000E+08
 
   -0.49986E+08         0.68061E+04         0.00000E+00
    0.68061E+04        -0.49998E+08         0.00000E+00
    0.00000E+00         0.00000E+00        -0.50000E+08
 
   -0.49986E+08         0.71415E+04         0.00000E+00
    0.71415E+04        -0.49998E+08         0.00000E+00
    0.00000E+00         0.00000E+00        -0.50000E+08
 
   -0.49986E+08         0.74709E+04         0.00000E+00
    0.74709E+04        -0.49998E+08         0.00000E+00
    0.00000E+00         0.00000E+00        -0.50000E+08
 
   -0.49986E+08         0.77939E+04         0.00000E+00
    0.77939E+04        -0.49998E+08         0.00000E+00
    0.00000E+00         0.00000E+00        -0.50000E+08
 
   -0.49987E+08         0.81100E+04         0.00000E+00
    0.81100E+04        -0.49998E+08         0.00000E+00
    0.00000E+00         0.00000E+00        -0.50000E+08
 
   -0.49987E+08         0.84189E+04         0.00000E+00
    0.84189E+04        -0.49998E+08         0.00000E+00
    0.00000E+00         0.00000E+00        -0.50000E+08
 
   -0.49987E+08         0.87204E+04         0.00000E+00
    0.87204E+04        -0.49997E+08         0.00000E+00
    0.00000E+00         0.00000E+00        -0.50000E+08
 
   -0.49988E+08         0.90139E+04         0.00000E+00
    0.90139E+04        -0.49997E+08         0.00000E+00
    0.00000E+00         0.00000E+00        -0.50000E+08
 
   -0.49988E+08         0.92991E+04         0.00000E+00
    0.92991E+04        -0.49997E+08         0.00000E+00
    0.00000E+00         0.00000E+00        -0.50000E+08
 
   -0.49988E+08         0.95758E+04         0.00000E+00
    0.95758E+04        -0.49997E+08         0.00000E+00
    0.00000E+00         0.00000E+00        -0.50000E+08
 
   -0.49989E+08         0.98435E+04         0.00000E+00
    0.98435E+04        -0.49996E+08         0.00000E+00
    0.00000E+00         0.00000E+00        -0.50000E+08
 
   -0.49989E+08         0.10102E+05         0.00000E+00
    0.10102E+05        -0.49996E+08         0.00000E+00
    0.00000E+00         0.00000E+00        -0.50000E+08
 
   -0.49990E+08         0.10351E+05         0.00000E+00
    0.10351E+05        -0.49996E+08         0.00000E+00
    0.00000E+00         0.00000E+00        -0.50000E+08
 
   -0.49990E+08         0.10590E+05         0.00000E+00
    0.10590E+05        -0.49996E+08         0.00000E+00
    0.00000E+00         0.00000E+00        -0.50000E+08
 
   -0.49990E+08         0.10819E+05         0.00000E+00
    0.10819E+05        -0.49996E+08         0.00000E+00
    0.00000E+00         0.00000E+00        -0.50000E+08
 
   -0.49991E+08         0.11037E+05         0.00000E+00
    0.11037E+05        -0.49995E+08         0.00000E+00
    0.00000E+00         0.00000E+00        -0.50000E+08
 
   -0.49991E+08         0.11245E+05         0.00000E+00
    0.11245E+05        -0.49995E+08         0.00000E+00
    0.00000E+00         0.00000E+00        -0.50000E+08
 
   -0.49992E+08         0.11441E+05         0.00000E+00
    0.11441E+05        -0.49995E+08         0.00000E+00
    0.00000E+00         0.00000E+00        -0.50000E+08
 
   -0.49992E+08         0.11626E+05         0.00000E+00
    0.11626E+05        -0.49994E+08         0.00000E+00
    0.00000E+00         0.00000E+00        -0.50000E+08
 
   -0.49993E+08         0.11800E+05         0.00000E+00
    0.11800E+05        -0.49994E+08         0.00000E+00
    0.00000E+00         0.00000E+00        -0.50000E+08
 
   -0.49993E+08         0.11961E+05         0.00000E+00
    0.11961E+05        -0.49994E+08         0.00000E+00
    0.00000E+00         0.00000E+00        -0.50000E+08
 
   -0.49994E+08         0.12111E+05         0.00000E+00
    0.12111E+05        -0.49994E+08         0.00000E+00
    0.00000E+00         0.00000E+00        -0.50000E+08
 
   -0.49994E+08         0.12248E+05         0.00000E+00
    0.12248E+05        -0.49993E+08         0.00000E+00
    0.00000E+00         0.00000E+00        -0.50000E+08
 
   -0.49995E+08         0.12373E+05         0.00000E+00
    0.12373E+05        -0.49993E+08         0.00000E+00
    0.00000E+00         0.00000E+00        -0.50000E+08
 
   -0.49996E+08         0.12484E+05         0.00000E+00
    0.12484E+05        -0.49993E+08         0.00000E+00
    0.00000E+00         0.00000E+00        -0.50000E+08
 
   -0.49996E+08         0.12583E+05         0.00000E+00
    0.12583E+05        -0.49992E+08         0.00000E+00
    0.00000E+00         0.00000E+00        -0.50000E+08
 
   -0.49997E+08         0.12669E+05         0.00000E+00
    0.12669E+05        -0.49992E+08         0.00000E+00
    0.00000E+00         0.00000E+00        -0.50000E+08
 
   -0.49997E+08         0.12741E+05         0.00000E+00
    0.12741E+05        -0.49992E+08         0.00000E+00
    0.00000E+00         0.00000E+00        -0.50000E+08
 
   -0.49998E+08         0.12800E+05         0.00000E+00
    0.12800E+05        -0.49992E+08         0.00000E+00
    0.00000E+00         0.00000E+00        -0.50000E+08
 
   -0.49998E+08         0.12845E+05         0.00000E+00
    0.12845E+05        -0.49991E+08         0.00000E+00
    0.00000E+00         0.00000E+00        -0.50000E+08
 
   -0.49999E+08         0.12876E+05         0.00000E+00
    0.12876E+05        -0.49991E+08         0.00000E+00
    0.00000E+00         0.00000E+00        -0.50000E+08
 
   -0.50000E+08         0.12893E+05         0.00000E+00
    0.12893E+05        -0.49991E+08         0.00000E+00
    0.00000E+00         0.00000E+00        -0.50000E+08
 
   -0.49982E+08         0.20895E+03         0.00000E+00
    0.20895E+03        -0.50000E+08         0.00000E+00
    0.00000E+00         0.00000E+00        -0.50000E+08
 
   -0.49982E+08         0.63241E+03         0.00000E+00
    0.63241E+03        -0.50000E+08         0.00000E+00
    0.00000E+00         0.00000E+00        -0.50000E+08
 
   -0.49982E+08         0.10573E+04         0.00000E+00
    0.10573E+04        -0.50000E+08         0.00000E+00
    0.00000E+00         0.00000E+00        -0.50000E+08
 
   -0.49982E+08         0.14831E+04         0.00000E+00
    0.14831E+04        -0.50000E+08         0.00000E+00
    0.00000E+00         0.00000E+00        -0.50000E+08
 
   -0.49982E+08         0.19094E+04         0.00000E+00
    0.19094E+04        -0.50000E+08         0.00000E+00
    0.00000E+00         0.00000E+00        -0.50000E+08
 
   -0.49982E+08         0.23356E+04         0.00000E+00
    0.23356E+04        -0.50000E+08         0.00000E+00
    0.00000E+00         0.00000E+00        -0.50000E+08
 
   -0.49982E+08         0.27614E+04         0.00000E+00
    0.27614E+04        -0.50000E+08         0.00000E+00
    0.00000E+00         0.00000E+00        -0.50000E+08
 
   -0.49982E+08         0.31863E+04         0.00000E+00
    0.31863E+04        -0.50000E+08         0.00000E+00
    0.00000E+00         0.00000E+00        -0.50000E+08
 
   -0.49982E+08         0.36097E+04         0.00000E+00
    0.36097E+04        -0.50000E+08         0.00000E+00
    0.00000E+00         0.00000E+00        -0.50000E+08
 
   -0.49982E+08         0.40312E+04         0.00000E+00
    0.40312E+04        -0.50000E+08         0.00000E+00
    0.00000E+00         0.00000E+00        -0.50000E+08
 
   -0.49982E+08         0.44504E+04         0.00000E+00
    0.44504E+04        -0.49999E+08         0.00000E+00
    0.00000E+00         0.00000E+00        -0.50000E+08
 
   -0.49982E+08         0.48668E+04         0.00000E+00
    0.48668E+04        -0.49999E+08         0.00000E+00
    0.00000E+00         0.00000E+00        -0.50000E+08
 
   -0.49983E+08         0.52799E+04         0.00000E+00
    0.52799E+04        -0.49999E+08         0.00000E+00
    0.00000E+00         0.00000E+00        -0.50000E+08
 
   -0.49983E+08         0.56892E+04         0.00000E+00
    0.56892E+04        -0.49999E+08         0.00000E+00
    0.00000E+00         0.00000E+00        -0.50000E+08
 
   -0.49983E+08         0.60944E+04         0.00000E+00
    0.60944E+04        -0.49999E+08         0.00000E+00
    0.00000E+00         0.00000E+00        -0.50000E+08
 
   -0.49983E+08         0.64949E+04         0.00000E+00
    0.64949E+04        -0.49999E+08         0.00000E+00
    0.00000E+00         0.00000E+00        -0.50000E+08
 
   -0.49983E+08         0.68903E+04         0.00000E+00
    0.68903E+04        -0.49999E+08         0.00000E+00
    0.00000E+00         0.00000E+00        -0.50000E+08
 
   -0.49984E+08         0.72802E+04         0.00000E+00
    0.72802E+04        -0.49998E+08         0.00000E+00
    0.00000E+00         0.00000E+00        -0.50000E+08
 
   -0.49984E+08         0.76641E+04         0.00000E+00
    0.76641E+04        -0.49998E+08         0.00000E+00
    0.00000E+00         0.00000E+00        -0.50000E+08
 
   -0.49984E+08         0.80416E+04         0.00000E+00
    0.80416E+04        -0.49998E+08         0.00000E+00
    0.00000E+00         0.00000E+00        -0.50000E+08
 
   -0.49984E+08         0.84123E+04         0.00000E+00
    0.84123E+04        -0.49998E+08         0.00000E+00
    0.00000E+00         0.00000E+00        -0.50000E+08
 
   -0.49985E+08         0.87757E+04         0.00000E+00
    0.87757E+04        -0.49998E+08         0.00000E+00
    0.00000E+00         0.00000E+00        -0.50000E+08
 
   -0.49985E+08         0.91314E+04         0.00000E+00
    0.91314E+04        -0.49997E+08         0.00000E+00
    0.00000E+00         0.00000E+00        -0.50000E+08
 
   -0.49985E+08         0.94790E+04         0.00000E+00
    0.94790E+04        -0.49997E+08         0.00000E+00
    0.00000E+00         0.00000E+00        -0.50000E+08
 
   -0.49986E+08         0.98182E+04         0.00000E+00
    0.98182E+04        -0.49997E+08         0.00000E+00
    0.00000E+00         0.00000E+00        -0.50000E+08
 
   -0.49986E+08         0.10148E+05         0.00000E+00
    0.10148E+05        -0.49997E+08         0.00000E+00
    0.00000E+00         0.00000E+00        -0.50000E+08
 
   -0.49987E+08         0.10469E+05         0.00000E+00
    0.10469E+05        -0.49997E+08         0.00000E+00
    0.00000E+00         0.00000E+00        -0.50000E+08
 
   -0.49987E+08         0.10781E+05         0.00000E+00
    0.10781E+05        -0.49996E+08         0.00000E+00
    0.00000E+00         0.00000E+00        -0.50000E+08
 
   -0.49987E+08         0.11082E+05         0.00000E+00
    0.11082E+05        -0.49996E+08         0.00000E+00
    0.00000E+00         0.00000E+00        -0.50000E+08
 
   -0.49988E+08         0.11373E+05         0.00000E+00
    0.11373E+05        -0.49996E+08         0.00000E+00
    0.00000E+00         0.00000E+00        -0.50000E+08
 
   -0.49988E+08         0.11653E+05         0.00000E+00
    0.11653E+05        -0.49996E+08         0.00000E+00
    0.00000E+00         0.00000E+00        -0.50000E+08
 
   -0.49989E+08         0.11922E+05         0.00000E+00
    0.11922E+05        -0.49995E+08         0.00000E+00
    0.00000E+00         0.00000E+00        -0.50000E+08
 
   -0.49989E+08         0.12179E+05         0.00000E+00
    0.12179E+05        -0.49995E+08         0.00000E+00
    0.00000E+00         0.00000E+00        -0.50000E+08
 
   -0.49990E+08         0.12425E+05         0.00000E+00
    0.12425E+05        -0.49995E+08         0.00000E+00
    0.00000E+00         0.00000E+00        -0.50000E+08
 
   -0.49990E+08         0.12658E+05         0.00000E+00
    0.12658E+05        -0.49994E+08         0.00000E+00
    0.00000E+00         0.00000E+00        -0.50000E+08
 
   -0.49991E+08         0.12879E+05         0.00000E+00
    0.12879E+05        -0.49994E+08         0.00000E+00
    0.00000E+00         0.00000E+00        -0.50000E+08
 
   -0.49991E+08         0.13087E+05         0.00000E+00
    0.13087E+05        -0.49994E+08         0.00000E+00
    0.00000E+00         0.00000E+00        -0.50000E+08
 
   -0.49992E+08         0.13283E+05         0.00000E+00
    0.13283E+05        -0.49993E+08         0.00000E+00
    0.00000E+00         0.00000E+00        -0.50000E+08
 
   -0.49993E+08         0.13464E+05         0.00000E+00
    0.13464E+05        -0.49993E+08         0.00000E+00
    0.00000E+00         0.00000E+00        -0.50000E+08
 
   -0.49993E+08         0.13633E+05         0.00000E+00
    0.13633E+05        -0.49993E+08         0.00000E+00
    0.00000E+00         0.00000E+00        -0.50000E+08
 
   -0.49994E+08         0.13787E+05         0.00000E+00
    0.13787E+05        -0.49992E+08         0.00000E+00
    0.00000E+00         0.00000E+00        -0.50000E+08
 
   -0.49994E+08         0.13927E+05         0.00000E+00
    0.13927E+05        -0.49992E+08         0.00000E+00
    0.00000E+00         0.00000E+00        -0.50000E+08
 
   -0.49995E+08         0.14053E+05         0.00000E+00
    0.14053E+05        -0.49992E+08         0.00000E+00
    0.00000E+00         0.00000E+00        -0.50000E+08
 
   -0.49996E+08         0.14165E+05         0.00000E+00
    0.14165E+05        -0.49991E+08         0.00000E+00
    0.00000E+00         0.00000E+00        -0.50000E+08
 
   -0.49996E+08         0.14261E+05         0.00000E+00
    0.14261E+05        -0.49991E+08         0.00000E+00
    0.00000E+00         0.00000E+00        -0.50000E+08
 
   -0.49997E+08         0.14342E+05         0.00000E+00
    0.14342E+05        -0.49991E+08         0.00000E+00
    0.00000E+00         0.00000E+00        -0.50000E+08
 
   -0.49998E+08         0.14409E+05         0.00000E+00
    0.14409E+05        -0.49990E+08         0.00000E+00
    0.00000E+00         0.00000E+00        -0.50000E+08
 
   -0.49998E+08         0.14459E+05         0.00000E+00
    0.14459E+05        -0.49990E+08         0.00000E+00
    0.00000E+00         0.00000E+00        -0.50000E+08
 
   -0.49999E+08         0.14495E+05         0.00000E+00
    0.14495E+05        -0.49990E+08         0.00000E+00
    0.00000E+00         0.00000E+00        -0.50000E+08
 
   -0.50000E+08         0.14514E+05         0.00000E+00
    0.14514E+05        -0.49989E+08         0.00000E+00
    0.00000E+00         0.00000E+00        -0.50000E+08
 
   -0.49980E+08         0.23546E+03         0.00000E+00
    0.23546E+03        -0.50000E+08         0.00000E+00
    0.00000E+00         0.00000E+00        -0.50000E+08
 
   -0.49980E+08         0.71251E+03         0.00000E+00
    0.71251E+03        -0.50000E+08         0.00000E+00
    0.00000E+00         0.00000E+00        -0.50000E+08
 
   -0.49980E+08         0.11911E+04         0.00000E+00
    0.11911E+04        -0.50000E+08         0.00000E+00
    0.00000E+00         0.00000E+00        -0.50000E+08
 
   -0.49980E+08         0.16707E+04         0.00000E+00
    0.16707E+04        -0.50000E+08         0.00000E+00
    0.00000E+00         0.00000E+00        -0.50000E+08
 
   -0.49980E+08         0.21508E+04         0.00000E+00
    0.21508E+04        -0.50000E+08         0.00000E+00
    0.00000E+00         0.00000E+00        -0.50000E+08
 
   -0.49980E+08         0.26309E+04         0.00000E+00
    0.26309E+04        -0.50000E+08         0.00000E+00
    0.00000E+00         0.00000E+00        -0.50000E+08
 
   -0.49980E+08         0.31103E+04         0.00000E+00
    0.31103E+04        -0.50000E+08         0.00000E+00
    0.00000E+00         0.00000E+00        -0.50000E+08
 
   -0.49980E+08         0.35887E+04         0.00000E+00
    0.35887E+04        -0.50000E+08         0.00000E+00
    0.00000E+00         0.00000E+00        -0.50000E+08
 
   -0.49980E+08         0.40654E+04         0.00000E+00
    0.40654E+04        -0.50000E+08         0.00000E+00
    0.00000E+00         0.00000E+00        -0.50000E+08
 
   -0.49980E+08         0.45400E+04         0.00000E+00
    0.45400E+04        -0.49999E+08         0.00000E+00
    0.00000E+00         0.00000E+00        -0.50000E+08
 
   -0.49980E+08         0.50118E+04         0.00000E+00
    0.50118E+04        -0.49999E+08         0.00000E+00
    0.00000E+00         0.00000E+00        -0.50000E+08
 
   -0.49980E+08         0.54805E+04         0.00000E+00
    0.54805E+04        -0.49999E+08         0.00000E+00
    0.00000E+00         0.00000E+00        -0.50000E+08
 
   -0.49980E+08         0.59455E+04         0.00000E+00
    0.59455E+04        -0.49999E+08         0.00000E+00
    0.00000E+00         0.00000E+00        -0.50000E+08
 
   -0.49981E+08         0.64062E+04         0.00000E+00
    0.64062E+04        -0.49999E+08         0.00000E+00
    0.00000E+00         0.00000E+00        -0.50000E+08
 
   -0.49981E+08         0.68622E+04         0.00000E+00
    0.68622E+04        -0.49999E+08         0.00000E+00
    0.00000E+00         0.00000E+00        -0.50000E+08
 
   -0.49981E+08         0.73129E+04         0.00000E+00
    0.73129E+04        -0.49999E+08         0.00000E+00
    0.00000E+00         0.00000E+00        -0.50000E+08
 
   -0.49981E+08         0.77578E+04         0.00000E+00
    0.77578E+04        -0.49998E+08         0.00000E+00
    0.00000E+00         0.00000E+00        -0.50000E+08
 
   -0.49981E+08         0.81965E+04         0.00000E+00
    0.81965E+04        -0.49998E+08         0.00000E+00
    0.00000E+00         0.00000E+00        -0.50000E+08
 
   -0.49982E+08         0.86285E+04         0.00000E+00
    0.86285E+04        -0.49998E+08         0.00000E+00
    0.00000E+00         0.00000E+00        -0.50000E+08
 
   -0.49982E+08         0.90532E+04         0.00000E+00
    0.90532E+04        -0.49998E+08         0.00000E+00
    0.00000E+00         0.00000E+00        -0.50000E+08
 
   -0.49982E+08         0.94702E+04         0.00000E+00
    0.94702E+04        -0.49998E+08         0.00000E+00
    0.00000E+00         0.00000E+00        -0.50000E+08
 
   -0.49983E+08         0.98790E+04         0.00000E+00
    0.98790E+04        -0.49997E+08         0.00000E+00
    0.00000E+00         0.00000E+00        -0.50000E+08
 
   -0.49983E+08         0.10279E+05         0.00000E+00
    0.10279E+05        -0.49997E+08         0.00000E+00
    0.00000E+00         0.00000E+00        -0.50000E+08
 
   -0.49984E+08         0.10670E+05         0.00000E+00
    0.10670E+05        -0.49997E+08         0.00000E+00
    0.00000E+00         0.00000E+00        -0.50000E+08
 
   -0.49984E+08         0.11052E+05         0.00000E+00
    0.11052E+05        -0.49997E+08         0.00000E+00
    0.00000E+00         0.00000E+00        -0.50000E+08
 
   -0.49984E+08         0.11423E+05         0.00000E+00
    0.11423E+05        -0.49996E+08         0.00000E+00
    0.00000E+00         0.00000E+00        -0.50000E+08
 
   -0.49985E+08         0.11784E+05         0.00000E+00
    0.11784E+05        -0.49996E+08         0.00000E+00
    0.00000E+00         0.00000E+00        -0.50000E+08
 
   -0.49985E+08         0.12134E+05         0.00000E+00
    0.12134E+05        -0.49996E+08         0.00000E+00
    0.00000E+00         0.00000E+00        -0.50000E+08
 
   -0.49986E+08         0.12473E+05         0.00000E+00
    0.12473E+05        -0.49996E+08         0.00000E+00
    0.00000E+00         0.00000E+00        -0.50000E+08
 
   -0.49986E+08         0.12800E+05         0.00000E+00
    0.12800E+05        -0.49995E+08         0.00000E+00
    0.00000E+00         0.00000E+00        -0.50000E+08
 
   -0.49987E+08         0.13115E+05         0.00000E+00
    0.13115E+05        -0.49995E+08         0.00000E+00
    0.00000E+00         0.00000E+00        -0.50000E+08
 
   -0.49987E+08         0.13417E+05         0.00000E+00
    0.13417E+05        -0.49995E+08         0.00000E+00
    0.00000E+00         0.00000E+00        -0.50000E+08
 
   -0.49988E+08         0.13707E+05         0.00000E+00
    0.13707E+05        -0.49994E+08         0.00000E+00
    0.00000E+00         0.00000E+00        -0.50000E+08
 
   -0.49989E+08         0.13983E+05         0.00000E+00
    0.13983E+05        -0.49994E+08         0.00000E+00
    0.00000E+00         0.00000E+00        -0.50000E+08
 
   -0.49989E+08         0.14246E+05         0.00000E+00
    0.14246E+05        -0.49994E+08         0.00000E+00
    0.00000E+00         0.00000E+00        -0.50000E+08
 
   -0.49990E+08         0.14494E+05         0.00000E+00
    0.14494E+05        -0.49993E+08         0.00000E+00
    0.00000E+00         0.00000E+00        -0.50000E+08
 
   -0.49990E+08         0.14729E+05         0.00000E+00
    0.14729E+05        -0.49993E+08         0.00000E+00
    0.00000E+00         0.00000E+00        -0.50000E+08
 
   -0.49991E+08         0.14948E+05         0.00000E+00
    0.14948E+05        -0.49993E+08         0.00000E+00
    0.00000E+00         0.00000E+00        -0.50000E+08
 
   -0.49992E+08         0.15153E+05         0.00000E+00
    0.15153E+05        -0.49992E+08         0.00000E+00
    0.00000E+00         0.00000E+00        -0.50000E+08
 
   -0.49992E+08         0.15342E+05         0.00000E+00
    0.15342E+05        -0.49992E+08         0.00000E+00
    0.00000E+00         0.00000E+00        -0.50000E+08
 
   -0.49993E+08         0.15516E+05         0.00000E+00
    0.15516E+05        -0.49992E+08         0.00000E+00
    0.00000E+00         0.00000E+00        -0.50000E+08
 
   -0.49994E+08         0.15674E+05         0.00000E+00
    0.15674E+05        -0.49991E+08         0.00000E+00
    0.00000E+00         0.00000E+00        -0.50000E+08
 
   -0.49994E+08         0.15816E+05         0.00000E+00
    0.15816E+05        -0.49991E+08         0.00000E+00
    0.00000E+00         0.00000E+00        -0.50000E+08
 
   -0.49995E+08         0.15941E+05         0.00000E+00
    0.15941E+05        -0.49990E+08         0.00000E+00
    0.00000E+00         0.00000E+00        -0.50000E+08
 
   -0.49996E+08         0.16049E+05         0.00000E+00
    0.16049E+05        -0.49990E+08         0.00000E+00
    0.00000E+00         0.00000E+00        -0.50000E+08
 
   -0.49997E+08         0.16141E+05         0.00000E+00
    0.16141E+05        -0.49990E+08         0.00000E+00
    0.00000E+00         0.00000E+00        -0.50000E+08
 
   -0.49997E+08         0.16216E+05         0.00000E+00
    0.16216E+05        -0.49989E+08         0.00000E+00
    0.00000E+00         0.00000E+00        -0.50000E+08
 
   -0.49998E+08         0.16273E+05         0.00000E+00
    0.16273E+05        -0.49989E+08         0.00000E+00
    0.00000E+00         0.00000E+00        -0.50000E+08
 
   -0.49999E+08         0.16313E+05         0.00000E+00
    0.16313E+05        -0.49989E+08         0.00000E+00
    0.00000E+00         0.00000E+00        -0.50000E+08
 
   -0.50000E+08         0.16335E+05         0.00000E+00
    0.16335E+05        -0.49988E+08         0.00000E+00
    0.00000E+00         0.00000E+00        -0.50000E+08
 
   -0.49977E+08         0.26529E+03         0.00000E+00
    0.26529E+03        -0.50000E+08         0.00000E+00
    0.00000E+00         0.00000E+00        -0.50000E+08
 
   -0.49977E+08         0.80265E+03         0.00000E+00
    0.80265E+03        -0.50000E+08         0.00000E+00
    0.00000E+00         0.00000E+00        -0.50000E+08
 
   -0.49977E+08         0.13417E+04         0.00000E+00
    0.13417E+04        -0.50000E+08         0.00000E+00
    0.00000E+00         0.00000E+00        -0.50000E+08
 
   -0.49977E+08         0.18818E+04         0.00000E+00
    0.18818E+04        -0.50000E+08         0.00000E+00
    0.00000E+00         0.00000E+00        -0.50000E+08
 
   -0.49977E+08         0.24224E+04         0.00000E+00
    0.24224E+04        -0.50000E+08         0.00000E+00
    0.00000E+00         0.00000E+00        -0.50000E+08
 
   -0.49977E+08         0.29629E+04         0.00000E+00
    0.29629E+04        -0.50000E+08         0.00000E+00
    0.00000E+00         0.00000E+00        -0.50000E+08
 
   -0.49977E+08         0.35027E+04         0.00000E+00
    0.35027E+04        -0.50000E+08         0.00000E+00
    0.00000E+00         0.00000E+00        -0.50000E+08
 
   -0.49977E+08         0.40413E+04         0.00000E+00
    0.40413E+04        -0.50000E+08         0.00000E+00
    0.00000E+00         0.00000E+00        -0.50000E+08
 
   -0.49977E+08         0.45779E+04         0.00000E+00
    0.45779E+04        -0.50000E+08         0.00000E+00
    0.00000E+00         0.00000E+00        -0.50000E+08
 
   -0.49977E+08         0.51120E+04         0.00000E+00
    0.51120E+04        -0.49999E+08         0.00000E+00
    0.00000E+00         0.00000E+00        -0.50000E+08
 
   -0.49978E+08         0.56431E+04         0.00000E+00
    0.56431E+04        -0.49999E+08         0.00000E+00
    0.00000E+00         0.00000E+00        -0.50000E+08
 
   -0.49978E+08         0.61706E+04         0.00000E+00
    0.61706E+04        -0.49999E+08         0.00000E+00
    0.00000E+00         0.00000E+00        -0.50000E+08
 
   -0.49978E+08         0.66938E+04         0.00000E+00
    0.66938E+04        -0.49999E+08         0.00000E+00
    0.00000E+00         0.00000E+00        -0.50000E+08
 
   -0.49978E+08         0.72122E+04         0.00000E+00
    0.72122E+04        -0.49999E+08         0.00000E+00
    0.00000E+00         0.00000E+00        -0.50000E+08
 
   -0.49978E+08         0.77252E+04         0.00000E+00
    0.77252E+04        -0.49999E+08         0.00000E+00
    0.00000E+00         0.00000E+00        -0.50000E+08
 
   -0.49979E+08         0.82323E+04         0.00000E+00
    0.82323E+04        -0.49998E+08         0.00000E+00
    0.00000E+00         0.00000E+00        -0.50000E+08
 
   -0.49979E+08         0.87329E+04         0.00000E+00
    0.87329E+04        -0.49998E+08         0.00000E+00
    0.00000E+00         0.00000E+00        -0.50000E+08
 
   -0.49979E+08         0.92264E+04         0.00000E+00
    0.92264E+04        -0.49998E+08         0.00000E+00
    0.00000E+00         0.00000E+00        -0.50000E+08
 
   -0.49980E+08         0.97123E+04         0.00000E+00
    0.97123E+04        -0.49998E+08         0.00000E+00
    0.00000E+00         0.00000E+00        -0.50000E+08
 
   -0.49980E+08         0.10190E+05         0.00000E+00
    0.10190E+05        -0.49998E+08         0.00000E+00
    0.00000E+00         0.00000E+00        -0.50000E+08
 
   -0.49980E+08         0.10659E+05         0.00000E+00
    0.10659E+05        -0.49997E+08         0.00000E+00
    0.00000E+00         0.00000E+00        -0.50000E+08
 
   -0.49981E+08         0.11119E+05         0.00000E+00
    0.11119E+05        -0.49997E+08         0.00000E+00
    0.00000E+00         0.00000E+00        -0.50000E+08
 
   -0.49981E+08         0.11569E+05         0.00000E+00
    0.11569E+05        -0.49997E+08         0.00000E+00
    0.00000E+00         0.00000E+00        -0.50000E+08
 
   -0.49982E+08         0.12009E+05         0.00000E+00
    0.12009E+05        -0.49997E+08         0.00000E+00
    0.00000E+00         0.00000E+00        -0.50000E+08
 
   -0.49982E+08         0.12438E+05         0.00000E+00
    0.12438E+05        -0.49996E+08         0.00000E+00
    0.00000E+00         0.00000E+00        -0.50000E+08
 
   -0.49982E+08         0.12855E+05         0.00000E+00
    0.12855E+05        -0.49996E+08         0.00000E+00
    0.00000E+00         0.00000E+00        -0.50000E+08
 
   -0.49983E+08         0.13261E+05         0.00000E+00
    0.13261E+05        -0.49996E+08         0.00000E+00
    0.00000E+00         0.00000E+00        -0.50000E+08
 
   -0.49983E+08         0.13655E+05         0.00000E+00
    0.13655E+05        -0.49995E+08         0.00000E+00
    0.00000E+00         0.00000E+00        -0.50000E+08
 
   -0.49984E+08         0.14036E+05         0.00000E+00
    0.14036E+05        -0.49995E+08         0.00000E+00
    0.00000E+00         0.00000E+00        -0.50000E+08
 
   -0.49985E+08         0.14404E+05         0.00000E+00
    0.14404E+05        -0.49995E+08         0.00000E+00
    0.00000E+00         0.00000E+00        -0.50000E+08
 
   -0.49985E+08         0.14758E+05         0.00000E+00
    0.14758E+05        -0.49994E+08         0.00000E+00
    0.00000E+00         0.00000E+00        -0.50000E+08
 
   -0.49986E+08         0.15098E+05         0.00000E+00
    0.15098E+05        -0.49994E+08         0.00000E+00
    0.00000E+00         0.00000E+00        -0.50000E+08
 
   -0.49986E+08         0.15423E+05         0.00000E+00
    0.15423E+05        -0.49994E+08         0.00000E+00
    0.00000E+00         0.00000E+00        -0.50000E+08
 
   -0.49987E+08         0.15734E+05         0.00000E+00
    0.15734E+05        -0.49993E+08         0.00000E+00
    0.00000E+00         0.00000E+00        -0.50000E+08
 
   -0.49988E+08         0.16029E+05         0.00000E+00
    0.16029E+05        -0.49993E+08         0.00000E+00
    0.00000E+00         0.00000E+00        -0.50000E+08
 
   -0.49988E+08         0.16309E+05         0.00000E+00
    0.16309E+05        -0.49992E+08         0.00000E+00
    0.00000E+00         0.00000E+00        -0.50000E+08
 
   -0.49989E+08         0.16572E+05         0.00000E+00
    0.16572E+05        -0.49992E+08         0.00000E+00
    0.00000E+00         0.00000E+00        -0.50000E+08
 
   -0.49990E+08         0.16819E+05         0.00000E+00
    0.16819E+05        -0.49992E+08         0.00000E+00
    0.00000E+00         0.00000E+00        -0.50000E+08
 
   -0.49991E+08         0.17049E+05         0.00000E+00
    0.17049E+05        -0.49991E+08         0.00000E+00
    0.00000E+00         0.00000E+00        -0.50000E+08
 
   -0.49991E+08         0.17262E+05         0.00000E+00
    0.17262E+05        -0.49991E+08         0.00000E+00
    0.00000E+00         0.00000E+00        -0.50000E+08
 
   -0.49992E+08         0.17458E+05         0.00000E+00
    0.17458E+05        -0.49991E+08         0.00000E+00
    0.00000E+00         0.00000E+00        -0.50000E+08
 
   -0.49993E+08         0.17635E+05         0.00000E+00
    0.17635E+05        -0.49990E+08         0.00000E+00
    0.00000E+00         0.00000E+00        -0.50000E+08
 
   -0.49994E+08         0.17795E+05         0.00000E+00
    0.17795E+05        -0.49990E+08         0.00000E+00
    0.00000E+00         0.00000E+00        -0.50000E+08
 
   -0.49994E+08         0.17936E+05         0.00000E+00
    0.17936E+05        -0.49989E+08         0.00000E+00
    0.00000E+00         0.00000E+00        -0.50000E+08
 
   -0.49995E+08         0.18058E+05         0.00000E+00
    0.18058E+05        -0.49989E+08         0.00000E+00
    0.00000E+00         0.00000E+00        -0.50000E+08
 
   -0.49996E+08         0.18162E+05         0.00000E+00
    0.18162E+05        -0.49988E+08         0.00000E+00
    0.00000E+00         0.00000E+00        -0.50000E+08
 
   -0.49997E+08         0.18246E+05         0.00000E+00
    0.18246E+05        -0.49988E+08         0.00000E+00
    0.00000E+00         0.00000E+00        -0.50000E+08
 
   -0.49998E+08         0.18311E+05         0.00000E+00
    0.18311E+05        -0.49988E+08         0.00000E+00
    0.00000E+00         0.00000E+00        -0.50000E+08
 
   -0.49999E+08         0.18356E+05         0.00000E+00
    0.18356E+05        -0.49987E+08         0.00000E+00
    0.00000E+00         0.00000E+00        -0.50000E+08
 
   -0.49999E+08         0.18381E+05         0.00000E+00
    0.18381E+05        -0.49987E+08         0.00000E+00
    0.00000E+00         0.00000E+00        -0.50000E+08
 
   -0.49975E+08         0.29888E+03         0.00000E+00
    0.29888E+03        -0.50000E+08         0.00000E+00
    0.00000E+00         0.00000E+00        -0.50000E+08
 
   -0.49974E+08         0.90409E+03         0.00000E+00
    0.90409E+03        -0.50000E+08         0.00000E+00
    0.00000E+00         0.00000E+00        -0.50000E+08
 
   -0.49974E+08         0.15111E+04         0.00000E+00
    0.15111E+04        -0.50000E+08         0.00000E+00
    0.00000E+00         0.00000E+00        -0.50000E+08
 
   -0.49974E+08         0.21193E+04         0.00000E+00
    0.21193E+04        -0.50000E+08         0.00000E+00
    0.00000E+00         0.00000E+00        -0.50000E+08
 
   -0.49974E+08         0.27280E+04         0.00000E+00
    0.27280E+04        -0.50000E+08         0.00000E+00
    0.00000E+00         0.00000E+00        -0.50000E+08
 
   -0.49974E+08         0.33365E+04         0.00000E+00
    0.33365E+04        -0.50000E+08         0.00000E+00
    0.00000E+00         0.00000E+00        -0.50000E+08
 
   -0.49974E+08         0.39441E+04         0.00000E+00
    0.39441E+04        -0.50000E+08         0.00000E+00
    0.00000E+00         0.00000E+00        -0.50000E+08
 
   -0.49974E+08         0.45503E+04         0.00000E+00
    0.45503E+04        -0.50000E+08         0.00000E+00
    0.00000E+00         0.00000E+00        -0.50000E+08
 
   -0.49974E+08         0.51542E+04         0.00000E+00
    0.51542E+04        -0.49999E+08         0.00000E+00
    0.00000E+00         0.00000E+00        -0.50000E+08
 
   -0.49975E+08         0.57553E+04         0.00000E+00
    0.57553E+04        -0.49999E+08         0.00000E+00
    0.00000E+00         0.00000E+00        -0.50000E+08
 
   -0.49975E+08         0.63530E+04         0.00000E+00
    0.63530E+04        -0.49999E+08         0.00000E+00
    0.00000E+00         0.00000E+00        -0.50000E+08
 
   -0.49975E+08         0.69464E+04         0.00000E+00
    0.69464E+04        -0.49999E+08         0.00000E+00
    0.00000E+00         0.00000E+00        -0.50000E+08
 
   -0.49975E+08         0.75351E+04         0.00000E+00
    0.75351E+04        -0.49999E+08         0.00000E+00
    0.00000E+00         0.00000E+00        -0.50000E+08
 
   -0.49975E+08         0.81183E+04         0.00000E+00
    0.81183E+04        -0.49999E+08         0.00000E+00
    0.00000E+00         0.00000E+00        -0.50000E+08
 
   -0.49976E+08         0.86954E+04         0.00000E+00
    0.86954E+04        -0.49998E+08         0.00000E+00
    0.00000E+00         0.00000E+00        -0.50000E+08
 
   -0.49976E+08         0.92658E+04         0.00000E+00
    0.92658E+04        -0.49998E+08         0.00000E+00
    0.00000E+00         0.00000E+00        -0.50000E+08
 
   -0.49976E+08         0.98289E+04         0.00000E+00
    0.98289E+04        -0.49998E+08         0.00000E+00
    0.00000E+00         0.00000E+00        -0.50000E+08
 
   -0.49977E+08         0.10384E+05         0.00000E+00
    0.10384E+05        -0.49998E+08         0.00000E+00
    0.00000E+00         0.00000E+00        -0.50000E+08
 
   -0.49977E+08         0.10930E+05         0.00000E+00
    0.10930E+05        -0.49998E+08         0.00000E+00
    0.00000E+00         0.00000E+00        -0.50000E+08
 
   -0.49977E+08         0.11468E+05         0.00000E+00
    0.11468E+05        -0.49997E+08         0.00000E+00
    0.00000E+00         0.00000E+00        -0.50000E+08
 
   -0.49978E+08         0.11995E+05         0.00000E+00
    0.11995E+05        -0.49997E+08         0.00000E+00
    0.00000E+00         0.00000E+00        -0.50000E+08
 
   -0.49978E+08         0.12512E+05         0.00000E+00
    0.12512E+05        -0.49997E+08         0.00000E+00
    0.00000E+00         0.00000E+00        -0.50000E+08
 
   -0.49979E+08         0.13018E+05         0.00000E+00
    0.13018E+05        -0.49996E+08         0.00000E+00
    0.00000E+00         0.00000E+00        -0.50000E+08
 
   -0.49979E+08         0.13512E+05         0.00000E+00
    0.13512E+05        -0.49996E+08         0.00000E+00
    0.00000E+00         0.00000E+00        -0.50000E+08
 
   -0.49980E+08         0.13995E+05         0.00000E+00
    0.13995E+05        -0.49996E+08         0.00000E+00
    0.00000E+00         0.00000E+00        -0.50000E+08
 
   -0.49980E+08         0.14464E+05         0.00000E+00
    0.14464E+05        -0.49995E+08         0.00000E+00
    0.00000E+00         0.00000E+00        -0.50000E+08
 
   -0.49981E+08         0.14921E+05         0.00000E+00
    0.14921E+05        -0.49995E+08         0.00000E+00
    0.00000E+00         0.00000E+00        -0.50000E+08
 
   -0.49981E+08         0.15363E+05         0.00000E+00
    0.15363E+05        -0.49995E+08         0.00000E+00
    0.00000E+00         0.00000E+00        -0.50000E+08
 
   -0.49982E+08         0.15792E+05         0.00000E+00
    0.15792E+05        -0.49994E+08         0.00000E+00
    0.00000E+00         0.00000E+00        -0.50000E+08
 
   -0.49983E+08         0.16205E+05         0.00000E+00
    0.16205E+05        -0.49994E+08         0.00000E+00
    0.00000E+00         0.00000E+00        -0.50000E+08
 
   -0.49983E+08         0.16603E+05         0.00000E+00
    0.16603E+05        -0.49994E+08         0.00000E+00
    0.00000E+00         0.00000E+00        -0.50000E+08
 
   -0.49984E+08         0.16985E+05         0.00000E+00
    0.16985E+05        -0.49993E+08         0.00000E+00
    0.00000E+00         0.00000E+00        -0.50000E+08
 
   -0.49985E+08         0.17351E+05         0.00000E+00
    0.17351E+05        -0.49993E+08         0.00000E+00
    0.00000E+00         0.00000E+00        -0.50000E+08
 
   -0.49985E+08         0.17700E+05         0.00000E+00
    0.17700E+05        -0.49992E+08         0.00000E+00
    0.00000E+00         0.00000E+00        -0.50000E+08
 
   -0.49986E+08         0.18032E+05         0.00000E+00
    0.18032E+05        -0.49992E+08         0.00000E+00
    0.00000E+00         0.00000E+00        -0.50000E+08
 
   -0.49987E+08         0.18347E+05         0.00000E+00
    0.18347E+05        -0.49992E+08         0.00000E+00
    0.00000E+00         0.00000E+00        -0.50000E+08
 
   -0.49988E+08         0.18643E+05         0.00000E+00
    0.18643E+05        -0.49991E+08         0.00000E+00
    0.00000E+00         0.00000E+00        -0.50000E+08
 
   -0.49989E+08         0.18921E+05         0.00000E+00
    0.18921E+05        -0.49991E+08         0.00000E+00
    0.00000E+00         0.00000E+00        -0.50000E+08
 
   -0.49989E+08         0.19179E+05         0.00000E+00
    0.19179E+05        -0.49990E+08         0.00000E+00
    0.00000E+00         0.00000E+00        -0.50000E+08
 
   -0.49990E+08         0.19419E+05         0.00000E+00
    0.19419E+05        -0.49990E+08         0.00000E+00
    0.00000E+00         0.00000E+00        -0.50000E+08
 
   -0.49991E+08         0.19639E+05         0.00000E+00
    0.19639E+05        -0.49989E+08         0.00000E+00
    0.00000E+00         0.00000E+00        -0.50000E+08
 
   -0.49992E+08         0.19838E+05         0.00000E+00
    0.19838E+05        -0.49989E+08         0.00000E+00
    0.00000E+00         0.00000E+00        -0.50000E+08
 
   -0.49993E+08         0.20018E+05         0.00000E+00
    0.20018E+05        -0.49988E+08         0.00000E+00
    0.00000E+00         0.00000E+00        -0.50000E+08
 
   -0.49994E+08         0.20177E+05         0.00000E+00
    0.20177E+05        -0.49988E+08         0.00000E+00
    0.00000E+00         0.00000E+00        -0.50000E+08
 
   -0.49995E+08         0.20315E+05         0.00000E+00
    0.20315E+05        -0.49987E+08         0.00000E+00
    0.00000E+00         0.00000E+00        -0.50000E+08
 
   -0.49996E+08         0.20431E+05         0.00000E+00
    0.20431E+05        -0.49987E+08         0.00000E+00
    0.00000E+00         0.00000E+00        -0.50000E+08
 
   -0.49996E+08         0.20526E+05         0.00000E+00
    0.20526E+05        -0.49986E+08         0.00000E+00
    0.00000E+00         0.00000E+00        -0.50000E+08
 
   -0.49997E+08         0.20599E+05         0.00000E+00
    0.20599E+05        -0.49986E+08         0.00000E+00
    0.00000E+00         0.00000E+00        -0.50000E+08
 
   -0.49998E+08         0.20650E+05         0.00000E+00
    0.20650E+05        -0.49986E+08         0.00000E+00
    0.00000E+00         0.00000E+00        -0.50000E+08
 
   -0.49999E+08         0.20679E+05         0.00000E+00
    0.20679E+05        -0.49985E+08         0.00000E+00
    0.00000E+00         0.00000E+00        -0.50000E+08
 
   -0.49971E+08         0.33670E+03         0.00000E+00
    0.33670E+03        -0.50000E+08         0.00000E+00
    0.00000E+00         0.00000E+00        -0.50000E+08
 
   -0.49971E+08         0.10182E+04         0.00000E+00
    0.10182E+04        -0.50000E+08         0.00000E+00
    0.00000E+00         0.00000E+00        -0.50000E+08
 
   -0.49971E+08         0.17018E+04         0.00000E+00
    0.17018E+04        -0.50000E+08         0.00000E+00
    0.00000E+00         0.00000E+00        -0.50000E+08
 
   -0.49971E+08         0.23865E+04         0.00000E+00
    0.23865E+04        -0.50000E+08         0.00000E+00
    0.00000E+00         0.00000E+00        -0.50000E+08
 
   -0.49971E+08         0.30717E+04         0.00000E+00
    0.30717E+04        -0.50000E+08         0.00000E+00
    0.00000E+00         0.00000E+00        -0.50000E+08
 
   -0.49971E+08         0.37567E+04         0.00000E+00
    0.37567E+04        -0.50000E+08         0.00000E+00
    0.00000E+00         0.00000E+00        -0.50000E+08
 
   -0.49971E+08         0.44406E+04         0.00000E+00
    0.44406E+04        -0.50000E+08         0.00000E+00
    0.00000E+00         0.00000E+00        -0.50000E+08
 
   -0.49971E+08         0.51227E+04         0.00000E+00
    0.51227E+04        -0.50000E+08         0.00000E+00
    0.00000E+00         0.00000E+00        -0.50000E+08
 
   -0.49971E+08         0.58023E+04         0.00000E+00
    0.58023E+04        -0.49999E+08         0.00000E+00
    0.00000E+00         0.00000E+00        -0.50000E+08
 
   -0.49971E+08         0.64787E+04         0.00000E+00
    0.64787E+04        -0.49999E+08         0.00000E+00
    0.00000E+00         0.00000E+00        -0.50000E+08
 
   -0.49972E+08         0.71511E+04         0.00000E+00
    0.71511E+04        -0.49999E+08         0.00000E+00
    0.00000E+00         0.00000E+00        -0.50000E+08
 
   -0.49972E+08         0.78187E+04         0.00000E+00
    0.78187E+04        -0.49999E+08         0.00000E+00
    0.00000E+00         0.00000E+00        -0.50000E+08
 
   -0.49972E+08         0.84809E+04         0.00000E+00
    0.84809E+04        -0.49999E+08         0.00000E+00
    0.00000E+00         0.00000E+00        -0.50000E+08
 
   -0.49972E+08         0.91369E+04         0.00000E+00
    0.91369E+04        -0.49999E+08         0.00000E+00
    0.00000E+00         0.00000E+00        -0.50000E+08
 
   -0.49973E+08         0.97859E+04         0.00000E+00
    0.97859E+04        -0.49998E+08         0.00000E+00
    0.00000E+00         0.00000E+00        -0.50000E+08
 
   -0.49973E+08         0.10427E+05         0.00000E+00
    0.10427E+05        -0.49998E+08         0.00000E+00
    0.00000E+00         0.00000E+00        -0.50000E+08
 
   -0.49973E+08         0.11061E+05         0.00000E+00
    0.11061E+05        -0.49998E+08         0.00000E+00
    0.00000E+00         0.00000E+00        -0.50000E+08
 
   -0.49974E+08         0.11685E+05         0.00000E+00
    0.11685E+05        -0.49998E+08         0.00000E+00
    0.00000E+00         0.00000E+00        -0.50000E+08
 
   -0.49974E+08         0.12299E+05         0.00000E+00
    0.12299E+05        -0.49997E+08         0.00000E+00
    0.00000E+00         0.00000E+00        -0.50000E+08
 
   -0.49975E+08         0.12903E+05         0.00000E+00
    0.12903E+05        -0.49997E+08         0.00000E+00
    0.00000E+00         0.00000E+00        -0.50000E+08
 
   -0.49975E+08         0.13496E+05         0.00000E+00
    0.13496E+05        -0.49997E+08         0.00000E+00
    0.00000E+00         0.00000E+00        -0.50000E+08
 
   -0.49976E+08         0.14077E+05         0.00000E+00
    0.14077E+05        -0.49996E+08         0.00000E+00
    0.00000E+00         0.00000E+00        -0.50000E+08
 
   -0.49976E+08         0.14646E+05         0.00000E+00
    0.14646E+05        -0.49996E+08         0.00000E+00
    0.00000E+00         0.00000E+00        -0.50000E+08
 
   -0.49977E+08         0.15202E+05         0.00000E+00
    0.15202E+05        -0.49996E+08         0.00000E+00
    0.00000E+00         0.00000E+00        -0.50000E+08
 
   -0.49977E+08         0.15744E+05         0.00000E+00
    0.15744E+05        -0.49995E+08         0.00000E+00
    0.00000E+00         0.00000E+00        -0.50000E+08
 
   -0.49978E+08         0.16272E+05         0.00000E+00
    0.16272E+05        -0.49995E+08         0.00000E+00
    0.00000E+00         0.00000E+00        -0.50000E+08
 
   -0.49978E+08         0.16785E+05         0.00000E+00
    0.16785E+05        -0.49995E+08         0.00000E+00
    0.00000E+00         0.00000E+00        -0.50000E+08
 
   -0.49979E+08         0.17282E+05         0.00000E+00
    0.17282E+05        -0.49994E+08         0.00000E+00
    0.00000E+00         0.00000E+00        -0.50000E+08
 
   -0.49980E+08         0.17763E+05         0.00000E+00
    0.17763E+05        -0.49994E+08         0.00000E+00
    0.00000E+00         0.00000E+00        -0.50000E+08
 
   -0.49981E+08         0.18228E+05         0.00000E+00
    0.18228E+05        -0.49993E+08         0.00000E+00
    0.00000E+00         0.00000E+00        -0.50000E+08
 
   -0.49981E+08         0.18675E+05         0.00000E+00
    0.18675E+05        -0.49993E+08         0.00000E+00
    0.00000E+00         0.00000E+00        -0.50000E+08
 
   -0.49982E+08         0.19105E+05         0.00000E+00
    0.19105E+05        -0.49992E+08         0.00000E+00
    0.00000E+00         0.00000E+00        -0.50000E+08
 
   -0.49983E+08         0.19516E+05         0.00000E+00
    0.19516E+05        -0.49992E+08         0.00000E+00
    0.00000E+00         0.00000E+00        -0.50000E+08
 
   -0.49984E+08         0.19909E+05         0.00000E+00
    0.19909E+05        -0.49991E+08         0.00000E+00
    0.00000E+00         0.00000E+00        -0.50000E+08
 
   -0.49985E+08         0.20282E+05         0.00000E+00
    0.20282E+05        -0.49991E+08         0.00000E+00
    0.00000E+00         0.00000E+00        -0.50000E+08
 
   -0.49985E+08         0.20635E+05         0.00000E+00
    0.20635E+05        -0.49991E+08         0.00000E+00
    0.00000E+00         0.00000E+00        -0.50000E+08
 
   -0.49986E+08         0.20968E+05         0.00000E+00
    0.20968E+05        -0.49990E+08         0.00000E+00
    0.00000E+00         0.00000E+00        -0.50000E+08
 
   -0.49987E+08         0.21280E+05         0.00000E+00
    0.21280E+05        -0.49990E+08         0.00000E+00
    0.00000E+00         0.00000E+00        -0.50000E+08
 
   -0.49988E+08         0.21571E+05         0.00000E+00
    0.21571E+05        -0.49989E+08         0.00000E+00
    0.00000E+00         0.00000E+00        -0.50000E+08
 
   -0.49989E+08         0.21840E+05         0.00000E+00
    0.21840E+05        -0.49989E+08         0.00000E+00
    0.00000E+00         0.00000E+00        -0.50000E+08
 
   -0.49990E+08         0.22088E+05         0.00000E+00
    0.22088E+05        -0.49988E+08         0.00000E+00
    0.00000E+00         0.00000E+00        -0.50000E+08
 
   -0.49991E+08         0.22312E+05         0.00000E+00
    0.22312E+05        -0.49987E+08         0.00000E+00
    0.00000E+00         0.00000E+00        -0.50000E+08
 
   -0.49992E+08         0.22514E+05         0.00000E+00
    0.22514E+05        -0.49987E+08         0.00000E+00
    0.00000E+00         0.00000E+00        -0.50000E+08
 
   -0.49993E+08         0.22693E+05         0.00000E+00
    0.22693E+05        -0.49986E+08         0.00000E+00
    0.00000E+00         0.00000E+00        -0.50000E+08
 
   -0.49994E+08         0.22848E+05         0.00000E+00
    0.22848E+05        -0.49986E+08         0.00000E+00
    0.00000E+00         0.00000E+00        -0.50000E+08
 
   -0.49995E+08         0.22979E+05         0.00000E+00
    0.22979E+05        -0.49985E+08         0.00000E+00
    0.00000E+00         0.00000E+00        -0.50000E+08
 
   -0.49996E+08         0.23086E+05         0.00000E+00
    0.23086E+05        -0.49985E+08         0.00000E+00
    0.00000E+00         0.00000E+00        -0.50000E+08
 
   -0.49997E+08         0.23169E+05         0.00000E+00
    0.23169E+05        -0.49984E+08         0.00000E+00
    0.00000E+00         0.00000E+00        -0.50000E+08
 
   -0.49998E+08         0.23227E+05         0.00000E+00
    0.23227E+05        -0.49984E+08         0.00000E+00
    0.00000E+00         0.00000E+00        -0.50000E+08
 
   -0.49999E+08         0.23260E+05         0.00000E+00
    0.23260E+05        -0.49983E+08         0.00000E+00
    0.00000E+00         0.00000E+00        -0.50000E+08
 
   -0.49968E+08         0.37926E+03         0.00000E+00
    0.37926E+03        -0.50000E+08         0.00000E+00
    0.00000E+00         0.00000E+00        -0.50000E+08
 
   -0.49968E+08         0.11467E+04         0.00000E+00
    0.11467E+04        -0.50000E+08         0.00000E+00
    0.00000E+00         0.00000E+00        -0.50000E+08
 
   -0.49967E+08         0.19162E+04         0.00000E+00
    0.19162E+04        -0.50000E+08         0.00000E+00
    0.00000E+00         0.00000E+00        -0.50000E+08
 
   -0.49967E+08         0.26871E+04         0.00000E+00
    0.26871E+04        -0.50000E+08         0.00000E+00
    0.00000E+00         0.00000E+00        -0.50000E+08
 
   -0.49967E+08         0.34584E+04         0.00000E+00
    0.34584E+04        -0.50000E+08         0.00000E+00
    0.00000E+00         0.00000E+00        -0.50000E+08
 
   -0.49967E+08         0.42292E+04         0.00000E+00
    0.42292E+04        -0.50000E+08         0.00000E+00
    0.00000E+00         0.00000E+00        -0.50000E+08
 
   -0.49967E+08         0.49989E+04         0.00000E+00
    0.49989E+04        -0.50000E+08         0.00000E+00
    0.00000E+00         0.00000E+00        -0.50000E+08
 
   -0.49968E+08         0.57664E+04         0.00000E+00
    0.57664E+04        -0.49999E+08         0.00000E+00
    0.00000E+00         0.00000E+00        -0.50000E+08
 
   -0.49968E+08         0.65311E+04         0.00000E+00
    0.65311E+04        -0.49999E+08         0.00000E+00
    0.00000E+00         0.00000E+00        -0.50000E+08
 
   -0.49968E+08         0.72920E+04         0.00000E+00
    0.72920E+04        -0.49999E+08         0.00000E+00
    0.00000E+00         0.00000E+00        -0.50000E+08
 
   -0.49968E+08         0.80483E+04         0.00000E+00
    0.80483E+04        -0.49999E+08         0.00000E+00
    0.00000E+00         0.00000E+00        -0.50000E+08
 
   -0.49968E+08         0.87993E+04         0.00000E+00
    0.87993E+04        -0.49999E+08         0.00000E+00
    0.00000E+00         0.00000E+00        -0.50000E+08
 
   -0.49969E+08         0.95440E+04         0.00000E+00
    0.95440E+04        -0.49999E+08         0.00000E+00
    0.00000E+00         0.00000E+00        -0.50000E+08
 
   -0.49969E+08         0.10282E+05         0.00000E+00
    0.10282E+05        -0.49998E+08         0.00000E+00
    0.00000E+00         0.00000E+00        -0.50000E+08
 
   -0.49969E+08         0.11012E+05         0.00000E+00
    0.11012E+05        -0.49998E+08         0.00000E+00
    0.00000E+00         0.00000E+00        -0.50000E+08
 
   -0.49970E+08         0.11733E+05         0.00000E+00
    0.11733E+05        -0.49998E+08         0.00000E+00
    0.00000E+00         0.00000E+00        -0.50000E+08
 
   -0.49970E+08         0.12445E+05         0.00000E+00
    0.12445E+05        -0.49998E+08         0.00000E+00
    0.00000E+00         0.00000E+00        -0.50000E+08
 
   -0.49970E+08         0.13146E+05         0.00000E+00
    0.13146E+05        -0.49997E+08         0.00000E+00
    0.00000E+00         0.00000E+00        -0.50000E+08
 
   -0.49971E+08         0.13837E+05         0.00000E+00
    0.13837E+05        -0.49997E+08         0.00000E+00
    0.00000E+00         0.00000E+00        -0.50000E+08
 
   -0.49971E+08         0.14516E+05         0.00000E+00
    0.14516E+05        -0.49997E+08         0.00000E+00
    0.00000E+00         0.00000E+00        -0.50000E+08
 
   -0.49972E+08         0.15182E+05         0.00000E+00
    0.15182E+05        -0.49996E+08         0.00000E+00
    0.00000E+00         0.00000E+00        -0.50000E+08
 
   -0.49972E+08         0.15836E+05         0.00000E+00
    0.15836E+05        -0.49996E+08         0.00000E+00
    0.00000E+00         0.00000E+00        -0.50000E+08
 
   -0.49973E+08         0.16475E+05         0.00000E+00
    0.16475E+05        -0.49995E+08         0.00000E+00
    0.00000E+00         0.00000E+00        -0.50000E+08
 
   -0.49974E+08         0.17099E+05         0.00000E+00
    0.17099E+05        -0.49995E+08         0.00000E+00
    0.00000E+00         0.00000E+00        -0.50000E+08
 
   -0.49974E+08         0.17709E+05         0.00000E+00
    0.17709E+05        -0.49995E+08         0.00000E+00
    0.00000E+00         0.00000E+00        -0.50000E+08
 
   -0.49975E+08         0.18302E+05         0.00000E+00
    0.18302E+05        -0.49994E+08         0.00000E+00
    0.00000E+00         0.00000E+00        -0.50000E+08
 
   -0.49976E+08         0.18878E+05         0.00000E+00
    0.18878E+05        -0.49994E+08         0.00000E+00
    0.00000E+00         0.00000E+00        -0.50000E+08
 
   -0.49977E+08         0.19437E+05         0.00000E+00
    0.19437E+05        -0.49993E+08         0.00000E+00
    0.00000E+00         0.00000E+00        -0.50000E+08
 
   -0.49977E+08         0.19978E+05         0.00000E+00
    0.19978E+05        -0.49993E+08         0.00000E+00
    0.00000E+00         0.00000E+00        -0.50000E+08
 
   -0.49978E+08         0.20500E+05         0.00000E+00
    0.20500E+05        -0.49992E+08         0.00000E+00
    0.00000E+00         0.00000E+00        -0.50000E+08
 
   -0.49979E+08         0.21002E+05         0.00000E+00
    0.21002E+05        -0.49992E+08         0.00000E+00
    0.00000E+00         0.00000E+00        -0.50000E+08
 
   -0.49980E+08         0.21485E+05         0.00000E+00
    0.21485E+05        -0.49991E+08         0.00000E+00
    0.00000E+00         0.00000E+00        -0.50000E+08
 
   -0.49981E+08         0.21947E+05         0.00000E+00
    0.21947E+05        -0.49991E+08         0.00000E+00
    0.00000E+00         0.00000E+00        -0.50000E+08
 
   -0.49982E+08         0.22388E+05         0.00000E+00
    0.22388E+05        -0.49990E+08         0.00000E+00
    0.00000E+00         0.00000E+00        -0.50000E+08
 
   -0.49983E+08         0.22807E+05         0.00000E+00
    0.22807E+05        -0.49990E+08         0.00000E+00
    0.00000E+00         0.00000E+00        -0.50000E+08
 
   -0.49984E+08         0.23204E+05         0.00000E+00
    0.23204E+05        -0.49989E+08         0.00000E+00
    0.00000E+00         0.00000E+00        -0.50000E+08
 
   -0.49985E+08         0.23578E+05         0.00000E+00
    0.23578E+05        -0.49989E+08         0.00000E+00
    0.00000E+00         0.00000E+00        -0.50000E+08
 
   -0.49986E+08         0.23929E+05         0.00000E+00
    0.23929E+05        -0.49988E+08         0.00000E+00
    0.00000E+00         0.00000E+00        -0.50000E+08
 
   -0.49987E+08         0.24256E+05         0.00000E+00
    0.24256E+05        -0.49988E+08         0.00000E+00
    0.00000E+00         0.00000E+00        -0.50000E+08
 
   -0.49988E+08         0.24559E+05         0.00000E+00
    0.24559E+05        -0.49987E+08         0.00000E+00
    0.00000E+00         0.00000E+00        -0.50000E+08
 
   -0.49989E+08         0.24837E+05         0.00000E+00
    0.24837E+05        -0.49987E+08         0.00000E+00
    0.00000E+00         0.00000E+00        -0.50000E+08
 
   -0.49990E+08         0.25090E+05         0.00000E+00
    0.25090E+05        -0.49986E+08         0.00000E+00
    0.00000E+00         0.00000E+00        -0.50000E+08
 
   -0.49991E+08         0.25317E+05         0.00000E+00
    0.25317E+05        -0.49985E+08         0.00000E+00
    0.00000E+00         0.00000E+00        -0.50000E+08
 
   -0.49992E+08         0.25518E+05         0.00000E+00
    0.25518E+05        -0.49985E+08         0.00000E+00
    0.00000E+00         0.00000E+00        -0.50000E+08
 
   -0.49993E+08         0.25693E+05         0.00000E+00
    0.25693E+05        -0.49984E+08         0.00000E+00
    0.00000E+00         0.00000E+00        -0.50000E+08
 
   -0.49994E+08         0.25841E+05         0.00000E+00
    0.25841E+05        -0.49984E+08         0.00000E+00
    0.00000E+00         0.00000E+00        -0.50000E+08
 
   -0.49996E+08         0.25961E+05         0.00000E+00
    0.25961E+05        -0.49983E+08         0.00000E+00
    0.00000E+00         0.00000E+00        -0.50000E+08
 
   -0.49997E+08         0.26055E+05         0.00000E+00
    0.26055E+05        -0.49982E+08         0.00000E+00
    0.00000E+00         0.00000E+00        -0.50000E+08
 
   -0.49998E+08         0.26120E+05         0.00000E+00
    0.26120E+05        -0.49982E+08         0.00000E+00
    0.00000E+00         0.00000E+00        -0.50000E+08
 
   -0.49999E+08         0.26158E+05         0.00000E+00
    0.26158E+05        -0.49981E+08         0.00000E+00
    0.00000E+00         0.00000E+00        -0.50000E+08
 
   -0.49964E+08         0.42718E+03         0.00000E+00
    0.42718E+03        -0.50000E+08         0.00000E+00
    0.00000E+00         0.00000E+00        -0.50000E+08
 
   -0.49963E+08         0.12912E+04         0.00000E+00
    0.12912E+04        -0.50000E+08         0.00000E+00
    0.00000E+00         0.00000E+00        -0.50000E+08
 
   -0.49963E+08         0.21576E+04         0.00000E+00
    0.21576E+04        -0.50000E+08         0.00000E+00
    0.00000E+00         0.00000E+00        -0.50000E+08
 
   -0.49963E+08         0.30252E+04         0.00000E+00
    0.30252E+04        -0.50000E+08         0.00000E+00
    0.00000E+00         0.00000E+00        -0.50000E+08
 
   -0.49963E+08         0.38933E+04         0.00000E+00
    0.38933E+04        -0.50000E+08         0.00000E+00
    0.00000E+00         0.00000E+00        -0.50000E+08
 
   -0.49963E+08         0.47607E+04         0.00000E+00
    0.47607E+04        -0.50000E+08         0.00000E+00
    0.00000E+00         0.00000E+00        -0.50000E+08
 
   -0.49963E+08         0.56267E+04         0.00000E+00
    0.56267E+04        -0.50000E+08         0.00000E+00
    0.00000E+00         0.00000E+00        -0.50000E+08
 
   -0.49963E+08         0.64903E+04         0.00000E+00
    0.64903E+04        -0.49999E+08         0.00000E+00
    0.00000E+00         0.00000E+00        -0.50000E+08
 
   -0.49964E+08         0.73504E+04         0.00000E+00
    0.73504E+04        -0.49999E+08         0.00000E+00
    0.00000E+00         0.00000E+00        -0.50000E+08
 
   -0.49964E+08         0.82063E+04         0.00000E+00
    0.82063E+04        -0.49999E+08         0.00000E+00
    0.00000E+00         0.00000E+00        -0.50000E+08
 
   -0.49964E+08         0.90569E+04         0.00000E+00
    0.90569E+04        -0.49999E+08         0.00000E+00
    0.00000E+00         0.00000E+00        -0.50000E+08
 
   -0.49964E+08         0.99014E+04         0.00000E+00
    0.99014E+04        -0.49999E+08         0.00000E+00
    0.00000E+00         0.00000E+00        -0.50000E+08
 
   -0.49965E+08         0.10739E+05         0.00000E+00
    0.10739E+05        -0.49998E+08         0.00000E+00
    0.00000E+00         0.00000E+00        -0.50000E+08
 
   -0.49965E+08         0.11568E+05         0.00000E+00
    0.11568E+05        -0.49998E+08         0.00000E+00
    0.00000E+00         0.00000E+00        -0.50000E+08
 
   -0.49965E+08         0.12389E+05         0.00000E+00
    0.12389E+05        -0.49998E+08         0.00000E+00
    0.00000E+00         0.00000E+00        -0.50000E+08
 
   -0.49966E+08         0.13200E+05         0.00000E+00
    0.13200E+05        -0.49998E+08         0.00000E+00
    0.00000E+00         0.00000E+00        -0.50000E+08
 
   -0.49966E+08         0.14000E+05         0.00000E+00
    0.14000E+05        -0.49997E+08         0.00000E+00
    0.00000E+00         0.00000E+00        -0.50000E+08
 
   -0.49967E+08         0.14788E+05         0.00000E+00
    0.14788E+05        -0.49997E+08         0.00000E+00
    0.00000E+00         0.00000E+00        -0.50000E+08
 
   -0.49967E+08         0.15565E+05         0.00000E+00
    0.15565E+05        -0.49997E+08         0.00000E+00
    0.00000E+00         0.00000E+00        -0.50000E+08
 
   -0.49968E+08         0.16328E+05         0.00000E+00
    0.16328E+05        -0.49996E+08         0.00000E+00
    0.00000E+00         0.00000E+00        -0.50000E+08
 
   -0.49968E+08         0.17077E+05         0.00000E+00
    0.17077E+05        -0.49996E+08         0.00000E+00
    0.00000E+00         0.00000E+00        -0.50000E+08
 
   -0.49969E+08         0.17811E+05         0.00000E+00
    0.17811E+05        -0.49995E+08         0.00000E+00
    0.00000E+00         0.00000E+00        -0.50000E+08
 
   -0.49970E+08         0.18529E+05         0.00000E+00
    0.18529E+05        -0.49995E+08         0.00000E+00
    0.00000E+00         0.00000E+00        -0.50000E+08
 
   -0.49970E+08         0.19231E+05         0.00000E+00
    0.19231E+05        -0.49994E+08         0.00000E+00
    0.00000E+00         0.00000E+00        -0.50000E+08
 
   -0.49971E+08         0.19915E+05         0.00000E+00
    0.19915E+05        -0.49994E+08         0.00000E+00
    0.00000E+00         0.00000E+00        -0.50000E+08
 
   -0.49972E+08         0.20581E+05         0.00000E+00
    0.20581E+05        -0.49994E+08         0.00000E+00
    0.00000E+00         0.00000E+00        -0.50000E+08
 
   -0.49973E+08         0.21229E+05         0.00000E+00
    0.21229E+05        -0.49993E+08         0.00000E+00
    0.00000E+00         0.00000E+00        -0.50000E+08
 
   -0.49974E+08         0.21856E+05         0.00000E+00
    0.21856E+05        -0.49993E+08         0.00000E+00
    0.00000E+00         0.00000E+00        -0.50000E+08
 
   -0.49975E+08         0.22464E+05         0.00000E+00
    0.22464E+05        -0.49992E+08         0.00000E+00
    0.00000E+00         0.00000E+00        -0.50000E+08
 
   -0.49975E+08         0.23050E+05         0.00000E+00
    0.23050E+05        -0.49992E+08         0.00000E+00
    0.00000E+00         0.00000E+00        -0.50000E+08
 
   -0.49976E+08         0.23615E+05         0.00000E+00
    0.23615E+05        -0.49991E+08         0.00000E+00
    0.00000E+00         0.00000E+00        -0.50000E+08
 
   -0.49977E+08         0.24157E+05         0.00000E+00
    0.24157E+05        -0.49990E+08         0.00000E+00
    0.00000E+00         0.00000E+00        -0.50000E+08
 
   -0.49978E+08         0.24676E+05         0.00000E+00
    0.24676E+05        -0.49990E+08         0.00000E+00
    0.00000E+00         0.00000E+00        -0.50000E+08
 
   -0.49979E+08         0.25172E+05         0.00000E+00
    0.25172E+05        -0.49989E+08         0.00000E+00
    0.00000E+00         0.00000E+00        -0.50000E+08
 
   -0.49980E+08         0.25643E+05         0.00000E+00
    0.25643E+05        -0.49989E+08         0.00000E+00
    0.00000E+00         0.00000E+00        -0.50000E+08
 
   -0.49982E+08         0.26089E+05         0.00000E+00
    0.26089E+05        -0.49988E+08         0.00000E+00
    0.00000E+00         0.00000E+00        -0.50000E+08
 
   -0.49983E+08         0.26509E+05         0.00000E+00
    0.26509E+05        -0.49987E+08         0.00000E+00
    0.00000E+00         0.00000E+00        -0.50000E+08
 
   -0.49984E+08         0.26903E+05         0.00000E+00
    0.26903E+05        -0.49987E+08         0.00000E+00
    0.00000E+00         0.00000E+00        -0.50000E+08
 
   -0.49985E+08         0.27271E+05         0.00000E+00
    0.27271E+05        -0.49986E+08         0.00000E+00
    0.00000E+00         0.00000E+00        -0.50000E+08
 
   -0.49986E+08         0.27611E+05         0.00000E+00
    0.27611E+05        -0.49986E+08         0.00000E+00
    0.00000E+00         0.00000E+00        -0.50000E+08
 
   -0.49987E+08         0.27923E+05         0.00000E+00
    0.27923E+05        -0.49985E+08         0.00000E+00
    0.00000E+00         0.00000E+00        -0.50000E+08
 
   -0.49989E+08         0.28207E+05         0.00000E+00
    0.28207E+05        -0.49984E+08         0.00000E+00
    0.00000E+00         0.00000E+00        -0.50000E+08
 
   -0.49990E+08         0.28463E+05         0.00000E+00
    0.28463E+05        -0.49984E+08         0.00000E+00
    0.00000E+00         0.00000E+00        -0.50000E+08
 
   -0.49991E+08         0.28689E+05         0.00000E+00
    0.28689E+05        -0.49983E+08         0.00000E+00
    0.00000E+00         0.00000E+00        -0.50000E+08
 
   -0.49992E+08         0.28886E+05         0.00000E+00
    0.28886E+05        -0.49982E+08         0.00000E+00
    0.00000E+00         0.00000E+00        -0.50000E+08
 
   -0.49994E+08         0.29052E+05         0.00000E+00
    0.29052E+05        -0.49982E+08         0.00000E+00
    0.00000E+00         0.00000E+00        -0.50000E+08
 
   -0.49995E+08         0.29189E+05         0.00000E+00
    0.29189E+05        -0.49981E+08         0.00000E+00
    0.00000E+00         0.00000E+00        -0.50000E+08
 
   -0.49996E+08         0.29294E+05         0.00000E+00
    0.29294E+05        -0.49980E+08         0.00000E+00
    0.00000E+00         0.00000E+00        -0.50000E+08
 
   -0.49998E+08         0.29369E+05         0.00000E+00
    0.29369E+05        -0.49979E+08         0.00000E+00
    0.00000E+00         0.00000E+00        -0.50000E+08
 
   -0.49999E+08         0.29412E+05         0.00000E+00
    0.29412E+05        -0.49979E+08         0.00000E+00
    0.00000E+00         0.00000E+00        -0.50000E+08
 
   -0.49959E+08         0.48111E+03         0.00000E+00
    0.48111E+03        -0.50000E+08         0.00000E+00
    0.00000E+00         0.00000E+00        -0.50000E+08
 
   -0.49959E+08         0.14539E+04         0.00000E+00
    0.14539E+04        -0.50000E+08         0.00000E+00
    0.00000E+00         0.00000E+00        -0.50000E+08
 
   -0.49959E+08         0.24290E+04         0.00000E+00
    0.24290E+04        -0.50000E+08         0.00000E+00
    0.00000E+00         0.00000E+00        -0.50000E+08
 
   -0.49959E+08         0.34055E+04         0.00000E+00
    0.34055E+04        -0.50000E+08         0.00000E+00
    0.00000E+00         0.00000E+00        -0.50000E+08
 
   -0.49959E+08         0.43824E+04         0.00000E+00
    0.43824E+04        -0.50000E+08         0.00000E+00
    0.00000E+00         0.00000E+00        -0.50000E+08
 
   -0.49959E+08         0.53584E+04         0.00000E+00
    0.53584E+04        -0.50000E+08         0.00000E+00
    0.00000E+00         0.00000E+00        -0.50000E+08
 
   -0.49959E+08         0.63327E+04         0.00000E+00
    0.63327E+04        -0.50000E+08         0.00000E+00
    0.00000E+00         0.00000E+00        -0.50000E+08
 
   -0.49959E+08         0.73041E+04         0.00000E+00
    0.73041E+04        -0.49999E+08         0.00000E+00
    0.00000E+00         0.00000E+00        -0.50000E+08
 
   -0.49959E+08         0.82715E+04         0.00000E+00
    0.82715E+04        -0.49999E+08         0.00000E+00
    0.00000E+00         0.00000E+00        -0.50000E+08
 
   -0.49959E+08         0.92341E+04         0.00000E+00
    0.92341E+04        -0.49999E+08         0.00000E+00
    0.00000E+00         0.00000E+00        -0.50000E+08
 
   -0.49960E+08         0.10191E+05         0.00000E+00
    0.10191E+05        -0.49999E+08         0.00000E+00
    0.00000E+00         0.00000E+00        -0.50000E+08
 
   -0.49960E+08         0.11140E+05         0.00000E+00
    0.11140E+05        -0.49998E+08         0.00000E+00
    0.00000E+00         0.00000E+00        -0.50000E+08
 
   -0.49960E+08         0.12082E+05         0.00000E+00
    0.12082E+05        -0.49998E+08         0.00000E+00
    0.00000E+00         0.00000E+00        -0.50000E+08
 
   -0.49961E+08         0.13014E+05         0.00000E+00
    0.13014E+05        -0.49998E+08         0.00000E+00
    0.00000E+00         0.00000E+00        -0.50000E+08
 
   -0.49961E+08         0.13936E+05         0.00000E+00
    0.13936E+05        -0.49998E+08         0.00000E+00
    0.00000E+00         0.00000E+00        -0.50000E+08
 
   -0.49961E+08         0.14848E+05         0.00000E+00
    0.14848E+05        -0.49997E+08         0.00000E+00
    0.00000E+00         0.00000E+00        -0.50000E+08
 
   -0.49962E+08         0.15747E+05         0.00000E+00
    0.15747E+05        -0.49997E+08         0.00000E+00
    0.00000E+00         0.00000E+00        -0.50000E+08
 
   -0.49963E+08         0.16633E+05         0.00000E+00
    0.16633E+05        -0.49997E+08         0.00000E+00
    0.00000E+00         0.00000E+00        -0.50000E+08
 
   -0.49963E+08         0.17505E+05         0.00000E+00
    0.17505E+05        -0.49996E+08         0.00000E+00
    0.00000E+00         0.00000E+00        -0.50000E+08
 
   -0.49964E+08         0.18362E+05         0.00000E+00
    0.18362E+05        -0.49996E+08         0.00000E+00
    0.00000E+00         0.00000E+00        -0.50000E+08
 
   -0.49964E+08         0.19204E+05         0.00000E+00
    0.19204E+05        -0.49995E+08         0.00000E+00
    0.00000E+00         0.00000E+00        -0.50000E+08
 
   -0.49965E+08         0.20028E+05         0.00000E+00
    0.20028E+05        -0.49995E+08         0.00000E+00
    0.00000E+00         0.00000E+00        -0.50000E+08
 
   -0.49966E+08         0.20835E+05         0.00000E+00
    0.20835E+05        -0.49994E+08         0.00000E+00
    0.00000E+00         0.00000E+00        -0.50000E+08
 
   -0.49967E+08         0.21623E+05         0.00000E+00
    0.21623E+05        -0.49994E+08         0.00000E+00
    0.00000E+00         0.00000E+00        -0.50000E+08
 
   -0.49968E+08         0.22392E+05         0.00000E+00
    0.22392E+05        -0.49993E+08         0.00000E+00
    0.00000E+00         0.00000E+00        -0.50000E+08
 
   -0.49968E+08         0.23140E+05         0.00000E+00
    0.23140E+05        -0.49993E+08         0.00000E+00
    0.00000E+00         0.00000E+00        -0.50000E+08
 
   -0.49969E+08         0.23868E+05         0.00000E+00
    0.23868E+05        -0.49992E+08         0.00000E+00
    0.00000E+00         0.00000E+00        -0.50000E+08
 
   -0.49970E+08         0.24573E+05         0.00000E+00
    0.24573E+05        -0.49992E+08         0.00000E+00
    0.00000E+00         0.00000E+00        -0.50000E+08
 
   -0.49971E+08         0.25255E+05         0.00000E+00
    0.25255E+05        -0.49991E+08         0.00000E+00
    0.00000E+00         0.00000E+00        -0.50000E+08
 
   -0.49972E+08         0.25913E+05         0.00000E+00
    0.25913E+05        -0.49990E+08         0.00000E+00
    0.00000E+00         0.00000E+00        -0.50000E+08
 
   -0.49973E+08         0.26548E+05         0.00000E+00
    0.26548E+05        -0.49990E+08         0.00000E+00
    0.00000E+00         0.00000E+00        -0.50000E+08
 
   -0.49975E+08         0.27156E+05         0.00000E+00
    0.27156E+05        -0.49989E+08         0.00000E+00
    0.00000E+00         0.00000E+00        -0.50000E+08
 
   -0.49976E+08         0.27739E+05         0.00000E+00
    0.27739E+05        -0.49989E+08         0.00000E+00
    0.00000E+00         0.00000E+00        -0.50000E+08
 
   -0.49977E+08         0.28296E+05         0.00000E+00
    0.28296E+05        -0.49988E+08         0.00000E+00
    0.00000E+00         0.00000E+00        -0.50000E+08
 
   -0.49978E+08         0.28825E+05         0.00000E+00
    0.28825E+05        -0.49987E+08         0.00000E+00
    0.00000E+00         0.00000E+00        -0.50000E+08
 
   -0.49979E+08         0.29325E+05         0.00000E+00
    0.29325E+05        -0.49987E+08         0.00000E+00
    0.00000E+00         0.00000E+00        -0.50000E+08
 
   -0.49980E+08         0.29798E+05         0.00000E+00
    0.29798E+05        -0.49986E+08         0.00000E+00
    0.00000E+00         0.00000E+00        -0.50000E+08
 
   -0.49982E+08         0.30240E+05         0.00000E+00
    0.30240E+05        -0.49985E+08         0.00000E+00
    0.00000E+00         0.00000E+00        -0.50000E+08
 
   -0.49983E+08         0.30653E+05         0.00000E+00
    0.30653E+05        -0.49984E+08         0.00000E+00
    0.00000E+00         0.00000E+00        -0.50000E+08
 
   -0.49984E+08         0.31035E+05         0.00000E+00
    0.31035E+05        -0.49984E+08         0.00000E+00
    0.00000E+00         0.00000E+00        -0.50000E+08
 
   -0.49986E+08         0.31387E+05         0.00000E+00
    0.31387E+05        -0.49983E+08         0.00000E+00
    0.00000E+00         0.00000E+00        -0.50000E+08
 
   -0.49987E+08         0.31706E+05         0.00000E+00
    0.31706E+05        -0.49982E+08         0.00000E+00
    0.00000E+00         0.00000E+00        -0.50000E+08
 
   -0.49989E+08         0.31993E+05         0.00000E+00
    0.31993E+05        -0.49982E+08         0.00000E+00
    0.00000E+00         0.00000E+00        -0.50000E+08
 
   -0.49990E+08         0.32248E+05         0.00000E+00
    0.32248E+05        -0.49981E+08         0.00000E+00
    0.00000E+00         0.00000E+00        -0.50000E+08
 
   -0.49991E+08         0.32469E+05         0.00000E+00
    0.32469E+05        -0.49980E+08         0.00000E+00
    0.00000E+00         0.00000E+00        -0.50000E+08
 
   -0.49993E+08         0.32657E+05         0.00000E+00
    0.32657E+05        -0.49979E+08         0.00000E+00
    0.00000E+00         0.00000E+00        -0.50000E+08
 
   -0.49994E+08         0.32811E+05         0.00000E+00
    0.32811E+05        -0.49979E+08         0.00000E+00
    0.00000E+00         0.00000E+00        -0.50000E+08
 
   -0.49996E+08         0.32930E+05         0.00000E+00
    0.32930E+05        -0.49978E+08         0.00000E+00
    0.00000E+00         0.00000E+00        -0.50000E+08
 
   -0.49997E+08         0.33015E+05         0.00000E+00
    0.33015E+05        -0.49977E+08         0.00000E+00
    0.00000E+00         0.00000E+00        -0.50000E+08
 
   -0.49999E+08         0.33064E+05         0.00000E+00
    0.33064E+05        -0.49976E+08         0.00000E+00
    0.00000E+00         0.00000E+00        -0.50000E+08
 
   -0.49954E+08         0.54182E+03         0.00000E+00
    0.54182E+03        -0.50000E+08         0.00000E+00
    0.00000E+00         0.00000E+00        -0.50000E+08
 
   -0.49954E+08         0.16368E+04         0.00000E+00
    0.16368E+04        -0.50000E+08         0.00000E+00
    0.00000E+00         0.00000E+00        -0.50000E+08
 
   -0.49954E+08         0.27344E+04         0.00000E+00
    0.27344E+04        -0.50000E+08         0.00000E+00
    0.00000E+00         0.00000E+00        -0.50000E+08
 
   -0.49954E+08         0.38333E+04         0.00000E+00
    0.38333E+04        -0.50000E+08         0.00000E+00
    0.00000E+00         0.00000E+00        -0.50000E+08
 
   -0.49954E+08         0.49324E+04         0.00000E+00
    0.49324E+04        -0.50000E+08         0.00000E+00
    0.00000E+00         0.00000E+00        -0.50000E+08
 
   -0.49954E+08         0.60305E+04         0.00000E+00
    0.60305E+04        -0.50000E+08         0.00000E+00
    0.00000E+00         0.00000E+00        -0.50000E+08
 
   -0.49954E+08         0.71264E+04         0.00000E+00
    0.71264E+04        -0.49999E+08         0.00000E+00
    0.00000E+00         0.00000E+00        -0.50000E+08
 
   -0.49954E+08         0.82189E+04         0.00000E+00
    0.82189E+04        -0.49999E+08         0.00000E+00
    0.00000E+00         0.00000E+00        -0.50000E+08
 
   -0.49954E+08         0.93069E+04         0.00000E+00
    0.93069E+04        -0.49999E+08         0.00000E+00
    0.00000E+00         0.00000E+00        -0.50000E+08
 
   -0.49954E+08         0.10389E+05         0.00000E+00
    0.10389E+05        -0.49999E+08         0.00000E+00
    0.00000E+00         0.00000E+00        -0.50000E+08
 
   -0.49954E+08         0.11465E+05         0.00000E+00
    0.11465E+05        -0.49999E+08         0.00000E+00
    0.00000E+00         0.00000E+00        -0.50000E+08
 
   -0.49955E+08         0.12532E+05         0.00000E+00
    0.12532E+05        -0.49998E+08         0.00000E+00
    0.00000E+00         0.00000E+00        -0.50000E+08
 
   -0.49955E+08         0.13590E+05         0.00000E+00
    0.13590E+05        -0.49998E+08         0.00000E+00
    0.00000E+00         0.00000E+00        -0.50000E+08
 
   -0.49956E+08         0.14638E+05         0.00000E+00
    0.14638E+05        -0.49998E+08         0.00000E+00
    0.00000E+00         0.00000E+00        -0.50000E+08
 
   -0.49956E+08         0.15675E+05         0.00000E+00
    0.15675E+05        -0.49997E+08         0.00000E+00
    0.00000E+00         0.00000E+00        -0.50000E+08
 
   -0.49957E+08         0.16699E+05         0.00000E+00
    0.16699E+05        -0.49997E+08         0.00000E+00
    0.00000E+00         0.00000E+00        -0.50000E+08
 
   -0.49957E+08         0.17709E+05         0.00000E+00
    0.17709E+05        -0.49997E+08         0.00000E+00
    0.00000E+00         0.00000E+00        -0.50000E+08
 
   -0.49958E+08         0.18704E+05         0.00000E+00
    0.18704E+05        -0.49996E+08         0.00000E+00
    0.00000E+00         0.00000E+00        -0.50000E+08
 
   -0.49959E+08         0.19684E+05         0.00000E+00
    0.19684E+05        -0.49996E+08         0.00000E+00
    0.00000E+00         0.00000E+00        -0.50000E+08
 
   -0.49959E+08         0.20647E+05         0.00000E+00
    0.20647E+05        -0.49995E+08         0.00000E+00
    0.00000E+00         0.00000E+00        -0.50000E+08
 
   -0.49960E+08         0.21592E+05         0.00000E+00
    0.21592E+05        -0.49995E+08         0.00000E+00
    0.00000E+00         0.00000E+00        -0.50000E+08
 
   -0.49961E+08         0.22518E+05         0.00000E+00
    0.22518E+05        -0.49994E+08         0.00000E+00
    0.00000E+00         0.00000E+00        -0.50000E+08
 
   -0.49962E+08         0.23424E+05         0.00000E+00
    0.23424E+05        -0.49994E+08         0.00000E+00
    0.00000E+00         0.00000E+00        -0.50000E+08
 
   -0.49963E+08         0.24310E+05         0.00000E+00
    0.24310E+05        -0.49993E+08         0.00000E+00
    0.00000E+00         0.00000E+00        -0.50000E+08
 
   -0.49964E+08         0.25173E+05         0.00000E+00
    0.25173E+05        -0.49992E+08         0.00000E+00
    0.00000E+00         0.00000E+00        -0.50000E+08
 
   -0.49965E+08         0.26013E+05         0.00000E+00
    0.26013E+05        -0.49992E+08         0.00000E+00
    0.00000E+00         0.00000E+00        -0.50000E+08
 
   -0.49966E+08         0.26829E+05         0.00000E+00
    0.26829E+05        -0.49991E+08         0.00000E+00
    0.00000E+00         0.00000E+00        -0.50000E+08
 
   -0.49967E+08         0.27621E+05         0.00000E+00
    0.27621E+05        -0.49991E+08         0.00000E+00
    0.00000E+00         0.00000E+00        -0.50000E+08
 
   -0.49968E+08         0.28387E+05         0.00000E+00
    0.28387E+05        -0.49990E+08         0.00000E+00
    0.00000E+00         0.00000E+00        -0.50000E+08
 
   -0.49969E+08         0.29126E+05         0.00000E+00
    0.29126E+05        -0.49989E+08         0.00000E+00
    0.00000E+00         0.00000E+00        -0.50000E+08
 
   -0.49970E+08         0.29838E+05         0.00000E+00
    0.29838E+05        -0.49989E+08         0.00000E+00
    0.00000E+00         0.00000E+00        -0.50000E+08
 
   -0.49971E+08         0.30522E+05         0.00000E+00
    0.30522E+05        -0.49988E+08         0.00000E+00
    0.00000E+00         0.00000E+00        -0.50000E+08
 
   -0.49973E+08         0.31176E+05         0.00000E+00
    0.31176E+05        -0.49987E+08         0.00000E+00
    0.00000E+00         0.00000E+00        -0.50000E+08
 
   -0.49974E+08         0.31801E+05         0.00000E+00
    0.31801E+05        -0.49986E+08         0.00000E+00
    0.00000E+00         0.00000E+00        -0.50000E+08
 
   -0.49975E+08         0.32395E+05         0.00000E+00
    0.32395E+05        -0.49986E+08         0.00000E+00
    0.00000E+00         0.00000E+00        -0.50000E+08
 
   -0.49977E+08         0.32957E+05         0.00000E+00
    0.32957E+05        -0.49985E+08         0.00000E+00
    0.00000E+00         0.00000E+00        -0.50000E+08
 
   -0.49978E+08         0.33487E+05         0.00000E+00
    0.33487E+05        -0.49984E+08         0.00000E+00
    0.00000E+00         0.00000E+00        -0.50000E+08
 
   -0.49979E+08         0.33985E+05         0.00000E+00
    0.33985E+05        -0.49983E+08         0.00000E+00
    0.00000E+00         0.00000E+00        -0.50000E+08
 
   -0.49981E+08         0.34448E+05         0.00000E+00
    0.34448E+05        -0.49983E+08         0.00000E+00
    0.00000E+00         0.00000E+00        -0.50000E+08
 
   -0.49982E+08         0.34878E+05         0.00000E+00
    0.34878E+05        -0.49982E+08         0.00000E+00
    0.00000E+00         0.00000E+00        -0.50000E+08
 
   -0.49984E+08         0.35273E+05         0.00000E+00
    0.35273E+05        -0.49981E+08         0.00000E+00
    0.00000E+00         0.00000E+00        -0.50000E+08
 
   -0.49986E+08         0.35632E+05         0.00000E+00
    0.35632E+05        -0.49980E+08         0.00000E+00
    0.00000E+00         0.00000E+00        -0.50000E+08
 
   -0.49987E+08         0.35955E+05         0.00000E+00
    0.35955E+05        -0.49979E+08         0.00000E+00
    0.00000E+00         0.00000E+00        -0.50000E+08
 
   -0.49989E+08         0.36241E+05         0.00000E+00
    0.36241E+05        -0.49978E+08         0.00000E+00
    0.00000E+00         0.00000E+00        -0.50000E+08
 
   -0.49990E+08         0.36490E+05         0.00000E+00
    0.36490E+05        -0.49978E+08         0.00000E+00
    0.00000E+00         0.00000E+00        -0.50000E+08
 
   -0.49992E+08         0.36702E+05         0.00000E+00
    0.36702E+05        -0.49977E+08         0.00000E+00
    0.00000E+00         0.00000E+00        -0.50000E+08
 
   -0.49994E+08         0.36875E+05         0.00000E+00
    0.36875E+05        -0.49976E+08         0.00000E+00
    0.00000E+00         0.00000E+00        -0.50000E+08
 
   -0.49995E+08         0.37010E+05         0.00000E+00
    0.37010E+05        -0.49975E+08         0.00000E+00
    0.00000E+00         0.00000E+00        -0.50000E+08
 
   -0.49997E+08         0.37106E+05         0.00000E+00
    0.37106E+05        -0.49974E+08         0.00000E+00
    0.00000E+00         0.00000E+00        -0.50000E+08
 
   -0.49999E+08         0.37163E+05         0.00000E+00
    0.37163E+05        -0.49973E+08         0.00000E+00
    0.00000E+00         0.00000E+00        -0.50000E+08
 
   -0.49948E+08         0.61015E+03         0.00000E+00
    0.61015E+03        -0.50000E+08         0.00000E+00
    0.00000E+00         0.00000E+00        -0.49999E+08
 
   -0.49948E+08         0.18427E+04         0.00000E+00
    0.18427E+04        -0.50000E+08         0.00000E+00
    0.00000E+00         0.00000E+00        -0.49999E+08
 
   -0.49948E+08         0.30778E+04         0.00000E+00
    0.30778E+04        -0.50000E+08         0.00000E+00
    0.00000E+00         0.00000E+00        -0.49999E+08
 
   -0.49948E+08         0.43143E+04         0.00000E+00
    0.43143E+04        -0.50000E+08         0.00000E+00
    0.00000E+00         0.00000E+00        -0.49999E+08
 
   -0.49948E+08         0.55508E+04         0.00000E+00
    0.55508E+04        -0.50000E+08         0.00000E+00
    0.00000E+00         0.00000E+00        -0.49999E+08
 
   -0.49948E+08         0.67860E+04         0.00000E+00
    0.67860E+04        -0.50000E+08         0.00000E+00
    0.00000E+00         0.00000E+00        -0.49999E+08
 
   -0.49948E+08         0.80186E+04         0.00000E+00
    0.80186E+04        -0.49999E+08         0.00000E+00
    0.00000E+00         0.00000E+00        -0.49999E+08
 
   -0.49948E+08         0.92472E+04         0.00000E+00
    0.92472E+04        -0.49999E+08         0.00000E+00
    0.00000E+00         0.00000E+00        -0.49999E+08
 
   -0.49948E+08         0.10470E+05         0.00000E+00
    0.10470E+05        -0.49999E+08         0.00000E+00
    0.00000E+00         0.00000E+00        -0.49999E+08
 
   -0.49948E+08         0.11687E+05         0.00000E+00
    0.11687E+05        -0.49999E+08         0.00000E+00
    0.00000E+00         0.00000E+00        -0.49999E+08
 
   -0.49949E+08         0.12896E+05         0.00000E+00
    0.12896E+05        -0.49998E+08         0.00000E+00
    0.00000E+00         0.00000E+00        -0.49999E+08
 
   -0.49949E+08         0.14096E+05         0.00000E+00
    0.14096E+05        -0.49998E+08         0.00000E+00
    0.00000E+00         0.00000E+00        -0.49999E+08
 
   -0.49950E+08         0.15285E+05         0.00000E+00
    0.15285E+05        -0.49998E+08         0.00000E+00
    0.00000E+00         0.00000E+00        -0.49999E+08
 
   -0.49950E+08         0.16462E+05         0.00000E+00
    0.16462E+05        -0.49997E+08         0.00000E+00
    0.00000E+00         0.00000E+00        -0.49999E+08
 
   -0.49951E+08         0.17627E+05         0.00000E+00
    0.17627E+05        -0.49997E+08         0.00000E+00
    0.00000E+00         0.00000E+00        -0.49999E+08
 
   -0.49951E+08         0.18777E+05         0.00000E+00
    0.18777E+05        -0.49997E+08         0.00000E+00
    0.00000E+00         0.00000E+00        -0.49999E+08
 
   -0.49952E+08         0.19912E+05         0.00000E+00
    0.19912E+05        -0.49996E+08         0.00000E+00
    0.00000E+00         0.00000E+00        -0.49999E+08
 
   -0.49953E+08         0.21030E+05         0.00000E+00
    0.21030E+05        -0.49996E+08         0.00000E+00
    0.00000E+00         0.00000E+00        -0.49999E+08
 
   -0.49953E+08         0.22131E+05         0.00000E+00
    0.22131E+05        -0.49995E+08         0.00000E+00
    0.00000E+00         0.00000E+00        -0.49999E+08
 
   -0.49954E+08         0.23212E+05         0.00000E+00
    0.23212E+05        -0.49995E+08         0.00000E+00
    0.00000E+00         0.00000E+00        -0.49999E+08
 
   -0.49955E+08         0.24273E+05         0.00000E+00
    0.24273E+05        -0.49994E+08         0.00000E+00
    0.00000E+00         0.00000E+00        -0.49999E+08
 
   -0.49956E+08         0.25313E+05         0.00000E+00
    0.25313E+05        -0.49993E+08         0.00000E+00
    0.00000E+00         0.00000E+00        -0.49999E+08
 
   -0.49957E+08         0.26331E+05         0.00000E+00
    0.26331E+05        -0.49993E+08         0.00000E+00
    0.00000E+00         0.00000E+00        -0.49999E+08
 
   -0.49958E+08         0.27324E+05         0.00000E+00
    0.27324E+05        -0.49992E+08         0.00000E+00
    0.00000E+00         0.00000E+00        -0.49999E+08
 
   -0.49959E+08         0.28293E+05         0.00000E+00
    0.28293E+05        -0.49992E+08         0.00000E+00
    0.00000E+00         0.00000E+00        -0.49999E+08
 
   -0.49960E+08         0.29237E+05         0.00000E+00
    0.29237E+05        -0.49991E+08         0.00000E+00
    0.00000E+00         0.00000E+00        -0.49999E+08
 
   -0.49961E+08         0.30153E+05         0.00000E+00
    0.30153E+05        -0.49990E+08         0.00000E+00
    0.00000E+00         0.00000E+00        -0.49999E+08
 
   -0.49963E+08         0.31042E+05         0.00000E+00
    0.31042E+05        -0.49989E+08         0.00000E+00
    0.00000E+00         0.00000E+00        -0.49999E+08
 
   -0.49964E+08         0.31901E+05         0.00000E+00
    0.31901E+05        -0.49989E+08         0.00000E+00
    0.00000E+00         0.00000E+00        -0.49999E+08
 
   -0.49965E+08         0.32731E+05         0.00000E+00
    0.32731E+05        -0.49988E+08         0.00000E+00
    0.00000E+00         0.00000E+00        -0.49999E+08
 
   -0.49966E+08         0.33530E+05         0.00000E+00
    0.33530E+05        -0.49987E+08         0.00000E+00
    0.00000E+00         0.00000E+00        -0.49999E+08
 
   -0.49968E+08         0.34297E+05         0.00000E+00
    0.34297E+05        -0.49986E+08         0.00000E+00
    0.00000E+00         0.00000E+00        -0.49999E+08
 
   -0.49969E+08         0.35032E+05         0.00000E+00
    0.35032E+05        -0.49986E+08         0.00000E+00
    0.00000E+00         0.00000E+00        -0.49999E+08
 
   -0.49971E+08         0.35733E+05         0.00000E+00
    0.35733E+05        -0.49985E+08         0.00000E+00
    0.00000E+00         0.00000E+00        -0.49999E+08
 
   -0.49972E+08         0.36400E+05         0.00000E+00
    0.36400E+05        -0.49984E+08         0.00000E+00
    0.00000E+00         0.00000E+00        -0.49999E+08
 
   -0.49974E+08         0.37031E+05         0.00000E+00
    0.37031E+05        -0.49983E+08         0.00000E+00
    0.00000E+00         0.00000E+00        -0.49999E+08
 
   -0.49975E+08         0.37626E+05         0.00000E+00
    0.37626E+05        -0.49982E+08         0.00000E+00
    0.00000E+00         0.00000E+00        -0.49999E+08
 
   -0.49977E+08         0.38185E+05         0.00000E+00
    0.38185E+05        -0.49981E+08         0.00000E+00
    0.00000E+00         0.00000E+00        -0.49999E+08
 
   -0.49979E+08         0.38705E+05         0.00000E+00
    0.38705E+05        -0.49980E+08         0.00000E+00
    0.00000E+00         0.00000E+00        -0.49999E+08
 
   -0.49980E+08         0.39188E+05         0.00000E+00
    0.39188E+05        -0.49980E+08         0.00000E+00
    0.00000E+00         0.00000E+00        -0.49999E+08
 
   -0.49982E+08         0.39631E+05         0.00000E+00
    0.39631E+05        -0.49979E+08         0.00000E+00
    0.00000E+00         0.00000E+00        -0.49999E+08
 
   -0.49984E+08         0.40035E+05         0.00000E+00
    0.40035E+05        -0.49978E+08         0.00000E+00
    0.00000E+00         0.00000E+00        -0.49999E+08
 
   -0.49985E+08         0.40398E+05         0.00000E+00
    0.40398E+05        -0.49977E+08         0.00000E+00
    0.00000E+00         0.00000E+00        -0.49999E+08
 
   -0.49987E+08         0.40720E+05         0.00000E+00
    0.40720E+05        -0.49976E+08         0.00000E+00
    0.00000E+00         0.00000E+00        -0.49999E+08
 
   -0.49989E+08         0.41000E+05         0.00000E+00
    0.41000E+05        -0.49975E+08         0.00000E+00
    0.00000E+00         0.00000E+00        -0.49999E+08
 
   -0.49991E+08         0.41239E+05         0.00000E+00
    0.41239E+05        -0.49974E+08         0.00000E+00
    0.00000E+00         0.00000E+00        -0.49999E+08
 
   -0.49993E+08         0.41435E+05         0.00000E+00
    0.41435E+05        -0.49973E+08         0.00000E+00
    0.00000E+00         0.00000E+00        -0.49999E+08
 
   -0.49995E+08         0.41587E+05         0.00000E+00
    0.41587E+05        -0.49972E+08         0.00000E+00
    0.00000E+00         0.00000E+00        -0.49999E+08
 
   -0.49997E+08         0.41696E+05         0.00000E+00
    0.41696E+05        -0.49971E+08         0.00000E+00
    0.00000E+00         0.00000E+00        -0.49999E+08
 
   -0.49999E+08         0.41761E+05         0.00000E+00
    0.41761E+05        -0.49970E+08         0.00000E+00
    0.00000E+00         0.00000E+00        -0.49999E+08
 
   -0.49942E+08         0.68705E+03         0.00000E+00
    0.68705E+03        -0.50000E+08         0.00000E+00
    0.00000E+00         0.00000E+00        -0.49999E+08
 
   -0.49941E+08         0.20742E+04         0.00000E+00
    0.20742E+04        -0.50000E+08         0.00000E+00
    0.00000E+00         0.00000E+00        -0.49999E+08
 
   -0.49941E+08         0.34641E+04         0.00000E+00
    0.34641E+04        -0.50000E+08         0.00000E+00
    0.00000E+00         0.00000E+00        -0.49999E+08
 
   -0.49941E+08         0.48552E+04         0.00000E+00
    0.48552E+04        -0.50000E+08         0.00000E+00
    0.00000E+00         0.00000E+00        -0.49999E+08
 
   -0.49941E+08         0.62461E+04         0.00000E+00
    0.62461E+04        -0.50000E+08         0.00000E+00
    0.00000E+00         0.00000E+00        -0.49999E+08
 
   -0.49941E+08         0.76353E+04         0.00000E+00
    0.76353E+04        -0.50000E+08         0.00000E+00
    0.00000E+00         0.00000E+00        -0.49999E+08
 
   -0.49941E+08         0.90213E+04         0.00000E+00
    0.90213E+04        -0.49999E+08         0.00000E+00
    0.00000E+00         0.00000E+00        -0.49999E+08
 
   -0.49941E+08         0.10403E+05         0.00000E+00
    0.10403E+05        -0.49999E+08         0.00000E+00
    0.00000E+00         0.00000E+00        -0.49999E+08
 
   -0.49942E+08         0.11778E+05         0.00000E+00
    0.11778E+05        -0.49999E+08         0.00000E+00
    0.00000E+00         0.00000E+00        -0.49999E+08
 
   -0.49942E+08         0.13145E+05         0.00000E+00
    0.13145E+05        -0.49999E+08         0.00000E+00
    0.00000E+00         0.00000E+00        -0.49999E+08
 
   -0.49942E+08         0.14504E+05         0.00000E+00
    0.14504E+05        -0.49998E+08         0.00000E+00
    0.00000E+00         0.00000E+00        -0.49999E+08
 
   -0.49943E+08         0.15852E+05         0.00000E+00
    0.15852E+05        -0.49998E+08         0.00000E+00
    0.00000E+00         0.00000E+00        -0.49999E+08
 
   -0.49943E+08         0.17188E+05         0.00000E+00
    0.17188E+05        -0.49997E+08         0.00000E+00
    0.00000E+00         0.00000E+00        -0.49999E+08
 
   -0.49944E+08         0.18511E+05         0.00000E+00
    0.18511E+05        -0.49997E+08         0.00000E+00
    0.00000E+00         0.00000E+00        -0.49999E+08
 
   -0.49945E+08         0.19819E+05         0.00000E+00
    0.19819E+05        -0.49997E+08         0.00000E+00
    0.00000E+00         0.00000E+00        -0.49999E+08
 
   -0.49945E+08         0.21111E+05         0.00000E+00
    0.21111E+05        -0.49996E+08         0.00000E+00
    0.00000E+00         0.00000E+00        -0.49999E+08
 
   -0.49946E+08         0.22386E+05         0.00000E+00
    0.22386E+05        -0.49996E+08         0.00000E+00
    0.00000E+00         0.00000E+00        -0.49999E+08
 
   -0.49947E+08         0.23641E+05         0.00000E+00
    0.23641E+05        -0.49995E+08         0.00000E+00
    0.00000E+00         0.00000E+00        -0.49999E+08
 
   -0.49948E+08         0.24877E+05         0.00000E+00
    0.24877E+05        -0.49994E+08         0.00000E+00
    0.00000E+00         0.00000E+00        -0.49999E+08
 
   -0.49949E+08         0.26091E+05         0.00000E+00
    0.26091E+05        -0.49994E+08         0.00000E+00
    0.00000E+00         0.00000E+00        -0.49999E+08
 
   -0.49950E+08         0.27282E+05         0.00000E+00
    0.27282E+05        -0.49993E+08         0.00000E+00
    0.00000E+00         0.00000E+00        -0.49999E+08
 
   -0.49951E+08         0.28449E+05         0.00000E+00
    0.28449E+05        -0.49993E+08         0.00000E+00
    0.00000E+00         0.00000E+00        -0.49999E+08
 
   -0.49952E+08         0.29591E+05         0.00000E+00
    0.29591E+05        -0.49992E+08         0.00000E+00
    0.00000E+00         0.00000E+00        -0.49999E+08
 
   -0.49953E+08         0.30707E+05         0.00000E+00
    0.30707E+05        -0.49991E+08         0.00000E+00
    0.00000E+00         0.00000E+00        -0.49999E+08
 
   -0.49954E+08         0.31794E+05         0.00000E+00
    0.31794E+05        -0.49991E+08         0.00000E+00
    0.00000E+00         0.00000E+00        -0.49999E+08
 
   -0.49955E+08         0.32853E+05         0.00000E+00
    0.32853E+05        -0.49990E+08         0.00000E+00
    0.00000E+00         0.00000E+00        -0.49999E+08
 
   -0.49957E+08         0.33881E+05         0.00000E+00
    0.33881E+05        -0.49989E+08         0.00000E+00
    0.00000E+00         0.00000E+00        -0.49999E+08
 
   -0.49958E+08         0.34878E+05         0.00000E+00
    0.34878E+05        -0.49988E+08         0.00000E+00
    0.00000E+00         0.00000E+00        -0.49999E+08
 
   -0.49959E+08         0.35843E+05         0.00000E+00
    0.35843E+05        -0.49987E+08         0.00000E+00
    0.00000E+00         0.00000E+00        -0.49999E+08
 
   -0.49961E+08         0.36774E+05         0.00000E+00
    0.36774E+05        -0.49987E+08         0.00000E+00
    0.00000E+00         0.00000E+00        -0.49999E+08
 
   -0.49962E+08         0.37671E+05         0.00000E+00
    0.37671E+05        -0.49986E+08         0.00000E+00
    0.00000E+00         0.00000E+00        -0.49999E+08
 
   -0.49964E+08         0.38532E+05         0.00000E+00
    0.38532E+05        -0.49985E+08         0.00000E+00
    0.00000E+00         0.00000E+00        -0.49999E+08
 
   -0.49965E+08         0.39356E+05         0.00000E+00
    0.39356E+05        -0.49984E+08         0.00000E+00
    0.00000E+00         0.00000E+00        -0.49999E+08
 
   -0.49967E+08         0.40143E+05         0.00000E+00
    0.40143E+05        -0.49983E+08         0.00000E+00
    0.00000E+00         0.00000E+00        -0.49999E+08
 
   -0.49969E+08         0.40891E+05         0.00000E+00
    0.40891E+05        -0.49982E+08         0.00000E+00
    0.00000E+00         0.00000E+00        -0.49999E+08
 
   -0.49970E+08         0.41599E+05         0.00000E+00
    0.41599E+05        -0.49981E+08         0.00000E+00
    0.00000E+00         0.00000E+00        -0.49999E+08
 
   -0.49972E+08         0.42267E+05         0.00000E+00
    0.42267E+05        -0.49980E+08         0.00000E+00
    0.00000E+00         0.00000E+00        -0.49999E+08
 
   -0.49974E+08         0.42894E+05         0.00000E+00
    0.42894E+05        -0.49979E+08         0.00000E+00
    0.00000E+00         0.00000E+00        -0.49999E+08
 
   -0.49976E+08         0.43479E+05         0.00000E+00
    0.43479E+05        -0.49978E+08         0.00000E+00
    0.00000E+00         0.00000E+00        -0.49999E+08
 
   -0.49978E+08         0.44020E+05         0.00000E+00
    0.44020E+05        -0.49977E+08         0.00000E+00
    0.00000E+00         0.00000E+00        -0.49999E+08
 
   -0.49980E+08         0.44518E+05         0.00000E+00
    0.44518E+05        -0.49976E+08         0.00000E+00
    0.00000E+00         0.00000E+00        -0.49999E+08
 
   -0.49982E+08         0.44972E+05         0.00000E+00
    0.44972E+05        -0.49975E+08         0.00000E+00
    0.00000E+00         0.00000E+00        -0.49999E+08
 
   -0.49984E+08         0.45380E+05         0.00000E+00
    0.45380E+05        -0.49974E+08         0.00000E+00
    0.00000E+00         0.00000E+00        -0.49999E+08
 
   -0.49986E+08         0.45742E+05         0.00000E+00
    0.45742E+05        -0.49973E+08         0.00000E+00
    0.00000E+00         0.00000E+00        -0.49999E+08
 
   -0.49988E+08         0.46058E+05         0.00000E+00
    0.46058E+05        -0.49972E+08         0.00000E+00
    0.00000E+00         0.00000E+00        -0.49999E+08
 
   -0.49990E+08         0.46327E+05         0.00000E+00
    0.46327E+05        -0.49971E+08         0.00000E+00
    0.00000E+00         0.00000E+00        -0.49999E+08
 
   -0.49992E+08         0.46547E+05         0.00000E+00
    0.46547E+05        -0.49970E+08         0.00000E+00
    0.00000E+00         0.00000E+00        -0.49999E+08
 
   -0.49994E+08         0.46720E+05         0.00000E+00
    0.46720E+05        -0.49969E+08         0.00000E+00
    0.00000E+00         0.00000E+00        -0.49999E+08
 
   -0.49996E+08         0.46844E+05         0.00000E+00
    0.46844E+05        -0.49967E+08         0.00000E+00
    0.00000E+00         0.00000E+00        -0.49999E+08
 
   -0.49998E+08         0.46918E+05         0.00000E+00
    0.46918E+05        -0.49966E+08         0.00000E+00
    0.00000E+00         0.00000E+00        -0.49999E+08
 
   -0.49934E+08         0.77358E+03         0.00000E+00
    0.77358E+03        -0.50000E+08         0.00000E+00
    0.00000E+00         0.00000E+00        -0.49999E+08
 
   -0.49934E+08         0.23346E+04         0.00000E+00
    0.23346E+04        -0.50000E+08         0.00000E+00
    0.00000E+00         0.00000E+00        -0.49999E+08
 
   -0.49934E+08         0.38983E+04         0.00000E+00
    0.38983E+04        -0.50000E+08         0.00000E+00
    0.00000E+00         0.00000E+00        -0.49999E+08
 
   -0.49934E+08         0.54633E+04         0.00000E+00
    0.54633E+04        -0.50000E+08         0.00000E+00
    0.00000E+00         0.00000E+00        -0.49999E+08
 
   -0.49934E+08         0.70276E+04         0.00000E+00
    0.70276E+04        -0.50000E+08         0.00000E+00
    0.00000E+00         0.00000E+00        -0.49999E+08
 
   -0.49934E+08         0.85898E+04         0.00000E+00
    0.85898E+04        -0.49999E+08         0.00000E+00
    0.00000E+00         0.00000E+00        -0.49999E+08
 
   -0.49934E+08         0.10148E+05         0.00000E+00
    0.10148E+05        -0.49999E+08         0.00000E+00
    0.00000E+00         0.00000E+00        -0.49999E+08
 
   -0.49934E+08         0.11701E+05         0.00000E+00
    0.11701E+05        -0.49999E+08         0.00000E+00
    0.00000E+00         0.00000E+00        -0.49999E+08
 
   -0.49934E+08         0.13247E+05         0.00000E+00
    0.13247E+05        -0.49999E+08         0.00000E+00
    0.00000E+00         0.00000E+00        -0.49999E+08
 
   -0.49935E+08         0.14783E+05         0.00000E+00
    0.14783E+05        -0.49998E+08         0.00000E+00
    0.00000E+00         0.00000E+00        -0.49999E+08
 
   -0.49935E+08         0.16310E+05         0.00000E+00
    0.16310E+05        -0.49998E+08         0.00000E+00
    0.00000E+00         0.00000E+00        -0.49999E+08
 
   -0.49936E+08         0.17824E+05         0.00000E+00
    0.17824E+05        -0.49998E+08         0.00000E+00
    0.00000E+00         0.00000E+00        -0.49999E+08
 
   -0.49936E+08         0.19325E+05         0.00000E+00
    0.19325E+05        -0.49997E+08         0.00000E+00
    0.00000E+00         0.00000E+00        -0.49999E+08
 
   -0.49937E+08         0.20811E+05         0.00000E+00
    0.20811E+05        -0.49997E+08         0.00000E+00
    0.00000E+00         0.00000E+00        -0.49999E+08
 
   -0.49938E+08         0.22280E+05         0.00000E+00
    0.22280E+05        -0.49996E+08         0.00000E+00
    0.00000E+00         0.00000E+00        -0.49999E+08
 
   -0.49938E+08         0.23731E+05         0.00000E+00
    0.23731E+05        -0.49996E+08         0.00000E+00
    0.00000E+00         0.00000E+00        -0.49999E+08
 
   -0.49939E+08         0.25162E+05         0.00000E+00
    0.25162E+05        -0.49995E+08         0.00000E+00
    0.00000E+00         0.00000E+00        -0.49999E+08
 
   -0.49940E+08         0.26572E+05         0.00000E+00
    0.26572E+05        -0.49994E+08         0.00000E+00
    0.00000E+00         0.00000E+00        -0.49999E+08
 
   -0.49941E+08         0.27958E+05         0.00000E+00
    0.27958E+05        -0.49994E+08         0.00000E+00
    0.00000E+00         0.00000E+00        -0.49999E+08
 
   -0.49942E+08         0.29321E+05         0.00000E+00
    0.29321E+05        -0.49993E+08         0.00000E+00
    0.00000E+00         0.00000E+00        -0.49999E+08
 
   -0.49943E+08         0.30658E+05         0.00000E+00
    0.30658E+05        -0.49992E+08         0.00000E+00
    0.00000E+00         0.00000E+00        -0.49999E+08
 
   -0.49944E+08         0.31968E+05         0.00000E+00
    0.31968E+05        -0.49992E+08         0.00000E+00
    0.00000E+00         0.00000E+00        -0.49999E+08
 
   -0.49946E+08         0.33249E+05         0.00000E+00
    0.33249E+05        -0.49991E+08         0.00000E+00
    0.00000E+00         0.00000E+00        -0.49999E+08
 
   -0.49947E+08         0.34501E+05         0.00000E+00
    0.34501E+05        -0.49990E+08         0.00000E+00
    0.00000E+00         0.00000E+00        -0.49999E+08
 
   -0.49948E+08         0.35721E+05         0.00000E+00
    0.35721E+05        -0.49989E+08         0.00000E+00
    0.00000E+00         0.00000E+00        -0.49999E+08
 
   -0.49950E+08         0.36908E+05         0.00000E+00
    0.36908E+05        -0.49989E+08         0.00000E+00
    0.00000E+00         0.00000E+00        -0.49999E+08
 
   -0.49951E+08         0.38062E+05         0.00000E+00
    0.38062E+05        -0.49988E+08         0.00000E+00
    0.00000E+00         0.00000E+00        -0.49999E+08
 
   -0.49953E+08         0.39180E+05         0.00000E+00
    0.39180E+05        -0.49987E+08         0.00000E+00
    0.00000E+00         0.00000E+00        -0.49999E+08
 
   -0.49954E+08         0.40263E+05         0.00000E+00
    0.40263E+05        -0.49986E+08         0.00000E+00
    0.00000E+00         0.00000E+00        -0.49999E+08
 
   -0.49956E+08         0.41307E+05         0.00000E+00
    0.41307E+05        -0.49985E+08         0.00000E+00
    0.00000E+00         0.00000E+00        -0.49999E+08
 
   -0.49958E+08         0.42313E+05         0.00000E+00
    0.42313E+05        -0.49984E+08         0.00000E+00
    0.00000E+00         0.00000E+00        -0.49999E+08
 
   -0.49959E+08         0.43279E+05         0.00000E+00
    0.43279E+05        -0.49983E+08         0.00000E+00
    0.00000E+00         0.00000E+00        -0.49999E+08
 
   -0.49961E+08         0.44203E+05         0.00000E+00
    0.44203E+05        -0.49982E+08         0.00000E+00
    0.00000E+00         0.00000E+00        -0.49999E+08
 
   -0.49963E+08         0.45086E+05         0.00000E+00
    0.45086E+05        -0.49981E+08         0.00000E+00
    0.00000E+00         0.00000E+00        -0.49999E+08
 
   -0.49965E+08         0.45925E+05         0.00000E+00
    0.45925E+05        -0.49980E+08         0.00000E+00
    0.00000E+00         0.00000E+00        -0.49999E+08
 
   -0.49967E+08         0.46720E+05         0.00000E+00
    0.46720E+05        -0.49979E+08         0.00000E+00
    0.00000E+00         0.00000E+00        -0.49999E+08
 
   -0.49969E+08         0.47470E+05         0.00000E+00
    0.47470E+05        -0.49978E+08         0.00000E+00
    0.00000E+00         0.00000E+00        -0.49999E+08
 
   -0.49971E+08         0.48173E+05         0.00000E+00
    0.48173E+05        -0.49977E+08         0.00000E+00
    0.00000E+00         0.00000E+00        -0.49999E+08
 
   -0.49973E+08         0.48829E+05         0.00000E+00
    0.48829E+05        -0.49975E+08         0.00000E+00
    0.00000E+00         0.00000E+00        -0.49999E+08
 
   -0.49975E+08         0.49437E+05         0.00000E+00
    0.49437E+05        -0.49974E+08         0.00000E+00
    0.00000E+00         0.00000E+00        -0.49999E+08
 
   -0.49977E+08         0.49996E+05         0.00000E+00
    0.49996E+05        -0.49973E+08         0.00000E+00
    0.00000E+00         0.00000E+00        -0.49999E+08
 
   -0.49979E+08         0.50506E+05         0.00000E+00
    0.50506E+05        -0.49972E+08         0.00000E+00
    0.00000E+00         0.00000E+00        -0.49999E+08
 
   -0.49982E+08         0.50965E+05         0.00000E+00
    0.50965E+05        -0.49971E+08         0.00000E+00
    0.00000E+00         0.00000E+00        -0.49999E+08
 
   -0.49984E+08         0.51372E+05         0.00000E+00
    0.51372E+05        -0.49970E+08         0.00000E+00
    0.00000E+00         0.00000E+00        -0.49999E+08
 
   -0.49986E+08         0.51727E+05         0.00000E+00
    0.51727E+05        -0.49968E+08         0.00000E+00
    0.00000E+00         0.00000E+00        -0.49999E+08
 
   -0.49988E+08         0.52030E+05         0.00000E+00
    0.52030E+05        -0.49967E+08         0.00000E+00
    0.00000E+00         0.00000E+00        -0.49999E+08
 
   -0.49991E+08         0.52279E+05         0.00000E+00
    0.52279E+05        -0.49966E+08         0.00000E+00
    0.00000E+00         0.00000E+00        -0.49999E+08
 
   -0.49993E+08         0.52474E+05         0.00000E+00
    0.52474E+05        -0.49965E+08         0.00000E+00
    0.00000E+00         0.00000E+00        -0.49999E+08
 
   -0.49996E+08         0.52615E+05         0.00000E+00
    0.52615E+05        -0.49964E+08         0.00000E+00
    0.00000E+00         0.00000E+00        -0.49999E+08
 
   -0.49998E+08         0.52701E+05         0.00000E+00
    0.52701E+05        -0.49962E+08         0.00000E+00
    0.00000E+00         0.00000E+00        -0.49999E+08
 
   -0.49926E+08         0.87094E+03         0.00000E+00
    0.87094E+03        -0.50000E+08         0.00000E+00
    0.00000E+00         0.00000E+00        -0.49999E+08
 
   -0.49926E+08         0.26274E+04         0.00000E+00
    0.26274E+04        -0.50000E+08         0.00000E+00
    0.00000E+00         0.00000E+00        -0.49999E+08
 
   -0.49926E+08         0.43866E+04         0.00000E+00
    0.43866E+04        -0.50000E+08         0.00000E+00
    0.00000E+00         0.00000E+00        -0.49999E+08
 
   -0.49925E+08         0.61467E+04         0.00000E+00
    0.61467E+04        -0.50000E+08         0.00000E+00
    0.00000E+00         0.00000E+00        -0.49999E+08
 
   -0.49925E+08         0.79059E+04         0.00000E+00
    0.79059E+04        -0.50000E+08         0.00000E+00
    0.00000E+00         0.00000E+00        -0.49999E+08
 
   -0.49926E+08         0.96623E+04         0.00000E+00
    0.96623E+04        -0.49999E+08         0.00000E+00
    0.00000E+00         0.00000E+00        -0.49999E+08
 
   -0.49926E+08         0.11414E+05         0.00000E+00
    0.11414E+05        -0.49999E+08         0.00000E+00
    0.00000E+00         0.00000E+00        -0.49999E+08
 
   -0.49926E+08         0.13159E+05         0.00000E+00
    0.13159E+05        -0.49999E+08         0.00000E+00
    0.00000E+00         0.00000E+00        -0.49999E+08
 
   -0.49926E+08         0.14896E+05         0.00000E+00
    0.14896E+05        -0.49999E+08         0.00000E+00
    0.00000E+00         0.00000E+00        -0.49999E+08
 
   -0.49927E+08         0.16623E+05         0.00000E+00
    0.16623E+05        -0.49998E+08         0.00000E+00
    0.00000E+00         0.00000E+00        -0.49999E+08
 
   -0.49927E+08         0.18338E+05         0.00000E+00
    0.18338E+05        -0.49998E+08         0.00000E+00
    0.00000E+00         0.00000E+00        -0.49999E+08
 
   -0.49928E+08         0.20039E+05         0.00000E+00
    0.20039E+05        -0.49997E+08         0.00000E+00
    0.00000E+00         0.00000E+00        -0.49999E+08
 
   -0.49928E+08         0.21724E+05         0.00000E+00
    0.21724E+05        -0.49997E+08         0.00000E+00
    0.00000E+00         0.00000E+00        -0.49999E+08
 
   -0.49929E+08         0.23393E+05         0.00000E+00
    0.23393E+05        -0.49996E+08         0.00000E+00
    0.00000E+00         0.00000E+00        -0.49999E+08
 
   -0.49930E+08         0.25042E+05         0.00000E+00
    0.25042E+05        -0.49996E+08         0.00000E+00
    0.00000E+00         0.00000E+00        -0.49999E+08
 
   -0.49931E+08         0.26671E+05         0.00000E+00
    0.26671E+05        -0.49995E+08         0.00000E+00
    0.00000E+00         0.00000E+00        -0.49999E+08
 
   -0.49932E+08         0.28277E+05         0.00000E+00
    0.28277E+05        -0.49994E+08         0.00000E+00
    0.00000E+00         0.00000E+00        -0.49999E+08
 
   -0.49933E+08         0.29859E+05         0.00000E+00
    0.29859E+05        -0.49994E+08         0.00000E+00
    0.00000E+00         0.00000E+00        -0.49999E+08
 
   -0.49934E+08         0.31415E+05         0.00000E+00
    0.31415E+05        -0.49993E+08         0.00000E+00
    0.00000E+00         0.00000E+00        -0.49999E+08
 
   -0.49935E+08         0.32944E+05         0.00000E+00
    0.32944E+05        -0.49992E+08         0.00000E+00
    0.00000E+00         0.00000E+00        -0.49999E+08
 
   -0.49936E+08         0.34444E+05         0.00000E+00
    0.34444E+05        -0.49992E+08         0.00000E+00
    0.00000E+00         0.00000E+00        -0.49999E+08
 
   -0.49938E+08         0.35914E+05         0.00000E+00
    0.35914E+05        -0.49991E+08         0.00000E+00
    0.00000E+00         0.00000E+00        -0.49999E+08
 
   -0.49939E+08         0.37351E+05         0.00000E+00
    0.37351E+05        -0.49990E+08         0.00000E+00
    0.00000E+00         0.00000E+00        -0.49999E+08
 
   -0.49940E+08         0.38754E+05         0.00000E+00
    0.38754E+05        -0.49989E+08         0.00000E+00
    0.00000E+00         0.00000E+00        -0.49999E+08
 
   -0.49942E+08         0.40123E+05         0.00000E+00
    0.40123E+05        -0.49988E+08         0.00000E+00
    0.00000E+00         0.00000E+00        -0.49999E+08
 
   -0.49944E+08         0.41455E+05         0.00000E+00
    0.41455E+05        -0.49987E+08         0.00000E+00
    0.00000E+00         0.00000E+00        -0.49999E+08
 
   -0.49945E+08         0.42749E+05         0.00000E+00
    0.42749E+05        -0.49986E+08         0.00000E+00
    0.00000E+00         0.00000E+00        -0.49999E+08
 
   -0.49947E+08         0.44003E+05         0.00000E+00
    0.44003E+05        -0.49985E+08         0.00000E+00
    0.00000E+00         0.00000E+00        -0.49999E+08
 
   -0.49949E+08         0.45217E+05         0.00000E+00
    0.45217E+05        -0.49984E+08         0.00000E+00
    0.00000E+00         0.00000E+00        -0.49999E+08
 
   -0.49951E+08         0.46388E+05         0.00000E+00
    0.46388E+05        -0.49983E+08         0.00000E+00
    0.00000E+00         0.00000E+00        -0.49999E+08
 
   -0.49952E+08         0.47516E+05         0.00000E+00
    0.47516E+05        -0.49982E+08         0.00000E+00
    0.00000E+00         0.00000E+00        -0.49999E+08
 
   -0.49954E+08         0.48599E+05         0.00000E+00
    0.48599E+05        -0.49981E+08         0.00000E+00
    0.00000E+00         0.00000E+00        -0.49999E+08
 
   -0.49956E+08         0.49635E+05         0.00000E+00
    0.49635E+05        -0.49980E+08         0.00000E+00
    0.00000E+00         0.00000E+00        -0.49999E+08
 
   -0.49958E+08         0.50625E+05         0.00000E+00
    0.50625E+05        -0.49979E+08         0.00000E+00
    0.00000E+00         0.00000E+00        -0.49999E+08
 
   -0.49961E+08         0.51566E+05         0.00000E+00
    0.51566E+05        -0.49977E+08         0.00000E+00
    0.00000E+00         0.00000E+00        -0.49999E+08
 
   -0.49963E+08         0.52458E+05         0.00000E+00
    0.52458E+05        -0.49976E+08         0.00000E+00
    0.00000E+00         0.00000E+00        -0.49999E+08
 
   -0.49965E+08         0.53299E+05         0.00000E+00
    0.53299E+05        -0.49975E+08         0.00000E+00
    0.00000E+00         0.00000E+00        -0.49999E+08
 
   -0.49967E+08         0.54088E+05         0.00000E+00
    0.54088E+05        -0.49974E+08         0.00000E+00
    0.00000E+00         0.00000E+00        -0.49999E+08
 
   -0.49970E+08         0.54824E+05         0.00000E+00
    0.54824E+05        -0.49972E+08         0.00000E+00
    0.00000E+00         0.00000E+00        -0.49999E+08
 
   -0.49972E+08         0.55507E+05         0.00000E+00
    0.55507E+05        -0.49971E+08         0.00000E+00
    0.00000E+00         0.00000E+00        -0.49999E+08
 
   -0.49974E+08         0.56135E+05         0.00000E+00
    0.56135E+05        -0.49970E+08         0.00000E+00
    0.00000E+00         0.00000E+00        -0.49999E+08
 
   -0.49977E+08         0.56707E+05         0.00000E+00
    0.56707E+05        -0.49969E+08         0.00000E+00
    0.00000E+00         0.00000E+00        -0.49999E+08
 
   -0.49979E+08         0.57222E+05         0.00000E+00
    0.57222E+05        -0.49967E+08         0.00000E+00
    0.00000E+00         0.00000E+00        -0.49999E+08
 
   -0.49982E+08         0.57680E+05         0.00000E+00
    0.57680E+05        -0.49966E+08         0.00000E+00
    0.00000E+00         0.00000E+00        -0.49999E+08
 
   -0.49984E+08         0.58080E+05         0.00000E+00
    0.58080E+05        -0.49965E+08         0.00000E+00
    0.00000E+00         0.00000E+00        -0.49999E+08
 
   -0.49987E+08         0.58421E+05         0.00000E+00
    0.58421E+05        -0.49963E+08         0.00000E+00
    0.00000E+00         0.00000E+00        -0.49999E+08
 
   -0.49990E+08         0.58703E+05         0.00000E+00
    0.58703E+05        -0.49962E+08         0.00000E+00
    0.00000E+00         0.00000E+00        -0.49999E+08
 
   -0.49992E+08         0.58924E+05         0.00000E+00
    0.58924E+05        -0.49960E+08         0.00000E+00
    0.00000E+00         0.00000E+00        -0.49999E+08
 
   -0.49995E+08         0.59084E+05         0.00000E+00
    0.59084E+05        -0.49959E+08         0.00000E+00
    0.00000E+00         0.00000E+00        -0.49999E+08
 
   -0.49998E+08         0.59182E+05         0.00000E+00
    0.59182E+05        -0.49958E+08         0.00000E+00
    0.00000E+00         0.00000E+00        -0.49999E+08
 
   -0.49917E+08         0.98047E+03         0.00000E+00
    0.98047E+03        -0.50000E+08         0.00000E+00
    0.00000E+00         0.00000E+00        -0.49999E+08
 
   -0.49916E+08         0.29565E+04         0.00000E+00
    0.29565E+04        -0.50000E+08         0.00000E+00
    0.00000E+00         0.00000E+00        -0.49999E+08
 
   -0.49916E+08         0.49353E+04         0.00000E+00
    0.49353E+04        -0.50000E+08         0.00000E+00
    0.00000E+00         0.00000E+00        -0.49999E+08
 
   -0.49916E+08         0.69147E+04         0.00000E+00
    0.69147E+04        -0.50000E+08         0.00000E+00
    0.00000E+00         0.00000E+00        -0.49999E+08
 
   -0.49916E+08         0.88926E+04         0.00000E+00
    0.88926E+04        -0.50000E+08         0.00000E+00
    0.00000E+00         0.00000E+00        -0.49999E+08
 
   -0.49916E+08         0.10867E+05         0.00000E+00
    0.10867E+05        -0.49999E+08         0.00000E+00
    0.00000E+00         0.00000E+00        -0.49999E+08
 
   -0.49916E+08         0.12836E+05         0.00000E+00
    0.12836E+05        -0.49999E+08         0.00000E+00
    0.00000E+00         0.00000E+00        -0.49999E+08
 
   -0.49917E+08         0.14797E+05         0.00000E+00
    0.14797E+05        -0.49999E+08         0.00000E+00
    0.00000E+00         0.00000E+00        -0.49999E+08
 
   -0.49917E+08         0.16748E+05         0.00000E+00
    0.16748E+05        -0.49998E+08         0.00000E+00
    0.00000E+00         0.00000E+00        -0.49999E+08
 
   -0.49918E+08         0.18688E+05         0.00000E+00
    0.18688E+05        -0.49998E+08         0.00000E+00
    0.00000E+00         0.00000E+00        -0.49999E+08
 
   -0.49918E+08         0.20614E+05         0.00000E+00
    0.20614E+05        -0.49997E+08         0.00000E+00
    0.00000E+00         0.00000E+00        -0.49999E+08
 
   -0.49919E+08         0.22524E+05         0.00000E+00
    0.22524E+05        -0.49997E+08         0.00000E+00
    0.00000E+00         0.00000E+00        -0.49999E+08
 
   -0.49919E+08         0.24417E+05         0.00000E+00
    0.24417E+05        -0.49996E+08         0.00000E+00
    0.00000E+00         0.00000E+00        -0.49999E+08
 
   -0.49920E+08         0.26289E+05         0.00000E+00
    0.26289E+05        -0.49996E+08         0.00000E+00
    0.00000E+00         0.00000E+00        -0.49999E+08
 
   -0.49921E+08         0.28141E+05         0.00000E+00
    0.28141E+05        -0.49995E+08         0.00000E+00
    0.00000E+00         0.00000E+00        -0.49999E+08
 
   -0.49922E+08         0.29968E+05         0.00000E+00
    0.29968E+05        -0.49994E+08         0.00000E+00
    0.00000E+00         0.00000E+00        -0.49999E+08
 
   -0.49923E+08         0.31771E+05         0.00000E+00
    0.31771E+05        -0.49994E+08         0.00000E+00
    0.00000E+00         0.00000E+00        -0.49999E+08
 
   -0.49924E+08         0.33546E+05         0.00000E+00
    0.33546E+05        -0.49993E+08         0.00000E+00
    0.00000E+00         0.00000E+00        -0.49999E+08
 
   -0.49926E+08         0.35292E+05         0.00000E+00
    0.35292E+05        -0.49992E+08         0.00000E+00
    0.00000E+00         0.00000E+00        -0.49999E+08
 
   -0.49927E+08         0.37007E+05         0.00000E+00
    0.37007E+05        -0.49991E+08         0.00000E+00
    0.00000E+00         0.00000E+00        -0.49999E+08
 
   -0.49928E+08         0.38689E+05         0.00000E+00
    0.38689E+05        -0.49990E+08         0.00000E+00
    0.00000E+00         0.00000E+00        -0.49999E+08
 
   -0.49930E+08         0.40337E+05         0.00000E+00
    0.40337E+05        -0.49990E+08         0.00000E+00
    0.00000E+00         0.00000E+00        -0.49999E+08
 
   -0.49931E+08         0.41949E+05         0.00000E+00
    0.41949E+05        -0.49989E+08         0.00000E+00
    0.00000E+00         0.00000E+00        -0.49999E+08
 
   -0.49933E+08         0.43523E+05         0.00000E+00
    0.43523E+05        -0.49988E+08         0.00000E+00
    0.00000E+00         0.00000E+00        -0.49999E+08
 
   -0.49935E+08         0.45057E+05         0.00000E+00
    0.45057E+05        -0.49987E+08         0.00000E+00
    0.00000E+00         0.00000E+00        -0.49999E+08
 
   -0.49937E+08         0.46550E+05         0.00000E+00
    0.46550E+05        -0.49986E+08         0.00000E+00
    0.00000E+00         0.00000E+00        -0.49999E+08
 
   -0.49938E+08         0.48001E+05         0.00000E+00
    0.48001E+05        -0.49984E+08         0.00000E+00
    0.00000E+00         0.00000E+00        -0.49999E+08
 
   -0.49940E+08         0.49407E+05         0.00000E+00
    0.49407E+05        -0.49983E+08         0.00000E+00
    0.00000E+00         0.00000E+00        -0.49999E+08
 
   -0.49942E+08         0.50767E+05         0.00000E+00
    0.50767E+05        -0.49982E+08         0.00000E+00
    0.00000E+00         0.00000E+00        -0.49999E+08
 
   -0.49944E+08         0.52080E+05         0.00000E+00
    0.52080E+05        -0.49981E+08         0.00000E+00
    0.00000E+00         0.00000E+00        -0.49999E+08
 
   -0.49947E+08         0.53344E+05         0.00000E+00
    0.53344E+05        -0.49980E+08         0.00000E+00
    0.00000E+00         0.00000E+00        -0.49999E+08
 
   -0.49949E+08         0.54558E+05         0.00000E+00
    0.54558E+05        -0.49979E+08         0.00000E+00
    0.00000E+00         0.00000E+00        -0.49999E+08
 
   -0.49951E+08         0.55721E+05         0.00000E+00
    0.55721E+05        -0.49977E+08         0.00000E+00
    0.00000E+00         0.00000E+00        -0.49999E+08
 
   -0.49953E+08         0.56830E+05         0.00000E+00
    0.56830E+05        -0.49976E+08         0.00000E+00
    0.00000E+00         0.00000E+00        -0.49999E+08
 
   -0.49956E+08         0.57885E+05         0.00000E+00
    0.57885E+05        -0.49975E+08         0.00000E+00
    0.00000E+00         0.00000E+00        -0.49999E+08
 
   -0.49958E+08         0.58885E+05         0.00000E+00
    0.58885E+05        -0.49973E+08         0.00000E+00
    0.00000E+00         0.00000E+00        -0.49999E+08
 
   -0.49961E+08         0.59828E+05         0.00000E+00
    0.59828E+05        -0.49972E+08         0.00000E+00
    0.00000E+00         0.00000E+00        -0.49999E+08
 
   -0.49963E+08         0.60713E+05         0.00000E+00
    0.60713E+05        -0.49970E+08         0.00000E+00
    0.00000E+00         0.00000E+00        -0.49999E+08
 
   -0.49966E+08         0.61539E+05         0.00000E+00
    0.61539E+05        -0.49969E+08         0.00000E+00
    0.00000E+00         0.00000E+00        -0.49999E+08
 
   -0.49968E+08         0.62305E+05         0.00000E+00
    0.62305E+05        -0.49968E+08         0.00000E+00
    0.00000E+00         0.00000E+00        -0.49999E+08
 
   -0.49971E+08         0.63010E+05         0.00000E+00
    0.63010E+05        -0.49966E+08         0.00000E+00
    0.00000E+00         0.00000E+00        -0.49999E+08
 
   -0.49974E+08         0.63652E+05         0.00000E+00
    0.63652E+05        -0.49965E+08         0.00000E+00
    0.00000E+00         0.00000E+00        -0.49999E+08
 
   -0.49977E+08         0.64231E+05         0.00000E+00
    0.64231E+05        -0.49963E+08         0.00000E+00
    0.00000E+00         0.00000E+00        -0.49999E+08
 
   -0.49980E+08         0.64746E+05         0.00000E+00
    0.64746E+05        -0.49962E+08         0.00000E+00
    0.00000E+00         0.00000E+00        -0.49999E+08
 
   -0.49982E+08         0.65197E+05         0.00000E+00
    0.65197E+05        -0.49960E+08         0.00000E+00
    0.00000E+00         0.00000E+00        -0.49999E+08
 
   -0.49985E+08         0.65581E+05         0.00000E+00
    0.65581E+05        -0.49959E+08         0.00000E+00
    0.00000E+00         0.00000E+00        -0.49999E+08
 
   -0.49988E+08         0.65898E+05         0.00000E+00
    0.65898E+05        -0.49957E+08         0.00000E+00
    0.00000E+00         0.00000E+00        -0.49999E+08
 
   -0.49991E+08         0.66149E+05         0.00000E+00
    0.66149E+05        -0.49956E+08         0.00000E+00
    0.00000E+00         0.00000E+00        -0.49999E+08
 
   -0.49994E+08         0.66331E+05         0.00000E+00
    0.66331E+05        -0.49954E+08         0.00000E+00
    0.00000E+00         0.00000E+00        -0.49999E+08
 
   -0.49997E+08         0.66444E+05         0.00000E+00
    0.66444E+05        -0.49953E+08         0.00000E+00
    0.00000E+00         0.00000E+00        -0.49999E+08
 
   -0.49906E+08         0.11037E+04         0.00000E+00
    0.11037E+04        -0.50000E+08         0.00000E+00
    0.00000E+00         0.00000E+00        -0.49999E+08
 
   -0.49906E+08         0.33265E+04         0.00000E+00
    0.33265E+04        -0.50000E+08         0.00000E+00
    0.00000E+00         0.00000E+00        -0.49999E+08
 
   -0.49906E+08         0.55519E+04         0.00000E+00
    0.55519E+04        -0.50000E+08         0.00000E+00
    0.00000E+00         0.00000E+00        -0.49999E+08
 
   -0.49906E+08         0.77776E+04         0.00000E+00
    0.77776E+04        -0.50000E+08         0.00000E+00
    0.00000E+00         0.00000E+00        -0.49999E+08
 
   -0.49906E+08         0.10001E+05         0.00000E+00
    0.10001E+05        -0.49999E+08         0.00000E+00
    0.00000E+00         0.00000E+00        -0.49999E+08
 
   -0.49906E+08         0.12220E+05         0.00000E+00
    0.12220E+05        -0.49999E+08         0.00000E+00
    0.00000E+00         0.00000E+00        -0.49999E+08
 
   -0.49906E+08         0.14432E+05         0.00000E+00
    0.14432E+05        -0.49999E+08         0.00000E+00
    0.00000E+00         0.00000E+00        -0.49999E+08
 
   -0.49906E+08         0.16636E+05         0.00000E+00
    0.16636E+05        -0.49999E+08         0.00000E+00
    0.00000E+00         0.00000E+00        -0.49999E+08
 
   -0.49907E+08         0.18827E+05         0.00000E+00
    0.18827E+05        -0.49998E+08         0.00000E+00
    0.00000E+00         0.00000E+00        -0.49999E+08
 
   -0.49907E+08         0.21006E+05         0.00000E+00
    0.21006E+05        -0.49998E+08         0.00000E+00
    0.00000E+00         0.00000E+00        -0.49999E+08
 
   -0.49908E+08         0.23168E+05         0.00000E+00
    0.23168E+05        -0.49997E+08         0.00000E+00
    0.00000E+00         0.00000E+00        -0.49999E+08
 
   -0.49909E+08         0.25313E+05         0.00000E+00
    0.25313E+05        -0.49997E+08         0.00000E+00
    0.00000E+00         0.00000E+00        -0.49999E+08
 
   -0.49909E+08         0.27437E+05         0.00000E+00
    0.27437E+05        -0.49996E+08         0.00000E+00
    0.00000E+00         0.00000E+00        -0.49999E+08
 
   -0.49910E+08         0.29539E+05         0.00000E+00
    0.29539E+05        -0.49995E+08         0.00000E+00
    0.00000E+00         0.00000E+00        -0.49999E+08
 
   -0.49911E+08         0.31616E+05         0.00000E+00
    0.31616E+05        -0.49995E+08         0.00000E+00
    0.00000E+00         0.00000E+00        -0.49999E+08
 
   -0.49913E+08         0.33666E+05         0.00000E+00
    0.33666E+05        -0.49994E+08         0.00000E+00
    0.00000E+00         0.00000E+00        -0.49999E+08
 
   -0.49914E+08         0.35688E+05         0.00000E+00
    0.35688E+05        -0.49993E+08         0.00000E+00
    0.00000E+00         0.00000E+00        -0.49999E+08
 
   -0.49915E+08         0.37679E+05         0.00000E+00
    0.37679E+05        -0.49992E+08         0.00000E+00
    0.00000E+00         0.00000E+00        -0.49999E+08
 
   -0.49916E+08         0.39637E+05         0.00000E+00
    0.39637E+05        -0.49991E+08         0.00000E+00
    0.00000E+00         0.00000E+00        -0.49999E+08
 
   -0.49918E+08         0.41560E+05         0.00000E+00
    0.41560E+05        -0.49990E+08         0.00000E+00
    0.00000E+00         0.00000E+00        -0.49999E+08
 
   -0.49920E+08         0.43446E+05         0.00000E+00
    0.43446E+05        -0.49989E+08         0.00000E+00
    0.00000E+00         0.00000E+00        -0.49999E+08
 
   -0.49921E+08         0.45294E+05         0.00000E+00
    0.45294E+05        -0.49988E+08         0.00000E+00
    0.00000E+00         0.00000E+00        -0.49999E+08
 
   -0.49923E+08         0.47101E+05         0.00000E+00
    0.47101E+05        -0.49987E+08         0.00000E+00
    0.00000E+00         0.00000E+00        -0.49999E+08
 
   -0.49925E+08         0.48865E+05         0.00000E+00
    0.48865E+05        -0.49986E+08         0.00000E+00
    0.00000E+00         0.00000E+00        -0.49999E+08
 
   -0.49927E+08         0.50584E+05         0.00000E+00
    0.50584E+05        -0.49985E+08         0.00000E+00
    0.00000E+00         0.00000E+00        -0.49999E+08
 
   -0.49929E+08         0.52258E+05         0.00000E+00
    0.52258E+05        -0.49984E+08         0.00000E+00
    0.00000E+00         0.00000E+00        -0.49999E+08
 
   -0.49931E+08         0.53883E+05         0.00000E+00
    0.53883E+05        -0.49983E+08         0.00000E+00
    0.00000E+00         0.00000E+00        -0.49999E+08
 
   -0.49933E+08         0.55459E+05         0.00000E+00
    0.55459E+05        -0.49981E+08         0.00000E+00
    0.00000E+00         0.00000E+00        -0.49999E+08
 
   -0.49935E+08         0.56984E+05         0.00000E+00
    0.56984E+05        -0.49980E+08         0.00000E+00
    0.00000E+00         0.00000E+00        -0.49999E+08
 
   -0.49938E+08         0.58455E+05         0.00000E+00
    0.58455E+05        -0.49979E+08         0.00000E+00
    0.00000E+00         0.00000E+00        -0.49999E+08
 
   -0.49940E+08         0.59871E+05         0.00000E+00
    0.59871E+05        -0.49977E+08         0.00000E+00
    0.00000E+00         0.00000E+00        -0.49999E+08
 
   -0.49942E+08         0.61232E+05         0.00000E+00
    0.61232E+05        -0.49976E+08         0.00000E+00
    0.00000E+00         0.00000E+00        -0.49999E+08
 
   -0.49945E+08         0.62534E+05         0.00000E+00
    0.62534E+05        -0.49974E+08         0.00000E+00
    0.00000E+00         0.00000E+00        -0.49999E+08
 
   -0.49948E+08         0.63778E+05         0.00000E+00
    0.63778E+05        -0.49973E+08         0.00000E+00
    0.00000E+00         0.00000E+00        -0.49999E+08
 
   -0.49950E+08         0.64960E+05         0.00000E+00
    0.64960E+05        -0.49972E+08         0.00000E+00
    0.00000E+00         0.00000E+00        -0.49999E+08
 
   -0.49953E+08         0.66081E+05         0.00000E+00
    0.66081E+05        -0.49970E+08         0.00000E+00
    0.00000E+00         0.00000E+00        -0.49999E+08
 
   -0.49956E+08         0.67138E+05         0.00000E+00
    0.67138E+05        -0.49969E+08         0.00000E+00
    0.00000E+00         0.00000E+00        -0.49999E+08
 
   -0.49959E+08         0.68130E+05         0.00000E+00
    0.68130E+05        -0.49967E+08         0.00000E+00
    0.00000E+00         0.00000E+00        -0.49999E+08
 
   -0.49962E+08         0.69057E+05         0.00000E+00
    0.69057E+05        -0.49965E+08         0.00000E+00
    0.00000E+00         0.00000E+00        -0.49999E+08
 
   -0.49965E+08         0.69916E+05         0.00000E+00
    0.69916E+05        -0.49964E+08         0.00000E+00
    0.00000E+00         0.00000E+00        -0.49999E+08
 
   -0.49968E+08         0.70707E+05         0.00000E+00
    0.70707E+05        -0.49962E+08         0.00000E+00
    0.00000E+00         0.00000E+00        -0.49999E+08
 
   -0.49971E+08         0.71428E+05         0.00000E+00
    0.71428E+05        -0.49961E+08         0.00000E+00
    0.00000E+00         0.00000E+00        -0.49999E+08
 
   -0.49974E+08         0.72079E+05         0.00000E+00
    0.72079E+05        -0.49959E+08         0.00000E+00
    0.00000E+00         0.00000E+00        -0.49999E+08
 
   -0.49977E+08         0.72658E+05         0.00000E+00
    0.72658E+05        -0.49957E+08         0.00000E+00
    0.00000E+00         0.00000E+00        -0.49999E+08
 
   -0.49980E+08         0.73164E+05         0.00000E+00
    0.73164E+05        -0.49956E+08         0.00000E+00
    0.00000E+00         0.00000E+00        -0.49999E+08
 
   -0.49983E+08         0.73597E+05         0.00000E+00
    0.73597E+05        -0.49954E+08         0.00000E+00
    0.00000E+00         0.00000E+00        -0.49999E+08
 
   -0.49987E+08         0.73956E+05         0.00000E+00
    0.73956E+05        -0.49952E+08         0.00000E+00
    0.00000E+00         0.00000E+00        -0.49999E+08
 
   -0.49990E+08         0.74239E+05         0.00000E+00
    0.74239E+05        -0.49950E+08         0.00000E+00
    0.00000E+00         0.00000E+00        -0.49999E+08
 
   -0.49994E+08         0.74447E+05         0.00000E+00
    0.74447E+05        -0.49949E+08         0.00000E+00
    0.00000E+00         0.00000E+00        -0.49999E+08
 
   -0.49997E+08         0.74578E+05         0.00000E+00
    0.74578E+05        -0.49947E+08         0.00000E+00
    0.00000E+00         0.00000E+00        -0.49999E+08
 
   -0.49894E+08         0.12422E+04         0.00000E+00
    0.12422E+04        -0.50000E+08         0.00000E+00
    0.00000E+00         0.00000E+00        -0.49998E+08
 
   -0.49894E+08         0.37423E+04         0.00000E+00
    0.37423E+04        -0.50000E+08         0.00000E+00
    0.00000E+00         0.00000E+00        -0.49998E+08
 
   -0.49894E+08         0.62447E+04         0.00000E+00
    0.62447E+04        -0.50000E+08         0.00000E+00
    0.00000E+00         0.00000E+00        -0.49998E+08
 
   -0.49894E+08         0.87467E+04         0.00000E+00
    0.87467E+04        -0.50000E+08         0.00000E+00
    0.00000E+00         0.00000E+00        -0.49998E+08
 
   -0.49894E+08         0.11246E+05         0.00000E+00
    0.11246E+05        -0.49999E+08         0.00000E+00
    0.00000E+00         0.00000E+00        -0.49998E+08
 
   -0.49894E+08         0.13739E+05         0.00000E+00
    0.13739E+05        -0.49999E+08         0.00000E+00
    0.00000E+00         0.00000E+00        -0.49998E+08
 
   -0.49894E+08         0.16224E+05         0.00000E+00
    0.16224E+05        -0.49999E+08         0.00000E+00
    0.00000E+00         0.00000E+00        -0.49998E+08
 
   -0.49895E+08         0.18699E+05         0.00000E+00
    0.18699E+05        -0.49998E+08         0.00000E+00
    0.00000E+00         0.00000E+00        -0.49998E+08
 
   -0.49895E+08         0.21160E+05         0.00000E+00
    0.21160E+05        -0.49998E+08         0.00000E+00
    0.00000E+00         0.00000E+00        -0.49998E+08
 
   -0.49896E+08         0.23606E+05         0.00000E+00
    0.23606E+05        -0.49997E+08         0.00000E+00
    0.00000E+00         0.00000E+00        -0.49998E+08
 
   -0.49897E+08         0.26033E+05         0.00000E+00
    0.26033E+05        -0.49997E+08         0.00000E+00
    0.00000E+00         0.00000E+00        -0.49998E+08
 
   -0.49897E+08         0.28440E+05         0.00000E+00
    0.28440E+05        -0.49996E+08         0.00000E+00
    0.00000E+00         0.00000E+00        -0.49998E+08
 
   -0.49898E+08         0.30824E+05         0.00000E+00
    0.30824E+05        -0.49995E+08         0.00000E+00
    0.00000E+00         0.00000E+00        -0.49998E+08
 
   -0.49899E+08         0.33182E+05         0.00000E+00
    0.33182E+05        -0.49995E+08         0.00000E+00
    0.00000E+00         0.00000E+00        -0.49998E+08
 
   -0.49901E+08         0.35512E+05         0.00000E+00
    0.35512E+05        -0.49994E+08         0.00000E+00
    0.00000E+00         0.00000E+00        -0.49998E+08
 
   -0.49902E+08         0.37811E+05         0.00000E+00
    0.37811E+05        -0.49993E+08         0.00000E+00
    0.00000E+00         0.00000E+00        -0.49998E+08
 
   -0.49903E+08         0.40079E+05         0.00000E+00
    0.40079E+05        -0.49992E+08         0.00000E+00
    0.00000E+00         0.00000E+00        -0.49998E+08
 
   -0.49905E+08         0.42311E+05         0.00000E+00
    0.42311E+05        -0.49991E+08         0.00000E+00
    0.00000E+00         0.00000E+00        -0.49998E+08
 
   -0.49906E+08         0.44506E+05         0.00000E+00
    0.44506E+05        -0.49990E+08         0.00000E+00
    0.00000E+00         0.00000E+00        -0.49998E+08
 
   -0.49908E+08         0.46662E+05         0.00000E+00
    0.46662E+05        -0.49989E+08         0.00000E+00
    0.00000E+00         0.00000E+00        -0.49998E+08
 
   -0.49910E+08         0.48776E+05         0.00000E+00
    0.48776E+05        -0.49988E+08         0.00000E+00
    0.00000E+00         0.00000E+00        -0.49998E+08
 
   -0.49912E+08         0.50846E+05         0.00000E+00
    0.50846E+05        -0.49987E+08         0.00000E+00
    0.00000E+00         0.00000E+00        -0.49998E+08
 
   -0.49914E+08         0.52871E+05         0.00000E+00
    0.52871E+05        -0.49986E+08         0.00000E+00
    0.00000E+00         0.00000E+00        -0.49998E+08
 
   -0.49916E+08         0.54848E+05         0.00000E+00
    0.54848E+05        -0.49984E+08         0.00000E+00
    0.00000E+00         0.00000E+00        -0.49998E+08
 
   -0.49918E+08         0.56774E+05         0.00000E+00
    0.56774E+05        -0.49983E+08         0.00000E+00
    0.00000E+00         0.00000E+00        -0.49998E+08
 
   -0.49920E+08         0.58649E+05         0.00000E+00
    0.58649E+05        -0.49982E+08         0.00000E+00
    0.00000E+00         0.00000E+00        -0.49998E+08
 
   -0.49922E+08         0.60470E+05         0.00000E+00
    0.60470E+05        -0.49980E+08         0.00000E+00
    0.00000E+00         0.00000E+00        -0.49998E+08
 
   -0.49925E+08         0.62235E+05         0.00000E+00
    0.62235E+05        -0.49979E+08         0.00000E+00
    0.00000E+00         0.00000E+00        -0.49998E+08
 
   -0.49927E+08         0.63943E+05         0.00000E+00
    0.63943E+05        -0.49978E+08         0.00000E+00
    0.00000E+00         0.00000E+00        -0.49998E+08
 
   -0.49930E+08         0.65591E+05         0.00000E+00
    0.65591E+05        -0.49976E+08         0.00000E+00
    0.00000E+00         0.00000E+00        -0.49998E+08
 
   -0.49933E+08         0.67177E+05         0.00000E+00
    0.67177E+05        -0.49975E+08         0.00000E+00
    0.00000E+00         0.00000E+00        -0.49998E+08
 
   -0.49935E+08         0.68701E+05         0.00000E+00
    0.68701E+05        -0.49973E+08         0.00000E+00
    0.00000E+00         0.00000E+00        -0.49998E+08
 
   -0.49938E+08         0.70160E+05         0.00000E+00
    0.70160E+05        -0.49971E+08         0.00000E+00
    0.00000E+00         0.00000E+00        -0.49998E+08
 
   -0.49941E+08         0.71553E+05         0.00000E+00
    0.71553E+05        -0.49970E+08         0.00000E+00
    0.00000E+00         0.00000E+00        -0.49998E+08
 
   -0.49944E+08         0.72878E+05         0.00000E+00
    0.72878E+05        -0.49968E+08         0.00000E+00
    0.00000E+00         0.00000E+00        -0.49998E+08
 
   -0.49947E+08         0.74134E+05         0.00000E+00
    0.74134E+05        -0.49966E+08         0.00000E+00
    0.00000E+00         0.00000E+00        -0.49998E+08
 
   -0.49950E+08         0.75318E+05         0.00000E+00
    0.75318E+05        -0.49965E+08         0.00000E+00
    0.00000E+00         0.00000E+00        -0.49998E+08
 
   -0.49954E+08         0.76431E+05         0.00000E+00
    0.76431E+05        -0.49963E+08         0.00000E+00
    0.00000E+00         0.00000E+00        -0.49998E+08
 
   -0.49957E+08         0.77469E+05         0.00000E+00
    0.77469E+05        -0.49961E+08         0.00000E+00
    0.00000E+00         0.00000E+00        -0.49998E+08
 
   -0.49960E+08         0.78433E+05         0.00000E+00
    0.78433E+05        -0.49959E+08         0.00000E+00
    0.00000E+00         0.00000E+00        -0.49998E+08
 
   -0.49964E+08         0.79320E+05         0.00000E+00
    0.79320E+05        -0.49958E+08         0.00000E+00
    0.00000E+00         0.00000E+00        -0.49998E+08
 
   -0.49967E+08         0.80130E+05         0.00000E+00
    0.80130E+05        -0.49956E+08         0.00000E+00
    0.00000E+00         0.00000E+00        -0.49998E+08
 
   -0.49971E+08         0.80860E+05         0.00000E+00
    0.80860E+05        -0.49954E+08         0.00000E+00
    0.00000E+00         0.00000E+00        -0.49998E+08
 
   -0.49974E+08         0.81511E+05         0.00000E+00
    0.81511E+05        -0.49952E+08         0.00000E+00
    0.00000E+00         0.00000E+00        -0.49998E+08
 
   -0.49978E+08         0.82081E+05         0.00000E+00
    0.82081E+05        -0.49950E+08         0.00000E+00
    0.00000E+00         0.00000E+00        -0.49998E+08
 
   -0.49981E+08         0.82569E+05         0.00000E+00
    0.82569E+05        -0.49948E+08         0.00000E+00
    0.00000E+00         0.00000E+00        -0.49998E+08
 
   -0.49985E+08         0.82974E+05         0.00000E+00
    0.82974E+05        -0.49946E+08         0.00000E+00
    0.00000E+00         0.00000E+00        -0.49998E+08
 
   -0.49989E+08         0.83295E+05         0.00000E+00
    0.83295E+05        -0.49944E+08         0.00000E+00
    0.00000E+00         0.00000E+00        -0.49998E+08
 
   -0.49993E+08         0.83532E+05         0.00000E+00
    0.83532E+05        -0.49943E+08         0.00000E+00
    0.00000E+00         0.00000E+00        -0.49998E+08
 
   -0.49996E+08         0.83683E+05         0.00000E+00
    0.83683E+05        -0.49941E+08         0.00000E+00
    0.00000E+00         0.00000E+00        -0.49998E+08
 
   -0.49881E+08         0.13980E+04         0.00000E+00
    0.13980E+04        -0.50000E+08         0.00000E+00
    0.00000E+00         0.00000E+00        -0.49998E+08
 
   -0.49881E+08         0.42095E+04         0.00000E+00
    0.42095E+04        -0.50000E+08         0.00000E+00
    0.00000E+00         0.00000E+00        -0.49998E+08
 
   -0.49881E+08         0.70228E+04         0.00000E+00
    0.70228E+04        -0.50000E+08         0.00000E+00
    0.00000E+00         0.00000E+00        -0.49998E+08
 
   -0.49881E+08         0.98349E+04         0.00000E+00
    0.98349E+04        -0.50000E+08         0.00000E+00
    0.00000E+00         0.00000E+00        -0.49998E+08
 
   -0.49881E+08         0.12643E+05         0.00000E+00
    0.12643E+05        -0.49999E+08         0.00000E+00
    0.00000E+00         0.00000E+00        -0.49998E+08
 
   -0.49881E+08         0.15444E+05         0.00000E+00
    0.15444E+05        -0.49999E+08         0.00000E+00
    0.00000E+00         0.00000E+00        -0.49998E+08
 
   -0.49881E+08         0.18236E+05         0.00000E+00
    0.18236E+05        -0.49999E+08         0.00000E+00
    0.00000E+00         0.00000E+00        -0.49998E+08
 
   -0.49882E+08         0.21014E+05         0.00000E+00
    0.21014E+05        -0.49998E+08         0.00000E+00
    0.00000E+00         0.00000E+00        -0.49998E+08
 
   -0.49882E+08         0.23777E+05         0.00000E+00
    0.23777E+05        -0.49998E+08         0.00000E+00
    0.00000E+00         0.00000E+00        -0.49998E+08
 
   -0.49883E+08         0.26522E+05         0.00000E+00
    0.26522E+05        -0.49997E+08         0.00000E+00
    0.00000E+00         0.00000E+00        -0.49998E+08
 
   -0.49884E+08         0.29246E+05         0.00000E+00
    0.29246E+05        -0.49996E+08         0.00000E+00
    0.00000E+00         0.00000E+00        -0.49998E+08
 
   -0.49885E+08         0.31947E+05         0.00000E+00
    0.31947E+05        -0.49996E+08         0.00000E+00
    0.00000E+00         0.00000E+00        -0.49998E+08
 
   -0.49886E+08         0.34620E+05         0.00000E+00
    0.34620E+05        -0.49995E+08         0.00000E+00
    0.00000E+00         0.00000E+00        -0.49998E+08
 
   -0.49887E+08         0.37265E+05         0.00000E+00
    0.37265E+05        -0.49994E+08         0.00000E+00
    0.00000E+00         0.00000E+00        -0.49998E+08
 
   -0.49888E+08         0.39878E+05         0.00000E+00
    0.39878E+05        -0.49993E+08         0.00000E+00
    0.00000E+00         0.00000E+00        -0.49998E+08
 
   -0.49890E+08         0.42456E+05         0.00000E+00
    0.42456E+05        -0.49992E+08         0.00000E+00
    0.00000E+00         0.00000E+00        -0.49998E+08
 
   -0.49891E+08         0.44998E+05         0.00000E+00
    0.44998E+05        -0.49991E+08         0.00000E+00
    0.00000E+00         0.00000E+00        -0.49998E+08
 
   -0.49893E+08         0.47500E+05         0.00000E+00
    0.47500E+05        -0.49990E+08         0.00000E+00
    0.00000E+00         0.00000E+00        -0.49998E+08
 
   -0.49895E+08         0.49960E+05         0.00000E+00
    0.49960E+05        -0.49989E+08         0.00000E+00
    0.00000E+00         0.00000E+00        -0.49998E+08
 
   -0.49897E+08         0.52375E+05         0.00000E+00
    0.52375E+05        -0.49988E+08         0.00000E+00
    0.00000E+00         0.00000E+00        -0.49998E+08
 
   -0.49899E+08         0.54744E+05         0.00000E+00
    0.54744E+05        -0.49987E+08         0.00000E+00
    0.00000E+00         0.00000E+00        -0.49998E+08
 
   -0.49901E+08         0.57063E+05         0.00000E+00
    0.57063E+05        -0.49985E+08         0.00000E+00
    0.00000E+00         0.00000E+00        -0.49998E+08
 
   -0.49903E+08         0.59331E+05         0.00000E+00
    0.59331E+05        -0.49984E+08         0.00000E+00
    0.00000E+00         0.00000E+00        -0.49998E+08
 
   -0.49905E+08         0.61545E+05         0.00000E+00
    0.61545E+05        -0.49983E+08         0.00000E+00
    0.00000E+00         0.00000E+00        -0.49998E+08
 
   -0.49908E+08         0.63703E+05         0.00000E+00
    0.63703E+05        -0.49981E+08         0.00000E+00
    0.00000E+00         0.00000E+00        -0.49998E+08
 
   -0.49910E+08         0.65802E+05         0.00000E+00
    0.65802E+05        -0.49980E+08         0.00000E+00
    0.00000E+00         0.00000E+00        -0.49998E+08
 
   -0.49913E+08         0.67841E+05         0.00000E+00
    0.67841E+05        -0.49978E+08         0.00000E+00
    0.00000E+00         0.00000E+00        -0.49998E+08
 
   -0.49916E+08         0.69817E+05         0.00000E+00
    0.69817E+05        -0.49977E+08         0.00000E+00
    0.00000E+00         0.00000E+00        -0.49998E+08
 
   -0.49918E+08         0.71729E+05         0.00000E+00
    0.71729E+05        -0.49975E+08         0.00000E+00
    0.00000E+00         0.00000E+00        -0.49998E+08
 
   -0.49921E+08         0.73575E+05         0.00000E+00
    0.73575E+05        -0.49973E+08         0.00000E+00
    0.00000E+00         0.00000E+00        -0.49998E+08
 
   -0.49924E+08         0.75351E+05         0.00000E+00
    0.75351E+05        -0.49972E+08         0.00000E+00
    0.00000E+00         0.00000E+00        -0.49998E+08
 
   -0.49928E+08         0.77057E+05         0.00000E+00
    0.77057E+05        -0.49970E+08         0.00000E+00
    0.00000E+00         0.00000E+00        -0.49998E+08
 
   -0.49931E+08         0.78691E+05         0.00000E+00
    0.78691E+05        -0.49968E+08         0.00000E+00
    0.00000E+00         0.00000E+00        -0.49998E+08
 
   -0.49934E+08         0.80251E+05         0.00000E+00
    0.80251E+05        -0.49966E+08         0.00000E+00
    0.00000E+00         0.00000E+00        -0.49998E+08
 
   -0.49937E+08         0.81735E+05         0.00000E+00
    0.81735E+05        -0.49964E+08         0.00000E+00
    0.00000E+00         0.00000E+00        -0.49998E+08
 
   -0.49941E+08         0.83141E+05         0.00000E+00
    0.83141E+05        -0.49962E+08         0.00000E+00
    0.00000E+00         0.00000E+00        -0.49998E+08
 
   -0.49944E+08         0.84468E+05         0.00000E+00
    0.84468E+05        -0.49961E+08         0.00000E+00
    0.00000E+00         0.00000E+00        -0.49998E+08
 
   -0.49948E+08         0.85714E+05         0.00000E+00
    0.85714E+05        -0.49959E+08         0.00000E+00
    0.00000E+00         0.00000E+00        -0.49998E+08
 
   -0.49952E+08         0.86878E+05         0.00000E+00
    0.86878E+05        -0.49957E+08         0.00000E+00
    0.00000E+00         0.00000E+00        -0.49998E+08
 
   -0.49955E+08         0.87959E+05         0.00000E+00
    0.87959E+05        -0.49955E+08         0.00000E+00
    0.00000E+00         0.00000E+00        -0.49998E+08
 
   -0.49959E+08         0.88954E+05         0.00000E+00
    0.88954E+05        -0.49953E+08         0.00000E+00
    0.00000E+00         0.00000E+00        -0.49998E+08
 
   -0.49963E+08         0.89862E+05         0.00000E+00
    0.89862E+05        -0.49951E+08         0.00000E+00
    0.00000E+00         0.00000E+00        -0.49998E+08
 
   -0.49967E+08         0.90683E+05         0.00000E+00
    0.90683E+05        -0.49948E+08         0.00000E+00
    0.00000E+00         0.00000E+00        -0.49998E+08
 
   -0.49971E+08         0.91414E+05         0.00000E+00
    0.91414E+05        -0.49946E+08         0.00000E+00
    0.00000E+00         0.00000E+00        -0.49998E+08
 
   -0.49975E+08         0.92056E+05         0.00000E+00
    0.92056E+05        -0.49944E+08         0.00000E+00
    0.00000E+00         0.00000E+00        -0.49998E+08
 
   -0.49979E+08         0.92606E+05         0.00000E+00
    0.92606E+05        -0.49942E+08         0.00000E+00
    0.00000E+00         0.00000E+00        -0.49998E+08
 
   -0.49983E+08         0.93063E+05         0.00000E+00
    0.93063E+05        -0.49940E+08         0.00000E+00
    0.00000E+00         0.00000E+00        -0.49998E+08
 
   -0.49987E+08         0.93427E+05         0.00000E+00
    0.93427E+05        -0.49938E+08         0.00000E+00
    0.00000E+00         0.00000E+00        -0.49998E+08
 
   -0.49992E+08         0.93697E+05         0.00000E+00
    0.93697E+05        -0.49936E+08         0.00000E+00
    0.00000E+00         0.00000E+00        -0.49998E+08
 
   -0.49996E+08         0.93872E+05         0.00000E+00
    0.93872E+05        -0.49934E+08         0.00000E+00
    0.00000E+00         0.00000E+00        -0.49998E+08
 
   -0.49866E+08         0.15731E+04         0.00000E+00
    0.15731E+04        -0.50000E+08         0.00000E+00
    0.00000E+00         0.00000E+00        -0.49998E+08
 
   -0.49866E+08         0.47342E+04         0.00000E+00
    0.47342E+04        -0.50000E+08         0.00000E+00
    0.00000E+00         0.00000E+00        -0.49998E+08
 
   -0.49866E+08         0.78964E+04         0.00000E+00
    0.78964E+04        -0.50000E+08         0.00000E+00
    0.00000E+00         0.00000E+00        -0.49998E+08
 
   -0.49866E+08         0.11056E+05         0.00000E+00
    0.11056E+05        -0.50000E+08         0.00000E+00
    0.00000E+00         0.00000E+00        -0.49998E+08
 
   -0.49866E+08         0.14211E+05         0.00000E+00
    0.14211E+05        -0.49999E+08         0.00000E+00
    0.00000E+00         0.00000E+00        -0.49998E+08
 
   -0.49866E+08         0.17357E+05         0.00000E+00
    0.17357E+05        -0.49999E+08         0.00000E+00
    0.00000E+00         0.00000E+00        -0.49998E+08
 
   -0.49866E+08         0.20491E+05         0.00000E+00
    0.20491E+05        -0.49998E+08         0.00000E+00
    0.00000E+00         0.00000E+00        -0.49998E+08
 
   -0.49867E+08         0.23611E+05         0.00000E+00
    0.23611E+05        -0.49998E+08         0.00000E+00
    0.00000E+00         0.00000E+00        -0.49998E+08
 
   -0.49868E+08         0.26712E+05         0.00000E+00
    0.26712E+05        -0.49997E+08         0.00000E+00
    0.00000E+00         0.00000E+00        -0.49998E+08
 
   -0.49868E+08         0.29792E+05         0.00000E+00
    0.29792E+05        -0.49997E+08         0.00000E+00
    0.00000E+00         0.00000E+00        -0.49998E+08
 
   -0.49869E+08         0.32848E+05         0.00000E+00
    0.32848E+05        -0.49996E+08         0.00000E+00
    0.00000E+00         0.00000E+00        -0.49998E+08
 
   -0.49870E+08         0.35876E+05         0.00000E+00
    0.35876E+05        -0.49995E+08         0.00000E+00
    0.00000E+00         0.00000E+00        -0.49998E+08
 
   -0.49872E+08         0.38875E+05         0.00000E+00
    0.38875E+05        -0.49994E+08         0.00000E+00
    0.00000E+00         0.00000E+00        -0.49998E+08
 
   -0.49873E+08         0.41840E+05         0.00000E+00
    0.41840E+05        -0.49993E+08         0.00000E+00
    0.00000E+00         0.00000E+00        -0.49998E+08
 
   -0.49874E+08         0.44769E+05         0.00000E+00
    0.44769E+05        -0.49992E+08         0.00000E+00
    0.00000E+00         0.00000E+00        -0.49998E+08
 
   -0.49876E+08         0.47658E+05         0.00000E+00
    0.47658E+05        -0.49991E+08         0.00000E+00
    0.00000E+00         0.00000E+00        -0.49998E+08
 
   -0.49878E+08         0.50506E+05         0.00000E+00
    0.50506E+05        -0.49990E+08         0.00000E+00
    0.00000E+00         0.00000E+00        -0.49998E+08
 
   -0.49880E+08         0.53309E+05         0.00000E+00
    0.53309E+05        -0.49989E+08         0.00000E+00
    0.00000E+00         0.00000E+00        -0.49998E+08
 
   -0.49882E+08         0.56065E+05         0.00000E+00
    0.56065E+05        -0.49988E+08         0.00000E+00
    0.00000E+00         0.00000E+00        -0.49998E+08
 
   -0.49884E+08         0.58770E+05         0.00000E+00
    0.58770E+05        -0.49986E+08         0.00000E+00
    0.00000E+00         0.00000E+00        -0.49998E+08
 
   -0.49886E+08         0.61423E+05         0.00000E+00
    0.61423E+05        -0.49985E+08         0.00000E+00
    0.00000E+00         0.00000E+00        -0.49998E+08
 
   -0.49889E+08         0.64020E+05         0.00000E+00
    0.64020E+05        -0.49984E+08         0.00000E+00
    0.00000E+00         0.00000E+00        -0.49998E+08
 
   -0.49891E+08         0.66559E+05         0.00000E+00
    0.66559E+05        -0.49982E+08         0.00000E+00
    0.00000E+00         0.00000E+00        -0.49998E+08
 
   -0.49894E+08         0.69038E+05         0.00000E+00
    0.69038E+05        -0.49980E+08         0.00000E+00
    0.00000E+00         0.00000E+00        -0.49998E+08
 
   -0.49896E+08         0.71453E+05         0.00000E+00
    0.71453E+05        -0.49979E+08         0.00000E+00
    0.00000E+00         0.00000E+00        -0.49998E+08
 
   -0.49899E+08         0.73803E+05         0.00000E+00
    0.73803E+05        -0.49977E+08         0.00000E+00
    0.00000E+00         0.00000E+00        -0.49998E+08
 
   -0.49902E+08         0.76085E+05         0.00000E+00
    0.76085E+05        -0.49976E+08         0.00000E+00
    0.00000E+00         0.00000E+00        -0.49998E+08
 
   -0.49905E+08         0.78298E+05         0.00000E+00
    0.78298E+05        -0.49974E+08         0.00000E+00
    0.00000E+00         0.00000E+00        -0.49998E+08
 
   -0.49909E+08         0.80437E+05         0.00000E+00
    0.80437E+05        -0.49972E+08         0.00000E+00
    0.00000E+00         0.00000E+00        -0.49998E+08
 
   -0.49912E+08         0.82502E+05         0.00000E+00
    0.82502E+05        -0.49970E+08         0.00000E+00
    0.00000E+00         0.00000E+00        -0.49998E+08
 
   -0.49915E+08         0.84491E+05         0.00000E+00
    0.84491E+05        -0.49968E+08         0.00000E+00
    0.00000E+00         0.00000E+00        -0.49998E+08
 
   -0.49919E+08         0.86400E+05         0.00000E+00
    0.86400E+05        -0.49966E+08         0.00000E+00
    0.00000E+00         0.00000E+00        -0.49998E+08
 
   -0.49922E+08         0.88229E+05         0.00000E+00
    0.88229E+05        -0.49964E+08         0.00000E+00
    0.00000E+00         0.00000E+00        -0.49998E+08
 
   -0.49926E+08         0.89975E+05         0.00000E+00
    0.89975E+05        -0.49962E+08         0.00000E+00
    0.00000E+00         0.00000E+00        -0.49998E+08
 
   -0.49930E+08         0.91636E+05         0.00000E+00
    0.91636E+05        -0.49960E+08         0.00000E+00
    0.00000E+00         0.00000E+00        -0.49998E+08
 
   -0.49934E+08         0.93210E+05         0.00000E+00
    0.93210E+05        -0.49958E+08         0.00000E+00
    0.00000E+00         0.00000E+00        -0.49998E+08
 
   -0.49938E+08         0.94696E+05         0.00000E+00
    0.94696E+05        -0.49956E+08         0.00000E+00
    0.00000E+00         0.00000E+00        -0.49998E+08
 
   -0.49942E+08         0.96092E+05         0.00000E+00
    0.96092E+05        -0.49954E+08         0.00000E+00
    0.00000E+00         0.00000E+00        -0.49998E+08
 
   -0.49946E+08         0.97396E+05         0.00000E+00
    0.97396E+05        -0.49951E+08         0.00000E+00
    0.00000E+00         0.00000E+00        -0.49998E+08
 
   -0.49950E+08         0.98607E+05         0.00000E+00
    0.98607E+05        -0.49949E+08         0.00000E+00
    0.00000E+00         0.00000E+00        -0.49998E+08
 
   -0.49954E+08         0.99723E+05         0.00000E+00
    0.99723E+05        -0.49947E+08         0.00000E+00
    0.00000E+00         0.00000E+00        -0.49998E+08
 
   -0.49958E+08         0.10074E+06         0.00000E+00
    0.10074E+06        -0.49945E+08         0.00000E+00
    0.00000E+00         0.00000E+00        -0.49998E+08
 
   -0.49963E+08         0.10166E+06         0.00000E+00
    0.10166E+06        -0.49942E+08         0.00000E+00
    0.00000E+00         0.00000E+00        -0.49998E+08
 
   -0.49967E+08         0.10249E+06         0.00000E+00
    0.10249E+06        -0.49940E+08         0.00000E+00
    0.00000E+00         0.00000E+00        -0.49998E+08
 
   -0.49972E+08         0.10321E+06         0.00000E+00
    0.10321E+06        -0.49938E+08         0.00000E+00
    0.00000E+00         0.00000E+00        -0.49998E+08
 
   -0.49976E+08         0.10383E+06         0.00000E+00
    0.10383E+06        -0.49935E+08         0.00000E+00
    0.00000E+00         0.00000E+00        -0.49998E+08
 
   -0.49981E+08         0.10434E+06         0.00000E+00
    0.10434E+06        -0.49933E+08         0.00000E+00
    0.00000E+00         0.00000E+00        -0.49998E+08
 
   -0.49986E+08         0.10476E+06         0.00000E+00
    0.10476E+06        -0.49931E+08         0.00000E+00
    0.00000E+00         0.00000E+00        -0.49998E+08
 
   -0.49990E+08         0.10507E+06         0.00000E+00
    0.10507E+06        -0.49928E+08         0.00000E+00
    0.00000E+00         0.00000E+00        -0.49998E+08
 
   -0.49995E+08         0.10527E+06         0.00000E+00
    0.10527E+06        -0.49926E+08         0.00000E+00
    0.00000E+00         0.00000E+00        -0.49998E+08
 
   -0.49849E+08         0.17698E+04         0.00000E+00
    0.17698E+04        -0.50000E+08         0.00000E+00
    0.00000E+00         0.00000E+00        -0.49997E+08
 
   -0.49849E+08         0.53233E+04         0.00000E+00
    0.53233E+04        -0.50000E+08         0.00000E+00
    0.00000E+00         0.00000E+00        -0.49997E+08
 
   -0.49849E+08         0.88769E+04         0.00000E+00
    0.88769E+04        -0.50000E+08         0.00000E+00
    0.00000E+00         0.00000E+00        -0.49997E+08
 
   -0.49849E+08         0.12427E+05         0.00000E+00
    0.12427E+05        -0.49999E+08         0.00000E+00
    0.00000E+00         0.00000E+00        -0.49997E+08
 
   -0.49849E+08         0.15970E+05         0.00000E+00
    0.15970E+05        -0.49999E+08         0.00000E+00
    0.00000E+00         0.00000E+00        -0.49997E+08
 
   -0.49849E+08         0.19503E+05         0.00000E+00
    0.19503E+05        -0.49999E+08         0.00000E+00
    0.00000E+00         0.00000E+00        -0.49997E+08
 
   -0.49850E+08         0.23021E+05         0.00000E+00
    0.23021E+05        -0.49998E+08         0.00000E+00
    0.00000E+00         0.00000E+00        -0.49997E+08
 
   -0.49850E+08         0.26522E+05         0.00000E+00
    0.26522E+05        -0.49998E+08         0.00000E+00
    0.00000E+00         0.00000E+00        -0.49997E+08
 
   -0.49851E+08         0.30001E+05         0.00000E+00
    0.30001E+05        -0.49997E+08         0.00000E+00
    0.00000E+00         0.00000E+00        -0.49997E+08
 
   -0.49852E+08         0.33456E+05         0.00000E+00
    0.33456E+05        -0.49996E+08         0.00000E+00
    0.00000E+00         0.00000E+00        -0.49997E+08
 
   -0.49853E+08         0.36883E+05         0.00000E+00
    0.36883E+05        -0.49995E+08         0.00000E+00
    0.00000E+00         0.00000E+00        -0.49997E+08
 
   -0.49854E+08         0.40279E+05         0.00000E+00
    0.40279E+05        -0.49995E+08         0.00000E+00
    0.00000E+00         0.00000E+00        -0.49997E+08
 
   -0.49856E+08         0.43640E+05         0.00000E+00
    0.43640E+05        -0.49994E+08         0.00000E+00
    0.00000E+00         0.00000E+00        -0.49997E+08
 
   -0.49857E+08         0.46962E+05         0.00000E+00
    0.46962E+05        -0.49993E+08         0.00000E+00
    0.00000E+00         0.00000E+00        -0.49997E+08
 
   -0.49859E+08         0.50244E+05         0.00000E+00
    0.50244E+05        -0.49991E+08         0.00000E+00
    0.00000E+00         0.00000E+00        -0.49997E+08
 
   -0.49861E+08         0.53482E+05         0.00000E+00
    0.53482E+05        -0.49990E+08         0.00000E+00
    0.00000E+00         0.00000E+00        -0.49997E+08
 
   -0.49863E+08         0.56671E+05         0.00000E+00
    0.56671E+05        -0.49989E+08         0.00000E+00
    0.00000E+00         0.00000E+00        -0.49997E+08
 
   -0.49865E+08         0.59811E+05         0.00000E+00
    0.59811E+05        -0.49988E+08         0.00000E+00
    0.00000E+00         0.00000E+00        -0.49997E+08
 
   -0.49867E+08         0.62896E+05         0.00000E+00
    0.62896E+05        -0.49986E+08         0.00000E+00
    0.00000E+00         0.00000E+00        -0.49997E+08
 
   -0.49870E+08         0.65925E+05         0.00000E+00
    0.65925E+05        -0.49985E+08         0.00000E+00
    0.00000E+00         0.00000E+00        -0.49997E+08
 
   -0.49872E+08         0.68894E+05         0.00000E+00
    0.68894E+05        -0.49983E+08         0.00000E+00
    0.00000E+00         0.00000E+00        -0.49997E+08
 
   -0.49875E+08         0.71801E+05         0.00000E+00
    0.71801E+05        -0.49982E+08         0.00000E+00
    0.00000E+00         0.00000E+00        -0.49997E+08
 
   -0.49878E+08         0.74643E+05         0.00000E+00
    0.74643E+05        -0.49980E+08         0.00000E+00
    0.00000E+00         0.00000E+00        -0.49997E+08
 
   -0.49881E+08         0.77416E+05         0.00000E+00
    0.77416E+05        -0.49978E+08         0.00000E+00
    0.00000E+00         0.00000E+00        -0.49997E+08
 
   -0.49884E+08         0.80119E+05         0.00000E+00
    0.80119E+05        -0.49976E+08         0.00000E+00
    0.00000E+00         0.00000E+00        -0.49997E+08
 
   -0.49887E+08         0.82748E+05         0.00000E+00
    0.82748E+05        -0.49975E+08         0.00000E+00
    0.00000E+00         0.00000E+00        -0.49997E+08
 
   -0.49890E+08         0.85302E+05         0.00000E+00
    0.85302E+05        -0.49973E+08         0.00000E+00
    0.00000E+00         0.00000E+00        -0.49997E+08
 
   -0.49894E+08         0.87776E+05         0.00000E+00
    0.87776E+05        -0.49971E+08         0.00000E+00
    0.00000E+00         0.00000E+00        -0.49997E+08
 
   -0.49897E+08         0.90170E+05         0.00000E+00
    0.90170E+05        -0.49969E+08         0.00000E+00
    0.00000E+00         0.00000E+00        -0.49997E+08
 
   -0.49901E+08         0.92480E+05         0.00000E+00
    0.92480E+05        -0.49967E+08         0.00000E+00
    0.00000E+00         0.00000E+00        -0.49997E+08
 
   -0.49905E+08         0.94704E+05         0.00000E+00
    0.94704E+05        -0.49964E+08         0.00000E+00
    0.00000E+00         0.00000E+00        -0.49997E+08
 
   -0.49909E+08         0.96840E+05         0.00000E+00
    0.96840E+05        -0.49962E+08         0.00000E+00
    0.00000E+00         0.00000E+00        -0.49997E+08
 
   -0.49913E+08         0.98886E+05         0.00000E+00
    0.98886E+05        -0.49960E+08         0.00000E+00
    0.00000E+00         0.00000E+00        -0.49997E+08
 
   -0.49917E+08         0.10084E+06         0.00000E+00
    0.10084E+06        -0.49958E+08         0.00000E+00
    0.00000E+00         0.00000E+00        -0.49997E+08
 
   -0.49921E+08         0.10270E+06         0.00000E+00
    0.10270E+06        -0.49955E+08         0.00000E+00
    0.00000E+00         0.00000E+00        -0.49997E+08
 
   -0.49925E+08         0.10446E+06         0.00000E+00
    0.10446E+06        -0.49953E+08         0.00000E+00
    0.00000E+00         0.00000E+00        -0.49997E+08
 
   -0.49930E+08         0.10612E+06         0.00000E+00
    0.10612E+06        -0.49951E+08         0.00000E+00
    0.00000E+00         0.00000E+00        -0.49997E+08
 
   -0.49934E+08         0.10769E+06         0.00000E+00
    0.10769E+06        -0.49948E+08         0.00000E+00
    0.00000E+00         0.00000E+00        -0.49997E+08
 
   -0.49939E+08         0.10915E+06         0.00000E+00
    0.10915E+06        -0.49946E+08         0.00000E+00
    0.00000E+00         0.00000E+00        -0.49997E+08
 
   -0.49944E+08         0.11050E+06         0.00000E+00
    0.11050E+06        -0.49943E+08         0.00000E+00
    0.00000E+00         0.00000E+00        -0.49997E+08
 
   -0.49948E+08         0.11175E+06         0.00000E+00
    0.11175E+06        -0.49941E+08         0.00000E+00
    0.00000E+00         0.00000E+00        -0.49997E+08
 
   -0.49953E+08         0.11290E+06         0.00000E+00
    0.11290E+06        -0.49938E+08         0.00000E+00
    0.00000E+00         0.00000E+00        -0.49997E+08
 
   -0.49958E+08         0.11393E+06         0.00000E+00
    0.11393E+06        -0.49936E+08         0.00000E+00
    0.00000E+00         0.00000E+00        -0.49997E+08
 
   -0.49963E+08         0.11486E+06         0.00000E+00
    0.11486E+06        -0.49933E+08         0.00000E+00
    0.00000E+00         0.00000E+00        -0.49997E+08
 
   -0.49968E+08         0.11567E+06         0.00000E+00
    0.11567E+06        -0.49930E+08         0.00000E+00
    0.00000E+00         0.00000E+00        -0.49997E+08
 
   -0.49973E+08         0.11637E+06         0.00000E+00
    0.11637E+06        -0.49928E+08         0.00000E+00
    0.00000E+00         0.00000E+00        -0.49997E+08
 
   -0.49979E+08         0.11695E+06         0.00000E+00
    0.11695E+06        -0.49925E+08         0.00000E+00
    0.00000E+00         0.00000E+00        -0.49997E+08
 
   -0.49984E+08         0.11742E+06         0.00000E+00
    0.11742E+06        -0.49922E+08         0.00000E+00
    0.00000E+00         0.00000E+00        -0.49997E+08
 
   -0.49989E+08         0.11777E+06         0.00000E+00
    0.11777E+06        -0.49920E+08         0.00000E+00
    0.00000E+00         0.00000E+00        -0.49997E+08
 
   -0.49994E+08         0.11800E+06         0.00000E+00
    0.11800E+06        -0.49917E+08         0.00000E+00
    0.00000E+00         0.00000E+00        -0.49997E+08
 
   -0.49831E+08         0.19909E+04         0.00000E+00
    0.19909E+04        -0.50000E+08         0.00000E+00
    0.00000E+00         0.00000E+00        -0.49996E+08
 
   -0.49830E+08         0.59845E+04         0.00000E+00
    0.59845E+04        -0.50000E+08         0.00000E+00
    0.00000E+00         0.00000E+00        -0.49996E+08
 
   -0.49830E+08         0.99770E+04         0.00000E+00
    0.99770E+04        -0.50000E+08         0.00000E+00
    0.00000E+00         0.00000E+00        -0.49996E+08
 
   -0.49830E+08         0.13964E+05         0.00000E+00
    0.13964E+05        -0.49999E+08         0.00000E+00
    0.00000E+00         0.00000E+00        -0.49996E+08
 
   -0.49830E+08         0.17943E+05         0.00000E+00
    0.17943E+05        -0.49999E+08         0.00000E+00
    0.00000E+00         0.00000E+00        -0.49996E+08
 
   -0.49831E+08         0.21908E+05         0.00000E+00
    0.21908E+05        -0.49999E+08         0.00000E+00
    0.00000E+00         0.00000E+00        -0.49996E+08
 
   -0.49831E+08         0.25856E+05         0.00000E+00
    0.25856E+05        -0.49998E+08         0.00000E+00
    0.00000E+00         0.00000E+00        -0.49996E+08
 
   -0.49832E+08         0.29784E+05         0.00000E+00
    0.29784E+05        -0.49997E+08         0.00000E+00
    0.00000E+00         0.00000E+00        -0.49996E+08
 
   -0.49833E+08         0.33686E+05         0.00000E+00
    0.33686E+05        -0.49997E+08         0.00000E+00
    0.00000E+00         0.00000E+00        -0.49996E+08
 
   -0.49834E+08         0.37560E+05         0.00000E+00
    0.37560E+05        -0.49996E+08         0.00000E+00
    0.00000E+00         0.00000E+00        -0.49996E+08
 
   -0.49835E+08         0.41402E+05         0.00000E+00
    0.41402E+05        -0.49995E+08         0.00000E+00
    0.00000E+00         0.00000E+00        -0.49996E+08
 
   -0.49837E+08         0.45208E+05         0.00000E+00
    0.45208E+05        -0.49994E+08         0.00000E+00
    0.00000E+00         0.00000E+00        -0.49996E+08
 
   -0.49838E+08         0.48973E+05         0.00000E+00
    0.48973E+05        -0.49993E+08         0.00000E+00
    0.00000E+00         0.00000E+00        -0.49996E+08
 
   -0.49840E+08         0.52696E+05         0.00000E+00
    0.52696E+05        -0.49992E+08         0.00000E+00
    0.00000E+00         0.00000E+00        -0.49996E+08
 
   -0.49842E+08         0.56372E+05         0.00000E+00
    0.56372E+05        -0.49990E+08         0.00000E+00
    0.00000E+00         0.00000E+00        -0.49996E+08
 
   -0.49844E+08         0.59997E+05         0.00000E+00
    0.59997E+05        -0.49989E+08         0.00000E+00
    0.00000E+00         0.00000E+00        -0.49996E+08
 
   -0.49846E+08         0.63568E+05         0.00000E+00
    0.63568E+05        -0.49988E+08         0.00000E+00
    0.00000E+00         0.00000E+00        -0.49996E+08
 
   -0.49849E+08         0.67082E+05         0.00000E+00
    0.67082E+05        -0.49986E+08         0.00000E+00
    0.00000E+00         0.00000E+00        -0.49996E+08
 
   -0.49851E+08         0.70536E+05         0.00000E+00
    0.70536E+05        -0.49985E+08         0.00000E+00
    0.00000E+00         0.00000E+00        -0.49996E+08
 
   -0.49854E+08         0.73925E+05         0.00000E+00
    0.73925E+05        -0.49983E+08         0.00000E+00
    0.00000E+00         0.00000E+00        -0.49996E+08
 
   -0.49857E+08         0.77247E+05         0.00000E+00
    0.77247E+05        -0.49981E+08         0.00000E+00
    0.00000E+00         0.00000E+00        -0.49996E+08
 
   -0.49860E+08         0.80499E+05         0.00000E+00
    0.80499E+05        -0.49979E+08         0.00000E+00
    0.00000E+00         0.00000E+00        -0.49996E+08
 
   -0.49863E+08         0.83678E+05         0.00000E+00
    0.83678E+05        -0.49978E+08         0.00000E+00
    0.00000E+00         0.00000E+00        -0.49996E+08
 
   -0.49866E+08         0.86780E+05         0.00000E+00
    0.86780E+05        -0.49976E+08         0.00000E+00
    0.00000E+00         0.00000E+00        -0.49996E+08
 
   -0.49870E+08         0.89802E+05         0.00000E+00
    0.89802E+05        -0.49974E+08         0.00000E+00
    0.00000E+00         0.00000E+00        -0.49996E+08
 
   -0.49873E+08         0.92743E+05         0.00000E+00
    0.92743E+05        -0.49971E+08         0.00000E+00
    0.00000E+00         0.00000E+00        -0.49996E+08
 
   -0.49877E+08         0.95598E+05         0.00000E+00
    0.95598E+05        -0.49969E+08         0.00000E+00
    0.00000E+00         0.00000E+00        -0.49996E+08
 
   -0.49881E+08         0.98365E+05         0.00000E+00
    0.98365E+05        -0.49967E+08         0.00000E+00
    0.00000E+00         0.00000E+00        -0.49996E+08
 
   -0.49885E+08         0.10104E+06         0.00000E+00
    0.10104E+06        -0.49965E+08         0.00000E+00
    0.00000E+00         0.00000E+00        -0.49996E+08
 
   -0.49889E+08         0.10362E+06         0.00000E+00
    0.10362E+06        -0.49963E+08         0.00000E+00
    0.00000E+00         0.00000E+00        -0.49996E+08
 
   -0.49893E+08         0.10611E+06         0.00000E+00
    0.10611E+06        -0.49960E+08         0.00000E+00
    0.00000E+00         0.00000E+00        -0.49996E+08
 
   -0.49898E+08         0.10850E+06         0.00000E+00
    0.10850E+06        -0.49958E+08         0.00000E+00
    0.00000E+00         0.00000E+00        -0.49996E+08
 
   -0.49902E+08         0.11079E+06         0.00000E+00
    0.11079E+06        -0.49955E+08         0.00000E+00
    0.00000E+00         0.00000E+00        -0.49996E+08
 
   -0.49907E+08         0.11297E+06         0.00000E+00
    0.11297E+06        -0.49953E+08         0.00000E+00
    0.00000E+00         0.00000E+00        -0.49996E+08
 
   -0.49912E+08         0.11505E+06         0.00000E+00
    0.11505E+06        -0.49950E+08         0.00000E+00
    0.00000E+00         0.00000E+00        -0.49996E+08
 
   -0.49916E+08         0.11702E+06         0.00000E+00
    0.11702E+06        -0.49947E+08         0.00000E+00
    0.00000E+00         0.00000E+00        -0.49996E+08
 
   -0.49921E+08         0.11888E+06         0.00000E+00
    0.11888E+06        -0.49945E+08         0.00000E+00
    0.00000E+00         0.00000E+00        -0.49996E+08
 
   -0.49926E+08         0.12063E+06         0.00000E+00
    0.12063E+06        -0.49942E+08         0.00000E+00
    0.00000E+00         0.00000E+00        -0.49996E+08
 
   -0.49932E+08         0.12227E+06         0.00000E+00
    0.12227E+06        -0.49939E+08         0.00000E+00
    0.00000E+00         0.00000E+00        -0.49996E+08
 
   -0.49937E+08         0.12379E+06         0.00000E+00
    0.12379E+06        -0.49937E+08         0.00000E+00
    0.00000E+00         0.00000E+00        -0.49996E+08
 
   -0.49942E+08         0.12519E+06         0.00000E+00
    0.12519E+06        -0.49934E+08         0.00000E+00
    0.00000E+00         0.00000E+00        -0.49996E+08
 
   -0.49947E+08         0.12647E+06         0.00000E+00
    0.12647E+06        -0.49931E+08         0.00000E+00
    0.00000E+00         0.00000E+00        -0.49996E+08
 
   -0.49953E+08         0.12763E+06         0.00000E+00
    0.12763E+06        -0.49928E+08         0.00000E+00
    0.00000E+00         0.00000E+00        -0.49996E+08
 
   -0.49959E+08         0.12867E+06         0.00000E+00
    0.12867E+06        -0.49925E+08         0.00000E+00
    0.00000E+00         0.00000E+00        -0.49996E+08
 
   -0.49964E+08         0.12958E+06         0.00000E+00
    0.12958E+06        -0.49922E+08         0.00000E+00
    0.00000E+00         0.00000E+00        -0.49996E+08
 
   -0.49970E+08         0.13037E+06         0.00000E+00
    0.13037E+06        -0.49919E+08         0.00000E+00
    0.00000E+00         0.00000E+00        -0.49996E+08
 
   -0.49976E+08         0.13103E+06         0.00000E+00
    0.13103E+06        -0.49916E+08         0.00000E+00
    0.00000E+00         0.00000E+00        -0.49996E+08
 
   -0.49982E+08         0.13156E+06         0.00000E+00
    0.13156E+06        -0.49913E+08         0.00000E+00
    0.00000E+00         0.00000E+00        -0.49996E+08
 
   -0.49987E+08         0.13196E+06         0.00000E+00
    0.13196E+06        -0.49910E+08         0.00000E+00
    0.00000E+00         0.00000E+00        -0.49996E+08
 
   -0.49993E+08         0.13224E+06         0.00000E+00
    0.13224E+06        -0.49907E+08         0.00000E+00
    0.00000E+00         0.00000E+00        -0.49996E+08
 
   -0.49809E+08         0.22391E+04         0.00000E+00
    0.22391E+04        -0.50000E+08         0.00000E+00
    0.00000E+00         0.00000E+00        -0.49996E+08
 
   -0.49809E+08         0.67263E+04         0.00000E+00
    0.67263E+04        -0.50000E+08         0.00000E+00
    0.00000E+00         0.00000E+00        -0.49996E+08
 
   -0.49809E+08         0.11211E+05         0.00000E+00
    0.11211E+05        -0.50000E+08         0.00000E+00
    0.00000E+00         0.00000E+00        -0.49996E+08
 
   -0.49809E+08         0.15688E+05         0.00000E+00
    0.15688E+05        -0.49999E+08         0.00000E+00
    0.00000E+00         0.00000E+00        -0.49996E+08
 
   -0.49809E+08         0.20154E+05         0.00000E+00
    0.20154E+05        -0.49999E+08         0.00000E+00
    0.00000E+00         0.00000E+00        -0.49996E+08
 
   -0.49810E+08         0.24603E+05         0.00000E+00
    0.24603E+05        -0.49998E+08         0.00000E+00
    0.00000E+00         0.00000E+00        -0.49996E+08
 
   -0.49810E+08         0.29032E+05         0.00000E+00
    0.29032E+05        -0.49998E+08         0.00000E+00
    0.00000E+00         0.00000E+00        -0.49996E+08
 
   -0.49811E+08         0.33437E+05         0.00000E+00
    0.33437E+05        -0.49997E+08         0.00000E+00
    0.00000E+00         0.00000E+00        -0.49996E+08
 
   -0.49812E+08         0.37812E+05         0.00000E+00
    0.37812E+05        -0.49996E+08         0.00000E+00
    0.00000E+00         0.00000E+00        -0.49996E+08
 
   -0.49813E+08         0.42155E+05         0.00000E+00
    0.42155E+05        -0.49995E+08         0.00000E+00
    0.00000E+00         0.00000E+00        -0.49996E+08
 
   -0.49815E+08         0.46460E+05         0.00000E+00
    0.46460E+05        -0.49994E+08         0.00000E+00
    0.00000E+00         0.00000E+00        -0.49996E+08
 
   -0.49817E+08         0.50723E+05         0.00000E+00
    0.50723E+05        -0.49993E+08         0.00000E+00
    0.00000E+00         0.00000E+00        -0.49996E+08
 
   -0.49818E+08         0.54941E+05         0.00000E+00
    0.54941E+05        -0.49992E+08         0.00000E+00
    0.00000E+00         0.00000E+00        -0.49996E+08
 
   -0.49820E+08         0.59109E+05         0.00000E+00
    0.59109E+05        -0.49991E+08         0.00000E+00
    0.00000E+00         0.00000E+00        -0.49996E+08
 
   -0.49822E+08         0.63224E+05         0.00000E+00
    0.63224E+05        -0.49989E+08         0.00000E+00
    0.00000E+00         0.00000E+00        -0.49996E+08
 
   -0.49825E+08         0.67282E+05         0.00000E+00
    0.67282E+05        -0.49988E+08         0.00000E+00
    0.00000E+00         0.00000E+00        -0.49996E+08
 
   -0.49827E+08         0.71279E+05         0.00000E+00
    0.71279E+05        -0.49986E+08         0.00000E+00
    0.00000E+00         0.00000E+00        -0.49996E+08
 
   -0.49830E+08         0.75210E+05         0.00000E+00
    0.75210E+05        -0.49985E+08         0.00000E+00
    0.00000E+00         0.00000E+00        -0.49996E+08
 
   -0.49833E+08         0.79073E+05         0.00000E+00
    0.79073E+05        -0.49983E+08         0.00000E+00
    0.00000E+00         0.00000E+00        -0.49996E+08
 
   -0.49836E+08         0.82864E+05         0.00000E+00
    0.82864E+05        -0.49981E+08         0.00000E+00
    0.00000E+00         0.00000E+00        -0.49996E+08
 
   -0.49839E+08         0.86580E+05         0.00000E+00
    0.86580E+05        -0.49979E+08         0.00000E+00
    0.00000E+00         0.00000E+00        -0.49996E+08
 
   -0.49843E+08         0.90216E+05         0.00000E+00
    0.90216E+05        -0.49977E+08         0.00000E+00
    0.00000E+00         0.00000E+00        -0.49996E+08
 
   -0.49846E+08         0.93770E+05         0.00000E+00
    0.93770E+05        -0.49975E+08         0.00000E+00
    0.00000E+00         0.00000E+00        -0.49996E+08
 
   -0.49850E+08         0.97237E+05         0.00000E+00
    0.97237E+05        -0.49973E+08         0.00000E+00
    0.00000E+00         0.00000E+00        -0.49996E+08
 
   -0.49854E+08         0.10062E+06         0.00000E+00
    0.10062E+06        -0.49970E+08         0.00000E+00
    0.00000E+00         0.00000E+00        -0.49996E+08
 
   -0.49858E+08         0.10390E+06         0.00000E+00
    0.10390E+06        -0.49968E+08         0.00000E+00
    0.00000E+00         0.00000E+00        -0.49996E+08
 
   -0.49862E+08         0.10709E+06         0.00000E+00
    0.10709E+06        -0.49966E+08         0.00000E+00
    0.00000E+00         0.00000E+00        -0.49996E+08
 
   -0.49867E+08         0.11018E+06         0.00000E+00
    0.11018E+06        -0.49963E+08         0.00000E+00
    0.00000E+00         0.00000E+00        -0.49996E+08
 
   -0.49871E+08         0.11318E+06         0.00000E+00
    0.11318E+06        -0.49961E+08         0.00000E+00
    0.00000E+00         0.00000E+00        -0.49996E+08
 
   -0.49876E+08         0.11606E+06         0.00000E+00
    0.11606E+06        -0.49958E+08         0.00000E+00
    0.00000E+00         0.00000E+00        -0.49996E+08
 
   -0.49880E+08         0.11884E+06         0.00000E+00
    0.11884E+06        -0.49955E+08         0.00000E+00
    0.00000E+00         0.00000E+00        -0.49996E+08
 
   -0.49885E+08         0.12151E+06         0.00000E+00
    0.12151E+06        -0.49953E+08         0.00000E+00
    0.00000E+00         0.00000E+00        -0.49996E+08
 
   -0.49890E+08         0.12407E+06         0.00000E+00
    0.12407E+06        -0.49950E+08         0.00000E+00
    0.00000E+00         0.00000E+00        -0.49996E+08
 
   -0.49896E+08         0.12651E+06         0.00000E+00
    0.12651E+06        -0.49947E+08         0.00000E+00
    0.00000E+00         0.00000E+00        -0.49996E+08
 
   -0.49901E+08         0.12883E+06         0.00000E+00
    0.12883E+06        -0.49944E+08         0.00000E+00
    0.00000E+00         0.00000E+00        -0.49996E+08
 
   -0.49906E+08         0.13104E+06         0.00000E+00
    0.13104E+06        -0.49941E+08         0.00000E+00
    0.00000E+00         0.00000E+00        -0.49996E+08
 
   -0.49912E+08         0.13312E+06         0.00000E+00
    0.13312E+06        -0.49938E+08         0.00000E+00
    0.00000E+00         0.00000E+00        -0.49996E+08
 
   -0.49917E+08         0.13507E+06         0.00000E+00
    0.13507E+06        -0.49935E+08         0.00000E+00
    0.00000E+00         0.00000E+00        -0.49996E+08
 
   -0.49923E+08         0.13690E+06         0.00000E+00
    0.13690E+06        -0.49932E+08         0.00000E+00
    0.00000E+00         0.00000E+00        -0.49996E+08
 
   -0.49929E+08         0.13861E+06         0.00000E+00
    0.13861E+06        -0.49929E+08         0.00000E+00
    0.00000E+00         0.00000E+00        -0.49996E+08
 
   -0.49935E+08         0.14018E+06         0.00000E+00
    0.14018E+06        -0.49926E+08         0.00000E+00
    0.00000E+00         0.00000E+00        -0.49996E+08
 
   -0.49941E+08         0.14161E+06         0.00000E+00
    0.14161E+06        -0.49923E+08         0.00000E+00
    0.00000E+00         0.00000E+00        -0.49996E+08
 
   -0.49947E+08         0.14292E+06         0.00000E+00
    0.14292E+06        -0.49920E+08         0.00000E+00
    0.00000E+00         0.00000E+00        -0.49996E+08
 
   -0.49953E+08         0.14408E+06         0.00000E+00
    0.14408E+06        -0.49916E+08         0.00000E+00
    0.00000E+00         0.00000E+00        -0.49996E+08
 
   -0.49960E+08         0.14511E+06         0.00000E+00
    0.14511E+06        -0.49913E+08         0.00000E+00
    0.00000E+00         0.00000E+00        -0.49996E+08
 
   -0.49966E+08         0.14600E+06         0.00000E+00
    0.14600E+06        -0.49910E+08         0.00000E+00
    0.00000E+00         0.00000E+00        -0.49996E+08
 
   -0.49973E+08         0.14674E+06         0.00000E+00
    0.14674E+06        -0.49907E+08         0.00000E+00
    0.00000E+00         0.00000E+00        -0.49996E+08
 
   -0.49979E+08         0.14735E+06         0.00000E+00
    0.14735E+06        -0.49903E+08         0.00000E+00
    0.00000E+00         0.00000E+00        -0.49996E+08
 
   -0.49986E+08         0.14781E+06         0.00000E+00
    0.14781E+06        -0.49900E+08         0.00000E+00
    0.00000E+00         0.00000E+00        -0.49996E+08
 
   -0.49992E+08         0.14812E+06         0.00000E+00
    0.14812E+06        -0.49897E+08         0.00000E+00
    0.00000E+00         0.00000E+00        -0.49996E+08
 
   -0.49786E+08         0.25177E+04         0.00000E+00
    0.25177E+04        -0.50000E+08         0.00000E+00
    0.00000E+00         0.00000E+00        -0.49995E+08
 
   -0.49785E+08         0.75581E+04         0.00000E+00
    0.75581E+04        -0.50000E+08         0.00000E+00
    0.00000E+00         0.00000E+00        -0.49995E+08
 
   -0.49785E+08         0.12594E+05         0.00000E+00
    0.12594E+05        -0.50000E+08         0.00000E+00
    0.00000E+00         0.00000E+00        -0.49995E+08
 
   -0.49785E+08         0.17619E+05         0.00000E+00
    0.17619E+05        -0.49999E+08         0.00000E+00
    0.00000E+00         0.00000E+00        -0.49995E+08
 
   -0.49786E+08         0.22630E+05         0.00000E+00
    0.22630E+05        -0.49999E+08         0.00000E+00
    0.00000E+00         0.00000E+00        -0.49995E+08
 
   -0.49786E+08         0.27622E+05         0.00000E+00
    0.27622E+05        -0.49998E+08         0.00000E+00
    0.00000E+00         0.00000E+00        -0.49995E+08
 
   -0.49787E+08         0.32589E+05         0.00000E+00
    0.32589E+05        -0.49998E+08         0.00000E+00
    0.00000E+00         0.00000E+00        -0.49995E+08
 
   -0.49788E+08         0.37526E+05         0.00000E+00
    0.37526E+05        -0.49997E+08         0.00000E+00
    0.00000E+00         0.00000E+00        -0.49995E+08
 
   -0.49789E+08         0.42430E+05         0.00000E+00
    0.42430E+05        -0.49996E+08         0.00000E+00
    0.00000E+00         0.00000E+00        -0.49995E+08
 
   -0.49791E+08         0.47295E+05         0.00000E+00
    0.47295E+05        -0.49995E+08         0.00000E+00
    0.00000E+00         0.00000E+00        -0.49995E+08
 
   -0.49792E+08         0.52117E+05         0.00000E+00
    0.52117E+05        -0.49994E+08         0.00000E+00
    0.00000E+00         0.00000E+00        -0.49995E+08
 
   -0.49794E+08         0.56891E+05         0.00000E+00
    0.56891E+05        -0.49992E+08         0.00000E+00
    0.00000E+00         0.00000E+00        -0.49995E+08
 
   -0.49796E+08         0.61613E+05         0.00000E+00
    0.61613E+05        -0.49991E+08         0.00000E+00
    0.00000E+00         0.00000E+00        -0.49995E+08
 
   -0.49798E+08         0.66279E+05         0.00000E+00
    0.66279E+05        -0.49990E+08         0.00000E+00
    0.00000E+00         0.00000E+00        -0.49995E+08
 
   -0.49801E+08         0.70883E+05         0.00000E+00
    0.70883E+05        -0.49988E+08         0.00000E+00
    0.00000E+00         0.00000E+00        -0.49995E+08
 
   -0.49804E+08         0.75423E+05         0.00000E+00
    0.75423E+05        -0.49986E+08         0.00000E+00
    0.00000E+00         0.00000E+00        -0.49995E+08
 
   -0.49806E+08         0.79893E+05         0.00000E+00
    0.79893E+05        -0.49985E+08         0.00000E+00
    0.00000E+00         0.00000E+00        -0.49995E+08
 
   -0.49810E+08         0.84290E+05         0.00000E+00
    0.84290E+05        -0.49983E+08         0.00000E+00
    0.00000E+00         0.00000E+00        -0.49995E+08
 
   -0.49813E+08         0.88609E+05         0.00000E+00
    0.88609E+05        -0.49981E+08         0.00000E+00
    0.00000E+00         0.00000E+00        -0.49995E+08
 
   -0.49816E+08         0.92847E+05         0.00000E+00
    0.92847E+05        -0.49979E+08         0.00000E+00
    0.00000E+00         0.00000E+00        -0.49995E+08
 
   -0.49820E+08         0.96999E+05         0.00000E+00
    0.96999E+05        -0.49976E+08         0.00000E+00
    0.00000E+00         0.00000E+00        -0.49995E+08
 
   -0.49824E+08         0.10106E+06         0.00000E+00
    0.10106E+06        -0.49974E+08         0.00000E+00
    0.00000E+00         0.00000E+00        -0.49995E+08
 
   -0.49828E+08         0.10503E+06         0.00000E+00
    0.10503E+06        -0.49972E+08         0.00000E+00
    0.00000E+00         0.00000E+00        -0.49995E+08
 
   -0.49832E+08         0.10891E+06         0.00000E+00
    0.10891E+06        -0.49969E+08         0.00000E+00
    0.00000E+00         0.00000E+00        -0.49995E+08
 
   -0.49836E+08         0.11268E+06         0.00000E+00
    0.11268E+06        -0.49967E+08         0.00000E+00
    0.00000E+00         0.00000E+00        -0.49995E+08
 
   -0.49841E+08         0.11635E+06         0.00000E+00
    0.11635E+06        -0.49964E+08         0.00000E+00
    0.00000E+00         0.00000E+00        -0.49995E+08
 
   -0.49846E+08         0.11992E+06         0.00000E+00
    0.11992E+06        -0.49962E+08         0.00000E+00
    0.00000E+00         0.00000E+00        -0.49995E+08
 
   -0.49850E+08         0.12337E+06         0.00000E+00
    0.12337E+06        -0.49959E+08         0.00000E+00
    0.00000E+00         0.00000E+00        -0.49995E+08
 
   -0.49855E+08         0.12671E+06         0.00000E+00
    0.12671E+06        -0.49956E+08         0.00000E+00
    0.00000E+00         0.00000E+00        -0.49995E+08
 
   -0.49861E+08         0.12993E+06         0.00000E+00
    0.12993E+06        -0.49953E+08         0.00000E+00
    0.00000E+00         0.00000E+00        -0.49995E+08
 
   -0.49866E+08         0.13304E+06         0.00000E+00
    0.13304E+06        -0.49950E+08         0.00000E+00
    0.00000E+00         0.00000E+00        -0.49995E+08
 
   -0.49872E+08         0.13602E+06         0.00000E+00
    0.13602E+06        -0.49947E+08         0.00000E+00
    0.00000E+00         0.00000E+00        -0.49995E+08
 
   -0.49877E+08         0.13888E+06         0.00000E+00
    0.13888E+06        -0.49944E+08         0.00000E+00
    0.00000E+00         0.00000E+00        -0.49995E+08
 
   -0.49883E+08         0.14160E+06         0.00000E+00
    0.14160E+06        -0.49941E+08         0.00000E+00
    0.00000E+00         0.00000E+00        -0.49995E+08
 
   -0.49889E+08         0.14420E+06         0.00000E+00
    0.14420E+06        -0.49938E+08         0.00000E+00
    0.00000E+00         0.00000E+00        -0.49995E+08
 
   -0.49895E+08         0.14666E+06         0.00000E+00
    0.14666E+06        -0.49935E+08         0.00000E+00
    0.00000E+00         0.00000E+00        -0.49995E+08
 
   -0.49901E+08         0.14899E+06         0.00000E+00
    0.14899E+06        -0.49931E+08         0.00000E+00
    0.00000E+00         0.00000E+00        -0.49995E+08
 
   -0.49907E+08         0.15118E+06         0.00000E+00
    0.15118E+06        -0.49928E+08         0.00000E+00
    0.00000E+00         0.00000E+00        -0.49995E+08
 
   -0.49914E+08         0.15322E+06         0.00000E+00
    0.15322E+06        -0.49924E+08         0.00000E+00
    0.00000E+00         0.00000E+00        -0.49995E+08
 
   -0.49920E+08         0.15513E+06         0.00000E+00
    0.15513E+06        -0.49921E+08         0.00000E+00
    0.00000E+00         0.00000E+00        -0.49995E+08
 
   -0.49927E+08         0.15689E+06         0.00000E+00
    0.15689E+06        -0.49917E+08         0.00000E+00
    0.00000E+00         0.00000E+00        -0.49995E+08
 
   -0.49934E+08         0.15850E+06         0.00000E+00
    0.15850E+06        -0.49914E+08         0.00000E+00
    0.00000E+00         0.00000E+00        -0.49995E+08
 
   -0.49941E+08         0.15996E+06         0.00000E+00
    0.15996E+06        -0.49910E+08         0.00000E+00
    0.00000E+00         0.00000E+00        -0.49995E+08
 
   -0.49948E+08         0.16127E+06         0.00000E+00
    0.16127E+06        -0.49907E+08         0.00000E+00
    0.00000E+00         0.00000E+00        -0.49995E+08
 
   -0.49955E+08         0.16243E+06         0.00000E+00
    0.16243E+06        -0.49903E+08         0.00000E+00
    0.00000E+00         0.00000E+00        -0.49995E+08
 
   -0.49962E+08         0.16343E+06         0.00000E+00
    0.16343E+06        -0.49899E+08         0.00000E+00
    0.00000E+00         0.00000E+00        -0.49995E+08
 
   -0.49969E+08         0.16427E+06         0.00000E+00
    0.16427E+06        -0.49896E+08         0.00000E+00
    0.00000E+00         0.00000E+00        -0.49995E+08
 
   -0.49976E+08         0.16496E+06         0.00000E+00
    0.16496E+06        -0.49892E+08         0.00000E+00
    0.00000E+00         0.00000E+00        -0.49995E+08
 
   -0.49984E+08         0.16549E+06         0.00000E+00
    0.16549E+06        -0.49888E+08         0.00000E+00
    0.00000E+00         0.00000E+00        -0.49995E+08
 
   -0.49991E+08         0.16585E+06         0.00000E+00
    0.16585E+06        -0.49885E+08         0.00000E+00
    0.00000E+00         0.00000E+00        -0.49995E+08
 
   -0.49759E+08         0.28304E+04         0.00000E+00
    0.28304E+04        -0.50000E+08         0.00000E+00
    0.00000E+00         0.00000E+00        -0.49994E+08
 
   -0.49759E+08         0.84906E+04         0.00000E+00
    0.84906E+04        -0.50000E+08         0.00000E+00
    0.00000E+00         0.00000E+00        -0.49994E+08
 
   -0.49759E+08         0.14143E+05         0.00000E+00
    0.14143E+05        -0.50000E+08         0.00000E+00
    0.00000E+00         0.00000E+00        -0.49994E+08
 
   -0.49759E+08         0.19783E+05         0.00000E+00
    0.19783E+05        -0.49999E+08         0.00000E+00
    0.00000E+00         0.00000E+00        -0.49994E+08
 
   -0.49759E+08         0.25404E+05         0.00000E+00
    0.25404E+05        -0.49999E+08         0.00000E+00
    0.00000E+00         0.00000E+00        -0.49994E+08
 
   -0.49760E+08         0.31001E+05         0.00000E+00
    0.31001E+05        -0.49998E+08         0.00000E+00
    0.00000E+00         0.00000E+00        -0.49994E+08
 
   -0.49761E+08         0.36568E+05         0.00000E+00
    0.36568E+05        -0.49997E+08         0.00000E+00
    0.00000E+00         0.00000E+00        -0.49994E+08
 
   -0.49762E+08         0.42101E+05         0.00000E+00
    0.42101E+05        -0.49996E+08         0.00000E+00
    0.00000E+00         0.00000E+00        -0.49994E+08
 
   -0.49763E+08         0.47595E+05         0.00000E+00
    0.47595E+05        -0.49995E+08         0.00000E+00
    0.00000E+00         0.00000E+00        -0.49994E+08
 
   -0.49765E+08         0.53043E+05         0.00000E+00
    0.53043E+05        -0.49994E+08         0.00000E+00
    0.00000E+00         0.00000E+00        -0.49994E+08
 
   -0.49767E+08         0.58442E+05         0.00000E+00
    0.58442E+05        -0.49993E+08         0.00000E+00
    0.00000E+00         0.00000E+00        -0.49994E+08
 
   -0.49769E+08         0.63785E+05         0.00000E+00
    0.63785E+05        -0.49991E+08         0.00000E+00
    0.00000E+00         0.00000E+00        -0.49994E+08
 
   -0.49771E+08         0.69069E+05         0.00000E+00
    0.69069E+05        -0.49990E+08         0.00000E+00
    0.00000E+00         0.00000E+00        -0.49994E+08
 
   -0.49774E+08         0.74288E+05         0.00000E+00
    0.74288E+05        -0.49988E+08         0.00000E+00
    0.00000E+00         0.00000E+00        -0.49994E+08
 
   -0.49777E+08         0.79438E+05         0.00000E+00
    0.79438E+05        -0.49987E+08         0.00000E+00
    0.00000E+00         0.00000E+00        -0.49994E+08
 
   -0.49780E+08         0.84514E+05         0.00000E+00
    0.84514E+05        -0.49985E+08         0.00000E+00
    0.00000E+00         0.00000E+00        -0.49994E+08
 
   -0.49783E+08         0.89511E+05         0.00000E+00
    0.89511E+05        -0.49983E+08         0.00000E+00
    0.00000E+00         0.00000E+00        -0.49994E+08
 
   -0.49786E+08         0.94425E+05         0.00000E+00
    0.94425E+05        -0.49981E+08         0.00000E+00
    0.00000E+00         0.00000E+00        -0.49994E+08
 
   -0.49790E+08         0.99251E+05         0.00000E+00
    0.99251E+05        -0.49978E+08         0.00000E+00
    0.00000E+00         0.00000E+00        -0.49994E+08
 
   -0.49794E+08         0.10399E+06         0.00000E+00
    0.10399E+06        -0.49976E+08         0.00000E+00
    0.00000E+00         0.00000E+00        -0.49994E+08
 
   -0.49798E+08         0.10862E+06         0.00000E+00
    0.10862E+06        -0.49974E+08         0.00000E+00
    0.00000E+00         0.00000E+00        -0.49994E+08
 
   -0.49802E+08         0.11316E+06         0.00000E+00
    0.11316E+06        -0.49971E+08         0.00000E+00
    0.00000E+00         0.00000E+00        -0.49994E+08
 
   -0.49807E+08         0.11760E+06         0.00000E+00
    0.11760E+06        -0.49969E+08         0.00000E+00
    0.00000E+00         0.00000E+00        -0.49994E+08
 
   -0.49812E+08         0.12192E+06         0.00000E+00
    0.12192E+06        -0.49966E+08         0.00000E+00
    0.00000E+00         0.00000E+00        -0.49994E+08
 
   -0.49817E+08         0.12614E+06         0.00000E+00
    0.12614E+06        -0.49963E+08         0.00000E+00
    0.00000E+00         0.00000E+00        -0.49994E+08
 
   -0.49822E+08         0.13023E+06         0.00000E+00
    0.13023E+06        -0.49960E+08         0.00000E+00
    0.00000E+00         0.00000E+00        -0.49994E+08
 
   -0.49827E+08         0.13421E+06         0.00000E+00
    0.13421E+06        -0.49957E+08         0.00000E+00
    0.00000E+00         0.00000E+00        -0.49994E+08
 
   -0.49832E+08         0.13807E+06         0.00000E+00
    0.13807E+06        -0.49954E+08         0.00000E+00
    0.00000E+00         0.00000E+00        -0.49994E+08
 
   -0.49838E+08         0.14180E+06         0.00000E+00
    0.14180E+06        -0.49951E+08         0.00000E+00
    0.00000E+00         0.00000E+00        -0.49994E+08
 
   -0.49844E+08         0.14539E+06         0.00000E+00
    0.14539E+06        -0.49948E+08         0.00000E+00
    0.00000E+00         0.00000E+00        -0.49994E+08
 
   -0.49850E+08         0.14886E+06         0.00000E+00
    0.14886E+06        -0.49945E+08         0.00000E+00
    0.00000E+00         0.00000E+00        -0.49994E+08
 
   -0.49856E+08         0.15219E+06         0.00000E+00
    0.15219E+06        -0.49941E+08         0.00000E+00
    0.00000E+00         0.00000E+00        -0.49994E+08
 
   -0.49862E+08         0.15537E+06         0.00000E+00
    0.15537E+06        -0.49938E+08         0.00000E+00
    0.00000E+00         0.00000E+00        -0.49994E+08
 
   -0.49869E+08         0.15842E+06         0.00000E+00
    0.15842E+06        -0.49934E+08         0.00000E+00
    0.00000E+00         0.00000E+00        -0.49994E+08
 
   -0.49875E+08         0.16132E+06         0.00000E+00
    0.16132E+06        -0.49931E+08         0.00000E+00
    0.00000E+00         0.00000E+00        -0.49994E+08
 
   -0.49882E+08         0.16407E+06         0.00000E+00
    0.16407E+06        -0.49927E+08         0.00000E+00
    0.00000E+00         0.00000E+00        -0.49994E+08
 
   -0.49889E+08         0.16667E+06         0.00000E+00
    0.16667E+06        -0.49923E+08         0.00000E+00
    0.00000E+00         0.00000E+00        -0.49994E+08
 
   -0.49896E+08         0.16912E+06         0.00000E+00
    0.16912E+06        -0.49920E+08         0.00000E+00
    0.00000E+00         0.00000E+00        -0.49994E+08
 
   -0.49903E+08         0.17141E+06         0.00000E+00
    0.17141E+06        -0.49916E+08         0.00000E+00
    0.00000E+00         0.00000E+00        -0.49994E+08
 
   -0.49911E+08         0.17354E+06         0.00000E+00
    0.17354E+06        -0.49912E+08         0.00000E+00
    0.00000E+00         0.00000E+00        -0.49994E+08
 
   -0.49918E+08         0.17550E+06         0.00000E+00
    0.17550E+06        -0.49908E+08         0.00000E+00
    0.00000E+00         0.00000E+00        -0.49994E+08
 
   -0.49926E+08         0.17731E+06         0.00000E+00
    0.17731E+06        -0.49904E+08         0.00000E+00
    0.00000E+00         0.00000E+00        -0.49994E+08
 
   -0.49933E+08         0.17895E+06         0.00000E+00
    0.17895E+06        -0.49900E+08         0.00000E+00
    0.00000E+00         0.00000E+00        -0.49994E+08
 
   -0.49941E+08         0.18042E+06         0.00000E+00
    0.18042E+06        -0.49896E+08         0.00000E+00
    0.00000E+00         0.00000E+00        -0.49994E+08
 
   -0.49949E+08         0.18172E+06         0.00000E+00
    0.18172E+06        -0.49892E+08         0.00000E+00
    0.00000E+00         0.00000E+00        -0.49994E+08
 
   -0.49957E+08         0.18285E+06         0.00000E+00
    0.18285E+06        -0.49888E+08         0.00000E+00
    0.00000E+00         0.00000E+00        -0.49994E+08
 
   -0.49965E+08         0.18381E+06         0.00000E+00
    0.18381E+06        -0.49884E+08         0.00000E+00
    0.00000E+00         0.00000E+00        -0.49994E+08
 
   -0.49973E+08         0.18459E+06         0.00000E+00
    0.18459E+06        -0.49880E+08         0.00000E+00
    0.00000E+00         0.00000E+00        -0.49994E+08
 
   -0.49981E+08         0.18519E+06         0.00000E+00
    0.18519E+06        -0.49875E+08         0.00000E+00
    0.00000E+00         0.00000E+00        -0.49994E+08
 
   -0.49989E+08         0.18562E+06         0.00000E+00
    0.18562E+06        -0.49871E+08         0.00000E+00
    0.00000E+00         0.00000E+00        -0.49994E+08
 
   -0.49729E+08         0.31810E+04         0.00000E+00
    0.31810E+04        -0.50000E+08         0.00000E+00
    0.00000E+00         0.00000E+00        -0.49992E+08
 
   -0.49729E+08         0.95351E+04         0.00000E+00
    0.95351E+04        -0.50000E+08         0.00000E+00
    0.00000E+00         0.00000E+00        -0.49992E+08
 
   -0.49729E+08         0.15878E+05         0.00000E+00
    0.15878E+05        -0.50000E+08         0.00000E+00
    0.00000E+00         0.00000E+00        -0.49992E+08
 
   -0.49729E+08         0.22204E+05         0.00000E+00
    0.22204E+05        -0.49999E+08         0.00000E+00
    0.00000E+00         0.00000E+00        -0.49992E+08
 
   -0.49729E+08         0.28507E+05         0.00000E+00
    0.28507E+05        -0.49998E+08         0.00000E+00
    0.00000E+00         0.00000E+00        -0.49992E+08
 
   -0.49730E+08         0.34780E+05         0.00000E+00
    0.34780E+05        -0.49998E+08         0.00000E+00
    0.00000E+00         0.00000E+00        -0.49992E+08
 
   -0.49731E+08         0.41018E+05         0.00000E+00
    0.41018E+05        -0.49997E+08         0.00000E+00
    0.00000E+00         0.00000E+00        -0.49992E+08
 
   -0.49733E+08         0.47216E+05         0.00000E+00
    0.47216E+05        -0.49996E+08         0.00000E+00
    0.00000E+00         0.00000E+00        -0.49992E+08
 
   -0.49734E+08         0.53367E+05         0.00000E+00
    0.53367E+05        -0.49995E+08         0.00000E+00
    0.00000E+00         0.00000E+00        -0.49992E+08
 
   -0.49736E+08         0.59466E+05         0.00000E+00
    0.59466E+05        -0.49993E+08         0.00000E+00
    0.00000E+00         0.00000E+00        -0.49992E+08
 
   -0.49738E+08         0.65507E+05         0.00000E+00
    0.65507E+05        -0.49992E+08         0.00000E+00
    0.00000E+00         0.00000E+00        -0.49992E+08
 
   -0.49741E+08         0.71484E+05         0.00000E+00
    0.71484E+05        -0.49990E+08         0.00000E+00
    0.00000E+00         0.00000E+00        -0.49992E+08
 
   -0.49743E+08         0.77393E+05         0.00000E+00
    0.77393E+05        -0.49989E+08         0.00000E+00
    0.00000E+00         0.00000E+00        -0.49992E+08
 
   -0.49746E+08         0.83229E+05         0.00000E+00
    0.83229E+05        -0.49987E+08         0.00000E+00
    0.00000E+00         0.00000E+00        -0.49992E+08
 
   -0.49750E+08         0.88985E+05         0.00000E+00
    0.88985E+05        -0.49985E+08         0.00000E+00
    0.00000E+00         0.00000E+00        -0.49992E+08
 
   -0.49753E+08         0.94657E+05         0.00000E+00
    0.94657E+05        -0.49983E+08         0.00000E+00
    0.00000E+00         0.00000E+00        -0.49992E+08
 
   -0.49757E+08         0.10024E+06         0.00000E+00
    0.10024E+06        -0.49981E+08         0.00000E+00
    0.00000E+00         0.00000E+00        -0.49992E+08
 
   -0.49761E+08         0.10573E+06         0.00000E+00
    0.10573E+06        -0.49978E+08         0.00000E+00
    0.00000E+00         0.00000E+00        -0.49992E+08
 
   -0.49765E+08         0.11112E+06         0.00000E+00
    0.11112E+06        -0.49976E+08         0.00000E+00
    0.00000E+00         0.00000E+00        -0.49992E+08
 
   -0.49769E+08         0.11641E+06         0.00000E+00
    0.11641E+06        -0.49973E+08         0.00000E+00
    0.00000E+00         0.00000E+00        -0.49992E+08
 
   -0.49774E+08         0.12158E+06         0.00000E+00
    0.12158E+06        -0.49971E+08         0.00000E+00
    0.00000E+00         0.00000E+00        -0.49992E+08
 
   -0.49779E+08         0.12665E+06         0.00000E+00
    0.12665E+06        -0.49968E+08         0.00000E+00
    0.00000E+00         0.00000E+00        -0.49992E+08
 
   -0.49784E+08         0.13160E+06         0.00000E+00
    0.13160E+06        -0.49965E+08         0.00000E+00
    0.00000E+00         0.00000E+00        -0.49992E+08
 
   -0.49789E+08         0.13642E+06         0.00000E+00
    0.13642E+06        -0.49962E+08         0.00000E+00
    0.00000E+00         0.00000E+00        -0.49992E+08
 
   -0.49795E+08         0.14113E+06         0.00000E+00
    0.14113E+06        -0.49959E+08         0.00000E+00
    0.00000E+00         0.00000E+00        -0.49992E+08
 
   -0.49800E+08         0.14570E+06         0.00000E+00
    0.14570E+06        -0.49956E+08         0.00000E+00
    0.00000E+00         0.00000E+00        -0.49992E+08
 
   -0.49806E+08         0.15014E+06         0.00000E+00
    0.15014E+06        -0.49952E+08         0.00000E+00
    0.00000E+00         0.00000E+00        -0.49992E+08
 
   -0.49812E+08         0.15444E+06         0.00000E+00
    0.15444E+06        -0.49949E+08         0.00000E+00
    0.00000E+00         0.00000E+00        -0.49992E+08
 
   -0.49819E+08         0.15859E+06         0.00000E+00
    0.15859E+06        -0.49945E+08         0.00000E+00
    0.00000E+00         0.00000E+00        -0.49992E+08
 
   -0.49825E+08         0.16261E+06         0.00000E+00
    0.16261E+06        -0.49942E+08         0.00000E+00
    0.00000E+00         0.00000E+00        -0.49992E+08
 
   -0.49832E+08         0.16647E+06         0.00000E+00
    0.16647E+06        -0.49938E+08         0.00000E+00
    0.00000E+00         0.00000E+00        -0.49992E+08
 
   -0.49839E+08         0.17019E+06         0.00000E+00
    0.17019E+06        -0.49934E+08         0.00000E+00
    0.00000E+00         0.00000E+00        -0.49992E+08
 
   -0.49846E+08         0.17374E+06         0.00000E+00
    0.17374E+06        -0.49931E+08         0.00000E+00
    0.00000E+00         0.00000E+00        -0.49992E+08
 
   -0.49853E+08         0.17714E+06         0.00000E+00
    0.17714E+06        -0.49927E+08         0.00000E+00
    0.00000E+00         0.00000E+00        -0.49992E+08
 
   -0.49861E+08         0.18038E+06         0.00000E+00
    0.18038E+06        -0.49923E+08         0.00000E+00
    0.00000E+00         0.00000E+00        -0.49992E+08
 
   -0.49868E+08         0.18345E+06         0.00000E+00
    0.18345E+06        -0.49919E+08         0.00000E+00
    0.00000E+00         0.00000E+00        -0.49992E+08
 
   -0.49876E+08         0.18635E+06         0.00000E+00
    0.18635E+06        -0.49915E+08         0.00000E+00
    0.00000E+00         0.00000E+00        -0.49992E+08
 
   -0.49884E+08         0.18908E+06         0.00000E+00
    0.18908E+06        -0.49910E+08         0.00000E+00
    0.00000E+00         0.00000E+00        -0.49992E+08
 
   -0.49892E+08         0.19164E+06         0.00000E+00
    0.19164E+06        -0.49906E+08         0.00000E+00
    0.00000E+00         0.00000E+00        -0.49992E+08
 
   -0.49900E+08         0.19402E+06         0.00000E+00
    0.19402E+06        -0.49902E+08         0.00000E+00
    0.00000E+00         0.00000E+00        -0.49992E+08
 
   -0.49908E+08         0.19623E+06         0.00000E+00
    0.19623E+06        -0.49898E+08         0.00000E+00
    0.00000E+00         0.00000E+00        -0.49992E+08
 
   -0.49917E+08         0.19825E+06         0.00000E+00
    0.19825E+06        -0.49893E+08         0.00000E+00
    0.00000E+00         0.00000E+00        -0.49992E+08
 
   -0.49925E+08         0.20009E+06         0.00000E+00
    0.20009E+06        -0.49889E+08         0.00000E+00
    0.00000E+00         0.00000E+00        -0.49992E+08
 
   -0.49934E+08         0.20174E+06         0.00000E+00
    0.20174E+06        -0.49884E+08         0.00000E+00
    0.00000E+00         0.00000E+00        -0.49992E+08
 
   -0.49942E+08         0.20320E+06         0.00000E+00
    0.20320E+06        -0.49880E+08         0.00000E+00
    0.00000E+00         0.00000E+00        -0.49992E+08
 
   -0.49951E+08         0.20448E+06         0.00000E+00
    0.20448E+06        -0.49875E+08         0.00000E+00
    0.00000E+00         0.00000E+00        -0.49992E+08
 
   -0.49960E+08         0.20556E+06         0.00000E+00
    0.20556E+06        -0.49871E+08         0.00000E+00
    0.00000E+00         0.00000E+00        -0.49992E+08
 
   -0.49969E+08         0.20645E+06         0.00000E+00
    0.20645E+06        -0.49866E+08         0.00000E+00
    0.00000E+00         0.00000E+00        -0.49992E+08
 
   -0.49978E+08         0.20714E+06         0.00000E+00
    0.20714E+06        -0.49861E+08         0.00000E+00
    0.00000E+00         0.00000E+00        -0.49992E+08
 
   -0.49988E+08         0.20764E+06         0.00000E+00
    0.20764E+06        -0.49857E+08         0.00000E+00
    0.00000E+00         0.00000E+00        -0.49992E+08
 
   -0.49695E+08         0.35740E+04         0.00000E+00
    0.35740E+04        -0.50000E+08         0.00000E+00
    0.00000E+00         0.00000E+00        -0.49991E+08
 
   -0.49695E+08         0.10704E+05         0.00000E+00
    0.10704E+05        -0.50000E+08         0.00000E+00
    0.00000E+00         0.00000E+00        -0.49991E+08
 
   -0.49695E+08         0.17819E+05         0.00000E+00
    0.17819E+05        -0.49999E+08         0.00000E+00
    0.00000E+00         0.00000E+00        -0.49991E+08
 
   -0.49695E+08         0.24912E+05         0.00000E+00
    0.24912E+05        -0.49999E+08         0.00000E+00
    0.00000E+00         0.00000E+00        -0.49991E+08
 
   -0.49696E+08         0.31976E+05         0.00000E+00
    0.31976E+05        -0.49998E+08         0.00000E+00
    0.00000E+00         0.00000E+00        -0.49991E+08
 
   -0.49697E+08         0.39005E+05         0.00000E+00
    0.39005E+05        -0.49998E+08         0.00000E+00
    0.00000E+00         0.00000E+00        -0.49991E+08
 
   -0.49698E+08         0.45991E+05         0.00000E+00
    0.45991E+05        -0.49997E+08         0.00000E+00
    0.00000E+00         0.00000E+00        -0.49991E+08
 
   -0.49700E+08         0.52930E+05         0.00000E+00
    0.52930E+05        -0.49995E+08         0.00000E+00
    0.00000E+00         0.00000E+00        -0.49991E+08
 
   -0.49702E+08         0.59813E+05         0.00000E+00
    0.59813E+05        -0.49994E+08         0.00000E+00
    0.00000E+00         0.00000E+00        -0.49991E+08
 
   -0.49704E+08         0.66636E+05         0.00000E+00
    0.66636E+05        -0.49993E+08         0.00000E+00
    0.00000E+00         0.00000E+00        -0.49991E+08
 
   -0.49707E+08         0.73393E+05         0.00000E+00
    0.73393E+05        -0.49991E+08         0.00000E+00
    0.00000E+00         0.00000E+00        -0.49991E+08
 
   -0.49709E+08         0.80076E+05         0.00000E+00
    0.80076E+05        -0.49989E+08         0.00000E+00
    0.00000E+00         0.00000E+00        -0.49991E+08
 
   -0.49712E+08         0.86681E+05         0.00000E+00
    0.86681E+05        -0.49987E+08         0.00000E+00
    0.00000E+00         0.00000E+00        -0.49991E+08
 
   -0.49716E+08         0.93201E+05         0.00000E+00
    0.93201E+05        -0.49985E+08         0.00000E+00
    0.00000E+00         0.00000E+00        -0.49991E+08
 
   -0.49719E+08         0.99631E+05         0.00000E+00
    0.99631E+05        -0.49983E+08         0.00000E+00
    0.00000E+00         0.00000E+00        -0.49991E+08
 
   -0.49723E+08         0.10597E+06         0.00000E+00
    0.10597E+06        -0.49981E+08         0.00000E+00
    0.00000E+00         0.00000E+00        -0.49991E+08
 
   -0.49728E+08         0.11220E+06         0.00000E+00
    0.11220E+06        -0.49978E+08         0.00000E+00
    0.00000E+00         0.00000E+00        -0.49991E+08
 
   -0.49732E+08         0.11833E+06         0.00000E+00
    0.11833E+06        -0.49976E+08         0.00000E+00
    0.00000E+00         0.00000E+00        -0.49991E+08
 
   -0.49737E+08         0.12434E+06         0.00000E+00
    0.12434E+06        -0.49973E+08         0.00000E+00
    0.00000E+00         0.00000E+00        -0.49991E+08
 
   -0.49742E+08         0.13024E+06         0.00000E+00
    0.13024E+06        -0.49970E+08         0.00000E+00
    0.00000E+00         0.00000E+00        -0.49991E+08
 
   -0.49747E+08         0.13602E+06         0.00000E+00
    0.13602E+06        -0.49967E+08         0.00000E+00
    0.00000E+00         0.00000E+00        -0.49991E+08
 
   -0.49752E+08         0.14167E+06         0.00000E+00
    0.14167E+06        -0.49964E+08         0.00000E+00
    0.00000E+00         0.00000E+00        -0.49991E+08
 
   -0.49758E+08         0.14719E+06         0.00000E+00
    0.14719E+06        -0.49961E+08         0.00000E+00
    0.00000E+00         0.00000E+00        -0.49991E+08
 
   -0.49764E+08         0.15257E+06         0.00000E+00
    0.15257E+06        -0.49958E+08         0.00000E+00
    0.00000E+00         0.00000E+00        -0.49991E+08
 
   -0.49770E+08         0.15781E+06         0.00000E+00
    0.15781E+06        -0.49954E+08         0.00000E+00
    0.00000E+00         0.00000E+00        -0.49991E+08
 
   -0.49777E+08         0.16291E+06         0.00000E+00
    0.16291E+06        -0.49951E+08         0.00000E+00
    0.00000E+00         0.00000E+00        -0.49991E+08
 
   -0.49783E+08         0.16785E+06         0.00000E+00
    0.16785E+06        -0.49947E+08         0.00000E+00
    0.00000E+00         0.00000E+00        -0.49991E+08
 
   -0.49790E+08         0.17265E+06         0.00000E+00
    0.17265E+06        -0.49943E+08         0.00000E+00
    0.00000E+00         0.00000E+00        -0.49991E+08
 
   -0.49797E+08         0.17728E+06         0.00000E+00
    0.17728E+06        -0.49939E+08         0.00000E+00
    0.00000E+00         0.00000E+00        -0.49991E+08
 
   -0.49804E+08         0.18176E+06         0.00000E+00
    0.18176E+06        -0.49935E+08         0.00000E+00
    0.00000E+00         0.00000E+00        -0.49991E+08
 
   -0.49812E+08         0.18607E+06         0.00000E+00
    0.18607E+06        -0.49931E+08         0.00000E+00
    0.00000E+00         0.00000E+00        -0.49991E+08
 
   -0.49820E+08         0.19021E+06         0.00000E+00
    0.19021E+06        -0.49927E+08         0.00000E+00
    0.00000E+00         0.00000E+00        -0.49991E+08
 
   -0.49828E+08         0.19417E+06         0.00000E+00
    0.19417E+06        -0.49923E+08         0.00000E+00
    0.00000E+00         0.00000E+00        -0.49991E+08
 
   -0.49836E+08         0.19796E+06         0.00000E+00
    0.19796E+06        -0.49918E+08         0.00000E+00
    0.00000E+00         0.00000E+00        -0.49991E+08
 
   -0.49844E+08         0.20157E+06         0.00000E+00
    0.20157E+06        -0.49914E+08         0.00000E+00
    0.00000E+00         0.00000E+00        -0.49991E+08
 
   -0.49852E+08         0.20500E+06         0.00000E+00
    0.20500E+06        -0.49909E+08         0.00000E+00
    0.00000E+00         0.00000E+00        -0.49991E+08
 
   -0.49861E+08         0.20824E+06         0.00000E+00
    0.20824E+06        -0.49905E+08         0.00000E+00
    0.00000E+00         0.00000E+00        -0.49991E+08
 
   -0.49870E+08         0.21129E+06         0.00000E+00
    0.21129E+06        -0.49900E+08         0.00000E+00
    0.00000E+00         0.00000E+00        -0.49991E+08
 
   -0.49879E+08         0.21415E+06         0.00000E+00
    0.21415E+06        -0.49896E+08         0.00000E+00
    0.00000E+00         0.00000E+00        -0.49991E+08
 
   -0.49888E+08         0.21681E+06         0.00000E+00
    0.21681E+06        -0.49891E+08         0.00000E+00
    0.00000E+00         0.00000E+00        -0.49991E+08
 
   -0.49897E+08         0.21928E+06         0.00000E+00
    0.21928E+06        -0.49886E+08         0.00000E+00
    0.00000E+00         0.00000E+00        -0.49991E+08
 
   -0.49906E+08         0.22154E+06         0.00000E+00
    0.22154E+06        -0.49881E+08         0.00000E+00
    0.00000E+00         0.00000E+00        -0.49991E+08
 
   -0.49916E+08         0.22360E+06         0.00000E+00
    0.22360E+06        -0.49876E+08         0.00000E+00
    0.00000E+00         0.00000E+00        -0.49991E+08
 
   -0.49925E+08         0.22546E+06         0.00000E+00
    0.22546E+06        -0.49871E+08         0.00000E+00
    0.00000E+00         0.00000E+00        -0.49991E+08
 
   -0.49935E+08         0.22710E+06         0.00000E+00
    0.22710E+06        -0.49866E+08         0.00000E+00
    0.00000E+00         0.00000E+00        -0.49991E+08
 
   -0.49945E+08         0.22854E+06         0.00000E+00
    0.22854E+06        -0.49861E+08         0.00000E+00
    0.00000E+00         0.00000E+00        -0.49991E+08
 
   -0.49955E+08         0.22977E+06         0.00000E+00
    0.22977E+06        -0.49856E+08         0.00000E+00
    0.00000E+00         0.00000E+00        -0.49991E+08
 
   -0.49965E+08         0.23078E+06         0.00000E+00
    0.23078E+06        -0.49851E+08         0.00000E+00
    0.00000E+00         0.00000E+00        -0.49991E+08
 
   -0.49975E+08         0.23157E+06         0.00000E+00
    0.23157E+06        -0.49846E+08         0.00000E+00
    0.00000E+00         0.00000E+00        -0.49991E+08
 
   -0.49985E+08         0.23215E+06         0.00000E+00
    0.23215E+06        -0.49841E+08         0.00000E+00
    0.00000E+00         0.00000E+00        -0.49991E+08
 
   -0.49657E+08         0.40143E+04         0.00000E+00
    0.40143E+04        -0.50000E+08         0.00000E+00
    0.00000E+00         0.00000E+00        -0.49989E+08
 
   -0.49657E+08         0.12013E+05         0.00000E+00
    0.12013E+05        -0.50000E+08         0.00000E+00
    0.00000E+00         0.00000E+00        -0.49989E+08
 
   -0.49657E+08         0.19990E+05         0.00000E+00
    0.19990E+05        -0.49999E+08         0.00000E+00
    0.00000E+00         0.00000E+00        -0.49989E+08
 
   -0.49658E+08         0.27939E+05         0.00000E+00
    0.27939E+05        -0.49999E+08         0.00000E+00
    0.00000E+00         0.00000E+00        -0.49989E+08
 
   -0.49659E+08         0.35853E+05         0.00000E+00
    0.35853E+05        -0.49998E+08         0.00000E+00
    0.00000E+00         0.00000E+00        -0.49989E+08
 
   -0.49660E+08         0.43723E+05         0.00000E+00
    0.43723E+05        -0.49997E+08         0.00000E+00
    0.00000E+00         0.00000E+00        -0.49989E+08
 
   -0.49662E+08         0.51544E+05         0.00000E+00
    0.51544E+05        -0.49996E+08         0.00000E+00
    0.00000E+00         0.00000E+00        -0.49989E+08
 
   -0.49663E+08         0.59308E+05         0.00000E+00
    0.59308E+05        -0.49995E+08         0.00000E+00
    0.00000E+00         0.00000E+00        -0.49989E+08
 
   -0.49666E+08         0.67007E+05         0.00000E+00
    0.67007E+05        -0.49993E+08         0.00000E+00
    0.00000E+00         0.00000E+00        -0.49989E+08
 
   -0.49668E+08         0.74636E+05         0.00000E+00
    0.74636E+05        -0.49992E+08         0.00000E+00
    0.00000E+00         0.00000E+00        -0.49989E+08
 
   -0.49671E+08         0.82188E+05         0.00000E+00
    0.82188E+05        -0.49990E+08         0.00000E+00
    0.00000E+00         0.00000E+00        -0.49989E+08
 
   -0.49674E+08         0.89656E+05         0.00000E+00
    0.89656E+05        -0.49988E+08         0.00000E+00
    0.00000E+00         0.00000E+00        -0.49989E+08
 
   -0.49678E+08         0.97033E+05         0.00000E+00
    0.97033E+05        -0.49986E+08         0.00000E+00
    0.00000E+00         0.00000E+00        -0.49989E+08
 
   -0.49682E+08         0.10431E+06         0.00000E+00
    0.10431E+06        -0.49984E+08         0.00000E+00
    0.00000E+00         0.00000E+00        -0.49989E+08
 
   -0.49686E+08         0.11149E+06         0.00000E+00
    0.11149E+06        -0.49981E+08         0.00000E+00
    0.00000E+00         0.00000E+00        -0.49989E+08
 
   -0.49690E+08         0.11856E+06         0.00000E+00
    0.11856E+06        -0.49979E+08         0.00000E+00
    0.00000E+00         0.00000E+00        -0.49989E+08
 
   -0.49695E+08         0.12552E+06         0.00000E+00
    0.12552E+06        -0.49976E+08         0.00000E+00
    0.00000E+00         0.00000E+00        -0.49989E+08
 
   -0.49700E+08         0.13235E+06         0.00000E+00
    0.13235E+06        -0.49973E+08         0.00000E+00
    0.00000E+00         0.00000E+00        -0.49989E+08
 
   -0.49705E+08         0.13906E+06         0.00000E+00
    0.13906E+06        -0.49970E+08         0.00000E+00
    0.00000E+00         0.00000E+00        -0.49989E+08
 
   -0.49711E+08         0.14564E+06         0.00000E+00
    0.14564E+06        -0.49967E+08         0.00000E+00
    0.00000E+00         0.00000E+00        -0.49989E+08
 
   -0.49717E+08         0.15208E+06         0.00000E+00
    0.15208E+06        -0.49964E+08         0.00000E+00
    0.00000E+00         0.00000E+00        -0.49989E+08
 
   -0.49723E+08         0.15838E+06         0.00000E+00
    0.15838E+06        -0.49960E+08         0.00000E+00
    0.00000E+00         0.00000E+00        -0.49989E+08
 
   -0.49729E+08         0.16453E+06         0.00000E+00
    0.16453E+06        -0.49957E+08         0.00000E+00
    0.00000E+00         0.00000E+00        -0.49989E+08
 
   -0.49736E+08         0.17052E+06         0.00000E+00
    0.17052E+06        -0.49953E+08         0.00000E+00
    0.00000E+00         0.00000E+00        -0.49989E+08
 
   -0.49743E+08         0.17636E+06         0.00000E+00
    0.17636E+06        -0.49949E+08         0.00000E+00
    0.00000E+00         0.00000E+00        -0.49989E+08
 
   -0.49750E+08         0.18204E+06         0.00000E+00
    0.18204E+06        -0.49945E+08         0.00000E+00
    0.00000E+00         0.00000E+00        -0.49989E+08
 
   -0.49758E+08         0.18755E+06         0.00000E+00
    0.18755E+06        -0.49941E+08         0.00000E+00
    0.00000E+00         0.00000E+00        -0.49989E+08
 
   -0.49765E+08         0.19289E+06         0.00000E+00
    0.19289E+06        -0.49937E+08         0.00000E+00
    0.00000E+00         0.00000E+00        -0.49989E+08
 
   -0.49773E+08         0.19806E+06         0.00000E+00
    0.19806E+06        -0.49932E+08         0.00000E+00
    0.00000E+00         0.00000E+00        -0.49989E+08
 
   -0.49781E+08         0.20304E+06         0.00000E+00
    0.20304E+06        -0.49928E+08         0.00000E+00
    0.00000E+00         0.00000E+00        -0.49989E+08
 
   -0.49790E+08         0.20784E+06         0.00000E+00
    0.20784E+06        -0.49923E+08         0.00000E+00
    0.00000E+00         0.00000E+00        -0.49989E+08
 
   -0.49798E+08         0.21245E+06         0.00000E+00
    0.21245E+06        -0.49919E+08         0.00000E+00
    0.00000E+00         0.00000E+00        -0.49989E+08
 
   -0.49807E+08         0.21687E+06         0.00000E+00
    0.21687E+06        -0.49914E+08         0.00000E+00
    0.00000E+00         0.00000E+00        -0.49989E+08
 
   -0.49816E+08         0.22109E+06         0.00000E+00
    0.22109E+06        -0.49909E+08         0.00000E+00
    0.00000E+00         0.00000E+00        -0.49989E+08
 
   -0.49825E+08         0.22512E+06         0.00000E+00
    0.22512E+06        -0.49904E+08         0.00000E+00
    0.00000E+00         0.00000E+00        -0.49989E+08
 
   -0.49835E+08         0.22894E+06         0.00000E+00
    0.22894E+06        -0.49899E+08         0.00000E+00
    0.00000E+00         0.00000E+00        -0.49989E+08
 
   -0.49844E+08         0.23255E+06         0.00000E+00
    0.23255E+06        -0.49894E+08         0.00000E+00
    0.00000E+00         0.00000E+00        -0.49989E+08
 
   -0.49854E+08         0.23596E+06         0.00000E+00
    0.23596E+06        -0.49889E+08         0.00000E+00
    0.00000E+00         0.00000E+00        -0.49989E+08
 
   -0.49864E+08         0.23915E+06         0.00000E+00
    0.23915E+06        -0.49884E+08         0.00000E+00
    0.00000E+00         0.00000E+00        -0.49989E+08
 
   -0.49874E+08         0.24213E+06         0.00000E+00
    0.24213E+06        -0.49879E+08         0.00000E+00
    0.00000E+00         0.00000E+00        -0.49989E+08
 
   -0.49884E+08         0.24488E+06         0.00000E+00
    0.24488E+06        -0.49873E+08         0.00000E+00
    0.00000E+00         0.00000E+00        -0.49989E+08
 
   -0.49895E+08         0.24742E+06         0.00000E+00
    0.24742E+06        -0.49868E+08         0.00000E+00
    0.00000E+00         0.00000E+00        -0.49989E+08
 
   -0.49905E+08         0.24973E+06         0.00000E+00
    0.24973E+06        -0.49862E+08         0.00000E+00
    0.00000E+00         0.00000E+00        -0.49989E+08
 
   -0.49916E+08         0.25181E+06         0.00000E+00
    0.25181E+06        -0.49857E+08         0.00000E+00
    0.00000E+00         0.00000E+00        -0.49989E+08
 
   -0.49927E+08         0.25366E+06         0.00000E+00
    0.25366E+06        -0.49851E+08         0.00000E+00
    0.00000E+00         0.00000E+00        -0.49989E+08
 
   -0.49938E+08         0.25529E+06         0.00000E+00
    0.25529E+06        -0.49846E+08         0.00000E+00
    0.00000E+00         0.00000E+00        -0.49989E+08
 
   -0.49949E+08         0.25667E+06         0.00000E+00
    0.25667E+06        -0.49840E+08         0.00000E+00
    0.00000E+00         0.00000E+00        -0.49989E+08
 
   -0.49960E+08         0.25783E+06         0.00000E+00
    0.25783E+06        -0.49834E+08         0.00000E+00
    0.00000E+00         0.00000E+00        -0.49989E+08
 
   -0.49972E+08         0.25874E+06         0.00000E+00
    0.25874E+06        -0.49829E+08         0.00000E+00
    0.00000E+00         0.00000E+00        -0.49989E+08
 
   -0.49983E+08         0.25941E+06         0.00000E+00
    0.25941E+06        -0.49823E+08         0.00000E+00
    0.00000E+00         0.00000E+00        -0.49989E+08
 
   -0.49615E+08         0.45071E+04         0.00000E+00
    0.45071E+04        -0.50000E+08         0.00000E+00
    0.00000E+00         0.00000E+00        -0.49986E+08
 
   -0.49615E+08         0.13475E+05         0.00000E+00
    0.13475E+05        -0.50000E+08         0.00000E+00
    0.00000E+00         0.00000E+00        -0.49986E+08
 
   -0.49615E+08         0.22416E+05         0.00000E+00
    0.22416E+05        -0.49999E+08         0.00000E+00
    0.00000E+00         0.00000E+00        -0.49986E+08
 
   -0.49616E+08         0.31320E+05         0.00000E+00
    0.31320E+05        -0.49999E+08         0.00000E+00
    0.00000E+00         0.00000E+00        -0.49986E+08
 
   -0.49617E+08         0.40181E+05         0.00000E+00
    0.40181E+05        -0.49998E+08         0.00000E+00
    0.00000E+00         0.00000E+00        -0.49986E+08
 
   -0.49618E+08         0.48990E+05         0.00000E+00
    0.48990E+05        -0.49997E+08         0.00000E+00
    0.00000E+00         0.00000E+00        -0.49986E+08
 
   -0.49620E+08         0.57739E+05         0.00000E+00
    0.57739E+05        -0.49996E+08         0.00000E+00
    0.00000E+00         0.00000E+00        -0.49986E+08
 
   -0.49622E+08         0.66420E+05         0.00000E+00
    0.66420E+05        -0.49994E+08         0.00000E+00
    0.00000E+00         0.00000E+00        -0.49986E+08
 
   -0.49625E+08         0.75027E+05         0.00000E+00
    0.75027E+05        -0.49993E+08         0.00000E+00
    0.00000E+00         0.00000E+00        -0.49986E+08
 
   -0.49628E+08         0.83552E+05         0.00000E+00
    0.83552E+05        -0.49991E+08         0.00000E+00
    0.00000E+00         0.00000E+00        -0.49986E+08
 
   -0.49631E+08         0.91988E+05         0.00000E+00
    0.91988E+05        -0.49989E+08         0.00000E+00
    0.00000E+00         0.00000E+00        -0.49986E+08
 
   -0.49635E+08         0.10033E+06         0.00000E+00
    0.10033E+06        -0.49987E+08         0.00000E+00
    0.00000E+00         0.00000E+00        -0.49986E+08
 
   -0.49639E+08         0.10856E+06         0.00000E+00
    0.10856E+06        -0.49984E+08         0.00000E+00
    0.00000E+00         0.00000E+00        -0.49986E+08
 
   -0.49643E+08         0.11669E+06         0.00000E+00
    0.11669E+06        -0.49982E+08         0.00000E+00
    0.00000E+00         0.00000E+00        -0.49986E+08
 
   -0.49648E+08         0.12470E+06         0.00000E+00
    0.12470E+06        -0.49979E+08         0.00000E+00
    0.00000E+00         0.00000E+00        -0.49986E+08
 
   -0.49653E+08         0.13258E+06         0.00000E+00
    0.13258E+06        -0.49976E+08         0.00000E+00
    0.00000E+00         0.00000E+00        -0.49986E+08
 
   -0.49658E+08         0.14033E+06         0.00000E+00
    0.14033E+06        -0.49973E+08         0.00000E+00
    0.00000E+00         0.00000E+00        -0.49986E+08
 
   -0.49664E+08         0.14795E+06         0.00000E+00
    0.14795E+06        -0.49970E+08         0.00000E+00
    0.00000E+00         0.00000E+00        -0.49986E+08
 
   -0.49670E+08         0.15543E+06         0.00000E+00
    0.15543E+06        -0.49967E+08         0.00000E+00
    0.00000E+00         0.00000E+00        -0.49986E+08
 
   -0.49676E+08         0.16276E+06         0.00000E+00
    0.16276E+06        -0.49963E+08         0.00000E+00
    0.00000E+00         0.00000E+00        -0.49986E+08
 
   -0.49683E+08         0.16993E+06         0.00000E+00
    0.16993E+06        -0.49960E+08         0.00000E+00
    0.00000E+00         0.00000E+00        -0.49986E+08
 
   -0.49690E+08         0.17694E+06         0.00000E+00
    0.17694E+06        -0.49956E+08         0.00000E+00
    0.00000E+00         0.00000E+00        -0.49986E+08
 
   -0.49697E+08         0.18379E+06         0.00000E+00
    0.18379E+06        -0.49952E+08         0.00000E+00
    0.00000E+00         0.00000E+00        -0.49986E+08
 
   -0.49705E+08         0.19047E+06         0.00000E+00
    0.19047E+06        -0.49948E+08         0.00000E+00
    0.00000E+00         0.00000E+00        -0.49986E+08
 
   -0.49712E+08         0.19697E+06         0.00000E+00
    0.19697E+06        -0.49943E+08         0.00000E+00
    0.00000E+00         0.00000E+00        -0.49986E+08
 
   -0.49721E+08         0.20329E+06         0.00000E+00
    0.20329E+06        -0.49939E+08         0.00000E+00
    0.00000E+00         0.00000E+00        -0.49986E+08
 
   -0.49729E+08         0.20943E+06         0.00000E+00
    0.20943E+06        -0.49934E+08         0.00000E+00
    0.00000E+00         0.00000E+00        -0.49986E+08
 
   -0.49737E+08         0.21537E+06         0.00000E+00
    0.21537E+06        -0.49930E+08         0.00000E+00
    0.00000E+00         0.00000E+00        -0.49986E+08
 
   -0.49746E+08         0.22112E+06         0.00000E+00
    0.22112E+06        -0.49925E+08         0.00000E+00
    0.00000E+00         0.00000E+00        -0.49986E+08
 
   -0.49755E+08         0.22667E+06         0.00000E+00
    0.22667E+06        -0.49920E+08         0.00000E+00
    0.00000E+00         0.00000E+00        -0.49986E+08
 
   -0.49765E+08         0.23201E+06         0.00000E+00
    0.23201E+06        -0.49915E+08         0.00000E+00
    0.00000E+00         0.00000E+00        -0.49986E+08
 
   -0.49774E+08         0.23714E+06         0.00000E+00
    0.23714E+06        -0.49910E+08         0.00000E+00
    0.00000E+00         0.00000E+00        -0.49986E+08
 
   -0.49784E+08         0.24206E+06         0.00000E+00
    0.24206E+06        -0.49905E+08         0.00000E+00
    0.00000E+00         0.00000E+00        -0.49986E+08
 
   -0.49794E+08         0.24677E+06         0.00000E+00
    0.24677E+06        -0.49899E+08         0.00000E+00
    0.00000E+00         0.00000E+00        -0.49986E+08
 
   -0.49805E+08         0.25125E+06         0.00000E+00
    0.25125E+06        -0.49894E+08         0.00000E+00
    0.00000E+00         0.00000E+00        -0.49986E+08
 
   -0.49815E+08         0.25551E+06         0.00000E+00
    0.25551E+06        -0.49888E+08         0.00000E+00
    0.00000E+00         0.00000E+00        -0.49986E+08
 
   -0.49826E+08         0.25954E+06         0.00000E+00
    0.25954E+06        -0.49883E+08         0.00000E+00
    0.00000E+00         0.00000E+00        -0.49986E+08
 
   -0.49837E+08         0.26334E+06         0.00000E+00
    0.26334E+06        -0.49877E+08         0.00000E+00
    0.00000E+00         0.00000E+00        -0.49986E+08
 
   -0.49848E+08         0.26690E+06         0.00000E+00
    0.26690E+06        -0.49871E+08         0.00000E+00
    0.00000E+00         0.00000E+00        -0.49986E+08
 
   -0.49859E+08         0.27022E+06         0.00000E+00
    0.27022E+06        -0.49865E+08         0.00000E+00
    0.00000E+00         0.00000E+00        -0.49986E+08
 
   -0.49870E+08         0.27330E+06         0.00000E+00
    0.27330E+06        -0.49859E+08         0.00000E+00
    0.00000E+00         0.00000E+00        -0.49986E+08
 
   -0.49882E+08         0.27614E+06         0.00000E+00
    0.27614E+06        -0.49853E+08         0.00000E+00
    0.00000E+00         0.00000E+00        -0.49986E+08
 
   -0.49894E+08         0.27873E+06         0.00000E+00
    0.27873E+06        -0.49847E+08         0.00000E+00
    0.00000E+00         0.00000E+00        -0.49986E+08
 
   -0.49906E+08         0.28107E+06         0.00000E+00
    0.28107E+06        -0.49841E+08         0.00000E+00
    0.00000E+00         0.00000E+00        -0.49986E+08
 
   -0.49918E+08         0.28316E+06         0.00000E+00
    0.28316E+06        -0.49835E+08         0.00000E+00
    0.00000E+00         0.00000E+00        -0.49986E+08
 
   -0.49930E+08         0.28499E+06         0.00000E+00
    0.28499E+06        -0.49829E+08         0.00000E+00
    0.00000E+00         0.00000E+00        -0.49986E+08
 
   -0.49942E+08         0.28656E+06         0.00000E+00
    0.28656E+06        -0.49822E+08         0.00000E+00
    0.00000E+00         0.00000E+00        -0.49986E+08
 
   -0.49955E+08         0.28787E+06         0.00000E+00
    0.28787E+06        -0.49816E+08         0.00000E+00
    0.00000E+00         0.00000E+00        -0.49986E+08
 
   -0.49967E+08         0.28892E+06         0.00000E+00
    0.28892E+06        -0.49810E+08         0.00000E+00
    0.00000E+00         0.00000E+00        -0.49986E+08
 
   -0.49980E+08         0.28971E+06         0.00000E+00
    0.28971E+06        -0.49803E+08         0.00000E+00
    0.00000E+00         0.00000E+00        -0.49986E+08
 
   -0.49567E+08         0.50583E+04         0.00000E+00
    0.50583E+04        -0.50000E+08         0.00000E+00
    0.00000E+00         0.00000E+00        -0.49983E+08
 
   -0.49567E+08         0.15109E+05         0.00000E+00
    0.15109E+05        -0.50000E+08         0.00000E+00
    0.00000E+00         0.00000E+00        -0.49983E+08
 
   -0.49568E+08         0.25123E+05         0.00000E+00
    0.25123E+05        -0.49999E+08         0.00000E+00
    0.00000E+00         0.00000E+00        -0.49983E+08
 
   -0.49569E+08         0.35093E+05         0.00000E+00
    0.35093E+05        -0.49999E+08         0.00000E+00
    0.00000E+00         0.00000E+00        -0.49983E+08
 
   -0.49570E+08         0.45008E+05         0.00000E+00
    0.45008E+05        -0.49998E+08         0.00000E+00
    0.00000E+00         0.00000E+00        -0.49983E+08
 
   -0.49572E+08         0.54861E+05         0.00000E+00
    0.54861E+05        -0.49997E+08         0.00000E+00
    0.00000E+00         0.00000E+00        -0.49983E+08
 
   -0.49574E+08         0.64643E+05         0.00000E+00
    0.64643E+05        -0.49995E+08         0.00000E+00
    0.00000E+00         0.00000E+00        -0.49983E+08
 
   -0.49577E+08         0.74345E+05         0.00000E+00
    0.74345E+05        -0.49994E+08         0.00000E+00
    0.00000E+00         0.00000E+00        -0.49983E+08
 
   -0.49580E+08         0.83960E+05         0.00000E+00
    0.83960E+05        -0.49992E+08         0.00000E+00
    0.00000E+00         0.00000E+00        -0.49983E+08
 
   -0.49583E+08         0.93480E+05         0.00000E+00
    0.93480E+05        -0.49990E+08         0.00000E+00
    0.00000E+00         0.00000E+00        -0.49983E+08
 
   -0.49587E+08         0.10290E+06         0.00000E+00
    0.10290E+06        -0.49988E+08         0.00000E+00
    0.00000E+00         0.00000E+00        -0.49983E+08
 
   -0.49591E+08         0.11220E+06         0.00000E+00
    0.11220E+06        -0.49985E+08         0.00000E+00
    0.00000E+00         0.00000E+00        -0.49983E+08
 
   -0.49596E+08         0.12139E+06         0.00000E+00
    0.12139E+06        -0.49983E+08         0.00000E+00
    0.00000E+00         0.00000E+00        -0.49983E+08
 
   -0.49601E+08         0.13045E+06         0.00000E+00
    0.13045E+06        -0.49980E+08         0.00000E+00
    0.00000E+00         0.00000E+00        -0.49983E+08
 
   -0.49606E+08         0.13937E+06         0.00000E+00
    0.13937E+06        -0.49977E+08         0.00000E+00
    0.00000E+00         0.00000E+00        -0.49983E+08
 
   -0.49612E+08         0.14816E+06         0.00000E+00
    0.14816E+06        -0.49974E+08         0.00000E+00
    0.00000E+00         0.00000E+00        -0.49983E+08
 
   -0.49618E+08         0.15680E+06         0.00000E+00
    0.15680E+06        -0.49970E+08         0.00000E+00
    0.00000E+00         0.00000E+00        -0.49983E+08
 
   -0.49624E+08         0.16528E+06         0.00000E+00
    0.16528E+06        -0.49967E+08         0.00000E+00
    0.00000E+00         0.00000E+00        -0.49983E+08
 
   -0.49631E+08         0.17361E+06         0.00000E+00
    0.17361E+06        -0.49963E+08         0.00000E+00
    0.00000E+00         0.00000E+00        -0.49983E+08
 
   -0.49638E+08         0.18177E+06         0.00000E+00
    0.18177E+06        -0.49959E+08         0.00000E+00
    0.00000E+00         0.00000E+00        -0.49983E+08
 
   -0.49646E+08         0.18975E+06         0.00000E+00
    0.18975E+06        -0.49955E+08         0.00000E+00
    0.00000E+00         0.00000E+00        -0.49983E+08
 
   -0.49653E+08         0.19756E+06         0.00000E+00
    0.19756E+06        -0.49951E+08         0.00000E+00
    0.00000E+00         0.00000E+00        -0.49983E+08
 
   -0.49661E+08         0.20518E+06         0.00000E+00
    0.20518E+06        -0.49946E+08         0.00000E+00
    0.00000E+00         0.00000E+00        -0.49983E+08
 
   -0.49670E+08         0.21261E+06         0.00000E+00
    0.21261E+06        -0.49942E+08         0.00000E+00
    0.00000E+00         0.00000E+00        -0.49983E+08
 
   -0.49679E+08         0.21984E+06         0.00000E+00
    0.21984E+06        -0.49937E+08         0.00000E+00
    0.00000E+00         0.00000E+00        -0.49983E+08
 
   -0.49688E+08         0.22687E+06         0.00000E+00
    0.22687E+06        -0.49932E+08         0.00000E+00
    0.00000E+00         0.00000E+00        -0.49983E+08
 
   -0.49697E+08         0.23369E+06         0.00000E+00
    0.23369E+06        -0.49927E+08         0.00000E+00
    0.00000E+00         0.00000E+00        -0.49983E+08
 
   -0.49707E+08         0.24030E+06         0.00000E+00
    0.24030E+06        -0.49922E+08         0.00000E+00
    0.00000E+00         0.00000E+00        -0.49983E+08
 
   -0.49717E+08         0.24670E+06         0.00000E+00
    0.24670E+06        -0.49917E+08         0.00000E+00
    0.00000E+00         0.00000E+00        -0.49983E+08
 
   -0.49727E+08         0.25287E+06         0.00000E+00
    0.25287E+06        -0.49911E+08         0.00000E+00
    0.00000E+00         0.00000E+00        -0.49983E+08
 
   -0.49737E+08         0.25881E+06         0.00000E+00
    0.25881E+06        -0.49906E+08         0.00000E+00
    0.00000E+00         0.00000E+00        -0.49983E+08
 
   -0.49748E+08         0.26452E+06         0.00000E+00
    0.26452E+06        -0.49900E+08         0.00000E+00
    0.00000E+00         0.00000E+00        -0.49983E+08
 
   -0.49759E+08         0.26999E+06         0.00000E+00
    0.26999E+06        -0.49894E+08         0.00000E+00
    0.00000E+00         0.00000E+00        -0.49983E+08
 
   -0.49770E+08         0.27523E+06         0.00000E+00
    0.27523E+06        -0.49888E+08         0.00000E+00
    0.00000E+00         0.00000E+00        -0.49983E+08
 
   -0.49782E+08         0.28022E+06         0.00000E+00
    0.28022E+06        -0.49882E+08         0.00000E+00
    0.00000E+00         0.00000E+00        -0.49983E+08
 
   -0.49793E+08         0.28496E+06         0.00000E+00
    0.28496E+06        -0.49876E+08         0.00000E+00
    0.00000E+00         0.00000E+00        -0.49983E+08
 
   -0.49805E+08         0.28945E+06         0.00000E+00
    0.28945E+06        -0.49870E+08         0.00000E+00
    0.00000E+00         0.00000E+00        -0.49983E+08
 
   -0.49817E+08         0.29368E+06         0.00000E+00
    0.29368E+06        -0.49863E+08         0.00000E+00
    0.00000E+00         0.00000E+00        -0.49983E+08
 
   -0.49830E+08         0.29766E+06         0.00000E+00
    0.29766E+06        -0.49857E+08         0.00000E+00
    0.00000E+00         0.00000E+00        -0.49983E+08
 
   -0.49842E+08         0.30137E+06         0.00000E+00
    0.30137E+06        -0.49850E+08         0.00000E+00
    0.00000E+00         0.00000E+00        -0.49983E+08
 
   -0.49855E+08         0.30481E+06         0.00000E+00
    0.30481E+06        -0.49844E+08         0.00000E+00
    0.00000E+00         0.00000E+00        -0.49983E+08
 
   -0.49868E+08         0.30799E+06         0.00000E+00
    0.30799E+06        -0.49837E+08         0.00000E+00
    0.00000E+00         0.00000E+00        -0.49983E+08
 
   -0.49881E+08         0.31089E+06         0.00000E+00
    0.31089E+06        -0.49830E+08         0.00000E+00
    0.00000E+00         0.00000E+00        -0.49983E+08
 
   -0.49894E+08         0.31351E+06         0.00000E+00
    0.31351E+06        -0.49824E+08         0.00000E+00
    0.00000E+00         0.00000E+00        -0.49983E+08
 
   -0.49907E+08         0.31586E+06         0.00000E+00
    0.31586E+06        -0.49817E+08         0.00000E+00
    0.00000E+00         0.00000E+00        -0.49983E+08
 
   -0.49921E+08         0.31793E+06         0.00000E+00
    0.31793E+06        -0.49810E+08         0.00000E+00
    0.00000E+00         0.00000E+00        -0.49983E+08
 
   -0.49935E+08         0.31971E+06         0.00000E+00
    0.31971E+06        -0.49803E+08         0.00000E+00
    0.00000E+00         0.00000E+00        -0.49983E+08
 
   -0.49948E+08         0.32121E+06         0.00000E+00
    0.32121E+06        -0.49796E+08         0.00000E+00
    0.00000E+00         0.00000E+00        -0.49983E+08
 
   -0.49962E+08         0.32242E+06         0.00000E+00
    0.32242E+06        -0.49789E+08         0.00000E+00
    0.00000E+00         0.00000E+00        -0.49983E+08
 
   -0.49976E+08         0.32334E+06         0.00000E+00
    0.32334E+06        -0.49782E+08         0.00000E+00
    0.00000E+00         0.00000E+00        -0.49983E+08
 
   -0.49514E+08         0.56742E+04         0.00000E+00
    0.56742E+04        -0.50000E+08         0.00000E+00
    0.00000E+00         0.00000E+00        -0.49980E+08
 
   -0.49514E+08         0.16932E+05         0.00000E+00
    0.16932E+05        -0.50000E+08         0.00000E+00
    0.00000E+00         0.00000E+00        -0.49980E+08
 
   -0.49515E+08         0.28143E+05         0.00000E+00
    0.28143E+05        -0.49999E+08         0.00000E+00
    0.00000E+00         0.00000E+00        -0.49980E+08
 
   -0.49516E+08         0.39297E+05         0.00000E+00
    0.39297E+05        -0.49998E+08         0.00000E+00
    0.00000E+00         0.00000E+00        -0.49980E+08
 
   -0.49518E+08         0.50387E+05         0.00000E+00
    0.50387E+05        -0.49997E+08         0.00000E+00
    0.00000E+00         0.00000E+00        -0.49980E+08
 
   -0.49520E+08         0.61400E+05         0.00000E+00
    0.61400E+05        -0.49996E+08         0.00000E+00
    0.00000E+00         0.00000E+00        -0.49980E+08
 
   -0.49523E+08         0.72330E+05         0.00000E+00
    0.72330E+05        -0.49995E+08         0.00000E+00
    0.00000E+00         0.00000E+00        -0.49980E+08
 
   -0.49526E+08         0.83165E+05         0.00000E+00
    0.83165E+05        -0.49993E+08         0.00000E+00
    0.00000E+00         0.00000E+00        -0.49980E+08
 
   -0.49529E+08         0.93899E+05         0.00000E+00
    0.93899E+05        -0.49991E+08         0.00000E+00
    0.00000E+00         0.00000E+00        -0.49980E+08
 
   -0.49533E+08         0.10452E+06         0.00000E+00
    0.10452E+06        -0.49989E+08         0.00000E+00
    0.00000E+00         0.00000E+00        -0.49980E+08
 
   -0.49538E+08         0.11502E+06         0.00000E+00
    0.11502E+06        -0.49986E+08         0.00000E+00
    0.00000E+00         0.00000E+00        -0.49980E+08
 
   -0.49542E+08         0.12540E+06         0.00000E+00
    0.12540E+06        -0.49984E+08         0.00000E+00
    0.00000E+00         0.00000E+00        -0.49980E+08
 
   -0.49548E+08         0.13564E+06         0.00000E+00
    0.13564E+06        -0.49981E+08         0.00000E+00
    0.00000E+00         0.00000E+00        -0.49980E+08
 
   -0.49553E+08         0.14573E+06         0.00000E+00
    0.14573E+06        -0.49978E+08         0.00000E+00
    0.00000E+00         0.00000E+00        -0.49980E+08
 
   -0.49559E+08         0.15568E+06         0.00000E+00
    0.15568E+06        -0.49974E+08         0.00000E+00
    0.00000E+00         0.00000E+00        -0.49980E+08
 
   -0.49566E+08         0.16546E+06         0.00000E+00
    0.16546E+06        -0.49971E+08         0.00000E+00
    0.00000E+00         0.00000E+00        -0.49980E+08
 
   -0.49573E+08         0.17508E+06         0.00000E+00
    0.17508E+06        -0.49967E+08         0.00000E+00
    0.00000E+00         0.00000E+00        -0.49980E+08
 
   -0.49580E+08         0.18452E+06         0.00000E+00
    0.18452E+06        -0.49963E+08         0.00000E+00
    0.00000E+00         0.00000E+00        -0.49980E+08
 
   -0.49588E+08         0.19378E+06         0.00000E+00
    0.19378E+06        -0.49959E+08         0.00000E+00
    0.00000E+00         0.00000E+00        -0.49980E+08
 
   -0.49596E+08         0.20285E+06         0.00000E+00
    0.20285E+06        -0.49955E+08         0.00000E+00
    0.00000E+00         0.00000E+00        -0.49980E+08
 
   -0.49604E+08         0.21173E+06         0.00000E+00
    0.21173E+06        -0.49950E+08         0.00000E+00
    0.00000E+00         0.00000E+00        -0.49980E+08
 
   -0.49613E+08         0.22041E+06         0.00000E+00
    0.22041E+06        -0.49945E+08         0.00000E+00
    0.00000E+00         0.00000E+00        -0.49980E+08
 
   -0.49622E+08         0.22888E+06         0.00000E+00
    0.22888E+06        -0.49940E+08         0.00000E+00
    0.00000E+00         0.00000E+00        -0.49980E+08
 
   -0.49631E+08         0.23714E+06         0.00000E+00
    0.23714E+06        -0.49935E+08         0.00000E+00
    0.00000E+00         0.00000E+00        -0.49980E+08
 
   -0.49641E+08         0.24518E+06         0.00000E+00
    0.24518E+06        -0.49930E+08         0.00000E+00
    0.00000E+00         0.00000E+00        -0.49980E+08
 
   -0.49651E+08         0.25299E+06         0.00000E+00
    0.25299E+06        -0.49925E+08         0.00000E+00
    0.00000E+00         0.00000E+00        -0.49980E+08
 
   -0.49662E+08         0.26057E+06         0.00000E+00
    0.26057E+06        -0.49919E+08         0.00000E+00
    0.00000E+00         0.00000E+00        -0.49980E+08
 
   -0.49672E+08         0.26792E+06         0.00000E+00
    0.26792E+06        -0.49913E+08         0.00000E+00
    0.00000E+00         0.00000E+00        -0.49980E+08
 
   -0.49683E+08         0.27502E+06         0.00000E+00
    0.27502E+06        -0.49907E+08         0.00000E+00
    0.00000E+00         0.00000E+00        -0.49980E+08
 
   -0.49695E+08         0.28188E+06         0.00000E+00
    0.28188E+06        -0.49901E+08         0.00000E+00
    0.00000E+00         0.00000E+00        -0.49980E+08
 
   -0.49706E+08         0.28848E+06         0.00000E+00
    0.28848E+06        -0.49895E+08         0.00000E+00
    0.00000E+00         0.00000E+00        -0.49980E+08
 
   -0.49718E+08         0.29483E+06         0.00000E+00
    0.29483E+06        -0.49889E+08         0.00000E+00
    0.00000E+00         0.00000E+00        -0.49980E+08
 
   -0.49731E+08         0.30092E+06         0.00000E+00
    0.30092E+06        -0.49883E+08         0.00000E+00
    0.00000E+00         0.00000E+00        -0.49980E+08
 
   -0.49743E+08         0.30674E+06         0.00000E+00
    0.30674E+06        -0.49876E+08         0.00000E+00
    0.00000E+00         0.00000E+00        -0.49980E+08
 
   -0.49756E+08         0.31229E+06         0.00000E+00
    0.31229E+06        -0.49869E+08         0.00000E+00
    0.00000E+00         0.00000E+00        -0.49980E+08
 
   -0.49769E+08         0.31757E+06         0.00000E+00
    0.31757E+06        -0.49862E+08         0.00000E+00
    0.00000E+00         0.00000E+00        -0.49980E+08
 
   -0.49782E+08         0.32257E+06         0.00000E+00
    0.32257E+06        -0.49856E+08         0.00000E+00
    0.00000E+00         0.00000E+00        -0.49980E+08
 
   -0.49796E+08         0.32728E+06         0.00000E+00
    0.32728E+06        -0.49849E+08         0.00000E+00
    0.00000E+00         0.00000E+00        -0.49980E+08
 
   -0.49809E+08         0.33171E+06         0.00000E+00
    0.33171E+06        -0.49841E+08         0.00000E+00
    0.00000E+00         0.00000E+00        -0.49980E+08
 
   -0.49823E+08         0.33586E+06         0.00000E+00
    0.33586E+06        -0.49834E+08         0.00000E+00
    0.00000E+00         0.00000E+00        -0.49980E+08
 
   -0.49837E+08         0.33970E+06         0.00000E+00
    0.33970E+06        -0.49827E+08         0.00000E+00
    0.00000E+00         0.00000E+00        -0.49980E+08
 
   -0.49852E+08         0.34325E+06         0.00000E+00
    0.34325E+06        -0.49820E+08         0.00000E+00
    0.00000E+00         0.00000E+00        -0.49980E+08
 
   -0.49866E+08         0.34650E+06         0.00000E+00
    0.34650E+06        -0.49812E+08         0.00000E+00
    0.00000E+00         0.00000E+00        -0.49980E+08
 
   -0.49881E+08         0.34945E+06         0.00000E+00
    0.34945E+06        -0.49805E+08         0.00000E+00
    0.00000E+00         0.00000E+00        -0.49980E+08
 
   -0.49896E+08         0.35210E+06         0.00000E+00
    0.35210E+06        -0.49797E+08         0.00000E+00
    0.00000E+00         0.00000E+00        -0.49980E+08
 
   -0.49911E+08         0.35443E+06         0.00000E+00
    0.35443E+06        -0.49789E+08         0.00000E+00
    0.00000E+00         0.00000E+00        -0.49980E+08
 
   -0.49926E+08         0.35645E+06         0.00000E+00
    0.35645E+06        -0.49782E+08         0.00000E+00
    0.00000E+00         0.00000E+00        -0.49980E+08
 
   -0.49941E+08         0.35816E+06         0.00000E+00
    0.35816E+06        -0.49774E+08         0.00000E+00
    0.00000E+00         0.00000E+00        -0.49980E+08
 
   -0.49957E+08         0.35956E+06         0.00000E+00
    0.35956E+06        -0.49766E+08         0.00000E+00
    0.00000E+00         0.00000E+00        -0.49980E+08
 
   -0.49972E+08         0.36063E+06         0.00000E+00
    0.36063E+06        -0.49758E+08         0.00000E+00
    0.00000E+00         0.00000E+00        -0.49980E+08
 
   -0.49454E+08         0.63619E+04         0.00000E+00
    0.63619E+04        -0.50000E+08         0.00000E+00
    0.00000E+00         0.00000E+00        -0.49976E+08
 
   -0.49455E+08         0.18964E+05         0.00000E+00
    0.18964E+05        -0.50000E+08         0.00000E+00
    0.00000E+00         0.00000E+00        -0.49976E+08
 
   -0.49456E+08         0.31506E+05         0.00000E+00
    0.31506E+05        -0.49999E+08         0.00000E+00
    0.00000E+00         0.00000E+00        -0.49976E+08
 
   -0.49457E+08         0.43979E+05         0.00000E+00
    0.43979E+05        -0.49998E+08         0.00000E+00
    0.00000E+00         0.00000E+00        -0.49976E+08
 
   -0.49459E+08         0.56372E+05         0.00000E+00
    0.56372E+05        -0.49997E+08         0.00000E+00
    0.00000E+00         0.00000E+00        -0.49976E+08
 
   -0.49462E+08         0.68675E+05         0.00000E+00
    0.68675E+05        -0.49996E+08         0.00000E+00
    0.00000E+00         0.00000E+00        -0.49976E+08
 
   -0.49465E+08         0.80878E+05         0.00000E+00
    0.80878E+05        -0.49994E+08         0.00000E+00
    0.00000E+00         0.00000E+00        -0.49976E+08
 
   -0.49469E+08         0.92970E+05         0.00000E+00
    0.92970E+05        -0.49992E+08         0.00000E+00
    0.00000E+00         0.00000E+00        -0.49976E+08
 
   -0.49473E+08         0.10494E+06         0.00000E+00
    0.10494E+06        -0.49990E+08         0.00000E+00
    0.00000E+00         0.00000E+00        -0.49976E+08
 
   -0.49477E+08         0.11679E+06         0.00000E+00
    0.11679E+06        -0.49987E+08         0.00000E+00
    0.00000E+00         0.00000E+00        -0.49976E+08
 
   -0.49482E+08         0.12849E+06         0.00000E+00
    0.12849E+06        -0.49985E+08         0.00000E+00
    0.00000E+00         0.00000E+00        -0.49976E+08
 
   -0.49488E+08         0.14005E+06         0.00000E+00
    0.14005E+06        -0.49982E+08         0.00000E+00
    0.00000E+00         0.00000E+00        -0.49976E+08
 
   -0.49494E+08         0.15145E+06         0.00000E+00
    0.15145E+06        -0.49979E+08         0.00000E+00
    0.00000E+00         0.00000E+00        -0.49976E+08
 
   -0.49500E+08         0.16269E+06         0.00000E+00
    0.16269E+06        -0.49975E+08         0.00000E+00
    0.00000E+00         0.00000E+00        -0.49976E+08
 
   -0.49507E+08         0.17375E+06         0.00000E+00
    0.17375E+06        -0.49971E+08         0.00000E+00
    0.00000E+00         0.00000E+00        -0.49976E+08
 
   -0.49515E+08         0.18464E+06         0.00000E+00
    0.18464E+06        -0.49968E+08         0.00000E+00
    0.00000E+00         0.00000E+00        -0.49976E+08
 
   -0.49522E+08         0.19533E+06         0.00000E+00
    0.19533E+06        -0.49963E+08         0.00000E+00
    0.00000E+00         0.00000E+00        -0.49976E+08
 
   -0.49531E+08         0.20583E+06         0.00000E+00
    0.20583E+06        -0.49959E+08         0.00000E+00
    0.00000E+00         0.00000E+00        -0.49976E+08
 
   -0.49539E+08         0.21613E+06         0.00000E+00
    0.21613E+06        -0.49954E+08         0.00000E+00
    0.00000E+00         0.00000E+00        -0.49976E+08
 
   -0.49548E+08         0.22621E+06         0.00000E+00
    0.22621E+06        -0.49950E+08         0.00000E+00
    0.00000E+00         0.00000E+00        -0.49976E+08
 
   -0.49558E+08         0.23608E+06         0.00000E+00
    0.23608E+06        -0.49945E+08         0.00000E+00
    0.00000E+00         0.00000E+00        -0.49976E+08
 
   -0.49567E+08         0.24572E+06         0.00000E+00
    0.24572E+06        -0.49939E+08         0.00000E+00
    0.00000E+00         0.00000E+00        -0.49976E+08
 
   -0.49578E+08         0.25512E+06         0.00000E+00
    0.25512E+06        -0.49934E+08         0.00000E+00
    0.00000E+00         0.00000E+00        -0.49976E+08
 
   -0.49588E+08         0.26429E+06         0.00000E+00
    0.26429E+06        -0.49928E+08         0.00000E+00
    0.00000E+00         0.00000E+00        -0.49976E+08
 
   -0.49599E+08         0.27322E+06         0.00000E+00
    0.27322E+06        -0.49923E+08         0.00000E+00
    0.00000E+00         0.00000E+00        -0.49976E+08
 
   -0.49611E+08         0.28189E+06         0.00000E+00
    0.28189E+06        -0.49917E+08         0.00000E+00
    0.00000E+00         0.00000E+00        -0.49976E+08
 
   -0.49622E+08         0.29031E+06         0.00000E+00
    0.29031E+06        -0.49910E+08         0.00000E+00
    0.00000E+00         0.00000E+00        -0.49976E+08
 
   -0.49634E+08         0.29847E+06         0.00000E+00
    0.29847E+06        -0.49904E+08         0.00000E+00
    0.00000E+00         0.00000E+00        -0.49976E+08
 
   -0.49647E+08         0.30635E+06         0.00000E+00
    0.30635E+06        -0.49898E+08         0.00000E+00
    0.00000E+00         0.00000E+00        -0.49976E+08
 
   -0.49659E+08         0.31397E+06         0.00000E+00
    0.31397E+06        -0.49891E+08         0.00000E+00
    0.00000E+00         0.00000E+00        -0.49976E+08
 
   -0.49672E+08         0.32130E+06         0.00000E+00
    0.32130E+06        -0.49884E+08         0.00000E+00
    0.00000E+00         0.00000E+00        -0.49976E+08
 
   -0.49686E+08         0.32835E+06         0.00000E+00
    0.32835E+06        -0.49877E+08         0.00000E+00
    0.00000E+00         0.00000E+00        -0.49976E+08
 
   -0.49699E+08         0.33511E+06         0.00000E+00
    0.33511E+06        -0.49870E+08         0.00000E+00
    0.00000E+00         0.00000E+00        -0.49976E+08
 
   -0.49713E+08         0.34158E+06         0.00000E+00
    0.34158E+06        -0.49863E+08         0.00000E+00
    0.00000E+00         0.00000E+00        -0.49976E+08
 
   -0.49727E+08         0.34775E+06         0.00000E+00
    0.34775E+06        -0.49855E+08         0.00000E+00
    0.00000E+00         0.00000E+00        -0.49976E+08
 
   -0.49742E+08         0.35362E+06         0.00000E+00
    0.35362E+06        -0.49848E+08         0.00000E+00
    0.00000E+00         0.00000E+00        -0.49976E+08
 
   -0.49756E+08         0.35918E+06         0.00000E+00
    0.35918E+06        -0.49840E+08         0.00000E+00
    0.00000E+00         0.00000E+00        -0.49976E+08
 
   -0.49771E+08         0.36444E+06         0.00000E+00
    0.36444E+06        -0.49832E+08         0.00000E+00
    0.00000E+00         0.00000E+00        -0.49976E+08
 
   -0.49787E+08         0.36937E+06         0.00000E+00
    0.36937E+06        -0.49825E+08         0.00000E+00
    0.00000E+00         0.00000E+00        -0.49976E+08
 
   -0.49802E+08         0.37399E+06         0.00000E+00
    0.37399E+06        -0.49817E+08         0.00000E+00
    0.00000E+00         0.00000E+00        -0.49976E+08
 
   -0.49818E+08         0.37829E+06         0.00000E+00
    0.37829E+06        -0.49809E+08         0.00000E+00
    0.00000E+00         0.00000E+00        -0.49976E+08
 
   -0.49834E+08         0.38226E+06         0.00000E+00
    0.38226E+06        -0.49800E+08         0.00000E+00
    0.00000E+00         0.00000E+00        -0.49976E+08
 
   -0.49850E+08         0.38590E+06         0.00000E+00
    0.38590E+06        -0.49792E+08         0.00000E+00
    0.00000E+00         0.00000E+00        -0.49976E+08
 
   -0.49866E+08         0.38921E+06         0.00000E+00
    0.38921E+06        -0.49784E+08         0.00000E+00
    0.00000E+00         0.00000E+00        -0.49976E+08
 
   -0.49882E+08         0.39219E+06         0.00000E+00
    0.39219E+06        -0.49775E+08         0.00000E+00
    0.00000E+00         0.00000E+00        -0.49976E+08
 
   -0.49899E+08         0.39482E+06         0.00000E+00
    0.39482E+06        -0.49767E+08         0.00000E+00
    0.00000E+00         0.00000E+00        -0.49976E+08
 
   -0.49916E+08         0.39712E+06         0.00000E+00
    0.39712E+06        -0.49758E+08         0.00000E+00
    0.00000E+00         0.00000E+00        -0.49976E+08
 
   -0.49933E+08         0.39907E+06         0.00000E+00
    0.39907E+06        -0.49750E+08         0.00000E+00
    0.00000E+00         0.00000E+00        -0.49976E+08
 
   -0.49950E+08         0.40068E+06         0.00000E+00
    0.40068E+06        -0.49741E+08         0.00000E+00
    0.00000E+00         0.00000E+00        -0.49976E+08
 
   -0.49967E+08         0.40194E+06         0.00000E+00
    0.40194E+06        -0.49733E+08         0.00000E+00
    0.00000E+00         0.00000E+00        -0.49976E+08
 
   -0.49388E+08         0.71287E+04         0.00000E+00
    0.71287E+04        -0.50000E+08         0.00000E+00
    0.00000E+00         0.00000E+00        -0.49971E+08
 
   -0.49388E+08         0.21226E+05         0.00000E+00
    0.21226E+05        -0.50000E+08         0.00000E+00
    0.00000E+00         0.00000E+00        -0.49971E+08
 
   -0.49390E+08         0.35249E+05         0.00000E+00
    0.35249E+05        -0.49999E+08         0.00000E+00
    0.00000E+00         0.00000E+00        -0.49971E+08
 
   -0.49392E+08         0.49186E+05         0.00000E+00
    0.49186E+05        -0.49998E+08         0.00000E+00
    0.00000E+00         0.00000E+00        -0.49971E+08
 
   -0.49394E+08         0.63026E+05         0.00000E+00
    0.63026E+05        -0.49997E+08         0.00000E+00
    0.00000E+00         0.00000E+00        -0.49971E+08
 
   -0.49397E+08         0.76758E+05         0.00000E+00
    0.76758E+05        -0.49995E+08         0.00000E+00
    0.00000E+00         0.00000E+00        -0.49971E+08
 
   -0.49401E+08         0.90371E+05         0.00000E+00
    0.90371E+05        -0.49993E+08         0.00000E+00
    0.00000E+00         0.00000E+00        -0.49971E+08
 
   -0.49405E+08         0.10385E+06         0.00000E+00
    0.10385E+06        -0.49991E+08         0.00000E+00
    0.00000E+00         0.00000E+00        -0.49971E+08
 
   -0.49410E+08         0.11720E+06         0.00000E+00
    0.11720E+06        -0.49989E+08         0.00000E+00
    0.00000E+00         0.00000E+00        -0.49971E+08
 
   -0.49415E+08         0.13039E+06         0.00000E+00
    0.13039E+06        -0.49986E+08         0.00000E+00
    0.00000E+00         0.00000E+00        -0.49971E+08
 
   -0.49421E+08         0.14343E+06         0.00000E+00
    0.14343E+06        -0.49983E+08         0.00000E+00
    0.00000E+00         0.00000E+00        -0.49971E+08
 
   -0.49427E+08         0.15629E+06         0.00000E+00
    0.15629E+06        -0.49980E+08         0.00000E+00
    0.00000E+00         0.00000E+00        -0.49971E+08
 
   -0.49434E+08         0.16898E+06         0.00000E+00
    0.16898E+06        -0.49976E+08         0.00000E+00
    0.00000E+00         0.00000E+00        -0.49971E+08
 
   -0.49441E+08         0.18148E+06         0.00000E+00
    0.18148E+06        -0.49972E+08         0.00000E+00
    0.00000E+00         0.00000E+00        -0.49971E+08
 
   -0.49449E+08         0.19378E+06         0.00000E+00
    0.19378E+06        -0.49968E+08         0.00000E+00
    0.00000E+00         0.00000E+00        -0.49971E+08
 
   -0.49458E+08         0.20588E+06         0.00000E+00
    0.20588E+06        -0.49964E+08         0.00000E+00
    0.00000E+00         0.00000E+00        -0.49971E+08
 
   -0.49466E+08         0.21776E+06         0.00000E+00
    0.21776E+06        -0.49959E+08         0.00000E+00
    0.00000E+00         0.00000E+00        -0.49971E+08
 
   -0.49476E+08         0.22942E+06         0.00000E+00
    0.22942E+06        -0.49955E+08         0.00000E+00
    0.00000E+00         0.00000E+00        -0.49971E+08
 
   -0.49485E+08         0.24085E+06         0.00000E+00
    0.24085E+06        -0.49949E+08         0.00000E+00
    0.00000E+00         0.00000E+00        -0.49971E+08
 
   -0.49496E+08         0.25205E+06         0.00000E+00
    0.25205E+06        -0.49944E+08         0.00000E+00
    0.00000E+00         0.00000E+00        -0.49971E+08
 
   -0.49506E+08         0.26300E+06         0.00000E+00
    0.26300E+06        -0.49939E+08         0.00000E+00
    0.00000E+00         0.00000E+00        -0.49971E+08
 
   -0.49517E+08         0.27369E+06         0.00000E+00
    0.27369E+06        -0.49933E+08         0.00000E+00
    0.00000E+00         0.00000E+00        -0.49971E+08
 
   -0.49529E+08         0.28413E+06         0.00000E+00
    0.28413E+06        -0.49927E+08         0.00000E+00
    0.00000E+00         0.00000E+00        -0.49971E+08
 
   -0.49541E+08         0.29430E+06         0.00000E+00
    0.29430E+06        -0.49921E+08         0.00000E+00
    0.00000E+00         0.00000E+00        -0.49971E+08
 
   -0.49553E+08         0.30420E+06         0.00000E+00
    0.30420E+06        -0.49914E+08         0.00000E+00
    0.00000E+00         0.00000E+00        -0.49971E+08
 
   -0.49566E+08         0.31383E+06         0.00000E+00
    0.31383E+06        -0.49908E+08         0.00000E+00
    0.00000E+00         0.00000E+00        -0.49971E+08
 
   -0.49579E+08         0.32316E+06         0.00000E+00
    0.32316E+06        -0.49901E+08         0.00000E+00
    0.00000E+00         0.00000E+00        -0.49971E+08
 
   -0.49592E+08         0.33221E+06         0.00000E+00
    0.33221E+06        -0.49894E+08         0.00000E+00
    0.00000E+00         0.00000E+00        -0.49971E+08
 
   -0.49606E+08         0.34095E+06         0.00000E+00
    0.34095E+06        -0.49887E+08         0.00000E+00
    0.00000E+00         0.00000E+00        -0.49971E+08
 
   -0.49620E+08         0.34940E+06         0.00000E+00
    0.34940E+06        -0.49879E+08         0.00000E+00
    0.00000E+00         0.00000E+00        -0.49971E+08
 
   -0.49634E+08         0.35754E+06         0.00000E+00
    0.35754E+06        -0.49872E+08         0.00000E+00
    0.00000E+00         0.00000E+00        -0.49971E+08
 
   -0.49649E+08         0.36536E+06         0.00000E+00
    0.36536E+06        -0.49864E+08         0.00000E+00
    0.00000E+00         0.00000E+00        -0.49971E+08
 
   -0.49664E+08         0.37287E+06         0.00000E+00
    0.37287E+06        -0.49856E+08         0.00000E+00
    0.00000E+00         0.00000E+00        -0.49971E+08
 
   -0.49680E+08         0.38005E+06         0.00000E+00
    0.38005E+06        -0.49848E+08         0.00000E+00
    0.00000E+00         0.00000E+00        -0.49971E+08
 
   -0.49696E+08         0.38690E+06         0.00000E+00
    0.38690E+06        -0.49840E+08         0.00000E+00
    0.00000E+00         0.00000E+00        -0.49971E+08
 
   -0.49712E+08         0.39343E+06         0.00000E+00
    0.39343E+06        -0.49832E+08         0.00000E+00
    0.00000E+00         0.00000E+00        -0.49971E+08
 
   -0.49728E+08         0.39961E+06         0.00000E+00
    0.39961E+06        -0.49823E+08         0.00000E+00
    0.00000E+00         0.00000E+00        -0.49971E+08
 
   -0.49744E+08         0.40545E+06         0.00000E+00
    0.40545E+06        -0.49815E+08         0.00000E+00
    0.00000E+00         0.00000E+00        -0.49971E+08
 
   -0.49761E+08         0.41095E+06         0.00000E+00
    0.41095E+06        -0.49806E+08         0.00000E+00
    0.00000E+00         0.00000E+00        -0.49971E+08
 
   -0.49778E+08         0.41610E+06         0.00000E+00
    0.41610E+06        -0.49797E+08         0.00000E+00
    0.00000E+00         0.00000E+00        -0.49971E+08
 
   -0.49796E+08         0.42090E+06         0.00000E+00
    0.42090E+06        -0.49789E+08         0.00000E+00
    0.00000E+00         0.00000E+00        -0.49971E+08
 
   -0.49813E+08         0.42534E+06         0.00000E+00
    0.42534E+06        -0.49780E+08         0.00000E+00
    0.00000E+00         0.00000E+00        -0.49971E+08
 
   -0.49831E+08         0.42942E+06         0.00000E+00
    0.42942E+06        -0.49770E+08         0.00000E+00
    0.00000E+00         0.00000E+00        -0.49971E+08
 
   -0.49849E+08         0.43313E+06         0.00000E+00
    0.43313E+06        -0.49761E+08         0.00000E+00
    0.00000E+00         0.00000E+00        -0.49971E+08
 
   -0.49867E+08         0.43648E+06         0.00000E+00
    0.43648E+06        -0.49752E+08         0.00000E+00
    0.00000E+00         0.00000E+00        -0.49971E+08
 
   -0.49886E+08         0.43946E+06         0.00000E+00
    0.43946E+06        -0.49743E+08         0.00000E+00
    0.00000E+00         0.00000E+00        -0.49971E+08
 
   -0.49904E+08         0.44207E+06         0.00000E+00
    0.44207E+06        -0.49733E+08         0.00000E+00
    0.00000E+00         0.00000E+00        -0.49971E+08
 
   -0.49923E+08         0.44430E+06         0.00000E+00
    0.44430E+06        -0.49724E+08         0.00000E+00
    0.00000E+00         0.00000E+00        -0.49971E+08
 
   -0.49942E+08         0.44616E+06         0.00000E+00
    0.44616E+06        -0.49714E+08         0.00000E+00
    0.00000E+00         0.00000E+00        -0.49971E+08
 
   -0.49961E+08         0.44763E+06         0.00000E+00
    0.44763E+06        -0.49705E+08         0.00000E+00
    0.00000E+00         0.00000E+00        -0.49971E+08
 
   -0.49313E+08         0.79828E+04         0.00000E+00
    0.79828E+04        -0.50000E+08         0.00000E+00
    0.00000E+00         0.00000E+00        -0.49965E+08
 
   -0.49314E+08         0.23741E+05         0.00000E+00
    0.23741E+05        -0.50000E+08         0.00000E+00
    0.00000E+00         0.00000E+00        -0.49965E+08
 
   -0.49316E+08         0.39407E+05         0.00000E+00
    0.39407E+05        -0.49999E+08         0.00000E+00
    0.00000E+00         0.00000E+00        -0.49965E+08
 
   -0.49318E+08         0.54968E+05         0.00000E+00
    0.54968E+05        -0.49998E+08         0.00000E+00
    0.00000E+00         0.00000E+00        -0.49965E+08
 
   -0.49321E+08         0.70411E+05         0.00000E+00
    0.70411E+05        -0.49996E+08         0.00000E+00
    0.00000E+00         0.00000E+00        -0.49965E+08
 
   -0.49325E+08         0.85726E+05         0.00000E+00
    0.85726E+05        -0.49995E+08         0.00000E+00
    0.00000E+00         0.00000E+00        -0.49965E+08
 
   -0.49329E+08         0.10090E+06         0.00000E+00
    0.10090E+06        -0.49993E+08         0.00000E+00
    0.00000E+00         0.00000E+00        -0.49965E+08
 
   -0.49334E+08         0.11592E+06         0.00000E+00
    0.11592E+06        -0.49990E+08         0.00000E+00
    0.00000E+00         0.00000E+00        -0.49965E+08
 
   -0.49340E+08         0.13078E+06         0.00000E+00
    0.13078E+06        -0.49988E+08         0.00000E+00
    0.00000E+00         0.00000E+00        -0.49965E+08
 
   -0.49346E+08         0.14546E+06         0.00000E+00
    0.14546E+06        -0.49985E+08         0.00000E+00
    0.00000E+00         0.00000E+00        -0.49965E+08
 
   -0.49353E+08         0.15996E+06         0.00000E+00
    0.15996E+06        -0.49981E+08         0.00000E+00
    0.00000E+00         0.00000E+00        -0.49965E+08
 
   -0.49360E+08         0.17427E+06         0.00000E+00
    0.17427E+06        -0.49978E+08         0.00000E+00
    0.00000E+00         0.00000E+00        -0.49965E+08
 
   -0.49368E+08         0.18837E+06         0.00000E+00
    0.18837E+06        -0.49974E+08         0.00000E+00
    0.00000E+00         0.00000E+00        -0.49965E+08
 
   -0.49376E+08         0.20226E+06         0.00000E+00
    0.20226E+06        -0.49969E+08         0.00000E+00
    0.00000E+00         0.00000E+00        -0.49965E+08
 
   -0.49385E+08         0.21592E+06         0.00000E+00
    0.21592E+06        -0.49965E+08         0.00000E+00
    0.00000E+00         0.00000E+00        -0.49965E+08
 
   -0.49394E+08         0.22935E+06         0.00000E+00
    0.22935E+06        -0.49960E+08         0.00000E+00
    0.00000E+00         0.00000E+00        -0.49965E+08
 
   -0.49404E+08         0.24254E+06         0.00000E+00
    0.24254E+06        -0.49955E+08         0.00000E+00
    0.00000E+00         0.00000E+00        -0.49965E+08
 
   -0.49415E+08         0.25548E+06         0.00000E+00
    0.25548E+06        -0.49950E+08         0.00000E+00
    0.00000E+00         0.00000E+00        -0.49965E+08
 
   -0.49426E+08         0.26816E+06         0.00000E+00
    0.26816E+06        -0.49944E+08         0.00000E+00
    0.00000E+00         0.00000E+00        -0.49965E+08
 
   -0.49437E+08         0.28058E+06         0.00000E+00
    0.28058E+06        -0.49938E+08         0.00000E+00
    0.00000E+00         0.00000E+00        -0.49965E+08
 
   -0.49449E+08         0.29272E+06         0.00000E+00
    0.29272E+06        -0.49932E+08         0.00000E+00
    0.00000E+00         0.00000E+00        -0.49965E+08
 
   -0.49462E+08         0.30457E+06         0.00000E+00
    0.30457E+06        -0.49926E+08         0.00000E+00
    0.00000E+00         0.00000E+00        -0.49965E+08
 
   -0.49474E+08         0.31614E+06         0.00000E+00
    0.31614E+06        -0.49919E+08         0.00000E+00
    0.00000E+00         0.00000E+00        -0.49965E+08
 
   -0.49488E+08         0.32742E+06         0.00000E+00
    0.32742E+06        -0.49912E+08         0.00000E+00
    0.00000E+00         0.00000E+00        -0.49965E+08
 
   -0.49501E+08         0.33839E+06         0.00000E+00
    0.33839E+06        -0.49905E+08         0.00000E+00
    0.00000E+00         0.00000E+00        -0.49965E+08
 
   -0.49516E+08         0.34905E+06         0.00000E+00
    0.34905E+06        -0.49898E+08         0.00000E+00
    0.00000E+00         0.00000E+00        -0.49965E+08
 
   -0.49530E+08         0.35939E+06         0.00000E+00
    0.35939E+06        -0.49891E+08         0.00000E+00
    0.00000E+00         0.00000E+00        -0.49965E+08
 
   -0.49545E+08         0.36941E+06         0.00000E+00
    0.36941E+06        -0.49883E+08         0.00000E+00
    0.00000E+00         0.00000E+00        -0.49965E+08
 
   -0.49560E+08         0.37911E+06         0.00000E+00
    0.37911E+06        -0.49875E+08         0.00000E+00
    0.00000E+00         0.00000E+00        -0.49965E+08
 
   -0.49576E+08         0.38847E+06         0.00000E+00
    0.38847E+06        -0.49867E+08         0.00000E+00
    0.00000E+00         0.00000E+00        -0.49965E+08
 
   -0.49592E+08         0.39749E+06         0.00000E+00
    0.39749E+06        -0.49859E+08         0.00000E+00
    0.00000E+00         0.00000E+00        -0.49965E+08
 
   -0.49609E+08         0.40616E+06         0.00000E+00
    0.40616E+06        -0.49850E+08         0.00000E+00
    0.00000E+00         0.00000E+00        -0.49965E+08
 
   -0.49626E+08         0.41448E+06         0.00000E+00
    0.41448E+06        -0.49841E+08         0.00000E+00
    0.00000E+00         0.00000E+00        -0.49965E+08
 
   -0.49643E+08         0.42245E+06         0.00000E+00
    0.42245E+06        -0.49833E+08         0.00000E+00
    0.00000E+00         0.00000E+00        -0.49965E+08
 
   -0.49660E+08         0.43006E+06         0.00000E+00
    0.43006E+06        -0.49824E+08         0.00000E+00
    0.00000E+00         0.00000E+00        -0.49965E+08
 
   -0.49678E+08         0.43730E+06         0.00000E+00
    0.43730E+06        -0.49815E+08         0.00000E+00
    0.00000E+00         0.00000E+00        -0.49965E+08
 
   -0.49696E+08         0.44417E+06         0.00000E+00
    0.44417E+06        -0.49805E+08         0.00000E+00
    0.00000E+00         0.00000E+00        -0.49965E+08
 
   -0.49715E+08         0.45067E+06         0.00000E+00
    0.45067E+06        -0.49796E+08         0.00000E+00
    0.00000E+00         0.00000E+00        -0.49965E+08
 
   -0.49733E+08         0.45679E+06         0.00000E+00
    0.45679E+06        -0.49786E+08         0.00000E+00
    0.00000E+00         0.00000E+00        -0.49965E+08
 
   -0.49752E+08         0.46253E+06         0.00000E+00
    0.46253E+06        -0.49777E+08         0.00000E+00
    0.00000E+00         0.00000E+00        -0.49965E+08
 
   -0.49771E+08         0.46788E+06         0.00000E+00
    0.46788E+06        -0.49767E+08         0.00000E+00
    0.00000E+00         0.00000E+00        -0.49965E+08
 
   -0.49791E+08         0.47285E+06         0.00000E+00
    0.47285E+06        -0.49757E+08         0.00000E+00
    0.00000E+00         0.00000E+00        -0.49965E+08
 
   -0.49811E+08         0.47742E+06         0.00000E+00
    0.47742E+06        -0.49747E+08         0.00000E+00
    0.00000E+00         0.00000E+00        -0.49965E+08
 
   -0.49830E+08         0.48159E+06         0.00000E+00
    0.48159E+06        -0.49737E+08         0.00000E+00
    0.00000E+00         0.00000E+00        -0.49965E+08
 
   -0.49851E+08         0.48536E+06         0.00000E+00
    0.48536E+06        -0.49727E+08         0.00000E+00
    0.00000E+00         0.00000E+00        -0.49965E+08
 
   -0.49871E+08         0.48873E+06         0.00000E+00
    0.48873E+06        -0.49716E+08         0.00000E+00
    0.00000E+00         0.00000E+00        -0.49965E+08
 
   -0.49892E+08         0.49169E+06         0.00000E+00
    0.49169E+06        -0.49706E+08         0.00000E+00
    0.00000E+00         0.00000E+00        -0.49965E+08
 
   -0.49912E+08         0.49425E+06         0.00000E+00
    0.49425E+06        -0.49695E+08         0.00000E+00
    0.00000E+00         0.00000E+00        -0.49965E+08
 
   -0.49933E+08         0.49639E+06         0.00000E+00
    0.49639E+06        -0.49685E+08         0.00000E+00
    0.00000E+00         0.00000E+00        -0.49965E+08
 
   -0.49954E+08         0.49811E+06         0.00000E+00
    0.49811E+06        -0.49674E+08         0.00000E+00
    0.00000E+00         0.00000E+00        -0.49965E+08
 
   -0.49229E+08         0.89328E+04         0.00000E+00
    0.89328E+04        -0.50000E+08         0.00000E+00
    0.00000E+00         0.00000E+00        -0.49958E+08
 
   -0.49231E+08         0.26534E+05         0.00000E+00
    0.26534E+05        -0.50000E+08         0.00000E+00
    0.00000E+00         0.00000E+00        -0.49958E+08
 
   -0.49233E+08         0.44020E+05         0.00000E+00
    0.44020E+05        -0.49999E+08         0.00000E+00
    0.00000E+00         0.00000E+00        -0.49958E+08
 
   -0.49236E+08         0.61379E+05         0.00000E+00
    0.61379E+05        -0.49998E+08         0.00000E+00
    0.00000E+00         0.00000E+00        -0.49958E+08
 
   -0.49240E+08         0.78596E+05         0.00000E+00
    0.78596E+05        -0.49996E+08         0.00000E+00
    0.00000E+00         0.00000E+00        -0.49958E+08
 
   -0.49245E+08         0.95659E+05         0.00000E+00
    0.95659E+05        -0.49994E+08         0.00000E+00
    0.00000E+00         0.00000E+00        -0.49958E+08
 
   -0.49250E+08         0.11256E+06         0.00000E+00
    0.11256E+06        -0.49992E+08         0.00000E+00
    0.00000E+00         0.00000E+00        -0.49958E+08
 
   -0.49255E+08         0.12927E+06         0.00000E+00
    0.12927E+06        -0.49989E+08         0.00000E+00
    0.00000E+00         0.00000E+00        -0.49958E+08
 
   -0.49262E+08         0.14580E+06         0.00000E+00
    0.14580E+06        -0.49986E+08         0.00000E+00
    0.00000E+00         0.00000E+00        -0.49958E+08
 
   -0.49269E+08         0.16213E+06         0.00000E+00
    0.16213E+06        -0.49983E+08         0.00000E+00
    0.00000E+00         0.00000E+00        -0.49958E+08
 
   -0.49277E+08         0.17824E+06         0.00000E+00
    0.17824E+06        -0.49979E+08         0.00000E+00
    0.00000E+00         0.00000E+00        -0.49958E+08
 
   -0.49285E+08         0.19413E+06         0.00000E+00
    0.19413E+06        -0.49975E+08         0.00000E+00
    0.00000E+00         0.00000E+00        -0.49958E+08
 
   -0.49294E+08         0.20979E+06         0.00000E+00
    0.20979E+06        -0.49971E+08         0.00000E+00
    0.00000E+00         0.00000E+00        -0.49958E+08
 
   -0.49303E+08         0.22520E+06         0.00000E+00
    0.22520E+06        -0.49966E+08         0.00000E+00
    0.00000E+00         0.00000E+00        -0.49958E+08
 
   -0.49314E+08         0.24036E+06         0.00000E+00
    0.24036E+06        -0.49961E+08         0.00000E+00
    0.00000E+00         0.00000E+00        -0.49958E+08
 
   -0.49324E+08         0.25526E+06         0.00000E+00
    0.25526E+06        -0.49956E+08         0.00000E+00
    0.00000E+00         0.00000E+00        -0.49958E+08
 
   -0.49336E+08         0.26988E+06         0.00000E+00
    0.26988E+06        -0.49950E+08         0.00000E+00
    0.00000E+00         0.00000E+00        -0.49958E+08
 
   -0.49347E+08         0.28422E+06         0.00000E+00
    0.28422E+06        -0.49945E+08         0.00000E+00
    0.00000E+00         0.00000E+00        -0.49958E+08
 
   -0.49360E+08         0.29827E+06         0.00000E+00
    0.29827E+06        -0.49938E+08         0.00000E+00
    0.00000E+00         0.00000E+00        -0.49958E+08
 
   -0.49373E+08         0.31203E+06         0.00000E+00
    0.31203E+06        -0.49932E+08         0.00000E+00
    0.00000E+00         0.00000E+00        -0.49958E+08
 
   -0.49386E+08         0.32547E+06         0.00000E+00
    0.32547E+06        -0.49925E+08         0.00000E+00
    0.00000E+00         0.00000E+00        -0.49958E+08
 
   -0.49400E+08         0.33860E+06         0.00000E+00
    0.33860E+06        -0.49918E+08         0.00000E+00
    0.00000E+00         0.00000E+00        -0.49958E+08
 
   -0.49414E+08         0.35141E+06         0.00000E+00
    0.35141E+06        -0.49911E+08         0.00000E+00
    0.00000E+00         0.00000E+00        -0.49958E+08
 
   -0.49429E+08         0.36389E+06         0.00000E+00
    0.36389E+06        -0.49903E+08         0.00000E+00
    0.00000E+00         0.00000E+00        -0.49958E+08
 
   -0.49445E+08         0.37603E+06         0.00000E+00
    0.37603E+06        -0.49896E+08         0.00000E+00
    0.00000E+00         0.00000E+00        -0.49958E+08
 
   -0.49460E+08         0.38783E+06         0.00000E+00
    0.38783E+06        -0.49888E+08         0.00000E+00
    0.00000E+00         0.00000E+00        -0.49958E+08
 
   -0.49477E+08         0.39928E+06         0.00000E+00
    0.39928E+06        -0.49879E+08         0.00000E+00
    0.00000E+00         0.00000E+00        -0.49958E+08
 
   -0.49493E+08         0.41037E+06         0.00000E+00
    0.41037E+06        -0.49871E+08         0.00000E+00
    0.00000E+00         0.00000E+00        -0.49958E+08
 
   -0.49510E+08         0.42110E+06         0.00000E+00
    0.42110E+06        -0.49862E+08         0.00000E+00
    0.00000E+00         0.00000E+00        -0.49958E+08
 
   -0.49528E+08         0.43146E+06         0.00000E+00
    0.43146E+06        -0.49853E+08         0.00000E+00
    0.00000E+00         0.00000E+00        -0.49958E+08
 
   -0.49546E+08         0.44145E+06         0.00000E+00
    0.44145E+06        -0.49844E+08         0.00000E+00
    0.00000E+00         0.00000E+00        -0.49958E+08
 
   -0.49564E+08         0.45106E+06         0.00000E+00
    0.45106E+06        -0.49835E+08         0.00000E+00
    0.00000E+00         0.00000E+00        -0.49958E+08
 
   -0.49583E+08         0.46028E+06         0.00000E+00
    0.46028E+06        -0.49825E+08         0.00000E+00
    0.00000E+00         0.00000E+00        -0.49958E+08
 
   -0.49602E+08         0.46911E+06         0.00000E+00
    0.46911E+06        -0.49816E+08         0.00000E+00
    0.00000E+00         0.00000E+00        -0.49958E+08
 
   -0.49621E+08         0.47755E+06         0.00000E+00
    0.47755E+06        -0.49806E+08         0.00000E+00
    0.00000E+00         0.00000E+00        -0.49958E+08
 
   -0.49641E+08         0.48558E+06         0.00000E+00
    0.48558E+06        -0.49796E+08         0.00000E+00
    0.00000E+00         0.00000E+00        -0.49958E+08
 
   -0.49661E+08         0.49322E+06         0.00000E+00
    0.49322E+06        -0.49786E+08         0.00000E+00
    0.00000E+00         0.00000E+00        -0.49958E+08
 
   -0.49681E+08         0.50044E+06         0.00000E+00
    0.50044E+06        -0.49775E+08         0.00000E+00
    0.00000E+00         0.00000E+00        -0.49958E+08
 
   -0.49702E+08         0.50725E+06         0.00000E+00
    0.50725E+06        -0.49765E+08         0.00000E+00
    0.00000E+00         0.00000E+00        -0.49958E+08
 
   -0.49723E+08         0.51364E+06         0.00000E+00
    0.51364E+06        -0.49754E+08         0.00000E+00
    0.00000E+00         0.00000E+00        -0.49958E+08
 
   -0.49744E+08         0.51961E+06         0.00000E+00
    0.51961E+06        -0.49743E+08         0.00000E+00
    0.00000E+00         0.00000E+00        -0.49958E+08
 
   -0.49766E+08         0.52516E+06         0.00000E+00
    0.52516E+06        -0.49732E+08         0.00000E+00
    0.00000E+00         0.00000E+00        -0.49958E+08
 
   -0.49787E+08         0.53027E+06         0.00000E+00
    0.53027E+06        -0.49721E+08         0.00000E+00
    0.00000E+00         0.00000E+00        -0.49958E+08
 
   -0.49809E+08         0.53496E+06         0.00000E+00
    0.53496E+06        -0.49710E+08         0.00000E+00
    0.00000E+00         0.00000E+00        -0.49958E+08
 
   -0.49832E+08         0.53921E+06         0.00000E+00
    0.53921E+06        -0.49699E+08         0.00000E+00
    0.00000E+00         0.00000E+00        -0.49958E+08
 
   -0.49854E+08         0.54302E+06         0.00000E+00
    0.54302E+06        -0.49688E+08         0.00000E+00
    0.00000E+00         0.00000E+00        -0.49958E+08
 
   -0.49877E+08         0.54639E+06         0.00000E+00
    0.54639E+06        -0.49676E+08         0.00000E+00
    0.00000E+00         0.00000E+00        -0.49958E+08
 
   -0.49900E+08         0.54931E+06         0.00000E+00
    0.54931E+06        -0.49665E+08         0.00000E+00
    0.00000E+00         0.00000E+00        -0.49958E+08
 
   -0.49923E+08         0.55179E+06         0.00000E+00
    0.55179E+06        -0.49653E+08         0.00000E+00
    0.00000E+00         0.00000E+00        -0.49958E+08
 
   -0.49946E+08         0.55381E+06         0.00000E+00
    0.55381E+06        -0.49641E+08         0.00000E+00
    0.00000E+00         0.00000E+00        -0.49958E+08
 
   -0.49136E+08         0.99876E+04         0.00000E+00
    0.99876E+04        -0.50000E+08         0.00000E+00
    0.00000E+00         0.00000E+00        -0.49949E+08
 
   -0.49138E+08         0.29629E+05         0.00000E+00
    0.29629E+05        -0.49999E+08         0.00000E+00
    0.00000E+00         0.00000E+00        -0.49949E+08
 
   -0.49141E+08         0.49130E+05         0.00000E+00
    0.49130E+05        -0.49999E+08         0.00000E+00
    0.00000E+00         0.00000E+00        -0.49949E+08
 
   -0.49145E+08         0.68475E+05         0.00000E+00
    0.68475E+05        -0.49997E+08         0.00000E+00
    0.00000E+00         0.00000E+00        -0.49949E+08
 
   -0.49150E+08         0.87651E+05         0.00000E+00
    0.87651E+05        -0.49996E+08         0.00000E+00
    0.00000E+00         0.00000E+00        -0.49949E+08
 
   -0.49155E+08         0.10664E+06         0.00000E+00
    0.10664E+06        -0.49994E+08         0.00000E+00
    0.00000E+00         0.00000E+00        -0.49949E+08
 
   -0.49161E+08         0.12544E+06         0.00000E+00
    0.12544E+06        -0.49991E+08         0.00000E+00
    0.00000E+00         0.00000E+00        -0.49949E+08
 
   -0.49168E+08         0.14403E+06         0.00000E+00
    0.14403E+06        -0.49988E+08         0.00000E+00
    0.00000E+00         0.00000E+00        -0.49949E+08
 
   -0.49175E+08         0.16239E+06         0.00000E+00
    0.16239E+06        -0.49985E+08         0.00000E+00
    0.00000E+00         0.00000E+00        -0.49949E+08
 
   -0.49183E+08         0.18053E+06         0.00000E+00
    0.18053E+06        -0.49981E+08         0.00000E+00
    0.00000E+00         0.00000E+00        -0.49949E+08
 
   -0.49192E+08         0.19841E+06         0.00000E+00
    0.19841E+06        -0.49977E+08         0.00000E+00
    0.00000E+00         0.00000E+00        -0.49949E+08
 
   -0.49202E+08         0.21605E+06         0.00000E+00
    0.21605E+06        -0.49973E+08         0.00000E+00
    0.00000E+00         0.00000E+00        -0.49949E+08
 
   -0.49212E+08         0.23341E+06         0.00000E+00
    0.23341E+06        -0.49968E+08         0.00000E+00
    0.00000E+00         0.00000E+00        -0.49949E+08
 
   -0.49223E+08         0.25050E+06         0.00000E+00
    0.25050E+06        -0.49963E+08         0.00000E+00
    0.00000E+00         0.00000E+00        -0.49949E+08
 
   -0.49234E+08         0.26729E+06         0.00000E+00
    0.26729E+06        -0.49957E+08         0.00000E+00
    0.00000E+00         0.00000E+00        -0.49949E+08
 
   -0.49247E+08         0.28379E+06         0.00000E+00
    0.28379E+06        -0.49951E+08         0.00000E+00
    0.00000E+00         0.00000E+00        -0.49949E+08
 
   -0.49259E+08         0.29999E+06         0.00000E+00
    0.29999E+06        -0.49945E+08         0.00000E+00
    0.00000E+00         0.00000E+00        -0.49949E+08
 
   -0.49273E+08         0.31586E+06         0.00000E+00
    0.31586E+06        -0.49939E+08         0.00000E+00
    0.00000E+00         0.00000E+00        -0.49949E+08
 
   -0.49287E+08         0.33141E+06         0.00000E+00
    0.33141E+06        -0.49932E+08         0.00000E+00
    0.00000E+00         0.00000E+00        -0.49949E+08
 
   -0.49301E+08         0.34663E+06         0.00000E+00
    0.34663E+06        -0.49925E+08         0.00000E+00
    0.00000E+00         0.00000E+00        -0.49949E+08
 
   -0.49316E+08         0.36150E+06         0.00000E+00
    0.36150E+06        -0.49918E+08         0.00000E+00
    0.00000E+00         0.00000E+00        -0.49949E+08
 
   -0.49332E+08         0.37602E+06         0.00000E+00
    0.37602E+06        -0.49910E+08         0.00000E+00
    0.00000E+00         0.00000E+00        -0.49949E+08
 
   -0.49348E+08         0.39019E+06         0.00000E+00
    0.39019E+06        -0.49902E+08         0.00000E+00
    0.00000E+00         0.00000E+00        -0.49949E+08
 
   -0.49364E+08         0.40398E+06         0.00000E+00
    0.40398E+06        -0.49894E+08         0.00000E+00
    0.00000E+00         0.00000E+00        -0.49949E+08
 
   -0.49382E+08         0.41741E+06         0.00000E+00
    0.41741E+06        -0.49885E+08         0.00000E+00
    0.00000E+00         0.00000E+00        -0.49949E+08
 
   -0.49399E+08         0.43045E+06         0.00000E+00
    0.43045E+06        -0.49876E+08         0.00000E+00
    0.00000E+00         0.00000E+00        -0.49949E+08
 
   -0.49417E+08         0.44311E+06         0.00000E+00
    0.44311E+06        -0.49867E+08         0.00000E+00
    0.00000E+00         0.00000E+00        -0.49949E+08
 
   -0.49436E+08         0.45537E+06         0.00000E+00
    0.45537E+06        -0.49858E+08         0.00000E+00
    0.00000E+00         0.00000E+00        -0.49949E+08
 
   -0.49455E+08         0.46724E+06         0.00000E+00
    0.46724E+06        -0.49848E+08         0.00000E+00
    0.00000E+00         0.00000E+00        -0.49949E+08
 
   -0.49474E+08         0.47869E+06         0.00000E+00
    0.47869E+06        -0.49839E+08         0.00000E+00
    0.00000E+00         0.00000E+00        -0.49949E+08
 
   -0.49494E+08         0.48974E+06         0.00000E+00
    0.48974E+06        -0.49829E+08         0.00000E+00
    0.00000E+00         0.00000E+00        -0.49949E+08
 
   -0.49514E+08         0.50037E+06         0.00000E+00
    0.50037E+06        -0.49818E+08         0.00000E+00
    0.00000E+00         0.00000E+00        -0.49949E+08
 
   -0.49535E+08         0.51058E+06         0.00000E+00
    0.51058E+06        -0.49808E+08         0.00000E+00
    0.00000E+00         0.00000E+00        -0.49949E+08
 
   -0.49556E+08         0.52036E+06         0.00000E+00
    0.52036E+06        -0.49797E+08         0.00000E+00
    0.00000E+00         0.00000E+00        -0.49949E+08
 
   -0.49578E+08         0.52971E+06         0.00000E+00
    0.52971E+06        -0.49787E+08         0.00000E+00
    0.00000E+00         0.00000E+00        -0.49949E+08
 
   -0.49600E+08         0.53862E+06         0.00000E+00
    0.53862E+06        -0.49776E+08         0.00000E+00
    0.00000E+00         0.00000E+00        -0.49949E+08
 
   -0.49622E+08         0.54709E+06         0.00000E+00
    0.54709E+06        -0.49764E+08         0.00000E+00
    0.00000E+00         0.00000E+00        -0.49949E+08
 
   -0.49644E+08         0.55511E+06         0.00000E+00
    0.55511E+06        -0.49753E+08         0.00000E+00
    0.00000E+00         0.00000E+00        -0.49949E+08
 
   -0.49667E+08         0.56268E+06         0.00000E+00
    0.56268E+06        -0.49741E+08         0.00000E+00
    0.00000E+00         0.00000E+00        -0.49949E+08
 
   -0.49690E+08         0.56980E+06         0.00000E+00
    0.56980E+06        -0.49730E+08         0.00000E+00
    0.00000E+00         0.00000E+00        -0.49949E+08
 
   -0.49714E+08         0.57646E+06         0.00000E+00
    0.57646E+06        -0.49718E+08         0.00000E+00
    0.00000E+00         0.00000E+00        -0.49949E+08
 
   -0.49737E+08         0.58266E+06         0.00000E+00
    0.58266E+06        -0.49706E+08         0.00000E+00
    0.00000E+00         0.00000E+00        -0.49949E+08
 
   -0.49761E+08         0.58839E+06         0.00000E+00
    0.58839E+06        -0.49694E+08         0.00000E+00
    0.00000E+00         0.00000E+00        -0.49949E+08
 
   -0.49786E+08         0.59365E+06         0.00000E+00
    0.59365E+06        -0.49682E+08         0.00000E+00
    0.00000E+00         0.00000E+00        -0.49949E+08
 
   -0.49810E+08         0.59844E+06         0.00000E+00
    0.59844E+06        -0.49669E+08         0.00000E+00
    0.00000E+00         0.00000E+00        -0.49949E+08
 
   -0.49835E+08         0.60275E+06         0.00000E+00
    0.60275E+06        -0.49657E+08         0.00000E+00
    0.00000E+00         0.00000E+00        -0.49949E+08
 
   -0.49860E+08         0.60658E+06         0.00000E+00
    0.60658E+06        -0.49644E+08         0.00000E+00
    0.00000E+00         0.00000E+00        -0.49949E+08
 
   -0.49885E+08         0.60993E+06         0.00000E+00
    0.60993E+06        -0.49632E+08         0.00000E+00
    0.00000E+00         0.00000E+00        -0.49949E+08
 
   -0.49911E+08         0.61280E+06         0.00000E+00
    0.61280E+06        -0.49619E+08         0.00000E+00
    0.00000E+00         0.00000E+00        -0.49949E+08
 
   -0.49936E+08         0.61517E+06         0.00000E+00
    0.61517E+06        -0.49606E+08         0.00000E+00
    0.00000E+00         0.00000E+00        -0.49949E+08
 
   -0.49032E+08         0.11157E+05         0.00000E+00
    0.11157E+05        -0.50000E+08         0.00000E+00
    0.00000E+00         0.00000E+00        -0.49939E+08
 
   -0.49035E+08         0.33054E+05         0.00000E+00
    0.33054E+05        -0.49999E+08         0.00000E+00
    0.00000E+00         0.00000E+00        -0.49939E+08
 
   -0.49039E+08         0.54779E+05         0.00000E+00
    0.54779E+05        -0.49998E+08         0.00000E+00
    0.00000E+00         0.00000E+00        -0.49939E+08
 
   -0.49043E+08         0.76316E+05         0.00000E+00
    0.76316E+05        -0.49997E+08         0.00000E+00
    0.00000E+00         0.00000E+00        -0.49939E+08
 
   -0.49049E+08         0.97650E+05         0.00000E+00
    0.97650E+05        -0.49995E+08         0.00000E+00
    0.00000E+00         0.00000E+00        -0.49939E+08
 
   -0.49055E+08         0.11877E+06         0.00000E+00
    0.11877E+06        -0.49993E+08         0.00000E+00
    0.00000E+00         0.00000E+00        -0.49939E+08
 
   -0.49062E+08         0.13965E+06         0.00000E+00
    0.13965E+06        -0.49990E+08         0.00000E+00
    0.00000E+00         0.00000E+00        -0.49939E+08
 
   -0.49070E+08         0.16029E+06         0.00000E+00
    0.16029E+06        -0.49987E+08         0.00000E+00
    0.00000E+00         0.00000E+00        -0.49939E+08
 
   -0.49079E+08         0.18068E+06         0.00000E+00
    0.18068E+06        -0.49983E+08         0.00000E+00
    0.00000E+00         0.00000E+00        -0.49939E+08
 
   -0.49089E+08         0.20079E+06         0.00000E+00
    0.20079E+06        -0.49979E+08         0.00000E+00
    0.00000E+00         0.00000E+00        -0.49939E+08
 
   -0.49099E+08         0.22063E+06         0.00000E+00
    0.22063E+06        -0.49975E+08         0.00000E+00
    0.00000E+00         0.00000E+00        -0.49939E+08
 
   -0.49110E+08         0.24016E+06         0.00000E+00
    0.24016E+06        -0.49970E+08         0.00000E+00
    0.00000E+00         0.00000E+00        -0.49939E+08
 
   -0.49121E+08         0.25940E+06         0.00000E+00
    0.25940E+06        -0.49965E+08         0.00000E+00
    0.00000E+00         0.00000E+00        -0.49939E+08
 
   -0.49134E+08         0.27832E+06         0.00000E+00
    0.27832E+06        -0.49959E+08         0.00000E+00
    0.00000E+00         0.00000E+00        -0.49939E+08
 
   -0.49147E+08         0.29691E+06         0.00000E+00
    0.29691E+06        -0.49953E+08         0.00000E+00
    0.00000E+00         0.00000E+00        -0.49939E+08
 
   -0.49161E+08         0.31516E+06         0.00000E+00
    0.31516E+06        -0.49947E+08         0.00000E+00
    0.00000E+00         0.00000E+00        -0.49939E+08
 
   -0.49175E+08         0.33307E+06         0.00000E+00
    0.33307E+06        -0.49940E+08         0.00000E+00
    0.00000E+00         0.00000E+00        -0.49939E+08
 
   -0.49190E+08         0.35062E+06         0.00000E+00
    0.35062E+06        -0.49933E+08         0.00000E+00
    0.00000E+00         0.00000E+00        -0.49939E+08
 
   -0.49206E+08         0.36781E+06         0.00000E+00
    0.36781E+06        -0.49925E+08         0.00000E+00
    0.00000E+00         0.00000E+00        -0.49939E+08
 
   -0.49222E+08         0.38462E+06         0.00000E+00
    0.38462E+06        -0.49918E+08         0.00000E+00
    0.00000E+00         0.00000E+00        -0.49939E+08
 
   -0.49239E+08         0.40105E+06         0.00000E+00
    0.40105E+06        -0.49909E+08         0.00000E+00
    0.00000E+00         0.00000E+00        -0.49939E+08
 
   -0.49256E+08         0.41709E+06         0.00000E+00
    0.41709E+06        -0.49901E+08         0.00000E+00
    0.00000E+00         0.00000E+00        -0.49939E+08
 
   -0.49274E+08         0.43273E+06         0.00000E+00
    0.43273E+06        -0.49892E+08         0.00000E+00
    0.00000E+00         0.00000E+00        -0.49939E+08
 
   -0.49293E+08         0.44797E+06         0.00000E+00
    0.44797E+06        -0.49883E+08         0.00000E+00
    0.00000E+00         0.00000E+00        -0.49939E+08
 
   -0.49312E+08         0.46279E+06         0.00000E+00
    0.46279E+06        -0.49874E+08         0.00000E+00
    0.00000E+00         0.00000E+00        -0.49939E+08
 
   -0.49332E+08         0.47719E+06         0.00000E+00
    0.47719E+06        -0.49864E+08         0.00000E+00
    0.00000E+00         0.00000E+00        -0.49939E+08
 
   -0.49352E+08         0.49117E+06         0.00000E+00
    0.49117E+06        -0.49854E+08         0.00000E+00
    0.00000E+00         0.00000E+00        -0.49939E+08
 
   -0.49372E+08         0.50471E+06         0.00000E+00
    0.50471E+06        -0.49844E+08         0.00000E+00
    0.00000E+00         0.00000E+00        -0.49939E+08
 
   -0.49394E+08         0.51781E+06         0.00000E+00
    0.51781E+06        -0.49834E+08         0.00000E+00
    0.00000E+00         0.00000E+00        -0.49939E+08
 
   -0.49415E+08         0.53047E+06         0.00000E+00
    0.53047E+06        -0.49823E+08         0.00000E+00
    0.00000E+00         0.00000E+00        -0.49939E+08
 
   -0.49437E+08         0.54268E+06         0.00000E+00
    0.54268E+06        -0.49812E+08         0.00000E+00
    0.00000E+00         0.00000E+00        -0.49939E+08
 
   -0.49460E+08         0.55443E+06         0.00000E+00
    0.55443E+06        -0.49801E+08         0.00000E+00
    0.00000E+00         0.00000E+00        -0.49939E+08
 
   -0.49483E+08         0.56572E+06         0.00000E+00
    0.56572E+06        -0.49789E+08         0.00000E+00
    0.00000E+00         0.00000E+00        -0.49939E+08
 
   -0.49506E+08         0.57654E+06         0.00000E+00
    0.57654E+06        -0.49778E+08         0.00000E+00
    0.00000E+00         0.00000E+00        -0.49939E+08
 
   -0.49530E+08         0.58689E+06         0.00000E+00
    0.58689E+06        -0.49766E+08         0.00000E+00
    0.00000E+00         0.00000E+00        -0.49939E+08
 
   -0.49554E+08         0.59676E+06         0.00000E+00
    0.59676E+06        -0.49754E+08         0.00000E+00
    0.00000E+00         0.00000E+00        -0.49939E+08
 
   -0.49578E+08         0.60615E+06         0.00000E+00
    0.60615E+06        -0.49742E+08         0.00000E+00
    0.00000E+00         0.00000E+00        -0.49939E+08
 
   -0.49603E+08         0.61506E+06         0.00000E+00
    0.61506E+06        -0.49729E+08         0.00000E+00
    0.00000E+00         0.00000E+00        -0.49939E+08
 
   -0.49628E+08         0.62347E+06         0.00000E+00
    0.62347E+06        -0.49716E+08         0.00000E+00
    0.00000E+00         0.00000E+00        -0.49939E+08
 
   -0.49654E+08         0.63139E+06         0.00000E+00
    0.63139E+06        -0.49704E+08         0.00000E+00
    0.00000E+00         0.00000E+00        -0.49939E+08
 
   -0.49680E+08         0.63882E+06         0.00000E+00
    0.63882E+06        -0.49691E+08         0.00000E+00
    0.00000E+00         0.00000E+00        -0.49939E+08
 
   -0.49706E+08         0.64574E+06         0.00000E+00
    0.64574E+06        -0.49678E+08         0.00000E+00
    0.00000E+00         0.00000E+00        -0.49939E+08
 
   -0.49732E+08         0.65216E+06         0.00000E+00
    0.65216E+06        -0.49664E+08         0.00000E+00
    0.00000E+00         0.00000E+00        -0.49939E+08
 
   -0.49759E+08         0.65807E+06         0.00000E+00
    0.65807E+06        -0.49651E+08         0.00000E+00
    0.00000E+00         0.00000E+00        -0.49939E+08
 
   -0.49786E+08         0.66347E+06         0.00000E+00
    0.66347E+06        -0.49637E+08         0.00000E+00
    0.00000E+00         0.00000E+00        -0.49939E+08
 
   -0.49813E+08         0.66835E+06         0.00000E+00
    0.66835E+06        -0.49624E+08         0.00000E+00
    0.00000E+00         0.00000E+00        -0.49939E+08
 
   -0.49841E+08         0.67271E+06         0.00000E+00
    0.67271E+06        -0.49610E+08         0.00000E+00
    0.00000E+00         0.00000E+00        -0.49939E+08
 
   -0.49868E+08         0.67655E+06         0.00000E+00
    0.67655E+06        -0.49596E+08         0.00000E+00
    0.00000E+00         0.00000E+00        -0.49939E+08
 
   -0.49896E+08         0.67987E+06         0.00000E+00
    0.67987E+06        -0.49582E+08         0.00000E+00
    0.00000E+00         0.00000E+00        -0.49939E+08
 
   -0.49925E+08         0.68266E+06         0.00000E+00
    0.68266E+06        -0.49568E+08         0.00000E+00
    0.00000E+00         0.00000E+00        -0.49939E+08
 
   -0.48916E+08         0.12451E+05         0.00000E+00
    0.12451E+05        -0.50000E+08         0.00000E+00
    0.00000E+00         0.00000E+00        -0.49926E+08
 
   -0.48920E+08         0.36836E+05         0.00000E+00
    0.36836E+05        -0.49999E+08         0.00000E+00
    0.00000E+00         0.00000E+00        -0.49926E+08
 
   -0.48924E+08         0.61011E+05         0.00000E+00
    0.61011E+05        -0.49998E+08         0.00000E+00
    0.00000E+00         0.00000E+00        -0.49926E+08
 
   -0.48930E+08         0.84959E+05         0.00000E+00
    0.84959E+05        -0.49997E+08         0.00000E+00
    0.00000E+00         0.00000E+00        -0.49926E+08
 
   -0.48937E+08         0.10867E+06         0.00000E+00
    0.10867E+06        -0.49995E+08         0.00000E+00
    0.00000E+00         0.00000E+00        -0.49926E+08
 
   -0.48944E+08         0.13212E+06         0.00000E+00
    0.13212E+06        -0.49992E+08         0.00000E+00
    0.00000E+00         0.00000E+00        -0.49926E+08
 
   -0.48953E+08         0.15530E+06         0.00000E+00
    0.15530E+06        -0.49989E+08         0.00000E+00
    0.00000E+00         0.00000E+00        -0.49926E+08
 
   -0.48962E+08         0.17819E+06         0.00000E+00
    0.17819E+06        -0.49986E+08         0.00000E+00
    0.00000E+00         0.00000E+00        -0.49926E+08
 
   -0.48972E+08         0.20078E+06         0.00000E+00
    0.20078E+06        -0.49982E+08         0.00000E+00
    0.00000E+00         0.00000E+00        -0.49926E+08
 
   -0.48983E+08         0.22307E+06         0.00000E+00
    0.22307E+06        -0.49977E+08         0.00000E+00
    0.00000E+00         0.00000E+00        -0.49926E+08
 
   -0.48995E+08         0.24503E+06         0.00000E+00
    0.24503E+06        -0.49972E+08         0.00000E+00
    0.00000E+00         0.00000E+00        -0.49926E+08
 
   -0.49008E+08         0.26665E+06         0.00000E+00
    0.26665E+06        -0.49967E+08         0.00000E+00
    0.00000E+00         0.00000E+00        -0.49926E+08
 
   -0.49021E+08         0.28793E+06         0.00000E+00
    0.28793E+06        -0.49961E+08         0.00000E+00
    0.00000E+00         0.00000E+00        -0.49926E+08
 
   -0.49035E+08         0.30884E+06         0.00000E+00
    0.30884E+06        -0.49955E+08         0.00000E+00
    0.00000E+00         0.00000E+00        -0.49926E+08
 
   -0.49050E+08         0.32939E+06         0.00000E+00
    0.32939E+06        -0.49948E+08         0.00000E+00
    0.00000E+00         0.00000E+00        -0.49926E+08
 
   -0.49065E+08         0.34956E+06         0.00000E+00
    0.34956E+06        -0.49941E+08         0.00000E+00
    0.00000E+00         0.00000E+00        -0.49926E+08
 
   -0.49082E+08         0.36934E+06         0.00000E+00
    0.36934E+06        -0.49934E+08         0.00000E+00
    0.00000E+00         0.00000E+00        -0.49926E+08
 
   -0.49099E+08         0.38871E+06         0.00000E+00
    0.38871E+06        -0.49926E+08         0.00000E+00
    0.00000E+00         0.00000E+00        -0.49926E+08
 
   -0.49116E+08         0.40768E+06         0.00000E+00
    0.40768E+06        -0.49918E+08         0.00000E+00
    0.00000E+00         0.00000E+00        -0.49926E+08
 
   -0.49135E+08         0.42623E+06         0.00000E+00
    0.42623E+06        -0.49910E+08         0.00000E+00
    0.00000E+00         0.00000E+00        -0.49926E+08
 
   -0.49153E+08         0.44436E+06         0.00000E+00
    0.44436E+06        -0.49901E+08         0.00000E+00
    0.00000E+00         0.00000E+00        -0.49926E+08
 
   -0.49173E+08         0.46205E+06         0.00000E+00
    0.46205E+06        -0.49891E+08         0.00000E+00
    0.00000E+00         0.00000E+00        -0.49926E+08
 
   -0.49193E+08         0.47930E+06         0.00000E+00
    0.47930E+06        -0.49882E+08         0.00000E+00
    0.00000E+00         0.00000E+00        -0.49926E+08
 
   -0.49214E+08         0.49610E+06         0.00000E+00
    0.49610E+06        -0.49872E+08         0.00000E+00
    0.00000E+00         0.00000E+00        -0.49926E+08
 
   -0.49235E+08         0.51245E+06         0.00000E+00
    0.51245E+06        -0.49862E+08         0.00000E+00
    0.00000E+00         0.00000E+00        -0.49926E+08
 
   -0.49257E+08         0.52833E+06         0.00000E+00
    0.52833E+06        -0.49851E+08         0.00000E+00
    0.00000E+00         0.00000E+00        -0.49926E+08
 
   -0.49279E+08         0.54374E+06         0.00000E+00
    0.54374E+06        -0.49840E+08         0.00000E+00
    0.00000E+00         0.00000E+00        -0.49926E+08
 
   -0.49302E+08         0.55868E+06         0.00000E+00
    0.55868E+06        -0.49829E+08         0.00000E+00
    0.00000E+00         0.00000E+00        -0.49926E+08
 
   -0.49326E+08         0.57313E+06         0.00000E+00
    0.57313E+06        -0.49818E+08         0.00000E+00
    0.00000E+00         0.00000E+00        -0.49926E+08
 
   -0.49350E+08         0.58710E+06         0.00000E+00
    0.58710E+06        -0.49806E+08         0.00000E+00
    0.00000E+00         0.00000E+00        -0.49926E+08
 
   -0.49374E+08         0.60057E+06         0.00000E+00
    0.60057E+06        -0.49794E+08         0.00000E+00
    0.00000E+00         0.00000E+00        -0.49926E+08
 
   -0.49399E+08         0.61355E+06         0.00000E+00
    0.61355E+06        -0.49782E+08         0.00000E+00
    0.00000E+00         0.00000E+00        -0.49926E+08
 
   -0.49424E+08         0.62602E+06         0.00000E+00
    0.62602E+06        -0.49769E+08         0.00000E+00
    0.00000E+00         0.00000E+00        -0.49926E+08
 
   -0.49450E+08         0.63798E+06         0.00000E+00
    0.63798E+06        -0.49757E+08         0.00000E+00
    0.00000E+00         0.00000E+00        -0.49926E+08
 
   -0.49476E+08         0.64943E+06         0.00000E+00
    0.64943E+06        -0.49744E+08         0.00000E+00
    0.00000E+00         0.00000E+00        -0.49926E+08
 
   -0.49503E+08         0.66036E+06         0.00000E+00
    0.66036E+06        -0.49731E+08         0.00000E+00
    0.00000E+00         0.00000E+00        -0.49926E+08
 
   -0.49530E+08         0.67076E+06         0.00000E+00
    0.67076E+06        -0.49717E+08         0.00000E+00
    0.00000E+00         0.00000E+00        -0.49926E+08
 
   -0.49557E+08         0.68064E+06         0.00000E+00
    0.68064E+06        -0.49704E+08         0.00000E+00
    0.00000E+00         0.00000E+00        -0.49926E+08
 
   -0.49585E+08         0.68999E+06         0.00000E+00
    0.68999E+06        -0.49690E+08         0.00000E+00
    0.00000E+00         0.00000E+00        -0.49926E+08
 
   -0.49613E+08         0.69881E+06         0.00000E+00
    0.69881E+06        -0.49676E+08         0.00000E+00
    0.00000E+00         0.00000E+00        -0.49926E+08
 
   -0.49642E+08         0.70708E+06         0.00000E+00
    0.70708E+06        -0.49662E+08         0.00000E+00
    0.00000E+00         0.00000E+00        -0.49926E+08
 
   -0.49671E+08         0.71482E+06         0.00000E+00
    0.71482E+06        -0.49647E+08         0.00000E+00
    0.00000E+00         0.00000E+00        -0.49926E+08
 
   -0.49700E+08         0.72201E+06         0.00000E+00
    0.72201E+06        -0.49633E+08         0.00000E+00
    0.00000E+00         0.00000E+00        -0.49926E+08
 
   -0.49729E+08         0.72865E+06         0.00000E+00
    0.72865E+06        -0.49618E+08         0.00000E+00
    0.00000E+00         0.00000E+00        -0.49926E+08
 
   -0.49759E+08         0.73473E+06         0.00000E+00
    0.73473E+06        -0.49603E+08         0.00000E+00
    0.00000E+00         0.00000E+00        -0.49926E+08
 
   -0.49789E+08         0.74026E+06         0.00000E+00
    0.74026E+06        -0.49588E+08         0.00000E+00
    0.00000E+00         0.00000E+00        -0.49926E+08
 
   -0.49819E+08         0.74523E+06         0.00000E+00
    0.74523E+06        -0.49573E+08         0.00000E+00
    0.00000E+00         0.00000E+00        -0.49926E+08
 
   -0.49849E+08         0.74964E+06         0.00000E+00
    0.74964E+06        -0.49558E+08         0.00000E+00
    0.00000E+00         0.00000E+00        -0.49926E+08
 
   -0.49880E+08         0.75349E+06         0.00000E+00
    0.75349E+06        -0.49543E+08         0.00000E+00
    0.00000E+00         0.00000E+00        -0.49926E+08
 
   -0.49911E+08         0.75676E+06         0.00000E+00
    0.75676E+06        -0.49527E+08         0.00000E+00
    0.00000E+00         0.00000E+00        -0.49926E+08
 
   -0.48786E+08         0.13879E+05         0.00000E+00
    0.13879E+05        -0.50000E+08         0.00000E+00
    0.00000E+00         0.00000E+00        -0.49911E+08
 
   -0.48791E+08         0.41002E+05         0.00000E+00
    0.41002E+05        -0.49999E+08         0.00000E+00
    0.00000E+00         0.00000E+00        -0.49911E+08
 
   -0.48798E+08         0.67870E+05         0.00000E+00
    0.67870E+05        -0.49998E+08         0.00000E+00
    0.00000E+00         0.00000E+00        -0.49911E+08
 
   -0.48805E+08         0.94466E+05         0.00000E+00
    0.94466E+05        -0.49996E+08         0.00000E+00
    0.00000E+00         0.00000E+00        -0.49911E+08
 
   -0.48813E+08         0.12078E+06         0.00000E+00
    0.12078E+06        -0.49994E+08         0.00000E+00
    0.00000E+00         0.00000E+00        -0.49911E+08
 
   -0.48822E+08         0.14678E+06         0.00000E+00
    0.14678E+06        -0.49991E+08         0.00000E+00
    0.00000E+00         0.00000E+00        -0.49911E+08
 
   -0.48832E+08         0.17247E+06         0.00000E+00
    0.17247E+06        -0.49988E+08         0.00000E+00
    0.00000E+00         0.00000E+00        -0.49911E+08
 
   -0.48842E+08         0.19783E+06         0.00000E+00
    0.19783E+06        -0.49984E+08         0.00000E+00
    0.00000E+00         0.00000E+00        -0.49911E+08
 
   -0.48854E+08         0.22284E+06         0.00000E+00
    0.22284E+06        -0.49980E+08         0.00000E+00
    0.00000E+00         0.00000E+00        -0.49911E+08
 
   -0.48867E+08         0.24749E+06         0.00000E+00
    0.24749E+06        -0.49975E+08         0.00000E+00
    0.00000E+00         0.00000E+00        -0.49911E+08
 
   -0.48880E+08         0.27177E+06         0.00000E+00
    0.27177E+06        -0.49970E+08         0.00000E+00
    0.00000E+00         0.00000E+00        -0.49911E+08
 
   -0.48895E+08         0.29567E+06         0.00000E+00
    0.29567E+06        -0.49964E+08         0.00000E+00
    0.00000E+00         0.00000E+00        -0.49911E+08
 
   -0.48910E+08         0.31917E+06         0.00000E+00
    0.31917E+06        -0.49957E+08         0.00000E+00
    0.00000E+00         0.00000E+00        -0.49911E+08
 
   -0.48926E+08         0.34226E+06         0.00000E+00
    0.34226E+06        -0.49951E+08         0.00000E+00
    0.00000E+00         0.00000E+00        -0.49911E+08
 
   -0.48943E+08         0.36494E+06         0.00000E+00
    0.36494E+06        -0.49943E+08         0.00000E+00
    0.00000E+00         0.00000E+00        -0.49911E+08
 
   -0.48960E+08         0.38718E+06         0.00000E+00
    0.38718E+06        -0.49936E+08         0.00000E+00
    0.00000E+00         0.00000E+00        -0.49911E+08
 
   -0.48979E+08         0.40899E+06         0.00000E+00
    0.40899E+06        -0.49928E+08         0.00000E+00
    0.00000E+00         0.00000E+00        -0.49911E+08
 
   -0.48998E+08         0.43035E+06         0.00000E+00
    0.43035E+06        -0.49919E+08         0.00000E+00
    0.00000E+00         0.00000E+00        -0.49911E+08
 
   -0.49018E+08         0.45126E+06         0.00000E+00
    0.45126E+06        -0.49910E+08         0.00000E+00
    0.00000E+00         0.00000E+00        -0.49911E+08
 
   -0.49038E+08         0.47170E+06         0.00000E+00
    0.47170E+06        -0.49901E+08         0.00000E+00
    0.00000E+00         0.00000E+00        -0.49911E+08
 
   -0.49059E+08         0.49167E+06         0.00000E+00
    0.49167E+06        -0.49891E+08         0.00000E+00
    0.00000E+00         0.00000E+00        -0.49911E+08
 
   -0.49081E+08         0.51116E+06         0.00000E+00
    0.51116E+06        -0.49881E+08         0.00000E+00
    0.00000E+00         0.00000E+00        -0.49911E+08
 
   -0.49104E+08         0.53015E+06         0.00000E+00
    0.53015E+06        -0.49871E+08         0.00000E+00
    0.00000E+00         0.00000E+00        -0.49911E+08
 
   -0.49127E+08         0.54865E+06         0.00000E+00
    0.54865E+06        -0.49860E+08         0.00000E+00
    0.00000E+00         0.00000E+00        -0.49911E+08
 
   -0.49151E+08         0.56665E+06         0.00000E+00
    0.56665E+06        -0.49849E+08         0.00000E+00
    0.00000E+00         0.00000E+00        -0.49911E+08
 
   -0.49175E+08         0.58414E+06         0.00000E+00
    0.58414E+06        -0.49837E+08         0.00000E+00
    0.00000E+00         0.00000E+00        -0.49911E+08
 
   -0.49200E+08         0.60112E+06         0.00000E+00
    0.60112E+06        -0.49826E+08         0.00000E+00
    0.00000E+00         0.00000E+00        -0.49911E+08
 
   -0.49225E+08         0.61757E+06         0.00000E+00
    0.61757E+06        -0.49814E+08         0.00000E+00
    0.00000E+00         0.00000E+00        -0.49911E+08
 
   -0.49251E+08         0.63349E+06         0.00000E+00
    0.63349E+06        -0.49801E+08         0.00000E+00
    0.00000E+00         0.00000E+00        -0.49911E+08
 
   -0.49278E+08         0.64889E+06         0.00000E+00
    0.64889E+06        -0.49788E+08         0.00000E+00
    0.00000E+00         0.00000E+00        -0.49911E+08
 
   -0.49305E+08         0.66374E+06         0.00000E+00
    0.66374E+06        -0.49775E+08         0.00000E+00
    0.00000E+00         0.00000E+00        -0.49911E+08
 
   -0.49332E+08         0.67805E+06         0.00000E+00
    0.67805E+06        -0.49762E+08         0.00000E+00
    0.00000E+00         0.00000E+00        -0.49911E+08
 
   -0.49360E+08         0.69181E+06         0.00000E+00
    0.69181E+06        -0.49748E+08         0.00000E+00
    0.00000E+00         0.00000E+00        -0.49911E+08
 
   -0.49389E+08         0.70502E+06         0.00000E+00
    0.70502E+06        -0.49735E+08         0.00000E+00
    0.00000E+00         0.00000E+00        -0.49911E+08
 
   -0.49418E+08         0.71767E+06         0.00000E+00
    0.71767E+06        -0.49720E+08         0.00000E+00
    0.00000E+00         0.00000E+00        -0.49911E+08
 
   -0.49447E+08         0.72976E+06         0.00000E+00
    0.72976E+06        -0.49706E+08         0.00000E+00
    0.00000E+00         0.00000E+00        -0.49911E+08
 
   -0.49477E+08         0.74129E+06         0.00000E+00
    0.74129E+06        -0.49691E+08         0.00000E+00
    0.00000E+00         0.00000E+00        -0.49911E+08
 
   -0.49507E+08         0.75224E+06         0.00000E+00
    0.75224E+06        -0.49677E+08         0.00000E+00
    0.00000E+00         0.00000E+00        -0.49911E+08
 
   -0.49537E+08         0.76263E+06         0.00000E+00
    0.76263E+06        -0.49662E+08         0.00000E+00
    0.00000E+00         0.00000E+00        -0.49911E+08
 
   -0.49568E+08         0.77243E+06         0.00000E+00
    0.77243E+06        -0.49646E+08         0.00000E+00
    0.00000E+00         0.00000E+00        -0.49911E+08
 
   -0.49599E+08         0.78165E+06         0.00000E+00
    0.78165E+06        -0.49631E+08         0.00000E+00
    0.00000E+00         0.00000E+00        -0.49911E+08
 
   -0.49631E+08         0.79029E+06         0.00000E+00
    0.79029E+06        -0.49615E+08         0.00000E+00
    0.00000E+00         0.00000E+00        -0.49911E+08
 
   -0.49663E+08         0.79834E+06         0.00000E+00
    0.79834E+06        -0.49599E+08         0.00000E+00
    0.00000E+00         0.00000E+00        -0.49911E+08
 
   -0.49695E+08         0.80580E+06         0.00000E+00
    0.80580E+06        -0.49583E+08         0.00000E+00
    0.00000E+00         0.00000E+00        -0.49911E+08
 
   -0.49728E+08         0.81267E+06         0.00000E+00
    0.81267E+06        -0.49567E+08         0.00000E+00
    0.00000E+00         0.00000E+00        -0.49911E+08
 
   -0.49761E+08         0.81894E+06         0.00000E+00
    0.81894E+06        -0.49551E+08         0.00000E+00
    0.00000E+00         0.00000E+00        -0.49911E+08
 
   -0.49794E+08         0.82461E+06         0.00000E+00
    0.82461E+06        -0.49534E+08         0.00000E+00
    0.00000E+00         0.00000E+00        -0.49911E+08
 
   -0.49827E+08         0.82967E+06         0.00000E+00
    0.82967E+06        -0.49518E+08         0.00000E+00
    0.00000E+00         0.00000E+00        -0.49911E+08
 
   -0.49861E+08         0.83413E+06         0.00000E+00
    0.83413E+06        -0.49501E+08         0.00000E+00
    0.00000E+00         0.00000E+00        -0.49911E+08
 
   -0.49894E+08         0.83798E+06         0.00000E+00
    0.83798E+06        -0.49484E+08         0.00000E+00
    0.00000E+00         0.00000E+00        -0.49911E+08
 
   -0.48643E+08         0.15452E+05         0.00000E+00
    0.15452E+05        -0.50000E+08         0.00000E+00
    0.00000E+00         0.00000E+00        -0.49894E+08
 
   -0.48649E+08         0.45579E+05         0.00000E+00
    0.45579E+05        -0.49999E+08         0.00000E+00
    0.00000E+00         0.00000E+00        -0.49894E+08
 
   -0.48657E+08         0.75399E+05         0.00000E+00
    0.75399E+05        -0.49998E+08         0.00000E+00
    0.00000E+00         0.00000E+00        -0.49894E+08
 
   -0.48665E+08         0.10490E+06         0.00000E+00
    0.10490E+06        -0.49996E+08         0.00000E+00
    0.00000E+00         0.00000E+00        -0.49894E+08
 
   -0.48675E+08         0.13405E+06         0.00000E+00
    0.13405E+06        -0.49994E+08         0.00000E+00
    0.00000E+00         0.00000E+00        -0.49894E+08
 
   -0.48686E+08         0.16285E+06         0.00000E+00
    0.16285E+06        -0.49991E+08         0.00000E+00
    0.00000E+00         0.00000E+00        -0.49894E+08
 
   -0.48697E+08         0.19128E+06         0.00000E+00
    0.19128E+06        -0.49987E+08         0.00000E+00
    0.00000E+00         0.00000E+00        -0.49894E+08
 
   -0.48710E+08         0.21932E+06         0.00000E+00
    0.21932E+06        -0.49983E+08         0.00000E+00
    0.00000E+00         0.00000E+00        -0.49894E+08
 
   -0.48724E+08         0.24696E+06         0.00000E+00
    0.24696E+06        -0.49978E+08         0.00000E+00
    0.00000E+00         0.00000E+00        -0.49894E+08
 
   -0.48738E+08         0.27419E+06         0.00000E+00
    0.27419E+06        -0.49973E+08         0.00000E+00
    0.00000E+00         0.00000E+00        -0.49894E+08
 
   -0.48754E+08         0.30100E+06         0.00000E+00
    0.30100E+06        -0.49967E+08         0.00000E+00
    0.00000E+00         0.00000E+00        -0.49894E+08
 
   -0.48770E+08         0.32736E+06         0.00000E+00
    0.32736E+06        -0.49960E+08         0.00000E+00
    0.00000E+00         0.00000E+00        -0.49894E+08
 
   -0.48788E+08         0.35328E+06         0.00000E+00
    0.35328E+06        -0.49954E+08         0.00000E+00
    0.00000E+00         0.00000E+00        -0.49894E+08
 
   -0.48806E+08         0.37873E+06         0.00000E+00
    0.37873E+06        -0.49946E+08         0.00000E+00
    0.00000E+00         0.00000E+00        -0.49894E+08
 
   -0.48825E+08         0.40372E+06         0.00000E+00
    0.40372E+06        -0.49938E+08         0.00000E+00
    0.00000E+00         0.00000E+00        -0.49894E+08
 
   -0.48845E+08         0.42822E+06         0.00000E+00
    0.42822E+06        -0.49930E+08         0.00000E+00
    0.00000E+00         0.00000E+00        -0.49894E+08
 
   -0.48866E+08         0.45223E+06         0.00000E+00
    0.45223E+06        -0.49921E+08         0.00000E+00
    0.00000E+00         0.00000E+00        -0.49894E+08
 
   -0.48887E+08         0.47575E+06         0.00000E+00
    0.47575E+06        -0.49912E+08         0.00000E+00
    0.00000E+00         0.00000E+00        -0.49894E+08
 
   -0.48909E+08         0.49875E+06         0.00000E+00
    0.49875E+06        -0.49902E+08         0.00000E+00
    0.00000E+00         0.00000E+00        -0.49894E+08
 
   -0.48932E+08         0.52124E+06         0.00000E+00
    0.52124E+06        -0.49892E+08         0.00000E+00
    0.00000E+00         0.00000E+00        -0.49894E+08
 
   -0.48956E+08         0.54320E+06         0.00000E+00
    0.54320E+06        -0.49882E+08         0.00000E+00
    0.00000E+00         0.00000E+00        -0.49894E+08
 
   -0.48980E+08         0.56463E+06         0.00000E+00
    0.56463E+06        -0.49871E+08         0.00000E+00
    0.00000E+00         0.00000E+00        -0.49894E+08
 
   -0.49005E+08         0.58552E+06         0.00000E+00
    0.58552E+06        -0.49859E+08         0.00000E+00
    0.00000E+00         0.00000E+00        -0.49894E+08
 
   -0.49031E+08         0.60586E+06         0.00000E+00
    0.60586E+06        -0.49848E+08         0.00000E+00
    0.00000E+00         0.00000E+00        -0.49894E+08
 
   -0.49057E+08         0.62565E+06         0.00000E+00
    0.62565E+06        -0.49835E+08         0.00000E+00
    0.00000E+00         0.00000E+00        -0.49894E+08
 
   -0.49084E+08         0.64489E+06         0.00000E+00
    0.64489E+06        -0.49823E+08         0.00000E+00
    0.00000E+00         0.00000E+00        -0.49894E+08
 
   -0.49112E+08         0.66355E+06         0.00000E+00
    0.66355E+06        -0.49810E+08         0.00000E+00
    0.00000E+00         0.00000E+00        -0.49894E+08
 
   -0.49140E+08         0.68165E+06         0.00000E+00
    0.68165E+06        -0.49797E+08         0.00000E+00
    0.00000E+00         0.00000E+00        -0.49894E+08
 
   -0.49169E+08         0.69917E+06         0.00000E+00
    0.69917E+06        -0.49783E+08         0.00000E+00
    0.00000E+00         0.00000E+00        -0.49894E+08
 
   -0.49198E+08         0.71612E+06         0.00000E+00
    0.71612E+06        -0.49770E+08         0.00000E+00
    0.00000E+00         0.00000E+00        -0.49894E+08
 
   -0.49228E+08         0.73247E+06         0.00000E+00
    0.73247E+06        -0.49755E+08         0.00000E+00
    0.00000E+00         0.00000E+00        -0.49894E+08
 
   -0.49258E+08         0.74824E+06         0.00000E+00
    0.74824E+06        -0.49741E+08         0.00000E+00
    0.00000E+00         0.00000E+00        -0.49894E+08
 
   -0.49289E+08         0.76341E+06         0.00000E+00
    0.76341E+06        -0.49726E+08         0.00000E+00
    0.00000E+00         0.00000E+00        -0.49894E+08
 
   -0.49321E+08         0.77799E+06         0.00000E+00
    0.77799E+06        -0.49711E+08         0.00000E+00
    0.00000E+00         0.00000E+00        -0.49894E+08
 
   -0.49352E+08         0.79196E+06         0.00000E+00
    0.79196E+06        -0.49696E+08         0.00000E+00
    0.00000E+00         0.00000E+00        -0.49894E+08
 
   -0.49385E+08         0.80532E+06         0.00000E+00
    0.80532E+06        -0.49680E+08         0.00000E+00
    0.00000E+00         0.00000E+00        -0.49894E+08
 
   -0.49417E+08         0.81807E+06         0.00000E+00
    0.81807E+06        -0.49664E+08         0.00000E+00
    0.00000E+00         0.00000E+00        -0.49894E+08
 
   -0.49451E+08         0.83022E+06         0.00000E+00
    0.83022E+06        -0.49648E+08         0.00000E+00
    0.00000E+00         0.00000E+00        -0.49894E+08
 
   -0.49484E+08         0.84174E+06         0.00000E+00
    0.84174E+06        -0.49632E+08         0.00000E+00
    0.00000E+00         0.00000E+00        -0.49894E+08
 
   -0.49518E+08         0.85264E+06         0.00000E+00
    0.85264E+06        -0.49615E+08         0.00000E+00
    0.00000E+00         0.00000E+00        -0.49894E+08
 
   -0.49552E+08         0.86292E+06         0.00000E+00
    0.86292E+06        -0.49598E+08         0.00000E+00
    0.00000E+00         0.00000E+00        -0.49894E+08
 
   -0.49587E+08         0.87257E+06         0.00000E+00
    0.87257E+06        -0.49581E+08         0.00000E+00
    0.00000E+00         0.00000E+00        -0.49894E+08
 
   -0.49622E+08         0.88159E+06         0.00000E+00
    0.88159E+06        -0.49564E+08         0.00000E+00
    0.00000E+00         0.00000E+00        -0.49894E+08
 
   -0.49657E+08         0.88997E+06         0.00000E+00
    0.88997E+06        -0.49547E+08         0.00000E+00
    0.00000E+00         0.00000E+00        -0.49894E+08
 
   -0.49693E+08         0.89772E+06         0.00000E+00
    0.89772E+06        -0.49529E+08         0.00000E+00
    0.00000E+00         0.00000E+00        -0.49894E+08
 
   -0.49729E+08         0.90483E+06         0.00000E+00
    0.90483E+06        -0.49511E+08         0.00000E+00
    0.00000E+00         0.00000E+00        -0.49894E+08
 
   -0.49765E+08         0.91130E+06         0.00000E+00
    0.91130E+06        -0.49493E+08         0.00000E+00
    0.00000E+00         0.00000E+00        -0.49894E+08
 
   -0.49801E+08         0.91712E+06         0.00000E+00
    0.91712E+06        -0.49475E+08         0.00000E+00
    0.00000E+00         0.00000E+00        -0.49894E+08
 
   -0.49838E+08         0.92230E+06         0.00000E+00
    0.92230E+06        -0.49457E+08         0.00000E+00
    0.00000E+00         0.00000E+00        -0.49894E+08
 
   -0.49875E+08         0.92682E+06         0.00000E+00
    0.92682E+06        -0.49438E+08         0.00000E+00
    0.00000E+00         0.00000E+00        -0.49894E+08
 
   -0.48483E+08         0.17179E+05         0.00000E+00
    0.17179E+05        -0.50000E+08         0.00000E+00
    0.00000E+00         0.00000E+00        -0.49873E+08
 
   -0.48491E+08         0.50593E+05         0.00000E+00
    0.50593E+05        -0.49999E+08         0.00000E+00
    0.00000E+00         0.00000E+00        -0.49873E+08
 
   -0.48500E+08         0.83639E+05         0.00000E+00
    0.83639E+05        -0.49998E+08         0.00000E+00
    0.00000E+00         0.00000E+00        -0.49873E+08
 
   -0.48511E+08         0.11630E+06         0.00000E+00
    0.11630E+06        -0.49996E+08         0.00000E+00
    0.00000E+00         0.00000E+00        -0.49873E+08
 
   -0.48522E+08         0.14856E+06         0.00000E+00
    0.14856E+06        -0.49993E+08         0.00000E+00
    0.00000E+00         0.00000E+00        -0.49873E+08
 
   -0.48535E+08         0.18040E+06         0.00000E+00
    0.18040E+06        -0.49990E+08         0.00000E+00
    0.00000E+00         0.00000E+00        -0.49873E+08
 
   -0.48549E+08         0.21181E+06         0.00000E+00
    0.21181E+06        -0.49986E+08         0.00000E+00
    0.00000E+00         0.00000E+00        -0.49873E+08
 
   -0.48564E+08         0.24277E+06         0.00000E+00
    0.24277E+06        -0.49981E+08         0.00000E+00
    0.00000E+00         0.00000E+00        -0.49873E+08
 
   -0.48579E+08         0.27327E+06         0.00000E+00
    0.27327E+06        -0.49976E+08         0.00000E+00
    0.00000E+00         0.00000E+00        -0.49873E+08
 
   -0.48596E+08         0.30330E+06         0.00000E+00
    0.30330E+06        -0.49970E+08         0.00000E+00
    0.00000E+00         0.00000E+00        -0.49873E+08
 
   -0.48614E+08         0.33284E+06         0.00000E+00
    0.33284E+06        -0.49964E+08         0.00000E+00
    0.00000E+00         0.00000E+00        -0.49873E+08
 
   -0.48633E+08         0.36188E+06         0.00000E+00
    0.36188E+06        -0.49957E+08         0.00000E+00
    0.00000E+00         0.00000E+00        -0.49873E+08
 
   -0.48653E+08         0.39041E+06         0.00000E+00
    0.39041E+06        -0.49949E+08         0.00000E+00
    0.00000E+00         0.00000E+00        -0.49873E+08
 
   -0.48673E+08         0.41842E+06         0.00000E+00
    0.41842E+06        -0.49941E+08         0.00000E+00
    0.00000E+00         0.00000E+00        -0.49873E+08
 
   -0.48695E+08         0.44590E+06         0.00000E+00
    0.44590E+06        -0.49933E+08         0.00000E+00
    0.00000E+00         0.00000E+00        -0.49873E+08
 
   -0.48718E+08         0.47284E+06         0.00000E+00
    0.47284E+06        -0.49924E+08         0.00000E+00
    0.00000E+00         0.00000E+00        -0.49873E+08
 
   -0.48741E+08         0.49924E+06         0.00000E+00
    0.49924E+06        -0.49914E+08         0.00000E+00
    0.00000E+00         0.00000E+00        -0.49873E+08
 
   -0.48765E+08         0.52507E+06         0.00000E+00
    0.52507E+06        -0.49904E+08         0.00000E+00
    0.00000E+00         0.00000E+00        -0.49873E+08
 
   -0.48790E+08         0.55034E+06         0.00000E+00
    0.55034E+06        -0.49894E+08         0.00000E+00
    0.00000E+00         0.00000E+00        -0.49873E+08
 
   -0.48816E+08         0.57503E+06         0.00000E+00
    0.57503E+06        -0.49883E+08         0.00000E+00
    0.00000E+00         0.00000E+00        -0.49873E+08
 
   -0.48842E+08         0.59915E+06         0.00000E+00
    0.59915E+06        -0.49871E+08         0.00000E+00
    0.00000E+00         0.00000E+00        -0.49873E+08
 
   -0.48869E+08         0.62268E+06         0.00000E+00
    0.62268E+06        -0.49859E+08         0.00000E+00
    0.00000E+00         0.00000E+00        -0.49873E+08
 
   -0.48897E+08         0.64561E+06         0.00000E+00
    0.64561E+06        -0.49847E+08         0.00000E+00
    0.00000E+00         0.00000E+00        -0.49873E+08
 
   -0.48926E+08         0.66795E+06         0.00000E+00
    0.66795E+06        -0.49834E+08         0.00000E+00
    0.00000E+00         0.00000E+00        -0.49873E+08
 
   -0.48955E+08         0.68967E+06         0.00000E+00
    0.68967E+06        -0.49821E+08         0.00000E+00
    0.00000E+00         0.00000E+00        -0.49873E+08
 
   -0.48985E+08         0.71079E+06         0.00000E+00
    0.71079E+06        -0.49808E+08         0.00000E+00
    0.00000E+00         0.00000E+00        -0.49873E+08
 
   -0.49016E+08         0.73129E+06         0.00000E+00
    0.73129E+06        -0.49794E+08         0.00000E+00
    0.00000E+00         0.00000E+00        -0.49873E+08
 
   -0.49047E+08         0.75117E+06         0.00000E+00
    0.75117E+06        -0.49780E+08         0.00000E+00
    0.00000E+00         0.00000E+00        -0.49873E+08
 
   -0.49079E+08         0.77043E+06         0.00000E+00
    0.77043E+06        -0.49765E+08         0.00000E+00
    0.00000E+00         0.00000E+00        -0.49873E+08
 
   -0.49111E+08         0.78905E+06         0.00000E+00
    0.78905E+06        -0.49750E+08         0.00000E+00
    0.00000E+00         0.00000E+00        -0.49873E+08
 
   -0.49144E+08         0.80704E+06         0.00000E+00
    0.80704E+06        -0.49735E+08         0.00000E+00
    0.00000E+00         0.00000E+00        -0.49873E+08
 
   -0.49177E+08         0.82439E+06         0.00000E+00
    0.82439E+06        -0.49719E+08         0.00000E+00
    0.00000E+00         0.00000E+00        -0.49873E+08
 
   -0.49211E+08         0.84110E+06         0.00000E+00
    0.84110E+06        -0.49703E+08         0.00000E+00
    0.00000E+00         0.00000E+00        -0.49873E+08
 
   -0.49246E+08         0.85717E+06         0.00000E+00
    0.85717E+06        -0.49687E+08         0.00000E+00
    0.00000E+00         0.00000E+00        -0.49873E+08
 
   -0.49281E+08         0.87258E+06         0.00000E+00
    0.87258E+06        -0.49670E+08         0.00000E+00
    0.00000E+00         0.00000E+00        -0.49873E+08
 
   -0.49316E+08         0.88734E+06         0.00000E+00
    0.88734E+06        -0.49653E+08         0.00000E+00
    0.00000E+00         0.00000E+00        -0.49873E+08
 
   -0.49352E+08         0.90145E+06         0.00000E+00
    0.90145E+06        -0.49636E+08         0.00000E+00
    0.00000E+00         0.00000E+00        -0.49873E+08
 
   -0.49388E+08         0.91489E+06         0.00000E+00
    0.91489E+06        -0.49618E+08         0.00000E+00
    0.00000E+00         0.00000E+00        -0.49873E+08
 
   -0.49425E+08         0.92768E+06         0.00000E+00
    0.92768E+06        -0.49601E+08         0.00000E+00
    0.00000E+00         0.00000E+00        -0.49873E+08
 
   -0.49462E+08         0.93980E+06         0.00000E+00
    0.93980E+06        -0.49583E+08         0.00000E+00
    0.00000E+00         0.00000E+00        -0.49873E+08
 
   -0.49500E+08         0.95125E+06         0.00000E+00
    0.95125E+06        -0.49564E+08         0.00000E+00
    0.00000E+00         0.00000E+00        -0.49873E+08
 
   -0.49537E+08         0.96203E+06         0.00000E+00
    0.96203E+06        -0.49546E+08         0.00000E+00
    0.00000E+00         0.00000E+00        -0.49873E+08
 
   -0.49576E+08         0.97214E+06         0.00000E+00
    0.97214E+06        -0.49527E+08         0.00000E+00
    0.00000E+00         0.00000E+00        -0.49873E+08
 
   -0.49614E+08         0.98157E+06         0.00000E+00
    0.98157E+06        -0.49508E+08         0.00000E+00
    0.00000E+00         0.00000E+00        -0.49873E+08
 
   -0.49653E+08         0.99032E+06         0.00000E+00
    0.99032E+06        -0.49489E+08         0.00000E+00
    0.00000E+00         0.00000E+00        -0.49873E+08
 
   -0.49692E+08         0.99839E+06         0.00000E+00
    0.99839E+06        -0.49470E+08         0.00000E+00
    0.00000E+00         0.00000E+00        -0.49873E+08
 
   -0.49732E+08         0.10058E+07         0.00000E+00
    0.10058E+07        -0.49450E+08         0.00000E+00
    0.00000E+00         0.00000E+00        -0.49873E+08
 
   -0.49772E+08         0.10125E+07         0.00000E+00
    0.10125E+07        -0.49430E+08         0.00000E+00
    0.00000E+00         0.00000E+00        -0.49873E+08
 
   -0.49812E+08         0.10185E+07         0.00000E+00
    0.10185E+07        -0.49410E+08         0.00000E+00
    0.00000E+00         0.00000E+00        -0.49873E+08
 
   -0.49852E+08         0.10238E+07         0.00000E+00
    0.10238E+07        -0.49390E+08         0.00000E+00
    0.00000E+00         0.00000E+00        -0.49873E+08
 
   -0.48306E+08         0.19069E+05         0.00000E+00
    0.19069E+05        -0.50000E+08         0.00000E+00
    0.00000E+00         0.00000E+00        -0.49847E+08
 
   -0.48316E+08         0.56068E+05         0.00000E+00
    0.56068E+05        -0.49999E+08         0.00000E+00
    0.00000E+00         0.00000E+00        -0.49847E+08
 
   -0.48328E+08         0.92629E+05         0.00000E+00
    0.92629E+05        -0.49998E+08         0.00000E+00
    0.00000E+00         0.00000E+00        -0.49847E+08
 
   -0.48340E+08         0.12873E+06         0.00000E+00
    0.12873E+06        -0.49995E+08         0.00000E+00
    0.00000E+00         0.00000E+00        -0.49847E+08
 
   -0.48354E+08         0.16436E+06         0.00000E+00
    0.16436E+06        -0.49992E+08         0.00000E+00
    0.00000E+00         0.00000E+00        -0.49847E+08
 
   -0.48369E+08         0.19951E+06         0.00000E+00
    0.19951E+06        -0.49989E+08         0.00000E+00
    0.00000E+00         0.00000E+00        -0.49847E+08
 
   -0.48385E+08         0.23415E+06         0.00000E+00
    0.23415E+06        -0.49984E+08         0.00000E+00
    0.00000E+00         0.00000E+00        -0.49847E+08
 
   -0.48402E+08         0.26827E+06         0.00000E+00
    0.26827E+06        -0.49979E+08         0.00000E+00
    0.00000E+00         0.00000E+00        -0.49847E+08
 
   -0.48421E+08         0.30186E+06         0.00000E+00
    0.30186E+06        -0.49974E+08         0.00000E+00
    0.00000E+00         0.00000E+00        -0.49847E+08
 
   -0.48440E+08         0.33491E+06         0.00000E+00
    0.33491E+06        -0.49968E+08         0.00000E+00
    0.00000E+00         0.00000E+00        -0.49847E+08
 
   -0.48460E+08         0.36741E+06         0.00000E+00
    0.36741E+06        -0.49961E+08         0.00000E+00
    0.00000E+00         0.00000E+00        -0.49847E+08
 
   -0.48482E+08         0.39933E+06         0.00000E+00
    0.39933E+06        -0.49953E+08         0.00000E+00
    0.00000E+00         0.00000E+00        -0.49847E+08
 
   -0.48505E+08         0.43069E+06         0.00000E+00
    0.43069E+06        -0.49945E+08         0.00000E+00
    0.00000E+00         0.00000E+00        -0.49847E+08
 
   -0.48528E+08         0.46145E+06         0.00000E+00
    0.46145E+06        -0.49936E+08         0.00000E+00
    0.00000E+00         0.00000E+00        -0.49847E+08
 
   -0.48552E+08         0.49162E+06         0.00000E+00
    0.49162E+06        -0.49927E+08         0.00000E+00
    0.00000E+00         0.00000E+00        -0.49847E+08
 
   -0.48578E+08         0.52119E+06         0.00000E+00
    0.52119E+06        -0.49917E+08         0.00000E+00
    0.00000E+00         0.00000E+00        -0.49847E+08
 
   -0.48604E+08         0.55014E+06         0.00000E+00
    0.55014E+06        -0.49907E+08         0.00000E+00
    0.00000E+00         0.00000E+00        -0.49847E+08
 
   -0.48631E+08         0.57848E+06         0.00000E+00
    0.57848E+06        -0.49896E+08         0.00000E+00
    0.00000E+00         0.00000E+00        -0.49847E+08
 
   -0.48659E+08         0.60618E+06         0.00000E+00
    0.60618E+06        -0.49885E+08         0.00000E+00
    0.00000E+00         0.00000E+00        -0.49847E+08
 
   -0.48688E+08         0.63326E+06         0.00000E+00
    0.63326E+06        -0.49873E+08         0.00000E+00
    0.00000E+00         0.00000E+00        -0.49847E+08
 
   -0.48717E+08         0.65969E+06         0.00000E+00
    0.65969E+06        -0.49861E+08         0.00000E+00
    0.00000E+00         0.00000E+00        -0.49847E+08
 
   -0.48748E+08         0.68548E+06         0.00000E+00
    0.68548E+06        -0.49848E+08         0.00000E+00
    0.00000E+00         0.00000E+00        -0.49847E+08
 
   -0.48779E+08         0.71061E+06         0.00000E+00
    0.71061E+06        -0.49835E+08         0.00000E+00
    0.00000E+00         0.00000E+00        -0.49847E+08
 
   -0.48810E+08         0.73509E+06         0.00000E+00
    0.73509E+06        -0.49821E+08         0.00000E+00
    0.00000E+00         0.00000E+00        -0.49847E+08
 
   -0.48843E+08         0.75891E+06         0.00000E+00
    0.75891E+06        -0.49807E+08         0.00000E+00
    0.00000E+00         0.00000E+00        -0.49847E+08
 
   -0.48876E+08         0.78206E+06         0.00000E+00
    0.78206E+06        -0.49792E+08         0.00000E+00
    0.00000E+00         0.00000E+00        -0.49847E+08
 
   -0.48910E+08         0.80454E+06         0.00000E+00
    0.80454E+06        -0.49777E+08         0.00000E+00
    0.00000E+00         0.00000E+00        -0.49847E+08
 
   -0.48944E+08         0.82635E+06         0.00000E+00
    0.82635E+06        -0.49762E+08         0.00000E+00
    0.00000E+00         0.00000E+00        -0.49847E+08
 
   -0.48979E+08         0.84748E+06         0.00000E+00
    0.84748E+06        -0.49746E+08         0.00000E+00
    0.00000E+00         0.00000E+00        -0.49847E+08
 
   -0.49015E+08         0.86792E+06         0.00000E+00
    0.86792E+06        -0.49730E+08         0.00000E+00
    0.00000E+00         0.00000E+00        -0.49847E+08
 
   -0.49051E+08         0.88768E+06         0.00000E+00
    0.88768E+06        -0.49713E+08         0.00000E+00
    0.00000E+00         0.00000E+00        -0.49847E+08
 
   -0.49088E+08         0.90676E+06         0.00000E+00
    0.90676E+06        -0.49696E+08         0.00000E+00
    0.00000E+00         0.00000E+00        -0.49847E+08
 
   -0.49125E+08         0.92514E+06         0.00000E+00
    0.92514E+06        -0.49679E+08         0.00000E+00
    0.00000E+00         0.00000E+00        -0.49847E+08
 
   -0.49163E+08         0.94283E+06         0.00000E+00
    0.94283E+06        -0.49661E+08         0.00000E+00
    0.00000E+00         0.00000E+00        -0.49847E+08
 
   -0.49201E+08         0.95982E+06         0.00000E+00
    0.95982E+06        -0.49643E+08         0.00000E+00
    0.00000E+00         0.00000E+00        -0.49847E+08
 
   -0.49240E+08         0.97611E+06         0.00000E+00
    0.97611E+06        -0.49625E+08         0.00000E+00
    0.00000E+00         0.00000E+00        -0.49847E+08
 
   -0.49279E+08         0.99170E+06         0.00000E+00
    0.99170E+06        -0.49606E+08         0.00000E+00
    0.00000E+00         0.00000E+00        -0.49847E+08
 
   -0.49319E+08         0.10066E+07         0.00000E+00
    0.10066E+07        -0.49588E+08         0.00000E+00
    0.00000E+00         0.00000E+00        -0.49847E+08
 
   -0.49359E+08         0.10208E+07         0.00000E+00
    0.10208E+07        -0.49568E+08         0.00000E+00
    0.00000E+00         0.00000E+00        -0.49847E+08
 
   -0.49400E+08         0.10342E+07         0.00000E+00
    0.10342E+07        -0.49549E+08         0.00000E+00
    0.00000E+00         0.00000E+00        -0.49847E+08
 
   -0.49441E+08         0.10470E+07         0.00000E+00
    0.10470E+07        -0.49529E+08         0.00000E+00
    0.00000E+00         0.00000E+00        -0.49847E+08
 
   -0.49482E+08         0.10590E+07         0.00000E+00
    0.10590E+07        -0.49509E+08         0.00000E+00
    0.00000E+00         0.00000E+00        -0.49847E+08
 
   -0.49524E+08         0.10704E+07         0.00000E+00
    0.10704E+07        -0.49489E+08         0.00000E+00
    0.00000E+00         0.00000E+00        -0.49847E+08
 
   -0.49566E+08         0.10810E+07         0.00000E+00
    0.10810E+07        -0.49468E+08         0.00000E+00
    0.00000E+00         0.00000E+00        -0.49847E+08
 
   -0.49608E+08         0.10909E+07         0.00000E+00
    0.10909E+07        -0.49447E+08         0.00000E+00
    0.00000E+00         0.00000E+00        -0.49847E+08
 
   -0.49651E+08         0.11000E+07         0.00000E+00
    0.11000E+07        -0.49426E+08         0.00000E+00
    0.00000E+00         0.00000E+00        -0.49847E+08
 
   -0.49694E+08         0.11085E+07         0.00000E+00
    0.11085E+07        -0.49405E+08         0.00000E+00
    0.00000E+00         0.00000E+00        -0.49847E+08
 
   -0.49738E+08         0.11162E+07         0.00000E+00
    0.11162E+07        -0.49384E+08         0.00000E+00
    0.00000E+00         0.00000E+00        -0.49847E+08
 
   -0.49781E+08         0.11232E+07         0.00000E+00
    0.11232E+07        -0.49362E+08         0.00000E+00
    0.00000E+00         0.00000E+00        -0.49847E+08
 
   -0.49825E+08         0.11294E+07         0.00000E+00
    0.11294E+07        -0.49340E+08         0.00000E+00
    0.00000E+00         0.00000E+00        -0.49847E+08
 
   -0.48110E+08         0.21131E+05         0.00000E+00
    0.21131E+05        -0.50000E+08         0.00000E+00
    0.00000E+00         0.00000E+00        -0.49817E+08
 
   -0.48123E+08         0.62025E+05         0.00000E+00
    0.62025E+05        -0.49999E+08         0.00000E+00
    0.00000E+00         0.00000E+00        -0.49817E+08
 
   -0.48137E+08         0.10240E+06         0.00000E+00
    0.10240E+06        -0.49997E+08         0.00000E+00
    0.00000E+00         0.00000E+00        -0.49817E+08
 
   -0.48152E+08         0.14223E+06         0.00000E+00
    0.14223E+06        -0.49995E+08         0.00000E+00
    0.00000E+00         0.00000E+00        -0.49817E+08
 
   -0.48168E+08         0.18151E+06         0.00000E+00
    0.18151E+06        -0.49992E+08         0.00000E+00
    0.00000E+00         0.00000E+00        -0.49817E+08
 
   -0.48186E+08         0.22023E+06         0.00000E+00
    0.22023E+06        -0.49988E+08         0.00000E+00
    0.00000E+00         0.00000E+00        -0.49817E+08
 
   -0.48204E+08         0.25835E+06         0.00000E+00
    0.25835E+06        -0.49983E+08         0.00000E+00
    0.00000E+00         0.00000E+00        -0.49817E+08
 
   -0.48225E+08         0.29589E+06         0.00000E+00
    0.29589E+06        -0.49978E+08         0.00000E+00
    0.00000E+00         0.00000E+00        -0.49817E+08
 
   -0.48246E+08         0.33281E+06         0.00000E+00
    0.33281E+06        -0.49972E+08         0.00000E+00
    0.00000E+00         0.00000E+00        -0.49817E+08
 
   -0.48268E+08         0.36911E+06         0.00000E+00
    0.36911E+06        -0.49965E+08         0.00000E+00
    0.00000E+00         0.00000E+00        -0.49817E+08
 
   -0.48292E+08         0.40479E+06         0.00000E+00
    0.40479E+06        -0.49957E+08         0.00000E+00
    0.00000E+00         0.00000E+00        -0.49817E+08
 
   -0.48316E+08         0.43982E+06         0.00000E+00
    0.43982E+06        -0.49949E+08         0.00000E+00
    0.00000E+00         0.00000E+00        -0.49817E+08
 
   -0.48342E+08         0.47420E+06         0.00000E+00
    0.47420E+06        -0.49941E+08         0.00000E+00
    0.00000E+00         0.00000E+00        -0.49817E+08
 
   -0.48368E+08         0.50793E+06         0.00000E+00
    0.50793E+06        -0.49931E+08         0.00000E+00
    0.00000E+00         0.00000E+00        -0.49817E+08
 
   -0.48396E+08         0.54098E+06         0.00000E+00
    0.54098E+06        -0.49921E+08         0.00000E+00
    0.00000E+00         0.00000E+00        -0.49817E+08
 
   -0.48425E+08         0.57337E+06         0.00000E+00
    0.57337E+06        -0.49911E+08         0.00000E+00
    0.00000E+00         0.00000E+00        -0.49817E+08
 
   -0.48454E+08         0.60507E+06         0.00000E+00
    0.60507E+06        -0.49900E+08         0.00000E+00
    0.00000E+00         0.00000E+00        -0.49817E+08
 
   -0.48484E+08         0.63608E+06         0.00000E+00
    0.63608E+06        -0.49888E+08         0.00000E+00
    0.00000E+00         0.00000E+00        -0.49817E+08
 
   -0.48516E+08         0.66640E+06         0.00000E+00
    0.66640E+06        -0.49876E+08         0.00000E+00
    0.00000E+00         0.00000E+00        -0.49817E+08
 
   -0.48548E+08         0.69603E+06         0.00000E+00
    0.69603E+06        -0.49863E+08         0.00000E+00
    0.00000E+00         0.00000E+00        -0.49817E+08
 
   -0.48581E+08         0.72494E+06         0.00000E+00
    0.72494E+06        -0.49850E+08         0.00000E+00
    0.00000E+00         0.00000E+00        -0.49817E+08
 
   -0.48614E+08         0.75316E+06         0.00000E+00
    0.75316E+06        -0.49836E+08         0.00000E+00
    0.00000E+00         0.00000E+00        -0.49817E+08
 
   -0.48649E+08         0.78065E+06         0.00000E+00
    0.78065E+06        -0.49822E+08         0.00000E+00
    0.00000E+00         0.00000E+00        -0.49817E+08
 
   -0.48684E+08         0.80744E+06         0.00000E+00
    0.80744E+06        -0.49807E+08         0.00000E+00
    0.00000E+00         0.00000E+00        -0.49817E+08
 
   -0.48720E+08         0.83350E+06         0.00000E+00
    0.83350E+06        -0.49792E+08         0.00000E+00
    0.00000E+00         0.00000E+00        -0.49817E+08
 
   -0.48757E+08         0.85884E+06         0.00000E+00
    0.85884E+06        -0.49776E+08         0.00000E+00
    0.00000E+00         0.00000E+00        -0.49817E+08
 
   -0.48794E+08         0.88345E+06         0.00000E+00
    0.88345E+06        -0.49760E+08         0.00000E+00
    0.00000E+00         0.00000E+00        -0.49817E+08
 
   -0.48832E+08         0.90733E+06         0.00000E+00
    0.90733E+06        -0.49743E+08         0.00000E+00
    0.00000E+00         0.00000E+00        -0.49817E+08
 
   -0.48870E+08         0.93048E+06         0.00000E+00
    0.93048E+06        -0.49726E+08         0.00000E+00
    0.00000E+00         0.00000E+00        -0.49817E+08
 
   -0.48910E+08         0.95290E+06         0.00000E+00
    0.95290E+06        -0.49709E+08         0.00000E+00
    0.00000E+00         0.00000E+00        -0.49817E+08
 
   -0.48949E+08         0.97458E+06         0.00000E+00
    0.97458E+06        -0.49691E+08         0.00000E+00
    0.00000E+00         0.00000E+00        -0.49817E+08
 
   -0.48990E+08         0.99552E+06         0.00000E+00
    0.99552E+06        -0.49673E+08         0.00000E+00
    0.00000E+00         0.00000E+00        -0.49817E+08
 
   -0.49030E+08         0.10157E+07         0.00000E+00
    0.10157E+07        -0.49654E+08         0.00000E+00
    0.00000E+00         0.00000E+00        -0.49817E+08
 
   -0.49072E+08         0.10352E+07         0.00000E+00
    0.10352E+07        -0.49635E+08         0.00000E+00
    0.00000E+00         0.00000E+00        -0.49817E+08
 
   -0.49114E+08         0.10539E+07         0.00000E+00
    0.10539E+07        -0.49616E+08         0.00000E+00
    0.00000E+00         0.00000E+00        -0.49817E+08
 
   -0.49156E+08         0.10719E+07         0.00000E+00
    0.10719E+07        -0.49596E+08         0.00000E+00
    0.00000E+00         0.00000E+00        -0.49817E+08
 
   -0.49199E+08         0.10891E+07         0.00000E+00
    0.10891E+07        -0.49576E+08         0.00000E+00
    0.00000E+00         0.00000E+00        -0.49817E+08
 
   -0.49242E+08         0.11056E+07         0.00000E+00
    0.11056E+07        -0.49556E+08         0.00000E+00
    0.00000E+00         0.00000E+00        -0.49817E+08
 
   -0.49286E+08         0.11213E+07         0.00000E+00
    0.11213E+07        -0.49535E+08         0.00000E+00
    0.00000E+00         0.00000E+00        -0.49817E+08
 
   -0.49330E+08         0.11363E+07         0.00000E+00
    0.11363E+07        -0.49514E+08         0.00000E+00
    0.00000E+00         0.00000E+00        -0.49817E+08
 
   -0.49375E+08         0.11505E+07         0.00000E+00
    0.11505E+07        -0.49493E+08         0.00000E+00
    0.00000E+00         0.00000E+00        -0.49817E+08
 
   -0.49420E+08         0.11639E+07         0.00000E+00
    0.11639E+07        -0.49471E+08         0.00000E+00
    0.00000E+00         0.00000E+00        -0.49817E+08
 
   -0.49466E+08         0.11766E+07         0.00000E+00
    0.11766E+07        -0.49449E+08         0.00000E+00
    0.00000E+00         0.00000E+00        -0.49817E+08
 
   -0.49511E+08         0.11886E+07         0.00000E+00
    0.11886E+07        -0.49427E+08         0.00000E+00
    0.00000E+00         0.00000E+00        -0.49817E+08
 
   -0.49558E+08         0.11998E+07         0.00000E+00
    0.11998E+07        -0.49405E+08         0.00000E+00
    0.00000E+00         0.00000E+00        -0.49817E+08
 
   -0.49604E+08         0.12102E+07         0.00000E+00
    0.12102E+07        -0.49382E+08         0.00000E+00
    0.00000E+00         0.00000E+00        -0.49817E+08
 
   -0.49651E+08         0.12198E+07         0.00000E+00
    0.12198E+07        -0.49359E+08         0.00000E+00
    0.00000E+00         0.00000E+00        -0.49817E+08
 
   -0.49698E+08         0.12287E+07         0.00000E+00
    0.12287E+07        -0.49336E+08         0.00000E+00
    0.00000E+00         0.00000E+00        -0.49817E+08
 
   -0.49745E+08         0.12368E+07         0.00000E+00
    0.12368E+07        -0.49312E+08         0.00000E+00
    0.00000E+00         0.00000E+00        -0.49817E+08
 
   -0.49793E+08         0.12442E+07         0.00000E+00
    0.12442E+07        -0.49288E+08         0.00000E+00
    0.00000E+00         0.00000E+00        -0.49817E+08
 
   -0.47894E+08         0.23370E+05         0.00000E+00
    0.23370E+05        -0.50000E+08         0.00000E+00
    0.00000E+00         0.00000E+00        -0.49781E+08
 
   -0.47909E+08         0.68478E+05         0.00000E+00
    0.68478E+05        -0.49999E+08         0.00000E+00
    0.00000E+00         0.00000E+00        -0.49781E+08
 
   -0.47926E+08         0.11297E+06         0.00000E+00
    0.11297E+06        -0.49997E+08         0.00000E+00
    0.00000E+00         0.00000E+00        -0.49781E+08
 
   -0.47944E+08         0.15683E+06         0.00000E+00
    0.15683E+06        -0.49994E+08         0.00000E+00
    0.00000E+00         0.00000E+00        -0.49781E+08
 
   -0.47963E+08         0.20004E+06         0.00000E+00
    0.20004E+06        -0.49991E+08         0.00000E+00
    0.00000E+00         0.00000E+00        -0.49781E+08
 
   -0.47984E+08         0.24259E+06         0.00000E+00
    0.24259E+06        -0.49987E+08         0.00000E+00
    0.00000E+00         0.00000E+00        -0.49781E+08
 
   -0.48006E+08         0.28447E+06         0.00000E+00
    0.28447E+06        -0.49982E+08         0.00000E+00
    0.00000E+00         0.00000E+00        -0.49781E+08
 
   -0.48029E+08         0.32566E+06         0.00000E+00
    0.32566E+06        -0.49976E+08         0.00000E+00
    0.00000E+00         0.00000E+00        -0.49781E+08
 
   -0.48054E+08         0.36616E+06         0.00000E+00
    0.36616E+06        -0.49969E+08         0.00000E+00
    0.00000E+00         0.00000E+00        -0.49781E+08
 
   -0.48080E+08         0.40595E+06         0.00000E+00
    0.40595E+06        -0.49962E+08         0.00000E+00
    0.00000E+00         0.00000E+00        -0.49781E+08
 
   -0.48106E+08         0.44503E+06         0.00000E+00
    0.44503E+06        -0.49954E+08         0.00000E+00
    0.00000E+00         0.00000E+00        -0.49781E+08
 
   -0.48134E+08         0.48338E+06         0.00000E+00
    0.48338E+06        -0.49946E+08         0.00000E+00
    0.00000E+00         0.00000E+00        -0.49781E+08
 
   -0.48164E+08         0.52101E+06         0.00000E+00
    0.52101E+06        -0.49936E+08         0.00000E+00
    0.00000E+00         0.00000E+00        -0.49781E+08
 
   -0.48194E+08         0.55789E+06         0.00000E+00
    0.55789E+06        -0.49926E+08         0.00000E+00
    0.00000E+00         0.00000E+00        -0.49781E+08
 
   -0.48225E+08         0.59403E+06         0.00000E+00
    0.59403E+06        -0.49915E+08         0.00000E+00
    0.00000E+00         0.00000E+00        -0.49781E+08
 
   -0.48257E+08         0.62942E+06         0.00000E+00
    0.62942E+06        -0.49904E+08         0.00000E+00
    0.00000E+00         0.00000E+00        -0.49781E+08
 
   -0.48290E+08         0.66406E+06         0.00000E+00
    0.66406E+06        -0.49892E+08         0.00000E+00
    0.00000E+00         0.00000E+00        -0.49781E+08
 
   -0.48324E+08         0.69794E+06         0.00000E+00
    0.69794E+06        -0.49880E+08         0.00000E+00
    0.00000E+00         0.00000E+00        -0.49781E+08
 
   -0.48359E+08         0.73105E+06         0.00000E+00
    0.73105E+06        -0.49867E+08         0.00000E+00
    0.00000E+00         0.00000E+00        -0.49781E+08
 
   -0.48395E+08         0.76340E+06         0.00000E+00
    0.76340E+06        -0.49853E+08         0.00000E+00
    0.00000E+00         0.00000E+00        -0.49781E+08
 
   -0.48431E+08         0.79497E+06         0.00000E+00
    0.79497E+06        -0.49839E+08         0.00000E+00
    0.00000E+00         0.00000E+00        -0.49781E+08
 
   -0.48469E+08         0.82577E+06         0.00000E+00
    0.82577E+06        -0.49824E+08         0.00000E+00
    0.00000E+00         0.00000E+00        -0.49781E+08
 
   -0.48507E+08         0.85580E+06         0.00000E+00
    0.85580E+06        -0.49809E+08         0.00000E+00
    0.00000E+00         0.00000E+00        -0.49781E+08
 
   -0.48546E+08         0.88505E+06         0.00000E+00
    0.88505E+06        -0.49793E+08         0.00000E+00
    0.00000E+00         0.00000E+00        -0.49781E+08
 
   -0.48585E+08         0.91351E+06         0.00000E+00
    0.91351E+06        -0.49777E+08         0.00000E+00
    0.00000E+00         0.00000E+00        -0.49781E+08
 
   -0.48626E+08         0.94120E+06         0.00000E+00
    0.94120E+06        -0.49760E+08         0.00000E+00
    0.00000E+00         0.00000E+00        -0.49781E+08
 
   -0.48667E+08         0.96810E+06         0.00000E+00
    0.96810E+06        -0.49743E+08         0.00000E+00
    0.00000E+00         0.00000E+00        -0.49781E+08
 
   -0.48709E+08         0.99422E+06         0.00000E+00
    0.99422E+06        -0.49725E+08         0.00000E+00
    0.00000E+00         0.00000E+00        -0.49781E+08
 
   -0.48751E+08         0.10196E+07         0.00000E+00
    0.10196E+07        -0.49707E+08         0.00000E+00
    0.00000E+00         0.00000E+00        -0.49781E+08
 
   -0.48794E+08         0.10441E+07         0.00000E+00
    0.10441E+07        -0.49688E+08         0.00000E+00
    0.00000E+00         0.00000E+00        -0.49781E+08
 
   -0.48838E+08         0.10679E+07         0.00000E+00
    0.10679E+07        -0.49669E+08         0.00000E+00
    0.00000E+00         0.00000E+00        -0.49781E+08
 
   -0.48882E+08         0.10908E+07         0.00000E+00
    0.10908E+07        -0.49649E+08         0.00000E+00
    0.00000E+00         0.00000E+00        -0.49781E+08
 
   -0.48926E+08         0.11130E+07         0.00000E+00
    0.11130E+07        -0.49630E+08         0.00000E+00
    0.00000E+00         0.00000E+00        -0.49781E+08
 
   -0.48972E+08         0.11344E+07         0.00000E+00
    0.11344E+07        -0.49609E+08         0.00000E+00
    0.00000E+00         0.00000E+00        -0.49781E+08
 
   -0.49017E+08         0.11550E+07         0.00000E+00
    0.11550E+07        -0.49589E+08         0.00000E+00
    0.00000E+00         0.00000E+00        -0.49781E+08
 
   -0.49064E+08         0.11748E+07         0.00000E+00
    0.11748E+07        -0.49567E+08         0.00000E+00
    0.00000E+00         0.00000E+00        -0.49781E+08
 
   -0.49110E+08         0.11938E+07         0.00000E+00
    0.11938E+07        -0.49546E+08         0.00000E+00
    0.00000E+00         0.00000E+00        -0.49781E+08
 
   -0.49158E+08         0.12120E+07         0.00000E+00
    0.12120E+07        -0.49524E+08         0.00000E+00
    0.00000E+00         0.00000E+00        -0.49781E+08
 
   -0.49205E+08         0.12295E+07         0.00000E+00
    0.12295E+07        -0.49502E+08         0.00000E+00
    0.00000E+00         0.00000E+00        -0.49781E+08
 
   -0.49253E+08         0.12461E+07         0.00000E+00
    0.12461E+07        -0.49479E+08         0.00000E+00
    0.00000E+00         0.00000E+00        -0.49781E+08
 
   -0.49302E+08         0.12620E+07         0.00000E+00
    0.12620E+07        -0.49456E+08         0.00000E+00
    0.00000E+00         0.00000E+00        -0.49781E+08
 
   -0.49351E+08         0.12770E+07         0.00000E+00
    0.12770E+07        -0.49433E+08         0.00000E+00
    0.00000E+00         0.00000E+00        -0.49781E+08
 
   -0.49400E+08         0.12912E+07         0.00000E+00
    0.12912E+07        -0.49409E+08         0.00000E+00
    0.00000E+00         0.00000E+00        -0.49781E+08
 
   -0.49450E+08         0.13047E+07         0.00000E+00
    0.13047E+07        -0.49385E+08         0.00000E+00
    0.00000E+00         0.00000E+00        -0.49781E+08
 
   -0.49500E+08         0.13173E+07         0.00000E+00
    0.13173E+07        -0.49361E+08         0.00000E+00
    0.00000E+00         0.00000E+00        -0.49781E+08
 
   -0.49550E+08         0.13292E+07         0.00000E+00
    0.13292E+07        -0.49337E+08         0.00000E+00
    0.00000E+00         0.00000E+00        -0.49781E+08
 
   -0.49601E+08         0.13402E+07         0.00000E+00
    0.13402E+07        -0.49312E+08         0.00000E+00
    0.00000E+00         0.00000E+00        -0.49781E+08
 
   -0.49652E+08         0.13505E+07         0.00000E+00
    0.13505E+07        -0.49287E+08         0.00000E+00
    0.00000E+00         0.00000E+00        -0.49781E+08
 
   -0.49704E+08         0.13599E+07         0.00000E+00
    0.13599E+07        -0.49261E+08         0.00000E+00
    0.00000E+00         0.00000E+00        -0.49781E+08
 
   -0.49755E+08         0.13685E+07         0.00000E+00
    0.13685E+07        -0.49235E+08         0.00000E+00
    0.00000E+00         0.00000E+00        -0.49781E+08
 
   -0.47656E+08         0.25791E+05         0.00000E+00
    0.25791E+05        -0.50000E+08         0.00000E+00
    0.00000E+00         0.00000E+00        -0.49738E+08
 
   -0.47674E+08         0.75435E+05         0.00000E+00
    0.75435E+05        -0.49999E+08         0.00000E+00
    0.00000E+00         0.00000E+00        -0.49738E+08
 
   -0.47694E+08         0.12435E+06         0.00000E+00
    0.12435E+06        -0.49997E+08         0.00000E+00
    0.00000E+00         0.00000E+00        -0.49738E+08
 
   -0.47716E+08         0.17253E+06         0.00000E+00
    0.17253E+06        -0.49994E+08         0.00000E+00
    0.00000E+00         0.00000E+00        -0.49738E+08
 
   -0.47739E+08         0.21996E+06         0.00000E+00
    0.21996E+06        -0.49990E+08         0.00000E+00
    0.00000E+00         0.00000E+00        -0.49738E+08
 
   -0.47763E+08         0.26662E+06         0.00000E+00
    0.26662E+06        -0.49986E+08         0.00000E+00
    0.00000E+00         0.00000E+00        -0.49738E+08
 
   -0.47789E+08         0.31251E+06         0.00000E+00
    0.31251E+06        -0.49980E+08         0.00000E+00
    0.00000E+00         0.00000E+00        -0.49738E+08
 
   -0.47816E+08         0.35761E+06         0.00000E+00
    0.35761E+06        -0.49974E+08         0.00000E+00
    0.00000E+00         0.00000E+00        -0.49738E+08
 
   -0.47844E+08         0.40192E+06         0.00000E+00
    0.40192E+06        -0.49967E+08         0.00000E+00
    0.00000E+00         0.00000E+00        -0.49738E+08
 
   -0.47873E+08         0.44543E+06         0.00000E+00
    0.44543E+06        -0.49959E+08         0.00000E+00
    0.00000E+00         0.00000E+00        -0.49738E+08
 
   -0.47904E+08         0.48814E+06         0.00000E+00
    0.48814E+06        -0.49951E+08         0.00000E+00
    0.00000E+00         0.00000E+00        -0.49738E+08
 
   -0.47936E+08         0.53003E+06         0.00000E+00
    0.53003E+06        -0.49942E+08         0.00000E+00
    0.00000E+00         0.00000E+00        -0.49738E+08
 
   -0.47969E+08         0.57110E+06         0.00000E+00
    0.57110E+06        -0.49932E+08         0.00000E+00
    0.00000E+00         0.00000E+00        -0.49738E+08
 
   -0.48003E+08         0.61134E+06         0.00000E+00
    0.61134E+06        -0.49921E+08         0.00000E+00
    0.00000E+00         0.00000E+00        -0.49738E+08
 
   -0.48038E+08         0.65076E+06         0.00000E+00
    0.65076E+06        -0.49910E+08         0.00000E+00
    0.00000E+00         0.00000E+00        -0.49738E+08
 
   -0.48074E+08         0.68935E+06         0.00000E+00
    0.68935E+06        -0.49898E+08         0.00000E+00
    0.00000E+00         0.00000E+00        -0.49738E+08
 
   -0.48111E+08         0.72711E+06         0.00000E+00
    0.72711E+06        -0.49885E+08         0.00000E+00
    0.00000E+00         0.00000E+00        -0.49738E+08
 
   -0.48149E+08         0.76403E+06         0.00000E+00
    0.76403E+06        -0.49872E+08         0.00000E+00
    0.00000E+00         0.00000E+00        -0.49738E+08
 
   -0.48188E+08         0.80011E+06         0.00000E+00
    0.80011E+06        -0.49858E+08         0.00000E+00
    0.00000E+00         0.00000E+00        -0.49738E+08
 
   -0.48228E+08         0.83535E+06         0.00000E+00
    0.83535E+06        -0.49843E+08         0.00000E+00
    0.00000E+00         0.00000E+00        -0.49738E+08
 
   -0.48268E+08         0.86976E+06         0.00000E+00
    0.86976E+06        -0.49828E+08         0.00000E+00
    0.00000E+00         0.00000E+00        -0.49738E+08
 
   -0.48310E+08         0.90332E+06         0.00000E+00
    0.90332E+06        -0.49812E+08         0.00000E+00
    0.00000E+00         0.00000E+00        -0.49738E+08
 
   -0.48352E+08         0.93604E+06         0.00000E+00
    0.93604E+06        -0.49796E+08         0.00000E+00
    0.00000E+00         0.00000E+00        -0.49738E+08
 
   -0.48395E+08         0.96792E+06         0.00000E+00
    0.96792E+06        -0.49779E+08         0.00000E+00
    0.00000E+00         0.00000E+00        -0.49738E+08
 
   -0.48439E+08         0.99895E+06         0.00000E+00
    0.99895E+06        -0.49762E+08         0.00000E+00
    0.00000E+00         0.00000E+00        -0.49738E+08
 
   -0.48483E+08         0.10291E+07         0.00000E+00
    0.10291E+07        -0.49744E+08         0.00000E+00
    0.00000E+00         0.00000E+00        -0.49738E+08
 
   -0.48528E+08         0.10585E+07         0.00000E+00
    0.10585E+07        -0.49726E+08         0.00000E+00
    0.00000E+00         0.00000E+00        -0.49738E+08
 
   -0.48574E+08         0.10870E+07         0.00000E+00
    0.10870E+07        -0.49707E+08         0.00000E+00
    0.00000E+00         0.00000E+00        -0.49738E+08
 
   -0.48621E+08         0.11147E+07         0.00000E+00
    0.11147E+07        -0.49687E+08         0.00000E+00
    0.00000E+00         0.00000E+00        -0.49738E+08
 
   -0.48668E+08         0.11415E+07         0.00000E+00
    0.11415E+07        -0.49667E+08         0.00000E+00
    0.00000E+00         0.00000E+00        -0.49738E+08
 
   -0.48715E+08         0.11675E+07         0.00000E+00
    0.11675E+07        -0.49647E+08         0.00000E+00
    0.00000E+00         0.00000E+00        -0.49738E+08
 
   -0.48763E+08         0.11927E+07         0.00000E+00
    0.11927E+07        -0.49626E+08         0.00000E+00
    0.00000E+00         0.00000E+00        -0.49738E+08
 
   -0.48812E+08         0.12170E+07         0.00000E+00
    0.12170E+07        -0.49605E+08         0.00000E+00
    0.00000E+00         0.00000E+00        -0.49738E+08
 
   -0.48862E+08         0.12405E+07         0.00000E+00
    0.12405E+07        -0.49583E+08         0.00000E+00
    0.00000E+00         0.00000E+00        -0.49738E+08
 
   -0.48911E+08         0.12632E+07         0.00000E+00
    0.12632E+07        -0.49561E+08         0.00000E+00
    0.00000E+00         0.00000E+00        -0.49738E+08
 
   -0.48962E+08         0.12850E+07         0.00000E+00
    0.12850E+07        -0.49539E+08         0.00000E+00
    0.00000E+00         0.00000E+00        -0.49738E+08
 
   -0.49012E+08         0.13060E+07         0.00000E+00
    0.13060E+07        -0.49516E+08         0.00000E+00
    0.00000E+00         0.00000E+00        -0.49738E+08
 
   -0.49064E+08         0.13261E+07         0.00000E+00
    0.13261E+07        -0.49492E+08         0.00000E+00
    0.00000E+00         0.00000E+00        -0.49738E+08
 
   -0.49115E+08         0.13455E+07         0.00000E+00
    0.13455E+07        -0.49468E+08         0.00000E+00
    0.00000E+00         0.00000E+00        -0.49738E+08
 
   -0.49168E+08         0.13639E+07         0.00000E+00
    0.13639E+07        -0.49444E+08         0.00000E+00
    0.00000E+00         0.00000E+00        -0.49738E+08
 
   -0.49220E+08         0.13816E+07         0.00000E+00
    0.13816E+07        -0.49420E+08         0.00000E+00
    0.00000E+00         0.00000E+00        -0.49738E+08
 
   -0.49273E+08         0.13984E+07         0.00000E+00
    0.13984E+07        -0.49395E+08         0.00000E+00
    0.00000E+00         0.00000E+00        -0.49738E+08
 
   -0.49327E+08         0.14144E+07         0.00000E+00
    0.14144E+07        -0.49369E+08         0.00000E+00
    0.00000E+00         0.00000E+00        -0.49738E+08
 
   -0.49380E+08         0.14296E+07         0.00000E+00
    0.14296E+07        -0.49344E+08         0.00000E+00
    0.00000E+00         0.00000E+00        -0.49738E+08
 
   -0.49435E+08         0.14439E+07         0.00000E+00
    0.14439E+07        -0.49318E+08         0.00000E+00
    0.00000E+00         0.00000E+00        -0.49738E+08
 
   -0.49489E+08         0.14574E+07         0.00000E+00
    0.14574E+07        -0.49291E+08         0.00000E+00
    0.00000E+00         0.00000E+00        -0.49738E+08
 
   -0.49544E+08         0.14700E+07         0.00000E+00
    0.14700E+07        -0.49265E+08         0.00000E+00
    0.00000E+00         0.00000E+00        -0.49738E+08
 
   -0.49599E+08         0.14819E+07         0.00000E+00
    0.14819E+07        -0.49237E+08         0.00000E+00
    0.00000E+00         0.00000E+00        -0.49738E+08
 
   -0.49655E+08         0.14928E+07         0.00000E+00
    0.14928E+07        -0.49210E+08         0.00000E+00
    0.00000E+00         0.00000E+00        -0.49738E+08
 
   -0.49710E+08         0.15030E+07         0.00000E+00
    0.15030E+07        -0.49182E+08         0.00000E+00
    0.00000E+00         0.00000E+00        -0.49738E+08
 
   -0.47393E+08         0.28394E+05         0.00000E+00
    0.28394E+05        -0.50000E+08         0.00000E+00
    0.00000E+00         0.00000E+00        -0.49688E+08
 
   -0.47416E+08         0.82894E+05         0.00000E+00
    0.82894E+05        -0.49999E+08         0.00000E+00
    0.00000E+00         0.00000E+00        -0.49688E+08
 
   -0.47440E+08         0.13654E+06         0.00000E+00
    0.13654E+06        -0.49997E+08         0.00000E+00
    0.00000E+00         0.00000E+00        -0.49688E+08
 
   -0.47465E+08         0.18933E+06         0.00000E+00
    0.18933E+06        -0.49994E+08         0.00000E+00
    0.00000E+00         0.00000E+00        -0.49688E+08
 
   -0.47492E+08         0.24125E+06         0.00000E+00
    0.24125E+06        -0.49990E+08         0.00000E+00
    0.00000E+00         0.00000E+00        -0.49688E+08
 
   -0.47521E+08         0.29229E+06         0.00000E+00
    0.29229E+06        -0.49985E+08         0.00000E+00
    0.00000E+00         0.00000E+00        -0.49688E+08
 
   -0.47551E+08         0.34244E+06         0.00000E+00
    0.34244E+06        -0.49979E+08         0.00000E+00
    0.00000E+00         0.00000E+00        -0.49688E+08
 
   -0.47582E+08         0.39169E+06         0.00000E+00
    0.39169E+06        -0.49973E+08         0.00000E+00
    0.00000E+00         0.00000E+00        -0.49688E+08
 
   -0.47614E+08         0.44005E+06         0.00000E+00
    0.44005E+06        -0.49965E+08         0.00000E+00
    0.00000E+00         0.00000E+00        -0.49688E+08
 
   -0.47648E+08         0.48750E+06         0.00000E+00
    0.48750E+06        -0.49957E+08         0.00000E+00
    0.00000E+00         0.00000E+00        -0.49688E+08
 
   -0.47683E+08         0.53404E+06         0.00000E+00
    0.53404E+06        -0.49948E+08         0.00000E+00
    0.00000E+00         0.00000E+00        -0.49688E+08
 
   -0.47719E+08         0.57968E+06         0.00000E+00
    0.57968E+06        -0.49938E+08         0.00000E+00
    0.00000E+00         0.00000E+00        -0.49688E+08
 
   -0.47756E+08         0.62439E+06         0.00000E+00
    0.62439E+06        -0.49927E+08         0.00000E+00
    0.00000E+00         0.00000E+00        -0.49688E+08
 
   -0.47795E+08         0.66820E+06         0.00000E+00
    0.66820E+06        -0.49916E+08         0.00000E+00
    0.00000E+00         0.00000E+00        -0.49688E+08
 
   -0.47834E+08         0.71108E+06         0.00000E+00
    0.71108E+06        -0.49904E+08         0.00000E+00
    0.00000E+00         0.00000E+00        -0.49688E+08
 
   -0.47875E+08         0.75305E+06         0.00000E+00
    0.75305E+06        -0.49891E+08         0.00000E+00
    0.00000E+00         0.00000E+00        -0.49688E+08
 
   -0.47916E+08         0.79411E+06         0.00000E+00
    0.79411E+06        -0.49878E+08         0.00000E+00
    0.00000E+00         0.00000E+00        -0.49688E+08
 
   -0.47959E+08         0.83424E+06         0.00000E+00
    0.83424E+06        -0.49864E+08         0.00000E+00
    0.00000E+00         0.00000E+00        -0.49688E+08
 
   -0.48002E+08         0.87347E+06         0.00000E+00
    0.87347E+06        -0.49849E+08         0.00000E+00
    0.00000E+00         0.00000E+00        -0.49688E+08
 
   -0.48046E+08         0.91178E+06         0.00000E+00
    0.91178E+06        -0.49834E+08         0.00000E+00
    0.00000E+00         0.00000E+00        -0.49688E+08
 
   -0.48091E+08         0.94917E+06         0.00000E+00
    0.94917E+06        -0.49817E+08         0.00000E+00
    0.00000E+00         0.00000E+00        -0.49688E+08
 
   -0.48137E+08         0.98566E+06         0.00000E+00
    0.98566E+06        -0.49801E+08         0.00000E+00
    0.00000E+00         0.00000E+00        -0.49688E+08
 
   -0.48183E+08         0.10212E+07         0.00000E+00
    0.10212E+07        -0.49784E+08         0.00000E+00
    0.00000E+00         0.00000E+00        -0.49688E+08
 
   -0.48231E+08         0.10559E+07         0.00000E+00
    0.10559E+07        -0.49766E+08         0.00000E+00
    0.00000E+00         0.00000E+00        -0.49688E+08
 
   -0.48279E+08         0.10897E+07         0.00000E+00
    0.10897E+07        -0.49747E+08         0.00000E+00
    0.00000E+00         0.00000E+00        -0.49688E+08
 
   -0.48328E+08         0.11226E+07         0.00000E+00
    0.11226E+07        -0.49728E+08         0.00000E+00
    0.00000E+00         0.00000E+00        -0.49688E+08
 
   -0.48377E+08         0.11545E+07         0.00000E+00
    0.11545E+07        -0.49709E+08         0.00000E+00
    0.00000E+00         0.00000E+00        -0.49688E+08
 
   -0.48427E+08         0.11856E+07         0.00000E+00
    0.11856E+07        -0.49689E+08         0.00000E+00
    0.00000E+00         0.00000E+00        -0.49688E+08
 
   -0.48478E+08         0.12158E+07         0.00000E+00
    0.12158E+07        -0.49668E+08         0.00000E+00
    0.00000E+00         0.00000E+00        -0.49688E+08
 
   -0.48529E+08         0.12451E+07         0.00000E+00
    0.12451E+07        -0.49647E+08         0.00000E+00
    0.00000E+00         0.00000E+00        -0.49688E+08
 
   -0.48581E+08         0.12735E+07         0.00000E+00
    0.12735E+07        -0.49626E+08         0.00000E+00
    0.00000E+00         0.00000E+00        -0.49688E+08
 
   -0.48634E+08         0.13011E+07         0.00000E+00
    0.13011E+07        -0.49604E+08         0.00000E+00
    0.00000E+00         0.00000E+00        -0.49688E+08
 
   -0.48687E+08         0.13277E+07         0.00000E+00
    0.13277E+07        -0.49581E+08         0.00000E+00
    0.00000E+00         0.00000E+00        -0.49688E+08
 
   -0.48740E+08         0.13535E+07         0.00000E+00
    0.13535E+07        -0.49558E+08         0.00000E+00
    0.00000E+00         0.00000E+00        -0.49688E+08
 
   -0.48795E+08         0.13784E+07         0.00000E+00
    0.13784E+07        -0.49535E+08         0.00000E+00
    0.00000E+00         0.00000E+00        -0.49688E+08
 
   -0.48849E+08         0.14024E+07         0.00000E+00
    0.14024E+07        -0.49511E+08         0.00000E+00
    0.00000E+00         0.00000E+00        -0.49688E+08
 
   -0.48904E+08         0.14256E+07         0.00000E+00
    0.14256E+07        -0.49486E+08         0.00000E+00
    0.00000E+00         0.00000E+00        -0.49688E+08
 
   -0.48960E+08         0.14479E+07         0.00000E+00
    0.14479E+07        -0.49461E+08         0.00000E+00
    0.00000E+00         0.00000E+00        -0.49688E+08
 
   -0.49016E+08         0.14693E+07         0.00000E+00
    0.14693E+07        -0.49436E+08         0.00000E+00
    0.00000E+00         0.00000E+00        -0.49688E+08
 
   -0.49072E+08         0.14899E+07         0.00000E+00
    0.14899E+07        -0.49410E+08         0.00000E+00
    0.00000E+00         0.00000E+00        -0.49688E+08
 
   -0.49129E+08         0.15095E+07         0.00000E+00
    0.15095E+07        -0.49384E+08         0.00000E+00
    0.00000E+00         0.00000E+00        -0.49688E+08
 
   -0.49186E+08         0.15284E+07         0.00000E+00
    0.15284E+07        -0.49357E+08         0.00000E+00
    0.00000E+00         0.00000E+00        -0.49688E+08
 
   -0.49244E+08         0.15463E+07         0.00000E+00
    0.15463E+07        -0.49330E+08         0.00000E+00
    0.00000E+00         0.00000E+00        -0.49688E+08
 
   -0.49302E+08         0.15634E+07         0.00000E+00
    0.15634E+07        -0.49303E+08         0.00000E+00
    0.00000E+00         0.00000E+00        -0.49688E+08
 
   -0.49360E+08         0.15797E+07         0.00000E+00
    0.15797E+07        -0.49275E+08         0.00000E+00
    0.00000E+00         0.00000E+00        -0.49688E+08
 
   -0.49419E+08         0.15950E+07         0.00000E+00
    0.15950E+07        -0.49247E+08         0.00000E+00
    0.00000E+00         0.00000E+00        -0.49688E+08
 
   -0.49478E+08         0.16095E+07         0.00000E+00
    0.16095E+07        -0.49218E+08         0.00000E+00
    0.00000E+00         0.00000E+00        -0.49688E+08
 
   -0.49538E+08         0.16232E+07         0.00000E+00
    0.16232E+07        -0.49189E+08         0.00000E+00
    0.00000E+00         0.00000E+00        -0.49688E+08
 
   -0.49597E+08         0.16359E+07         0.00000E+00
    0.16359E+07        -0.49159E+08         0.00000E+00
    0.00000E+00         0.00000E+00        -0.49688E+08
 
   -0.49657E+08         0.16478E+07         0.00000E+00
    0.16478E+07        -0.49130E+08         0.00000E+00
    0.00000E+00         0.00000E+00        -0.49688E+08
 
   -0.47106E+08         0.31176E+05         0.00000E+00
    0.31176E+05        -0.50000E+08         0.00000E+00
    0.00000E+00         0.00000E+00        -0.49627E+08
 
   -0.47133E+08         0.90841E+05         0.00000E+00
    0.90841E+05        -0.49999E+08         0.00000E+00
    0.00000E+00         0.00000E+00        -0.49627E+08
 
   -0.47161E+08         0.14951E+06         0.00000E+00
    0.14951E+06        -0.49996E+08         0.00000E+00
    0.00000E+00         0.00000E+00        -0.49627E+08
 
   -0.47191E+08         0.20719E+06         0.00000E+00
    0.20719E+06        -0.49993E+08         0.00000E+00
    0.00000E+00         0.00000E+00        -0.49627E+08
 
   -0.47223E+08         0.26386E+06         0.00000E+00
    0.26386E+06        -0.49989E+08         0.00000E+00
    0.00000E+00         0.00000E+00        -0.49627E+08
 
   -0.47256E+08         0.31952E+06         0.00000E+00
    0.31952E+06        -0.49984E+08         0.00000E+00
    0.00000E+00         0.00000E+00        -0.49627E+08
 
   -0.47291E+08         0.37417E+06         0.00000E+00
    0.37417E+06        -0.49978E+08         0.00000E+00
    0.00000E+00         0.00000E+00        -0.49627E+08
 
   -0.47327E+08         0.42781E+06         0.00000E+00
    0.42781E+06        -0.49971E+08         0.00000E+00
    0.00000E+00         0.00000E+00        -0.49627E+08
 
   -0.47364E+08         0.48043E+06         0.00000E+00
    0.48043E+06        -0.49963E+08         0.00000E+00
    0.00000E+00         0.00000E+00        -0.49627E+08
 
   -0.47403E+08         0.53203E+06         0.00000E+00
    0.53203E+06        -0.49954E+08         0.00000E+00
    0.00000E+00         0.00000E+00        -0.49627E+08
 
   -0.47443E+08         0.58261E+06         0.00000E+00
    0.58261E+06        -0.49945E+08         0.00000E+00
    0.00000E+00         0.00000E+00        -0.49627E+08
 
   -0.47484E+08         0.63218E+06         0.00000E+00
    0.63218E+06        -0.49935E+08         0.00000E+00
    0.00000E+00         0.00000E+00        -0.49627E+08
 
   -0.47526E+08         0.68073E+06         0.00000E+00
    0.68073E+06        -0.49923E+08         0.00000E+00
    0.00000E+00         0.00000E+00        -0.49627E+08
 
   -0.47569E+08         0.72827E+06         0.00000E+00
    0.72827E+06        -0.49911E+08         0.00000E+00
    0.00000E+00         0.00000E+00        -0.49627E+08
 
   -0.47613E+08         0.77479E+06         0.00000E+00
    0.77479E+06        -0.49899E+08         0.00000E+00
    0.00000E+00         0.00000E+00        -0.49627E+08
 
   -0.47658E+08         0.82032E+06         0.00000E+00
    0.82032E+06        -0.49885E+08         0.00000E+00
    0.00000E+00         0.00000E+00        -0.49627E+08
 
   -0.47705E+08         0.86484E+06         0.00000E+00
    0.86484E+06        -0.49871E+08         0.00000E+00
    0.00000E+00         0.00000E+00        -0.49627E+08
 
   -0.47752E+08         0.90836E+06         0.00000E+00
    0.90836E+06        -0.49856E+08         0.00000E+00
    0.00000E+00         0.00000E+00        -0.49627E+08
 
   -0.47800E+08         0.95089E+06         0.00000E+00
    0.95089E+06        -0.49841E+08         0.00000E+00
    0.00000E+00         0.00000E+00        -0.49627E+08
 
   -0.47849E+08         0.99243E+06         0.00000E+00
    0.99243E+06        -0.49825E+08         0.00000E+00
    0.00000E+00         0.00000E+00        -0.49627E+08
 
   -0.47898E+08         0.10330E+07         0.00000E+00
    0.10330E+07        -0.49808E+08         0.00000E+00
    0.00000E+00         0.00000E+00        -0.49627E+08
 
   -0.47949E+08         0.10726E+07         0.00000E+00
    0.10726E+07        -0.49790E+08         0.00000E+00
    0.00000E+00         0.00000E+00        -0.49627E+08
 
   -0.48000E+08         0.11112E+07         0.00000E+00
    0.11112E+07        -0.49772E+08         0.00000E+00
    0.00000E+00         0.00000E+00        -0.49627E+08
 
   -0.48052E+08         0.11488E+07         0.00000E+00
    0.11488E+07        -0.49753E+08         0.00000E+00
    0.00000E+00         0.00000E+00        -0.49627E+08
 
   -0.48105E+08         0.11855E+07         0.00000E+00
    0.11855E+07        -0.49734E+08         0.00000E+00
    0.00000E+00         0.00000E+00        -0.49627E+08
 
   -0.48159E+08         0.12212E+07         0.00000E+00
    0.12212E+07        -0.49714E+08         0.00000E+00
    0.00000E+00         0.00000E+00        -0.49627E+08
 
   -0.48213E+08         0.12560E+07         0.00000E+00
    0.12560E+07        -0.49694E+08         0.00000E+00
    0.00000E+00         0.00000E+00        -0.49627E+08
 
   -0.48267E+08         0.12898E+07         0.00000E+00
    0.12898E+07        -0.49673E+08         0.00000E+00
    0.00000E+00         0.00000E+00        -0.49627E+08
 
   -0.48323E+08         0.13227E+07         0.00000E+00
    0.13227E+07        -0.49651E+08         0.00000E+00
    0.00000E+00         0.00000E+00        -0.49627E+08
 
   -0.48379E+08         0.13546E+07         0.00000E+00
    0.13546E+07        -0.49629E+08         0.00000E+00
    0.00000E+00         0.00000E+00        -0.49627E+08
 
   -0.48435E+08         0.13857E+07         0.00000E+00
    0.13857E+07        -0.49606E+08         0.00000E+00
    0.00000E+00         0.00000E+00        -0.49627E+08
 
   -0.48492E+08         0.14158E+07         0.00000E+00
    0.14158E+07        -0.49583E+08         0.00000E+00
    0.00000E+00         0.00000E+00        -0.49627E+08
 
   -0.48550E+08         0.14449E+07         0.00000E+00
    0.14449E+07        -0.49559E+08         0.00000E+00
    0.00000E+00         0.00000E+00        -0.49627E+08
 
   -0.48608E+08         0.14732E+07         0.00000E+00
    0.14732E+07        -0.49534E+08         0.00000E+00
    0.00000E+00         0.00000E+00        -0.49627E+08
 
   -0.48666E+08         0.15006E+07         0.00000E+00
    0.15006E+07        -0.49510E+08         0.00000E+00
    0.00000E+00         0.00000E+00        -0.49627E+08
 
   -0.48725E+08         0.15270E+07         0.00000E+00
    0.15270E+07        -0.49484E+08         0.00000E+00
    0.00000E+00         0.00000E+00        -0.49627E+08
 
   -0.48785E+08         0.15526E+07         0.00000E+00
    0.15526E+07        -0.49458E+08         0.00000E+00
    0.00000E+00         0.00000E+00        -0.49627E+08
 
   -0.48845E+08         0.15772E+07         0.00000E+00
    0.15772E+07        -0.49432E+08         0.00000E+00
    0.00000E+00         0.00000E+00        -0.49627E+08
 
   -0.48905E+08         0.16009E+07         0.00000E+00
    0.16009E+07        -0.49405E+08         0.00000E+00
    0.00000E+00         0.00000E+00        -0.49627E+08
 
   -0.48966E+08         0.16238E+07         0.00000E+00
    0.16238E+07        -0.49378E+08         0.00000E+00
    0.00000E+00         0.00000E+00        -0.49627E+08
 
   -0.49027E+08         0.16458E+07         0.00000E+00
    0.16458E+07        -0.49350E+08         0.00000E+00
    0.00000E+00         0.00000E+00        -0.49627E+08
 
   -0.49089E+08         0.16668E+07         0.00000E+00
    0.16668E+07        -0.49322E+08         0.00000E+00
    0.00000E+00         0.00000E+00        -0.49627E+08
 
   -0.49151E+08         0.16870E+07         0.00000E+00
    0.16870E+07        -0.49293E+08         0.00000E+00
    0.00000E+00         0.00000E+00        -0.49627E+08
 
   -0.49213E+08         0.17063E+07         0.00000E+00
    0.17063E+07        -0.49264E+08         0.00000E+00
    0.00000E+00         0.00000E+00        -0.49627E+08
 
   -0.49276E+08         0.17247E+07         0.00000E+00
    0.17247E+07        -0.49234E+08         0.00000E+00
    0.00000E+00         0.00000E+00        -0.49627E+08
 
   -0.49339E+08         0.17422E+07         0.00000E+00
    0.17422E+07        -0.49204E+08         0.00000E+00
    0.00000E+00         0.00000E+00        -0.49627E+08
 
   -0.49402E+08         0.17589E+07         0.00000E+00
    0.17589E+07        -0.49173E+08         0.00000E+00
    0.00000E+00         0.00000E+00        -0.49627E+08
 
   -0.49466E+08         0.17746E+07         0.00000E+00
    0.17746E+07        -0.49142E+08         0.00000E+00
    0.00000E+00         0.00000E+00        -0.49627E+08
 
   -0.49531E+08         0.17895E+07         0.00000E+00
    0.17895E+07        -0.49111E+08         0.00000E+00
    0.00000E+00         0.00000E+00        -0.49627E+08
 
   -0.49595E+08         0.18034E+07         0.00000E+00
    0.18034E+07        -0.49079E+08         0.00000E+00
    0.00000E+00         0.00000E+00        -0.49627E+08
 
   -0.46791E+08         0.34128E+05         0.00000E+00
    0.34128E+05        -0.50000E+08         0.00000E+00
    0.00000E+00         0.00000E+00        -0.49556E+08
 
   -0.46823E+08         0.99243E+05         0.00000E+00
    0.99243E+05        -0.49999E+08         0.00000E+00
    0.00000E+00         0.00000E+00        -0.49556E+08
 
   -0.46857E+08         0.16321E+06         0.00000E+00
    0.16321E+06        -0.49996E+08         0.00000E+00
    0.00000E+00         0.00000E+00        -0.49556E+08
 
   -0.46893E+08         0.22603E+06         0.00000E+00
    0.22603E+06        -0.49993E+08         0.00000E+00
    0.00000E+00         0.00000E+00        -0.49556E+08
 
   -0.46930E+08         0.28769E+06         0.00000E+00
    0.28769E+06        -0.49989E+08         0.00000E+00
    0.00000E+00         0.00000E+00        -0.49556E+08
 
   -0.46969E+08         0.34820E+06         0.00000E+00
    0.34820E+06        -0.49983E+08         0.00000E+00
    0.00000E+00         0.00000E+00        -0.49556E+08
 
   -0.47009E+08         0.40757E+06         0.00000E+00
    0.40757E+06        -0.49977E+08         0.00000E+00
    0.00000E+00         0.00000E+00        -0.49556E+08
 
   -0.47050E+08         0.46578E+06         0.00000E+00
    0.46578E+06        -0.49970E+08         0.00000E+00
    0.00000E+00         0.00000E+00        -0.49556E+08
 
   -0.47093E+08         0.52286E+06         0.00000E+00
    0.52286E+06        -0.49961E+08         0.00000E+00
    0.00000E+00         0.00000E+00        -0.49556E+08
 
   -0.47137E+08         0.57879E+06         0.00000E+00
    0.57879E+06        -0.49952E+08         0.00000E+00
    0.00000E+00         0.00000E+00        -0.49556E+08
 
   -0.47182E+08         0.63359E+06         0.00000E+00
    0.63359E+06        -0.49942E+08         0.00000E+00
    0.00000E+00         0.00000E+00        -0.49556E+08
 
   -0.47228E+08         0.68726E+06         0.00000E+00
    0.68726E+06        -0.49931E+08         0.00000E+00
    0.00000E+00         0.00000E+00        -0.49556E+08
 
   -0.47276E+08         0.73981E+06         0.00000E+00
    0.73981E+06        -0.49920E+08         0.00000E+00
    0.00000E+00         0.00000E+00        -0.49556E+08
 
   -0.47324E+08         0.79125E+06         0.00000E+00
    0.79125E+06        -0.49907E+08         0.00000E+00
    0.00000E+00         0.00000E+00        -0.49556E+08
 
   -0.47374E+08         0.84158E+06         0.00000E+00
    0.84158E+06        -0.49894E+08         0.00000E+00
    0.00000E+00         0.00000E+00        -0.49556E+08
 
   -0.47424E+08         0.89081E+06         0.00000E+00
    0.89081E+06        -0.49880E+08         0.00000E+00
    0.00000E+00         0.00000E+00        -0.49556E+08
 
   -0.47476E+08         0.93895E+06         0.00000E+00
    0.93895E+06        -0.49865E+08         0.00000E+00
    0.00000E+00         0.00000E+00        -0.49556E+08
 
   -0.47528E+08         0.98601E+06         0.00000E+00
    0.98601E+06        -0.49850E+08         0.00000E+00
    0.00000E+00         0.00000E+00        -0.49556E+08
 
   -0.47581E+08         0.10320E+07         0.00000E+00
    0.10320E+07        -0.49834E+08         0.00000E+00
    0.00000E+00         0.00000E+00        -0.49556E+08
 
   -0.47635E+08         0.10769E+07         0.00000E+00
    0.10769E+07        -0.49817E+08         0.00000E+00
    0.00000E+00         0.00000E+00        -0.49556E+08
 
   -0.47690E+08         0.11208E+07         0.00000E+00
    0.11208E+07        -0.49799E+08         0.00000E+00
    0.00000E+00         0.00000E+00        -0.49556E+08
 
   -0.47745E+08         0.11636E+07         0.00000E+00
    0.11636E+07        -0.49781E+08         0.00000E+00
    0.00000E+00         0.00000E+00        -0.49556E+08
 
   -0.47802E+08         0.12054E+07         0.00000E+00
    0.12054E+07        -0.49762E+08         0.00000E+00
    0.00000E+00         0.00000E+00        -0.49556E+08
 
   -0.47859E+08         0.12462E+07         0.00000E+00
    0.12462E+07        -0.49742E+08         0.00000E+00
    0.00000E+00         0.00000E+00        -0.49556E+08
 
   -0.47916E+08         0.12859E+07         0.00000E+00
    0.12859E+07        -0.49722E+08         0.00000E+00
    0.00000E+00         0.00000E+00        -0.49556E+08
 
   -0.47975E+08         0.13247E+07         0.00000E+00
    0.13247E+07        -0.49701E+08         0.00000E+00
    0.00000E+00         0.00000E+00        -0.49556E+08
 
   -0.48034E+08         0.13624E+07         0.00000E+00
    0.13624E+07        -0.49680E+08         0.00000E+00
    0.00000E+00         0.00000E+00        -0.49556E+08
 
   -0.48093E+08         0.13991E+07         0.00000E+00
    0.13991E+07        -0.49658E+08         0.00000E+00
    0.00000E+00         0.00000E+00        -0.49556E+08
 
   -0.48153E+08         0.14349E+07         0.00000E+00
    0.14349E+07        -0.49635E+08         0.00000E+00
    0.00000E+00         0.00000E+00        -0.49556E+08
 
   -0.48214E+08         0.14697E+07         0.00000E+00
    0.14697E+07        -0.49612E+08         0.00000E+00
    0.00000E+00         0.00000E+00        -0.49556E+08
 
   -0.48275E+08         0.15035E+07         0.00000E+00
    0.15035E+07        -0.49588E+08         0.00000E+00
    0.00000E+00         0.00000E+00        -0.49556E+08
 
   -0.48337E+08         0.15364E+07         0.00000E+00
    0.15364E+07        -0.49564E+08         0.00000E+00
    0.00000E+00         0.00000E+00        -0.49556E+08
 
   -0.48399E+08         0.15683E+07         0.00000E+00
    0.15683E+07        -0.49539E+08         0.00000E+00
    0.00000E+00         0.00000E+00        -0.49556E+08
 
   -0.48462E+08         0.15993E+07         0.00000E+00
    0.15993E+07        -0.49513E+08         0.00000E+00
    0.00000E+00         0.00000E+00        -0.49556E+08
 
   -0.48525E+08         0.16293E+07         0.00000E+00
    0.16293E+07        -0.49487E+08         0.00000E+00
    0.00000E+00         0.00000E+00        -0.49556E+08
 
   -0.48589E+08         0.16584E+07         0.00000E+00
    0.16584E+07        -0.49460E+08         0.00000E+00
    0.00000E+00         0.00000E+00        -0.49556E+08
 
   -0.48653E+08         0.16866E+07         0.00000E+00
    0.16866E+07        -0.49433E+08         0.00000E+00
    0.00000E+00         0.00000E+00        -0.49556E+08
 
   -0.48717E+08         0.17139E+07         0.00000E+00
    0.17139E+07        -0.49405E+08         0.00000E+00
    0.00000E+00         0.00000E+00        -0.49556E+08
 
   -0.48782E+08         0.17402E+07         0.00000E+00
    0.17402E+07        -0.49377E+08         0.00000E+00
    0.00000E+00         0.00000E+00        -0.49556E+08
 
   -0.48847E+08         0.17656E+07         0.00000E+00
    0.17656E+07        -0.49348E+08         0.00000E+00
    0.00000E+00         0.00000E+00        -0.49556E+08
 
   -0.48913E+08         0.17901E+07         0.00000E+00
    0.17901E+07        -0.49319E+08         0.00000E+00
    0.00000E+00         0.00000E+00        -0.49556E+08
 
   -0.48979E+08         0.18137E+07         0.00000E+00
    0.18137E+07        -0.49289E+08         0.00000E+00
    0.00000E+00         0.00000E+00        -0.49556E+08
 
   -0.49046E+08         0.18364E+07         0.00000E+00
    0.18364E+07        -0.49259E+08         0.00000E+00
    0.00000E+00         0.00000E+00        -0.49556E+08
 
   -0.49113E+08         0.18582E+07         0.00000E+00
    0.18582E+07        -0.49228E+08         0.00000E+00
    0.00000E+00         0.00000E+00        -0.49556E+08
 
   -0.49180E+08         0.18791E+07         0.00000E+00
    0.18791E+07        -0.49196E+08         0.00000E+00
    0.00000E+00         0.00000E+00        -0.49556E+08
 
   -0.49247E+08         0.18991E+07         0.00000E+00
    0.18991E+07        -0.49164E+08         0.00000E+00
    0.00000E+00         0.00000E+00        -0.49556E+08
 
   -0.49315E+08         0.19182E+07         0.00000E+00
    0.19182E+07        -0.49131E+08         0.00000E+00
    0.00000E+00         0.00000E+00        -0.49556E+08
 
   -0.49384E+08         0.19364E+07         0.00000E+00
    0.19364E+07        -0.49098E+08         0.00000E+00
    0.00000E+00         0.00000E+00        -0.49556E+08
 
   -0.49452E+08         0.19536E+07         0.00000E+00
    0.19536E+07        -0.49065E+08         0.00000E+00
    0.00000E+00         0.00000E+00        -0.49556E+08
 
   -0.49521E+08         0.19700E+07         0.00000E+00
    0.19700E+07        -0.49030E+08         0.00000E+00
    0.00000E+00         0.00000E+00        -0.49556E+08
 
   -0.46448E+08         0.37232E+05         0.00000E+00
    0.37232E+05        -0.50000E+08         0.00000E+00
    0.00000E+00         0.00000E+00        -0.49472E+08
 
   -0.46487E+08         0.10805E+06         0.00000E+00
    0.10805E+06        -0.49998E+08         0.00000E+00
    0.00000E+00         0.00000E+00        -0.49472E+08
 
   -0.46527E+08         0.17754E+06         0.00000E+00
    0.17754E+06        -0.49996E+08         0.00000E+00
    0.00000E+00         0.00000E+00        -0.49472E+08
 
   -0.46569E+08         0.24572E+06         0.00000E+00
    0.24572E+06        -0.49993E+08         0.00000E+00
    0.00000E+00         0.00000E+00        -0.49472E+08
 
   -0.46612E+08         0.31258E+06         0.00000E+00
    0.31258E+06        -0.49988E+08         0.00000E+00
    0.00000E+00         0.00000E+00        -0.49472E+08
 
   -0.46656E+08         0.37813E+06         0.00000E+00
    0.37813E+06        -0.49983E+08         0.00000E+00
    0.00000E+00         0.00000E+00        -0.49472E+08
 
   -0.46703E+08         0.44239E+06         0.00000E+00
    0.44239E+06        -0.49976E+08         0.00000E+00
    0.00000E+00         0.00000E+00        -0.49472E+08
 
   -0.46750E+08         0.50535E+06         0.00000E+00
    0.50535E+06        -0.49968E+08         0.00000E+00
    0.00000E+00         0.00000E+00        -0.49472E+08
 
   -0.46799E+08         0.56704E+06         0.00000E+00
    0.56704E+06        -0.49960E+08         0.00000E+00
    0.00000E+00         0.00000E+00        -0.49472E+08
 
   -0.46849E+08         0.62746E+06         0.00000E+00
    0.62746E+06        -0.49950E+08         0.00000E+00
    0.00000E+00         0.00000E+00        -0.49472E+08
 
   -0.46900E+08         0.68662E+06         0.00000E+00
    0.68662E+06        -0.49940E+08         0.00000E+00
    0.00000E+00         0.00000E+00        -0.49472E+08
 
   -0.46952E+08         0.74454E+06         0.00000E+00
    0.74454E+06        -0.49929E+08         0.00000E+00
    0.00000E+00         0.00000E+00        -0.49472E+08
 
   -0.47005E+08         0.80122E+06         0.00000E+00
    0.80122E+06        -0.49917E+08         0.00000E+00
    0.00000E+00         0.00000E+00        -0.49472E+08
 
   -0.47060E+08         0.85669E+06         0.00000E+00
    0.85669E+06        -0.49904E+08         0.00000E+00
    0.00000E+00         0.00000E+00        -0.49472E+08
 
   -0.47115E+08         0.91095E+06         0.00000E+00
    0.91095E+06        -0.49890E+08         0.00000E+00
    0.00000E+00         0.00000E+00        -0.49472E+08
 
   -0.47171E+08         0.96402E+06         0.00000E+00
    0.96402E+06        -0.49876E+08         0.00000E+00
    0.00000E+00         0.00000E+00        -0.49472E+08
 
   -0.47228E+08         0.10159E+07         0.00000E+00
    0.10159E+07        -0.49861E+08         0.00000E+00
    0.00000E+00         0.00000E+00        -0.49472E+08
 
   -0.47286E+08         0.10666E+07         0.00000E+00
    0.10666E+07        -0.49844E+08         0.00000E+00
    0.00000E+00         0.00000E+00        -0.49472E+08
 
   -0.47345E+08         0.11162E+07         0.00000E+00
    0.11162E+07        -0.49828E+08         0.00000E+00
    0.00000E+00         0.00000E+00        -0.49472E+08
 
   -0.47404E+08         0.11647E+07         0.00000E+00
    0.11647E+07        -0.49810E+08         0.00000E+00
    0.00000E+00         0.00000E+00        -0.49472E+08
 
   -0.47465E+08         0.12120E+07         0.00000E+00
    0.12120E+07        -0.49792E+08         0.00000E+00
    0.00000E+00         0.00000E+00        -0.49472E+08
 
   -0.47525E+08         0.12582E+07         0.00000E+00
    0.12582E+07        -0.49773E+08         0.00000E+00
    0.00000E+00         0.00000E+00        -0.49472E+08
 
   -0.47587E+08         0.13033E+07         0.00000E+00
    0.13033E+07        -0.49754E+08         0.00000E+00
    0.00000E+00         0.00000E+00        -0.49472E+08
 
   -0.47649E+08         0.13474E+07         0.00000E+00
    0.13474E+07        -0.49733E+08         0.00000E+00
    0.00000E+00         0.00000E+00        -0.49472E+08
 
   -0.47712E+08         0.13904E+07         0.00000E+00
    0.13904E+07        -0.49712E+08         0.00000E+00
    0.00000E+00         0.00000E+00        -0.49472E+08
 
   -0.47776E+08         0.14323E+07         0.00000E+00
    0.14323E+07        -0.49691E+08         0.00000E+00
    0.00000E+00         0.00000E+00        -0.49472E+08
 
   -0.47840E+08         0.14732E+07         0.00000E+00
    0.14732E+07        -0.49669E+08         0.00000E+00
    0.00000E+00         0.00000E+00        -0.49472E+08
 
   -0.47904E+08         0.15130E+07         0.00000E+00
    0.15130E+07        -0.49646E+08         0.00000E+00
    0.00000E+00         0.00000E+00        -0.49472E+08
 
   -0.47969E+08         0.15519E+07         0.00000E+00
    0.15519E+07        -0.49622E+08         0.00000E+00
    0.00000E+00         0.00000E+00        -0.49472E+08
 
   -0.48035E+08         0.15897E+07         0.00000E+00
    0.15897E+07        -0.49598E+08         0.00000E+00
    0.00000E+00         0.00000E+00        -0.49472E+08
 
   -0.48101E+08         0.16266E+07         0.00000E+00
    0.16266E+07        -0.49573E+08         0.00000E+00
    0.00000E+00         0.00000E+00        -0.49472E+08
 
   -0.48167E+08         0.16624E+07         0.00000E+00
    0.16624E+07        -0.49548E+08         0.00000E+00
    0.00000E+00         0.00000E+00        -0.49472E+08
 
   -0.48234E+08         0.16973E+07         0.00000E+00
    0.16973E+07        -0.49522E+08         0.00000E+00
    0.00000E+00         0.00000E+00        -0.49472E+08
 
   -0.48302E+08         0.17312E+07         0.00000E+00
    0.17312E+07        -0.49495E+08         0.00000E+00
    0.00000E+00         0.00000E+00        -0.49472E+08
 
   -0.48370E+08         0.17642E+07         0.00000E+00
    0.17642E+07        -0.49468E+08         0.00000E+00
    0.00000E+00         0.00000E+00        -0.49472E+08
 
   -0.48438E+08         0.17962E+07         0.00000E+00
    0.17962E+07        -0.49440E+08         0.00000E+00
    0.00000E+00         0.00000E+00        -0.49472E+08
 
   -0.48507E+08         0.18273E+07         0.00000E+00
    0.18273E+07        -0.49412E+08         0.00000E+00
    0.00000E+00         0.00000E+00        -0.49472E+08
 
   -0.48576E+08         0.18574E+07         0.00000E+00
    0.18574E+07        -0.49383E+08         0.00000E+00
    0.00000E+00         0.00000E+00        -0.49472E+08
 
   -0.48645E+08         0.18866E+07         0.00000E+00
    0.18866E+07        -0.49353E+08         0.00000E+00
    0.00000E+00         0.00000E+00        -0.49472E+08
 
   -0.48715E+08         0.19149E+07         0.00000E+00
    0.19149E+07        -0.49323E+08         0.00000E+00
    0.00000E+00         0.00000E+00        -0.49472E+08
 
   -0.48786E+08         0.19423E+07         0.00000E+00
    0.19423E+07        -0.49292E+08         0.00000E+00
    0.00000E+00         0.00000E+00        -0.49472E+08
 
   -0.48856E+08         0.19688E+07         0.00000E+00
    0.19688E+07        -0.49260E+08         0.00000E+00
    0.00000E+00         0.00000E+00        -0.49472E+08
 
   -0.48927E+08         0.19943E+07         0.00000E+00
    0.19943E+07        -0.49228E+08         0.00000E+00
    0.00000E+00         0.00000E+00        -0.49472E+08
 
   -0.48999E+08         0.20189E+07         0.00000E+00
    0.20189E+07        -0.49196E+08         0.00000E+00
    0.00000E+00         0.00000E+00        -0.49472E+08
 
   -0.49071E+08         0.20427E+07         0.00000E+00
    0.20427E+07        -0.49162E+08         0.00000E+00
    0.00000E+00         0.00000E+00        -0.49472E+08
 
   -0.49143E+08         0.20655E+07         0.00000E+00
    0.20655E+07        -0.49128E+08         0.00000E+00
    0.00000E+00         0.00000E+00        -0.49472E+08
 
   -0.49215E+08         0.20874E+07         0.00000E+00
    0.20874E+07        -0.49094E+08         0.00000E+00
    0.00000E+00         0.00000E+00        -0.49472E+08
 
   -0.49288E+08         0.21084E+07         0.00000E+00
    0.21084E+07        -0.49059E+08         0.00000E+00
    0.00000E+00         0.00000E+00        -0.49472E+08
 
   -0.49361E+08         0.21285E+07         0.00000E+00
    0.21285E+07        -0.49023E+08         0.00000E+00
    0.00000E+00         0.00000E+00        -0.49472E+08
 
   -0.49435E+08         0.21477E+07         0.00000E+00
    0.21477E+07        -0.48987E+08         0.00000E+00
    0.00000E+00         0.00000E+00        -0.49472E+08
 
   -0.46076E+08         0.40464E+05         0.00000E+00
    0.40464E+05        -0.50000E+08         0.00000E+00
    0.00000E+00         0.00000E+00        -0.49372E+08
 
   -0.46121E+08         0.11718E+06         0.00000E+00
    0.11718E+06        -0.49998E+08         0.00000E+00
    0.00000E+00         0.00000E+00        -0.49372E+08
 
   -0.46169E+08         0.19238E+06         0.00000E+00
    0.19238E+06        -0.49996E+08         0.00000E+00
    0.00000E+00         0.00000E+00        -0.49372E+08
 
   -0.46217E+08         0.26608E+06         0.00000E+00
    0.26608E+06        -0.49992E+08         0.00000E+00
    0.00000E+00         0.00000E+00        -0.49372E+08
 
   -0.46268E+08         0.33829E+06         0.00000E+00
    0.33829E+06        -0.49988E+08         0.00000E+00
    0.00000E+00         0.00000E+00        -0.49372E+08
 
   -0.46319E+08         0.40902E+06         0.00000E+00
    0.40902E+06        -0.49982E+08         0.00000E+00
    0.00000E+00         0.00000E+00        -0.49372E+08
 
   -0.46372E+08         0.47830E+06         0.00000E+00
    0.47830E+06        -0.49975E+08         0.00000E+00
    0.00000E+00         0.00000E+00        -0.49372E+08
 
   -0.46426E+08         0.54613E+06         0.00000E+00
    0.54613E+06        -0.49968E+08         0.00000E+00
    0.00000E+00         0.00000E+00        -0.49372E+08
 
   -0.46482E+08         0.61255E+06         0.00000E+00
    0.61255E+06        -0.49959E+08         0.00000E+00
    0.00000E+00         0.00000E+00        -0.49372E+08
 
   -0.46538E+08         0.67756E+06         0.00000E+00
    0.67756E+06        -0.49949E+08         0.00000E+00
    0.00000E+00         0.00000E+00        -0.49372E+08
 
   -0.46596E+08         0.74119E+06         0.00000E+00
    0.74119E+06        -0.49939E+08         0.00000E+00
    0.00000E+00         0.00000E+00        -0.49372E+08
 
   -0.46655E+08         0.80345E+06         0.00000E+00
    0.80345E+06        -0.49927E+08         0.00000E+00
    0.00000E+00         0.00000E+00        -0.49372E+08
 
   -0.46714E+08         0.86437E+06         0.00000E+00
    0.86437E+06        -0.49915E+08         0.00000E+00
    0.00000E+00         0.00000E+00        -0.49372E+08
 
   -0.46775E+08         0.92397E+06         0.00000E+00
    0.92397E+06        -0.49902E+08         0.00000E+00
    0.00000E+00         0.00000E+00        -0.49372E+08
 
   -0.46837E+08         0.98226E+06         0.00000E+00
    0.98226E+06        -0.49888E+08         0.00000E+00
    0.00000E+00         0.00000E+00        -0.49372E+08
 
   -0.46899E+08         0.10393E+07         0.00000E+00
    0.10393E+07        -0.49873E+08         0.00000E+00
    0.00000E+00         0.00000E+00        -0.49372E+08
 
   -0.46962E+08         0.10950E+07         0.00000E+00
    0.10950E+07        -0.49857E+08         0.00000E+00
    0.00000E+00         0.00000E+00        -0.49372E+08
 
   -0.47026E+08         0.11495E+07         0.00000E+00
    0.11495E+07        -0.49841E+08         0.00000E+00
    0.00000E+00         0.00000E+00        -0.49372E+08
 
   -0.47091E+08         0.12028E+07         0.00000E+00
    0.12028E+07        -0.49824E+08         0.00000E+00
    0.00000E+00         0.00000E+00        -0.49372E+08
 
   -0.47156E+08         0.12549E+07         0.00000E+00
    0.12549E+07        -0.49806E+08         0.00000E+00
    0.00000E+00         0.00000E+00        -0.49372E+08
 
   -0.47222E+08         0.13058E+07         0.00000E+00
    0.13058E+07        -0.49787E+08         0.00000E+00
    0.00000E+00         0.00000E+00        -0.49372E+08
 
   -0.47288E+08         0.13556E+07         0.00000E+00
    0.13556E+07        -0.49768E+08         0.00000E+00
    0.00000E+00         0.00000E+00        -0.49372E+08
 
   -0.47355E+08         0.14042E+07         0.00000E+00
    0.14042E+07        -0.49748E+08         0.00000E+00
    0.00000E+00         0.00000E+00        -0.49372E+08
 
   -0.47423E+08         0.14516E+07         0.00000E+00
    0.14516E+07        -0.49727E+08         0.00000E+00
    0.00000E+00         0.00000E+00        -0.49372E+08
 
   -0.47491E+08         0.14980E+07         0.00000E+00
    0.14980E+07        -0.49706E+08         0.00000E+00
    0.00000E+00         0.00000E+00        -0.49372E+08
 
   -0.47560E+08         0.15433E+07         0.00000E+00
    0.15433E+07        -0.49684E+08         0.00000E+00
    0.00000E+00         0.00000E+00        -0.49372E+08
 
   -0.47629E+08         0.15875E+07         0.00000E+00
    0.15875E+07        -0.49661E+08         0.00000E+00
    0.00000E+00         0.00000E+00        -0.49372E+08
 
   -0.47699E+08         0.16307E+07         0.00000E+00
    0.16307E+07        -0.49637E+08         0.00000E+00
    0.00000E+00         0.00000E+00        -0.49372E+08
 
   -0.47769E+08         0.16728E+07         0.00000E+00
    0.16728E+07        -0.49613E+08         0.00000E+00
    0.00000E+00         0.00000E+00        -0.49372E+08
 
   -0.47840E+08         0.17139E+07         0.00000E+00
    0.17139E+07        -0.49588E+08         0.00000E+00
    0.00000E+00         0.00000E+00        -0.49372E+08
 
   -0.47911E+08         0.17540E+07         0.00000E+00
    0.17540E+07        -0.49563E+08         0.00000E+00
    0.00000E+00         0.00000E+00        -0.49372E+08
 
   -0.47982E+08         0.17931E+07         0.00000E+00
    0.17931E+07        -0.49537E+08         0.00000E+00
    0.00000E+00         0.00000E+00        -0.49372E+08
 
   -0.48054E+08         0.18312E+07         0.00000E+00
    0.18312E+07        -0.49510E+08         0.00000E+00
    0.00000E+00         0.00000E+00        -0.49372E+08
 
   -0.48127E+08         0.18683E+07         0.00000E+00
    0.18683E+07        -0.49482E+08         0.00000E+00
    0.00000E+00         0.00000E+00        -0.49372E+08
 
   -0.48199E+08         0.19045E+07         0.00000E+00
    0.19045E+07        -0.49454E+08         0.00000E+00
    0.00000E+00         0.00000E+00        -0.49372E+08
 
   -0.48272E+08         0.19397E+07         0.00000E+00
    0.19397E+07        -0.49425E+08         0.00000E+00
    0.00000E+00         0.00000E+00        -0.49372E+08
 
   -0.48346E+08         0.19740E+07         0.00000E+00
    0.19740E+07        -0.49396E+08         0.00000E+00
    0.00000E+00         0.00000E+00        -0.49372E+08
 
   -0.48420E+08         0.20073E+07         0.00000E+00
    0.20073E+07        -0.49365E+08         0.00000E+00
    0.00000E+00         0.00000E+00        -0.49372E+08
 
   -0.48494E+08         0.20398E+07         0.00000E+00
    0.20398E+07        -0.49335E+08         0.00000E+00
    0.00000E+00         0.00000E+00        -0.49372E+08
 
   -0.48568E+08         0.20713E+07         0.00000E+00
    0.20713E+07        -0.49303E+08         0.00000E+00
    0.00000E+00         0.00000E+00        -0.49372E+08
 
   -0.48643E+08         0.21018E+07         0.00000E+00
    0.21018E+07        -0.49271E+08         0.00000E+00
    0.00000E+00         0.00000E+00        -0.49372E+08
 
   -0.48718E+08         0.21315E+07         0.00000E+00
    0.21315E+07        -0.49238E+08         0.00000E+00
    0.00000E+00         0.00000E+00        -0.49372E+08
 
   -0.48794E+08         0.21603E+07         0.00000E+00
    0.21603E+07        -0.49204E+08         0.00000E+00
    0.00000E+00         0.00000E+00        -0.49372E+08
 
   -0.48870E+08         0.21882E+07         0.00000E+00
    0.21882E+07        -0.49170E+08         0.00000E+00
    0.00000E+00         0.00000E+00        -0.49372E+08
 
   -0.48946E+08         0.22151E+07         0.00000E+00
    0.22151E+07        -0.49135E+08         0.00000E+00
    0.00000E+00         0.00000E+00        -0.49372E+08
 
   -0.49023E+08         0.22412E+07         0.00000E+00
    0.22412E+07        -0.49099E+08         0.00000E+00
    0.00000E+00         0.00000E+00        -0.49372E+08
 
   -0.49100E+08         0.22664E+07         0.00000E+00
    0.22664E+07        -0.49063E+08         0.00000E+00
    0.00000E+00         0.00000E+00        -0.49372E+08
 
   -0.49177E+08         0.22907E+07         0.00000E+00
    0.22907E+07        -0.49026E+08         0.00000E+00
    0.00000E+00         0.00000E+00        -0.49372E+08
 
   -0.49255E+08         0.23141E+07         0.00000E+00
    0.23141E+07        -0.48988E+08         0.00000E+00
    0.00000E+00         0.00000E+00        -0.49372E+08
 
   -0.49333E+08         0.23366E+07         0.00000E+00
    0.23366E+07        -0.48949E+08         0.00000E+00
    0.00000E+00         0.00000E+00        -0.49372E+08
 
   -0.45673E+08         0.43786E+05         0.00000E+00
    0.43786E+05        -0.50000E+08         0.00000E+00
    0.00000E+00         0.00000E+00        -0.49254E+08
 
   -0.45727E+08         0.12653E+06         0.00000E+00
    0.12653E+06        -0.49998E+08         0.00000E+00
    0.00000E+00         0.00000E+00        -0.49254E+08
 
   -0.45782E+08         0.20755E+06         0.00000E+00
    0.20755E+06        -0.49996E+08         0.00000E+00
    0.00000E+00         0.00000E+00        -0.49254E+08
 
   -0.45839E+08         0.28687E+06         0.00000E+00
    0.28687E+06        -0.49992E+08         0.00000E+00
    0.00000E+00         0.00000E+00        -0.49254E+08
 
   -0.45897E+08         0.36450E+06         0.00000E+00
    0.36450E+06        -0.49988E+08         0.00000E+00
    0.00000E+00         0.00000E+00        -0.49254E+08
 
   -0.45956E+08         0.44049E+06         0.00000E+00
    0.44049E+06        -0.49982E+08         0.00000E+00
    0.00000E+00         0.00000E+00        -0.49254E+08
 
   -0.46017E+08         0.51485E+06         0.00000E+00
    0.51485E+06        -0.49975E+08         0.00000E+00
    0.00000E+00         0.00000E+00        -0.49254E+08
 
   -0.46079E+08         0.58761E+06         0.00000E+00
    0.58761E+06        -0.49967E+08         0.00000E+00
    0.00000E+00         0.00000E+00        -0.49254E+08
 
   -0.46141E+08         0.65881E+06         0.00000E+00
    0.65881E+06        -0.49958E+08         0.00000E+00
    0.00000E+00         0.00000E+00        -0.49254E+08
 
   -0.46205E+08         0.72846E+06         0.00000E+00
    0.72846E+06        -0.49949E+08         0.00000E+00
    0.00000E+00         0.00000E+00        -0.49254E+08
 
   -0.46270E+08         0.79660E+06         0.00000E+00
    0.79660E+06        -0.49938E+08         0.00000E+00
    0.00000E+00         0.00000E+00        -0.49254E+08
 
   -0.46336E+08         0.86326E+06         0.00000E+00
    0.86326E+06        -0.49926E+08         0.00000E+00
    0.00000E+00         0.00000E+00        -0.49254E+08
 
   -0.46403E+08         0.92846E+06         0.00000E+00
    0.92846E+06        -0.49914E+08         0.00000E+00
    0.00000E+00         0.00000E+00        -0.49254E+08
 
   -0.46470E+08         0.99223E+06         0.00000E+00
    0.99223E+06        -0.49901E+08         0.00000E+00
    0.00000E+00         0.00000E+00        -0.49254E+08
 
   -0.46538E+08         0.10546E+07         0.00000E+00
    0.10546E+07        -0.49887E+08         0.00000E+00
    0.00000E+00         0.00000E+00        -0.49254E+08
 
   -0.46607E+08         0.11156E+07         0.00000E+00
    0.11156E+07        -0.49872E+08         0.00000E+00
    0.00000E+00         0.00000E+00        -0.49254E+08
 
   -0.46677E+08         0.11753E+07         0.00000E+00
    0.11753E+07        -0.49856E+08         0.00000E+00
    0.00000E+00         0.00000E+00        -0.49254E+08
 
   -0.46747E+08         0.12337E+07         0.00000E+00
    0.12337E+07        -0.49840E+08         0.00000E+00
    0.00000E+00         0.00000E+00        -0.49254E+08
 
   -0.46818E+08         0.12907E+07         0.00000E+00
    0.12907E+07        -0.49822E+08         0.00000E+00
    0.00000E+00         0.00000E+00        -0.49254E+08
 
   -0.46889E+08         0.13466E+07         0.00000E+00
    0.13466E+07        -0.49804E+08         0.00000E+00
    0.00000E+00         0.00000E+00        -0.49254E+08
 
   -0.46961E+08         0.14012E+07         0.00000E+00
    0.14012E+07        -0.49786E+08         0.00000E+00
    0.00000E+00         0.00000E+00        -0.49254E+08
 
   -0.47033E+08         0.14546E+07         0.00000E+00
    0.14546E+07        -0.49766E+08         0.00000E+00
    0.00000E+00         0.00000E+00        -0.49254E+08
 
   -0.47106E+08         0.15068E+07         0.00000E+00
    0.15068E+07        -0.49746E+08         0.00000E+00
    0.00000E+00         0.00000E+00        -0.49254E+08
 
   -0.47180E+08         0.15578E+07         0.00000E+00
    0.15578E+07        -0.49725E+08         0.00000E+00
    0.00000E+00         0.00000E+00        -0.49254E+08
 
   -0.47253E+08         0.16077E+07         0.00000E+00
    0.16077E+07        -0.49703E+08         0.00000E+00
    0.00000E+00         0.00000E+00        -0.49254E+08
 
   -0.47328E+08         0.16566E+07         0.00000E+00
    0.16566E+07        -0.49681E+08         0.00000E+00
    0.00000E+00         0.00000E+00        -0.49254E+08
 
   -0.47402E+08         0.17043E+07         0.00000E+00
    0.17043E+07        -0.49658E+08         0.00000E+00
    0.00000E+00         0.00000E+00        -0.49254E+08
 
   -0.47477E+08         0.17509E+07         0.00000E+00
    0.17509E+07        -0.49634E+08         0.00000E+00
    0.00000E+00         0.00000E+00        -0.49254E+08
 
   -0.47552E+08         0.17966E+07         0.00000E+00
    0.17966E+07        -0.49609E+08         0.00000E+00
    0.00000E+00         0.00000E+00        -0.49254E+08
 
   -0.47628E+08         0.18411E+07         0.00000E+00
    0.18411E+07        -0.49584E+08         0.00000E+00
    0.00000E+00         0.00000E+00        -0.49254E+08
 
   -0.47704E+08         0.18847E+07         0.00000E+00
    0.18847E+07        -0.49558E+08         0.00000E+00
    0.00000E+00         0.00000E+00        -0.49254E+08
 
   -0.47781E+08         0.19273E+07         0.00000E+00
    0.19273E+07        -0.49531E+08         0.00000E+00
    0.00000E+00         0.00000E+00        -0.49254E+08
 
   -0.47857E+08         0.19689E+07         0.00000E+00
    0.19689E+07        -0.49503E+08         0.00000E+00
    0.00000E+00         0.00000E+00        -0.49254E+08
 
   -0.47935E+08         0.20095E+07         0.00000E+00
    0.20095E+07        -0.49475E+08         0.00000E+00
    0.00000E+00         0.00000E+00        -0.49254E+08
 
   -0.48012E+08         0.20492E+07         0.00000E+00
    0.20492E+07        -0.49446E+08         0.00000E+00
    0.00000E+00         0.00000E+00        -0.49254E+08
 
   -0.48090E+08         0.20880E+07         0.00000E+00
    0.20880E+07        -0.49417E+08         0.00000E+00
    0.00000E+00         0.00000E+00        -0.49254E+08
 
   -0.48168E+08         0.21258E+07         0.00000E+00
    0.21258E+07        -0.49386E+08         0.00000E+00
    0.00000E+00         0.00000E+00        -0.49254E+08
 
   -0.48246E+08         0.21627E+07         0.00000E+00
    0.21627E+07        -0.49355E+08         0.00000E+00
    0.00000E+00         0.00000E+00        -0.49254E+08
 
   -0.48325E+08         0.21987E+07         0.00000E+00
    0.21987E+07        -0.49323E+08         0.00000E+00
    0.00000E+00         0.00000E+00        -0.49254E+08
 
   -0.48404E+08         0.22338E+07         0.00000E+00
    0.22338E+07        -0.49290E+08         0.00000E+00
    0.00000E+00         0.00000E+00        -0.49254E+08
 
   -0.48483E+08         0.22680E+07         0.00000E+00
    0.22680E+07        -0.49257E+08         0.00000E+00
    0.00000E+00         0.00000E+00        -0.49254E+08
 
   -0.48563E+08         0.23013E+07         0.00000E+00
    0.23013E+07        -0.49223E+08         0.00000E+00
    0.00000E+00         0.00000E+00        -0.49254E+08
 
   -0.48643E+08         0.23338E+07         0.00000E+00
    0.23338E+07        -0.49188E+08         0.00000E+00
    0.00000E+00         0.00000E+00        -0.49254E+08
 
   -0.48723E+08         0.23653E+07         0.00000E+00
    0.23653E+07        -0.49152E+08         0.00000E+00
    0.00000E+00         0.00000E+00        -0.49254E+08
 
   -0.48804E+08         0.23960E+07         0.00000E+00
    0.23960E+07        -0.49115E+08         0.00000E+00
    0.00000E+00         0.00000E+00        -0.49254E+08
 
   -0.48885E+08         0.24259E+07         0.00000E+00
    0.24259E+07        -0.49078E+08         0.00000E+00
    0.00000E+00         0.00000E+00        -0.49254E+08
 
   -0.48967E+08         0.24548E+07         0.00000E+00
    0.24548E+07        -0.49040E+08         0.00000E+00
    0.00000E+00         0.00000E+00        -0.49254E+08
 
   -0.49048E+08         0.24829E+07         0.00000E+00
    0.24829E+07        -0.49001E+08         0.00000E+00
    0.00000E+00         0.00000E+00        -0.49254E+08
 
   -0.49131E+08         0.25101E+07         0.00000E+00
    0.25101E+07        -0.48961E+08         0.00000E+00
    0.00000E+00         0.00000E+00        -0.49254E+08
 
   -0.49213E+08         0.25364E+07         0.00000E+00
    0.25364E+07        -0.48920E+08         0.00000E+00
    0.00000E+00         0.00000E+00        -0.49254E+08
 
   -0.45239E+08         0.47149E+05         0.00000E+00
    0.47149E+05        -0.50000E+08         0.00000E+00
    0.00000E+00         0.00000E+00        -0.49116E+08
 
   -0.45302E+08         0.13595E+06         0.00000E+00
    0.13595E+06        -0.49998E+08         0.00000E+00
    0.00000E+00         0.00000E+00        -0.49116E+08
 
   -0.45367E+08         0.22280E+06         0.00000E+00
    0.22280E+06        -0.49996E+08         0.00000E+00
    0.00000E+00         0.00000E+00        -0.49116E+08
 
   -0.45432E+08         0.30774E+06         0.00000E+00
    0.30774E+06        -0.49992E+08         0.00000E+00
    0.00000E+00         0.00000E+00        -0.49116E+08
 
   -0.45499E+08         0.39080E+06         0.00000E+00
    0.39080E+06        -0.49988E+08         0.00000E+00
    0.00000E+00         0.00000E+00        -0.49116E+08
 
   -0.45567E+08         0.47202E+06         0.00000E+00
    0.47202E+06        -0.49982E+08         0.00000E+00
    0.00000E+00         0.00000E+00        -0.49116E+08
 
   -0.45636E+08         0.55145E+06         0.00000E+00
    0.55145E+06        -0.49975E+08         0.00000E+00
    0.00000E+00         0.00000E+00        -0.49116E+08
 
   -0.45706E+08         0.62911E+06         0.00000E+00
    0.62911E+06        -0.49967E+08         0.00000E+00
    0.00000E+00         0.00000E+00        -0.49116E+08
 
   -0.45777E+08         0.70506E+06         0.00000E+00
    0.70506E+06        -0.49959E+08         0.00000E+00
    0.00000E+00         0.00000E+00        -0.49116E+08
 
   -0.45849E+08         0.77932E+06         0.00000E+00
    0.77932E+06        -0.49949E+08         0.00000E+00
    0.00000E+00         0.00000E+00        -0.49116E+08
 
   -0.45922E+08         0.85195E+06         0.00000E+00
    0.85195E+06        -0.49938E+08         0.00000E+00
    0.00000E+00         0.00000E+00        -0.49116E+08
 
   -0.45995E+08         0.92298E+06         0.00000E+00
    0.92298E+06        -0.49927E+08         0.00000E+00
    0.00000E+00         0.00000E+00        -0.49116E+08
 
   -0.46069E+08         0.99245E+06         0.00000E+00
    0.99245E+06        -0.49915E+08         0.00000E+00
    0.00000E+00         0.00000E+00        -0.49116E+08
 
   -0.46144E+08         0.10604E+07         0.00000E+00
    0.10604E+07        -0.49902E+08         0.00000E+00
    0.00000E+00         0.00000E+00        -0.49116E+08
 
   -0.46219E+08         0.11269E+07         0.00000E+00
    0.11269E+07        -0.49888E+08         0.00000E+00
    0.00000E+00         0.00000E+00        -0.49116E+08
 
   -0.46295E+08         0.11919E+07         0.00000E+00
    0.11919E+07        -0.49873E+08         0.00000E+00
    0.00000E+00         0.00000E+00        -0.49116E+08
 
   -0.46372E+08         0.12555E+07         0.00000E+00
    0.12555E+07        -0.49857E+08         0.00000E+00
    0.00000E+00         0.00000E+00        -0.49116E+08
 
   -0.46448E+08         0.13178E+07         0.00000E+00
    0.13178E+07        -0.49841E+08         0.00000E+00
    0.00000E+00         0.00000E+00        -0.49116E+08
 
   -0.46526E+08         0.13787E+07         0.00000E+00
    0.13787E+07        -0.49824E+08         0.00000E+00
    0.00000E+00         0.00000E+00        -0.49116E+08
 
   -0.46603E+08         0.14383E+07         0.00000E+00
    0.14383E+07        -0.49806E+08         0.00000E+00
    0.00000E+00         0.00000E+00        -0.49116E+08
 
   -0.46681E+08         0.14967E+07         0.00000E+00
    0.14967E+07        -0.49787E+08         0.00000E+00
    0.00000E+00         0.00000E+00        -0.49116E+08
 
   -0.46760E+08         0.15538E+07         0.00000E+00
    0.15538E+07        -0.49768E+08         0.00000E+00
    0.00000E+00         0.00000E+00        -0.49116E+08
 
   -0.46839E+08         0.16097E+07         0.00000E+00
    0.16097E+07        -0.49748E+08         0.00000E+00
    0.00000E+00         0.00000E+00        -0.49116E+08
 
   -0.46918E+08         0.16645E+07         0.00000E+00
    0.16645E+07        -0.49727E+08         0.00000E+00
    0.00000E+00         0.00000E+00        -0.49116E+08
 
   -0.46997E+08         0.17181E+07         0.00000E+00
    0.17181E+07        -0.49705E+08         0.00000E+00
    0.00000E+00         0.00000E+00        -0.49116E+08
 
   -0.47077E+08         0.17706E+07         0.00000E+00
    0.17706E+07        -0.49683E+08         0.00000E+00
    0.00000E+00         0.00000E+00        -0.49116E+08
 
   -0.47157E+08         0.18221E+07         0.00000E+00
    0.18221E+07        -0.49660E+08         0.00000E+00
    0.00000E+00         0.00000E+00        -0.49116E+08
 
   -0.47237E+08         0.18724E+07         0.00000E+00
    0.18724E+07        -0.49636E+08         0.00000E+00
    0.00000E+00         0.00000E+00        -0.49116E+08
 
   -0.47318E+08         0.19217E+07         0.00000E+00
    0.19217E+07        -0.49611E+08         0.00000E+00
    0.00000E+00         0.00000E+00        -0.49116E+08
 
   -0.47398E+08         0.19701E+07         0.00000E+00
    0.19701E+07        -0.49586E+08         0.00000E+00
    0.00000E+00         0.00000E+00        -0.49116E+08
 
   -0.47479E+08         0.20174E+07         0.00000E+00
    0.20174E+07        -0.49560E+08         0.00000E+00
    0.00000E+00         0.00000E+00        -0.49116E+08
 
   -0.47561E+08         0.20637E+07         0.00000E+00
    0.20637E+07        -0.49532E+08         0.00000E+00
    0.00000E+00         0.00000E+00        -0.49116E+08
 
   -0.47642E+08         0.21091E+07         0.00000E+00
    0.21091E+07        -0.49505E+08         0.00000E+00
    0.00000E+00         0.00000E+00        -0.49116E+08
 
   -0.47724E+08         0.21536E+07         0.00000E+00
    0.21536E+07        -0.49476E+08         0.00000E+00
    0.00000E+00         0.00000E+00        -0.49116E+08
 
   -0.47806E+08         0.21972E+07         0.00000E+00
    0.21972E+07        -0.49447E+08         0.00000E+00
    0.00000E+00         0.00000E+00        -0.49116E+08
 
   -0.47888E+08         0.22398E+07         0.00000E+00
    0.22398E+07        -0.49416E+08         0.00000E+00
    0.00000E+00         0.00000E+00        -0.49116E+08
 
   -0.47971E+08         0.22816E+07         0.00000E+00
    0.22816E+07        -0.49385E+08         0.00000E+00
    0.00000E+00         0.00000E+00        -0.49116E+08
 
   -0.48054E+08         0.23224E+07         0.00000E+00
    0.23224E+07        -0.49354E+08         0.00000E+00
    0.00000E+00         0.00000E+00        -0.49116E+08
 
   -0.48137E+08         0.23624E+07         0.00000E+00
    0.23624E+07        -0.49321E+08         0.00000E+00
    0.00000E+00         0.00000E+00        -0.49116E+08
 
   -0.48220E+08         0.24016E+07         0.00000E+00
    0.24016E+07        -0.49287E+08         0.00000E+00
    0.00000E+00         0.00000E+00        -0.49116E+08
 
   -0.48304E+08         0.24399E+07         0.00000E+00
    0.24399E+07        -0.49253E+08         0.00000E+00
    0.00000E+00         0.00000E+00        -0.49116E+08
 
   -0.48388E+08         0.24773E+07         0.00000E+00
    0.24773E+07        -0.49218E+08         0.00000E+00
    0.00000E+00         0.00000E+00        -0.49116E+08
 
   -0.48472E+08         0.25139E+07         0.00000E+00
    0.25139E+07        -0.49181E+08         0.00000E+00
    0.00000E+00         0.00000E+00        -0.49116E+08
 
   -0.48557E+08         0.25497E+07         0.00000E+00
    0.25497E+07        -0.49144E+08         0.00000E+00
    0.00000E+00         0.00000E+00        -0.49116E+08
 
   -0.48642E+08         0.25846E+07         0.00000E+00
    0.25846E+07        -0.49106E+08         0.00000E+00
    0.00000E+00         0.00000E+00        -0.49116E+08
 
   -0.48727E+08         0.26188E+07         0.00000E+00
    0.26188E+07        -0.49067E+08         0.00000E+00
    0.00000E+00         0.00000E+00        -0.49116E+08
 
   -0.48813E+08         0.26520E+07         0.00000E+00
    0.26520E+07        -0.49028E+08         0.00000E+00
    0.00000E+00         0.00000E+00        -0.49116E+08
 
   -0.48899E+08         0.26845E+07         0.00000E+00
    0.26845E+07        -0.48987E+08         0.00000E+00
    0.00000E+00         0.00000E+00        -0.49116E+08
 
   -0.48986E+08         0.27161E+07         0.00000E+00
    0.27161E+07        -0.48945E+08         0.00000E+00
    0.00000E+00         0.00000E+00        -0.49116E+08
 
   -0.49072E+08         0.27469E+07         0.00000E+00
    0.27469E+07        -0.48902E+08         0.00000E+00
    0.00000E+00         0.00000E+00        -0.49116E+08
 
   -0.44775E+08         0.50488E+05         0.00000E+00
    0.50488E+05        -0.50000E+08         0.00000E+00
    0.00000E+00         0.00000E+00        -0.48953E+08
 
   -0.44848E+08         0.14525E+06         0.00000E+00
    0.14525E+06        -0.49998E+08         0.00000E+00
    0.00000E+00         0.00000E+00        -0.48953E+08
 
   -0.44923E+08         0.23783E+06         0.00000E+00
    0.23783E+06        -0.49996E+08         0.00000E+00
    0.00000E+00         0.00000E+00        -0.48953E+08
 
   -0.44999E+08         0.32827E+06         0.00000E+00
    0.32827E+06        -0.49993E+08         0.00000E+00
    0.00000E+00         0.00000E+00        -0.48953E+08
 
   -0.45075E+08         0.41663E+06         0.00000E+00
    0.41663E+06        -0.49988E+08         0.00000E+00
    0.00000E+00         0.00000E+00        -0.48953E+08
 
   -0.45153E+08         0.50296E+06         0.00000E+00
    0.50296E+06        -0.49982E+08         0.00000E+00
    0.00000E+00         0.00000E+00        -0.48953E+08
 
   -0.45231E+08         0.58732E+06         0.00000E+00
    0.58732E+06        -0.49976E+08         0.00000E+00
    0.00000E+00         0.00000E+00        -0.48953E+08
 
   -0.45310E+08         0.66976E+06         0.00000E+00
    0.66976E+06        -0.49968E+08         0.00000E+00
    0.00000E+00         0.00000E+00        -0.48953E+08
 
   -0.45390E+08         0.75033E+06         0.00000E+00
    0.75033E+06        -0.49960E+08         0.00000E+00
    0.00000E+00         0.00000E+00        -0.48953E+08
 
   -0.45471E+08         0.82910E+06         0.00000E+00
    0.82910E+06        -0.49951E+08         0.00000E+00
    0.00000E+00         0.00000E+00        -0.48953E+08
 
   -0.45552E+08         0.90611E+06         0.00000E+00
    0.90611E+06        -0.49940E+08         0.00000E+00
    0.00000E+00         0.00000E+00        -0.48953E+08
 
   -0.45633E+08         0.98141E+06         0.00000E+00
    0.98141E+06        -0.49929E+08         0.00000E+00
    0.00000E+00         0.00000E+00        -0.48953E+08
 
   -0.45715E+08         0.10551E+07         0.00000E+00
    0.10551E+07        -0.49918E+08         0.00000E+00
    0.00000E+00         0.00000E+00        -0.48953E+08
 
   -0.45798E+08         0.11271E+07         0.00000E+00
    0.11271E+07        -0.49905E+08         0.00000E+00
    0.00000E+00         0.00000E+00        -0.48953E+08
 
   -0.45880E+08         0.11976E+07         0.00000E+00
    0.11976E+07        -0.49891E+08         0.00000E+00
    0.00000E+00         0.00000E+00        -0.48953E+08
 
   -0.45964E+08         0.12666E+07         0.00000E+00
    0.12666E+07        -0.49877E+08         0.00000E+00
    0.00000E+00         0.00000E+00        -0.48953E+08
 
   -0.46047E+08         0.13341E+07         0.00000E+00
    0.13341E+07        -0.49862E+08         0.00000E+00
    0.00000E+00         0.00000E+00        -0.48953E+08
 
   -0.46131E+08         0.14003E+07         0.00000E+00
    0.14003E+07        -0.49846E+08         0.00000E+00
    0.00000E+00         0.00000E+00        -0.48953E+08
 
   -0.46215E+08         0.14650E+07         0.00000E+00
    0.14650E+07        -0.49830E+08         0.00000E+00
    0.00000E+00         0.00000E+00        -0.48953E+08
 
   -0.46299E+08         0.15285E+07         0.00000E+00
    0.15285E+07        -0.49812E+08         0.00000E+00
    0.00000E+00         0.00000E+00        -0.48953E+08
 
   -0.46383E+08         0.15907E+07         0.00000E+00
    0.15907E+07        -0.49794E+08         0.00000E+00
    0.00000E+00         0.00000E+00        -0.48953E+08
 
   -0.46468E+08         0.16516E+07         0.00000E+00
    0.16516E+07        -0.49775E+08         0.00000E+00
    0.00000E+00         0.00000E+00        -0.48953E+08
 
   -0.46552E+08         0.17113E+07         0.00000E+00
    0.17113E+07        -0.49756E+08         0.00000E+00
    0.00000E+00         0.00000E+00        -0.48953E+08
 
   -0.46637E+08         0.17699E+07         0.00000E+00
    0.17699E+07        -0.49735E+08         0.00000E+00
    0.00000E+00         0.00000E+00        -0.48953E+08
 
   -0.46722E+08         0.18274E+07         0.00000E+00
    0.18274E+07        -0.49714E+08         0.00000E+00
    0.00000E+00         0.00000E+00        -0.48953E+08
 
   -0.46807E+08         0.18837E+07         0.00000E+00
    0.18837E+07        -0.49692E+08         0.00000E+00
    0.00000E+00         0.00000E+00        -0.48953E+08
 
   -0.46892E+08         0.19391E+07         0.00000E+00
    0.19391E+07        -0.49669E+08         0.00000E+00
    0.00000E+00         0.00000E+00        -0.48953E+08
 
   -0.46978E+08         0.19933E+07         0.00000E+00
    0.19933E+07        -0.49646E+08         0.00000E+00
    0.00000E+00         0.00000E+00        -0.48953E+08
 
   -0.47063E+08         0.20466E+07         0.00000E+00
    0.20466E+07        -0.49621E+08         0.00000E+00
    0.00000E+00         0.00000E+00        -0.48953E+08
 
   -0.47149E+08         0.20989E+07         0.00000E+00
    0.20989E+07        -0.49596E+08         0.00000E+00
    0.00000E+00         0.00000E+00        -0.48953E+08
 
   -0.47235E+08         0.21503E+07         0.00000E+00
    0.21503E+07        -0.49570E+08         0.00000E+00
    0.00000E+00         0.00000E+00        -0.48953E+08
 
   -0.47321E+08         0.22007E+07         0.00000E+00
    0.22007E+07        -0.49543E+08         0.00000E+00
    0.00000E+00         0.00000E+00        -0.48953E+08
 
   -0.47407E+08         0.22503E+07         0.00000E+00
    0.22503E+07        -0.49515E+08         0.00000E+00
    0.00000E+00         0.00000E+00        -0.48953E+08
 
   -0.47493E+08         0.22989E+07         0.00000E+00
    0.22989E+07        -0.49487E+08         0.00000E+00
    0.00000E+00         0.00000E+00        -0.48953E+08
 
   -0.47580E+08         0.23467E+07         0.00000E+00
    0.23467E+07        -0.49457E+08         0.00000E+00
    0.00000E+00         0.00000E+00        -0.48953E+08
 
   -0.47667E+08         0.23937E+07         0.00000E+00
    0.23937E+07        -0.49427E+08         0.00000E+00
    0.00000E+00         0.00000E+00        -0.48953E+08
 
   -0.47753E+08         0.24398E+07         0.00000E+00
    0.24398E+07        -0.49395E+08         0.00000E+00
    0.00000E+00         0.00000E+00        -0.48953E+08
 
   -0.47840E+08         0.24851E+07         0.00000E+00
    0.24851E+07        -0.49363E+08         0.00000E+00
    0.00000E+00         0.00000E+00        -0.48953E+08
 
   -0.47928E+08         0.25296E+07         0.00000E+00
    0.25296E+07        -0.49330E+08         0.00000E+00
    0.00000E+00         0.00000E+00        -0.48953E+08
 
   -0.48015E+08         0.25733E+07         0.00000E+00
    0.25733E+07        -0.49296E+08         0.00000E+00
    0.00000E+00         0.00000E+00        -0.48953E+08
 
   -0.48103E+08         0.26162E+07         0.00000E+00
    0.26162E+07        -0.49261E+08         0.00000E+00
    0.00000E+00         0.00000E+00        -0.48953E+08
 
   -0.48191E+08         0.26583E+07         0.00000E+00
    0.26583E+07        -0.49225E+08         0.00000E+00
    0.00000E+00         0.00000E+00        -0.48953E+08
 
   -0.48280E+08         0.26997E+07         0.00000E+00
    0.26997E+07        -0.49187E+08         0.00000E+00
    0.00000E+00         0.00000E+00        -0.48953E+08
 
   -0.48368E+08         0.27402E+07         0.00000E+00
    0.27402E+07        -0.49149E+08         0.00000E+00
    0.00000E+00         0.00000E+00        -0.48953E+08
 
   -0.48457E+08         0.27800E+07         0.00000E+00
    0.27800E+07        -0.49110E+08         0.00000E+00
    0.00000E+00         0.00000E+00        -0.48953E+08
 
   -0.48547E+08         0.28191E+07         0.00000E+00
    0.28191E+07        -0.49070E+08         0.00000E+00
    0.00000E+00         0.00000E+00        -0.48953E+08
 
   -0.48636E+08         0.28573E+07         0.00000E+00
    0.28573E+07        -0.49029E+08         0.00000E+00
    0.00000E+00         0.00000E+00        -0.48953E+08
 
   -0.48726E+08         0.28948E+07         0.00000E+00
    0.28948E+07        -0.48986E+08         0.00000E+00
    0.00000E+00         0.00000E+00        -0.48953E+08
 
   -0.48817E+08         0.29315E+07         0.00000E+00
    0.29315E+07        -0.48943E+08         0.00000E+00
    0.00000E+00         0.00000E+00        -0.48953E+08
 
   -0.48908E+08         0.29675E+07         0.00000E+00
    0.29675E+07        -0.48898E+08         0.00000E+00
    0.00000E+00         0.00000E+00        -0.48953E+08
 
   -0.44281E+08         0.53716E+05         0.00000E+00
    0.53716E+05        -0.50000E+08         0.00000E+00
    0.00000E+00         0.00000E+00        -0.48762E+08
 
   -0.44366E+08         0.15419E+06         0.00000E+00
    0.15419E+06        -0.49999E+08         0.00000E+00
    0.00000E+00         0.00000E+00        -0.48762E+08
 
   -0.44452E+08         0.25223E+06         0.00000E+00
    0.25223E+06        -0.49996E+08         0.00000E+00
    0.00000E+00         0.00000E+00        -0.48762E+08
 
   -0.44539E+08         0.34791E+06         0.00000E+00
    0.34791E+06        -0.49993E+08         0.00000E+00
    0.00000E+00         0.00000E+00        -0.48762E+08
 
   -0.44626E+08         0.44130E+06         0.00000E+00
    0.44130E+06        -0.49989E+08         0.00000E+00
    0.00000E+00         0.00000E+00        -0.48762E+08
 
   -0.44714E+08         0.53248E+06         0.00000E+00
    0.53248E+06        -0.49983E+08         0.00000E+00
    0.00000E+00         0.00000E+00        -0.48762E+08
 
   -0.44802E+08         0.62151E+06         0.00000E+00
    0.62151E+06        -0.49977E+08         0.00000E+00
    0.00000E+00         0.00000E+00        -0.48762E+08
 
   -0.44891E+08         0.70847E+06         0.00000E+00
    0.70847E+06        -0.49970E+08         0.00000E+00
    0.00000E+00         0.00000E+00        -0.48762E+08
 
   -0.44981E+08         0.79344E+06         0.00000E+00
    0.79344E+06        -0.49962E+08         0.00000E+00
    0.00000E+00         0.00000E+00        -0.48762E+08
 
   -0.45070E+08         0.87647E+06         0.00000E+00
    0.87647E+06        -0.49954E+08         0.00000E+00
    0.00000E+00         0.00000E+00        -0.48762E+08
 
   -0.45160E+08         0.95764E+06         0.00000E+00
    0.95764E+06        -0.49944E+08         0.00000E+00
    0.00000E+00         0.00000E+00        -0.48762E+08
 
   -0.45251E+08         0.10370E+07         0.00000E+00
    0.10370E+07        -0.49934E+08         0.00000E+00
    0.00000E+00         0.00000E+00        -0.48762E+08
 
   -0.45341E+08         0.11147E+07         0.00000E+00
    0.11147E+07        -0.49923E+08         0.00000E+00
    0.00000E+00         0.00000E+00        -0.48762E+08
 
   -0.45431E+08         0.11906E+07         0.00000E+00
    0.11906E+07        -0.49911E+08         0.00000E+00
    0.00000E+00         0.00000E+00        -0.48762E+08
 
   -0.45522E+08         0.12650E+07         0.00000E+00
    0.12650E+07        -0.49898E+08         0.00000E+00
    0.00000E+00         0.00000E+00        -0.48762E+08
 
   -0.45612E+08         0.13379E+07         0.00000E+00
    0.13379E+07        -0.49885E+08         0.00000E+00
    0.00000E+00         0.00000E+00        -0.48762E+08
 
   -0.45703E+08         0.14092E+07         0.00000E+00
    0.14092E+07        -0.49871E+08         0.00000E+00
    0.00000E+00         0.00000E+00        -0.48762E+08
 
   -0.45794E+08         0.14792E+07         0.00000E+00
    0.14792E+07        -0.49856E+08         0.00000E+00
    0.00000E+00         0.00000E+00        -0.48762E+08
 
   -0.45884E+08         0.15478E+07         0.00000E+00
    0.15478E+07        -0.49840E+08         0.00000E+00
    0.00000E+00         0.00000E+00        -0.48762E+08
 
   -0.45975E+08         0.16150E+07         0.00000E+00
    0.16150E+07        -0.49824E+08         0.00000E+00
    0.00000E+00         0.00000E+00        -0.48762E+08
 
   -0.46065E+08         0.16810E+07         0.00000E+00
    0.16810E+07        -0.49807E+08         0.00000E+00
    0.00000E+00         0.00000E+00        -0.48762E+08
 
   -0.46156E+08         0.17458E+07         0.00000E+00
    0.17458E+07        -0.49789E+08         0.00000E+00
    0.00000E+00         0.00000E+00        -0.48762E+08
 
   -0.46246E+08         0.18094E+07         0.00000E+00
    0.18094E+07        -0.49770E+08         0.00000E+00
    0.00000E+00         0.00000E+00        -0.48762E+08
 
   -0.46337E+08         0.18719E+07         0.00000E+00
    0.18719E+07        -0.49750E+08         0.00000E+00
    0.00000E+00         0.00000E+00        -0.48762E+08
 
   -0.46427E+08         0.19334E+07         0.00000E+00
    0.19334E+07        -0.49730E+08         0.00000E+00
    0.00000E+00         0.00000E+00        -0.48762E+08
 
   -0.46518E+08         0.19938E+07         0.00000E+00
    0.19938E+07        -0.49709E+08         0.00000E+00
    0.00000E+00         0.00000E+00        -0.48762E+08
 
   -0.46608E+08         0.20531E+07         0.00000E+00
    0.20531E+07        -0.49687E+08         0.00000E+00
    0.00000E+00         0.00000E+00        -0.48762E+08
 
   -0.46698E+08         0.21116E+07         0.00000E+00
    0.21116E+07        -0.49664E+08         0.00000E+00
    0.00000E+00         0.00000E+00        -0.48762E+08
 
   -0.46789E+08         0.21690E+07         0.00000E+00
    0.21690E+07        -0.49641E+08         0.00000E+00
    0.00000E+00         0.00000E+00        -0.48762E+08
 
   -0.46879E+08         0.22256E+07         0.00000E+00
    0.22256E+07        -0.49616E+08         0.00000E+00
    0.00000E+00         0.00000E+00        -0.48762E+08
 
   -0.46969E+08         0.22813E+07         0.00000E+00
    0.22813E+07        -0.49591E+08         0.00000E+00
    0.00000E+00         0.00000E+00        -0.48762E+08
 
   -0.47060E+08         0.23362E+07         0.00000E+00
    0.23362E+07        -0.49564E+08         0.00000E+00
    0.00000E+00         0.00000E+00        -0.48762E+08
 
   -0.47150E+08         0.23903E+07         0.00000E+00
    0.23903E+07        -0.49537E+08         0.00000E+00
    0.00000E+00         0.00000E+00        -0.48762E+08
 
   -0.47241E+08         0.24435E+07         0.00000E+00
    0.24435E+07        -0.49509E+08         0.00000E+00
    0.00000E+00         0.00000E+00        -0.48762E+08
 
   -0.47331E+08         0.24960E+07         0.00000E+00
    0.24960E+07        -0.49480E+08         0.00000E+00
    0.00000E+00         0.00000E+00        -0.48762E+08
 
   -0.47422E+08         0.25477E+07         0.00000E+00
    0.25477E+07        -0.49450E+08         0.00000E+00
    0.00000E+00         0.00000E+00        -0.48762E+08
 
   -0.47513E+08         0.25987E+07         0.00000E+00
    0.25987E+07        -0.49418E+08         0.00000E+00
    0.00000E+00         0.00000E+00        -0.48762E+08
 
   -0.47603E+08         0.26489E+07         0.00000E+00
    0.26489E+07        -0.49386E+08         0.00000E+00
    0.00000E+00         0.00000E+00        -0.48762E+08
 
   -0.47695E+08         0.26985E+07         0.00000E+00
    0.26985E+07        -0.49353E+08         0.00000E+00
    0.00000E+00         0.00000E+00        -0.48762E+08
 
   -0.47786E+08         0.27473E+07         0.00000E+00
    0.27473E+07        -0.49318E+08         0.00000E+00
    0.00000E+00         0.00000E+00        -0.48762E+08
 
   -0.47877E+08         0.27954E+07         0.00000E+00
    0.27954E+07        -0.49283E+08         0.00000E+00
    0.00000E+00         0.00000E+00        -0.48762E+08
 
   -0.47969E+08         0.28428E+07         0.00000E+00
    0.28428E+07        -0.49246E+08         0.00000E+00
    0.00000E+00         0.00000E+00        -0.48762E+08
 
   -0.48061E+08         0.28896E+07         0.00000E+00
    0.28896E+07        -0.49209E+08         0.00000E+00
    0.00000E+00         0.00000E+00        -0.48762E+08
 
   -0.48154E+08         0.29356E+07         0.00000E+00
    0.29356E+07        -0.49170E+08         0.00000E+00
    0.00000E+00         0.00000E+00        -0.48762E+08
 
   -0.48246E+08         0.29810E+07         0.00000E+00
    0.29810E+07        -0.49130E+08         0.00000E+00
    0.00000E+00         0.00000E+00        -0.48762E+08
 
   -0.48339E+08         0.30257E+07         0.00000E+00
    0.30257E+07        -0.49089E+08         0.00000E+00
    0.00000E+00         0.00000E+00        -0.48762E+08
 
   -0.48433E+08         0.30697E+07         0.00000E+00
    0.30697E+07        -0.49046E+08         0.00000E+00
    0.00000E+00         0.00000E+00        -0.48762E+08
 
   -0.48526E+08         0.31130E+07         0.00000E+00
    0.31130E+07        -0.49002E+08         0.00000E+00
    0.00000E+00         0.00000E+00        -0.48762E+08
 
   -0.48620E+08         0.31556E+07         0.00000E+00
    0.31556E+07        -0.48957E+08         0.00000E+00
    0.00000E+00         0.00000E+00        -0.48762E+08
 
   -0.48715E+08         0.31975E+07         0.00000E+00
    0.31975E+07        -0.48911E+08         0.00000E+00
    0.00000E+00         0.00000E+00        -0.48762E+08
 
   -0.43758E+08         0.56727E+05         0.00000E+00
    0.56727E+05        -0.50000E+08         0.00000E+00
    0.00000E+00         0.00000E+00        -0.48539E+08
 
   -0.43856E+08         0.16246E+06         0.00000E+00
    0.16246E+06        -0.49999E+08         0.00000E+00
    0.00000E+00         0.00000E+00        -0.48539E+08
 
   -0.43955E+08         0.26551E+06         0.00000E+00
    0.26551E+06        -0.49997E+08         0.00000E+00
    0.00000E+00         0.00000E+00        -0.48539E+08
 
   -0.44054E+08         0.36598E+06         0.00000E+00
    0.36598E+06        -0.49994E+08         0.00000E+00
    0.00000E+00         0.00000E+00        -0.48539E+08
 
   -0.44153E+08         0.46396E+06         0.00000E+00
    0.46396E+06        -0.49990E+08         0.00000E+00
    0.00000E+00         0.00000E+00        -0.48539E+08
 
   -0.44252E+08         0.55955E+06         0.00000E+00
    0.55955E+06        -0.49985E+08         0.00000E+00
    0.00000E+00         0.00000E+00        -0.48539E+08
 
   -0.44352E+08         0.65284E+06         0.00000E+00
    0.65284E+06        -0.49980E+08         0.00000E+00
    0.00000E+00         0.00000E+00        -0.48539E+08
 
   -0.44451E+08         0.74392E+06         0.00000E+00
    0.74392E+06        -0.49973E+08         0.00000E+00
    0.00000E+00         0.00000E+00        -0.48539E+08
 
   -0.44551E+08         0.83289E+06         0.00000E+00
    0.83289E+06        -0.49966E+08         0.00000E+00
    0.00000E+00         0.00000E+00        -0.48539E+08
 
   -0.44650E+08         0.91982E+06         0.00000E+00
    0.91982E+06        -0.49959E+08         0.00000E+00
    0.00000E+00         0.00000E+00        -0.48539E+08
 
   -0.44749E+08         0.10048E+07         0.00000E+00
    0.10048E+07        -0.49950E+08         0.00000E+00
    0.00000E+00         0.00000E+00        -0.48539E+08
 
   -0.44848E+08         0.10879E+07         0.00000E+00
    0.10879E+07        -0.49941E+08         0.00000E+00
    0.00000E+00         0.00000E+00        -0.48539E+08
 
   -0.44947E+08         0.11693E+07         0.00000E+00
    0.11693E+07        -0.49931E+08         0.00000E+00
    0.00000E+00         0.00000E+00        -0.48539E+08
 
   -0.45046E+08         0.12490E+07         0.00000E+00
    0.12490E+07        -0.49920E+08         0.00000E+00
    0.00000E+00         0.00000E+00        -0.48539E+08
 
   -0.45144E+08         0.13270E+07         0.00000E+00
    0.13270E+07        -0.49909E+08         0.00000E+00
    0.00000E+00         0.00000E+00        -0.48539E+08
 
   -0.45242E+08         0.14035E+07         0.00000E+00
    0.14035E+07        -0.49897E+08         0.00000E+00
    0.00000E+00         0.00000E+00        -0.48539E+08
 
   -0.45340E+08         0.14785E+07         0.00000E+00
    0.14785E+07        -0.49884E+08         0.00000E+00
    0.00000E+00         0.00000E+00        -0.48539E+08
 
   -0.45438E+08         0.15521E+07         0.00000E+00
    0.15521E+07        -0.49871E+08         0.00000E+00
    0.00000E+00         0.00000E+00        -0.48539E+08
 
   -0.45535E+08         0.16244E+07         0.00000E+00
    0.16244E+07        -0.49857E+08         0.00000E+00
    0.00000E+00         0.00000E+00        -0.48539E+08
 
   -0.45632E+08         0.16954E+07         0.00000E+00
    0.16954E+07        -0.49842E+08         0.00000E+00
    0.00000E+00         0.00000E+00        -0.48539E+08
 
   -0.45729E+08         0.17652E+07         0.00000E+00
    0.17652E+07        -0.49826E+08         0.00000E+00
    0.00000E+00         0.00000E+00        -0.48539E+08
 
   -0.45825E+08         0.18339E+07         0.00000E+00
    0.18339E+07        -0.49810E+08         0.00000E+00
    0.00000E+00         0.00000E+00        -0.48539E+08
 
   -0.45921E+08         0.19014E+07         0.00000E+00
    0.19014E+07        -0.49792E+08         0.00000E+00
    0.00000E+00         0.00000E+00        -0.48539E+08
 
   -0.46017E+08         0.19680E+07         0.00000E+00
    0.19680E+07        -0.49774E+08         0.00000E+00
    0.00000E+00         0.00000E+00        -0.48539E+08
 
   -0.46112E+08         0.20335E+07         0.00000E+00
    0.20335E+07        -0.49756E+08         0.00000E+00
    0.00000E+00         0.00000E+00        -0.48539E+08
 
   -0.46208E+08         0.20980E+07         0.00000E+00
    0.20980E+07        -0.49736E+08         0.00000E+00
    0.00000E+00         0.00000E+00        -0.48539E+08
 
   -0.46303E+08         0.21617E+07         0.00000E+00
    0.21617E+07        -0.49715E+08         0.00000E+00
    0.00000E+00         0.00000E+00        -0.48539E+08
 
   -0.46397E+08         0.22245E+07         0.00000E+00
    0.22245E+07        -0.49694E+08         0.00000E+00
    0.00000E+00         0.00000E+00        -0.48539E+08
 
   -0.46492E+08         0.22865E+07         0.00000E+00
    0.22865E+07        -0.49672E+08         0.00000E+00
    0.00000E+00         0.00000E+00        -0.48539E+08
 
   -0.46587E+08         0.23476E+07         0.00000E+00
    0.23476E+07        -0.49648E+08         0.00000E+00
    0.00000E+00         0.00000E+00        -0.48539E+08
 
   -0.46681E+08         0.24081E+07         0.00000E+00
    0.24081E+07        -0.49624E+08         0.00000E+00
    0.00000E+00         0.00000E+00        -0.48539E+08
 
   -0.46775E+08         0.24677E+07         0.00000E+00
    0.24677E+07        -0.49599E+08         0.00000E+00
    0.00000E+00         0.00000E+00        -0.48539E+08
 
   -0.46869E+08         0.25267E+07         0.00000E+00
    0.25267E+07        -0.49573E+08         0.00000E+00
    0.00000E+00         0.00000E+00        -0.48539E+08
 
   -0.46963E+08         0.25850E+07         0.00000E+00
    0.25850E+07        -0.49545E+08         0.00000E+00
    0.00000E+00         0.00000E+00        -0.48539E+08
 
   -0.47057E+08         0.26427E+07         0.00000E+00
    0.26427E+07        -0.49517E+08         0.00000E+00
    0.00000E+00         0.00000E+00        -0.48539E+08
 
   -0.47152E+08         0.26997E+07         0.00000E+00
    0.26997E+07        -0.49488E+08         0.00000E+00
    0.00000E+00         0.00000E+00        -0.48539E+08
 
   -0.47246E+08         0.27561E+07         0.00000E+00
    0.27561E+07        -0.49457E+08         0.00000E+00
    0.00000E+00         0.00000E+00        -0.48539E+08
 
   -0.47340E+08         0.28119E+07         0.00000E+00
    0.28119E+07        -0.49425E+08         0.00000E+00
    0.00000E+00         0.00000E+00        -0.48539E+08
 
   -0.47434E+08         0.28671E+07         0.00000E+00
    0.28671E+07        -0.49392E+08         0.00000E+00
    0.00000E+00         0.00000E+00        -0.48539E+08
 
   -0.47529E+08         0.29217E+07         0.00000E+00
    0.29217E+07        -0.49358E+08         0.00000E+00
    0.00000E+00         0.00000E+00        -0.48539E+08
 
   -0.47624E+08         0.29757E+07         0.00000E+00
    0.29757E+07        -0.49323E+08         0.00000E+00
    0.00000E+00         0.00000E+00        -0.48539E+08
 
   -0.47719E+08         0.30291E+07         0.00000E+00
    0.30291E+07        -0.49286E+08         0.00000E+00
    0.00000E+00         0.00000E+00        -0.48539E+08
 
   -0.47814E+08         0.30820E+07         0.00000E+00
    0.30820E+07        -0.49248E+08         0.00000E+00
    0.00000E+00         0.00000E+00        -0.48539E+08
 
   -0.47909E+08         0.31343E+07         0.00000E+00
    0.31343E+07        -0.49209E+08         0.00000E+00
    0.00000E+00         0.00000E+00        -0.48539E+08
 
   -0.48005E+08         0.31860E+07         0.00000E+00
    0.31860E+07        -0.49168E+08         0.00000E+00
    0.00000E+00         0.00000E+00        -0.48539E+08
 
   -0.48101E+08         0.32372E+07         0.00000E+00
    0.32372E+07        -0.49126E+08         0.00000E+00
    0.00000E+00         0.00000E+00        -0.48539E+08
 
   -0.48198E+08         0.32878E+07         0.00000E+00
    0.32878E+07        -0.49083E+08         0.00000E+00
    0.00000E+00         0.00000E+00        -0.48539E+08
 
   -0.48295E+08         0.33378E+07         0.00000E+00
    0.33378E+07        -0.49038E+08         0.00000E+00
    0.00000E+00         0.00000E+00        -0.48539E+08
 
   -0.48392E+08         0.33871E+07         0.00000E+00
    0.33871E+07        -0.48992E+08         0.00000E+00
    0.00000E+00         0.00000E+00        -0.48539E+08
 
   -0.48490E+08         0.34359E+07         0.00000E+00
    0.34359E+07        -0.48944E+08         0.00000E+00
    0.00000E+00         0.00000E+00        -0.48539E+08
 
   -0.43210E+08         0.59387E+05         0.00000E+00
    0.59387E+05        -0.50000E+08         0.00000E+00
    0.00000E+00         0.00000E+00        -0.48278E+08
 
   -0.43323E+08         0.16969E+06         0.00000E+00
    0.16969E+06        -0.49999E+08         0.00000E+00
    0.00000E+00         0.00000E+00        -0.48278E+08
 
   -0.43435E+08         0.27707E+06         0.00000E+00
    0.27707E+06        -0.49997E+08         0.00000E+00
    0.00000E+00         0.00000E+00        -0.48278E+08
 
   -0.43547E+08         0.38166E+06         0.00000E+00
    0.38166E+06        -0.49995E+08         0.00000E+00
    0.00000E+00         0.00000E+00        -0.48278E+08
 
   -0.43659E+08         0.48358E+06         0.00000E+00
    0.48358E+06        -0.49992E+08         0.00000E+00
    0.00000E+00         0.00000E+00        -0.48278E+08
 
   -0.43770E+08         0.58294E+06         0.00000E+00
    0.58294E+06        -0.49988E+08         0.00000E+00
    0.00000E+00         0.00000E+00        -0.48278E+08
 
   -0.43881E+08         0.67988E+06         0.00000E+00
    0.67988E+06        -0.49983E+08         0.00000E+00
    0.00000E+00         0.00000E+00        -0.48278E+08
 
   -0.43992E+08         0.77449E+06         0.00000E+00
    0.77449E+06        -0.49978E+08         0.00000E+00
    0.00000E+00         0.00000E+00        -0.48278E+08
 
   -0.44102E+08         0.86690E+06         0.00000E+00
    0.86690E+06        -0.49972E+08         0.00000E+00
    0.00000E+00         0.00000E+00        -0.48278E+08
 
   -0.44211E+08         0.95722E+06         0.00000E+00
    0.95722E+06        -0.49966E+08         0.00000E+00
    0.00000E+00         0.00000E+00        -0.48278E+08
 
   -0.44320E+08         0.10455E+07         0.00000E+00
    0.10455E+07        -0.49959E+08         0.00000E+00
    0.00000E+00         0.00000E+00        -0.48278E+08
 
   -0.44428E+08         0.11320E+07         0.00000E+00
    0.11320E+07        -0.49951E+08         0.00000E+00
    0.00000E+00         0.00000E+00        -0.48278E+08
 
   -0.44536E+08         0.12166E+07         0.00000E+00
    0.12166E+07        -0.49943E+08         0.00000E+00
    0.00000E+00         0.00000E+00        -0.48278E+08
 
   -0.44643E+08         0.12996E+07         0.00000E+00
    0.12996E+07        -0.49934E+08         0.00000E+00
    0.00000E+00         0.00000E+00        -0.48278E+08
 
   -0.44749E+08         0.13809E+07         0.00000E+00
    0.13809E+07        -0.49924E+08         0.00000E+00
    0.00000E+00         0.00000E+00        -0.48278E+08
 
   -0.44855E+08         0.14608E+07         0.00000E+00
    0.14608E+07        -0.49914E+08         0.00000E+00
    0.00000E+00         0.00000E+00        -0.48278E+08
 
   -0.44960E+08         0.15392E+07         0.00000E+00
    0.15392E+07        -0.49904E+08         0.00000E+00
    0.00000E+00         0.00000E+00        -0.48278E+08
 
   -0.45064E+08         0.16163E+07         0.00000E+00
    0.16163E+07        -0.49892E+08         0.00000E+00
    0.00000E+00         0.00000E+00        -0.48278E+08
 
   -0.45168E+08         0.16922E+07         0.00000E+00
    0.16922E+07        -0.49880E+08         0.00000E+00
    0.00000E+00         0.00000E+00        -0.48278E+08
 
   -0.45270E+08         0.17668E+07         0.00000E+00
    0.17668E+07        -0.49867E+08         0.00000E+00
    0.00000E+00         0.00000E+00        -0.48278E+08
 
   -0.45373E+08         0.18403E+07         0.00000E+00
    0.18403E+07        -0.49854E+08         0.00000E+00
    0.00000E+00         0.00000E+00        -0.48278E+08
 
   -0.45474E+08         0.19128E+07         0.00000E+00
    0.19128E+07        -0.49840E+08         0.00000E+00
    0.00000E+00         0.00000E+00        -0.48278E+08
 
   -0.45576E+08         0.19843E+07         0.00000E+00
    0.19843E+07        -0.49824E+08         0.00000E+00
    0.00000E+00         0.00000E+00        -0.48278E+08
 
   -0.45676E+08         0.20549E+07         0.00000E+00
    0.20549E+07        -0.49809E+08         0.00000E+00
    0.00000E+00         0.00000E+00        -0.48278E+08
 
   -0.45776E+08         0.21246E+07         0.00000E+00
    0.21246E+07        -0.49792E+08         0.00000E+00
    0.00000E+00         0.00000E+00        -0.48278E+08
 
   -0.45876E+08         0.21936E+07         0.00000E+00
    0.21936E+07        -0.49774E+08         0.00000E+00
    0.00000E+00         0.00000E+00        -0.48278E+08
 
   -0.45975E+08         0.22617E+07         0.00000E+00
    0.22617E+07        -0.49756E+08         0.00000E+00
    0.00000E+00         0.00000E+00        -0.48278E+08
 
   -0.46074E+08         0.23291E+07         0.00000E+00
    0.23291E+07        -0.49737E+08         0.00000E+00
    0.00000E+00         0.00000E+00        -0.48278E+08
 
   -0.46172E+08         0.23959E+07         0.00000E+00
    0.23959E+07        -0.49716E+08         0.00000E+00
    0.00000E+00         0.00000E+00        -0.48278E+08
 
   -0.46270E+08         0.24620E+07         0.00000E+00
    0.24620E+07        -0.49695E+08         0.00000E+00
    0.00000E+00         0.00000E+00        -0.48278E+08
 
   -0.46368E+08         0.25275E+07         0.00000E+00
    0.25275E+07        -0.49672E+08         0.00000E+00
    0.00000E+00         0.00000E+00        -0.48278E+08
 
   -0.46465E+08         0.25924E+07         0.00000E+00
    0.25924E+07        -0.49649E+08         0.00000E+00
    0.00000E+00         0.00000E+00        -0.48278E+08
 
   -0.46562E+08         0.26568E+07         0.00000E+00
    0.26568E+07        -0.49624E+08         0.00000E+00
    0.00000E+00         0.00000E+00        -0.48278E+08
 
   -0.46659E+08         0.27207E+07         0.00000E+00
    0.27207E+07        -0.49599E+08         0.00000E+00
    0.00000E+00         0.00000E+00        -0.48278E+08
 
   -0.46756E+08         0.27841E+07         0.00000E+00
    0.27841E+07        -0.49572E+08         0.00000E+00
    0.00000E+00         0.00000E+00        -0.48278E+08
 
   -0.46853E+08         0.28470E+07         0.00000E+00
    0.28470E+07        -0.49543E+08         0.00000E+00
    0.00000E+00         0.00000E+00        -0.48278E+08
 
   -0.46950E+08         0.29094E+07         0.00000E+00
    0.29094E+07        -0.49514E+08         0.00000E+00
    0.00000E+00         0.00000E+00        -0.48278E+08
 
   -0.47047E+08         0.29714E+07         0.00000E+00
    0.29714E+07        -0.49483E+08         0.00000E+00
    0.00000E+00         0.00000E+00        -0.48278E+08
 
   -0.47144E+08         0.30330E+07         0.00000E+00
    0.30330E+07        -0.49451E+08         0.00000E+00
    0.00000E+00         0.00000E+00        -0.48278E+08
 
   -0.47241E+08         0.30941E+07         0.00000E+00
    0.30941E+07        -0.49418E+08         0.00000E+00
    0.00000E+00         0.00000E+00        -0.48278E+08
 
   -0.47338E+08         0.31548E+07         0.00000E+00
    0.31548E+07        -0.49383E+08         0.00000E+00
    0.00000E+00         0.00000E+00        -0.48278E+08
 
   -0.47435E+08         0.32150E+07         0.00000E+00
    0.32150E+07        -0.49347E+08         0.00000E+00
    0.00000E+00         0.00000E+00        -0.48278E+08
 
   -0.47533E+08         0.32749E+07         0.00000E+00
    0.32749E+07        -0.49309E+08         0.00000E+00
    0.00000E+00         0.00000E+00        -0.48278E+08
 
   -0.47631E+08         0.33343E+07         0.00000E+00
    0.33343E+07        -0.49270E+08         0.00000E+00
    0.00000E+00         0.00000E+00        -0.48278E+08
 
   -0.47729E+08         0.33933E+07         0.00000E+00
    0.33933E+07        -0.49229E+08         0.00000E+00
    0.00000E+00         0.00000E+00        -0.48278E+08
 
   -0.47828E+08         0.34519E+07         0.00000E+00
    0.34519E+07        -0.49187E+08         0.00000E+00
    0.00000E+00         0.00000E+00        -0.48278E+08
 
   -0.47927E+08         0.35100E+07         0.00000E+00
    0.35100E+07        -0.49143E+08         0.00000E+00
    0.00000E+00         0.00000E+00        -0.48278E+08
 
   -0.48027E+08         0.35677E+07         0.00000E+00
    0.35677E+07        -0.49097E+08         0.00000E+00
    0.00000E+00         0.00000E+00        -0.48278E+08
 
   -0.48127E+08         0.36248E+07         0.00000E+00
    0.36248E+07        -0.49050E+08         0.00000E+00
    0.00000E+00         0.00000E+00        -0.48278E+08
 
   -0.48228E+08         0.36816E+07         0.00000E+00
    0.36816E+07        -0.49001E+08         0.00000E+00
    0.00000E+00         0.00000E+00        -0.48278E+08
 
   -0.42641E+08         0.61534E+05         0.00000E+00
    0.61534E+05        -0.50000E+08         0.00000E+00
    0.00000E+00         0.00000E+00        -0.47974E+08
 
   -0.42769E+08         0.17542E+06         0.00000E+00
    0.17542E+06        -0.49999E+08         0.00000E+00
    0.00000E+00         0.00000E+00        -0.47974E+08
 
   -0.42896E+08         0.28617E+06         0.00000E+00
    0.28617E+06        -0.49998E+08         0.00000E+00
    0.00000E+00         0.00000E+00        -0.47974E+08
 
   -0.43022E+08         0.39394E+06         0.00000E+00
    0.39394E+06        -0.49996E+08         0.00000E+00
    0.00000E+00         0.00000E+00        -0.47974E+08
 
   -0.43148E+08         0.49889E+06         0.00000E+00
    0.49889E+06        -0.49994E+08         0.00000E+00
    0.00000E+00         0.00000E+00        -0.47974E+08
 
   -0.43272E+08         0.60117E+06         0.00000E+00
    0.60117E+06        -0.49991E+08         0.00000E+00
    0.00000E+00         0.00000E+00        -0.47974E+08
 
   -0.43395E+08         0.70092E+06         0.00000E+00
    0.70092E+06        -0.49988E+08         0.00000E+00
    0.00000E+00         0.00000E+00        -0.47974E+08
 
   -0.43517E+08         0.79827E+06         0.00000E+00
    0.79827E+06        -0.49984E+08         0.00000E+00
    0.00000E+00         0.00000E+00        -0.47974E+08
 
   -0.43638E+08         0.89338E+06         0.00000E+00
    0.89338E+06        -0.49980E+08         0.00000E+00
    0.00000E+00         0.00000E+00        -0.47974E+08
 
   -0.43758E+08         0.98637E+06         0.00000E+00
    0.98637E+06        -0.49975E+08         0.00000E+00
    0.00000E+00         0.00000E+00        -0.47974E+08
 
   -0.43876E+08         0.10774E+07         0.00000E+00
    0.10774E+07        -0.49970E+08         0.00000E+00
    0.00000E+00         0.00000E+00        -0.47974E+08
 
   -0.43994E+08         0.11665E+07         0.00000E+00
    0.11665E+07        -0.49965E+08         0.00000E+00
    0.00000E+00         0.00000E+00        -0.47974E+08
 
   -0.44110E+08         0.12539E+07         0.00000E+00
    0.12539E+07        -0.49959E+08         0.00000E+00
    0.00000E+00         0.00000E+00        -0.47974E+08
 
   -0.44225E+08         0.13396E+07         0.00000E+00
    0.13396E+07        -0.49952E+08         0.00000E+00
    0.00000E+00         0.00000E+00        -0.47974E+08
 
   -0.44338E+08         0.14239E+07         0.00000E+00
    0.14239E+07        -0.49945E+08         0.00000E+00
    0.00000E+00         0.00000E+00        -0.47974E+08
 
   -0.44451E+08         0.15067E+07         0.00000E+00
    0.15067E+07        -0.49938E+08         0.00000E+00
    0.00000E+00         0.00000E+00        -0.47974E+08
 
   -0.44563E+08         0.15882E+07         0.00000E+00
    0.15882E+07        -0.49930E+08         0.00000E+00
    0.00000E+00         0.00000E+00        -0.47974E+08
 
   -0.44673E+08         0.16685E+07         0.00000E+00
    0.16685E+07        -0.49921E+08         0.00000E+00
    0.00000E+00         0.00000E+00        -0.47974E+08
 
   -0.44783E+08         0.17476E+07         0.00000E+00
    0.17476E+07        -0.49912E+08         0.00000E+00
    0.00000E+00         0.00000E+00        -0.47974E+08
 
   -0.44891E+08         0.18257E+07         0.00000E+00
    0.18257E+07        -0.49902E+08         0.00000E+00
    0.00000E+00         0.00000E+00        -0.47974E+08
 
   -0.44998E+08         0.19029E+07         0.00000E+00
    0.19029E+07        -0.49891E+08         0.00000E+00
    0.00000E+00         0.00000E+00        -0.47974E+08
 
   -0.45105E+08         0.19791E+07         0.00000E+00
    0.19791E+07        -0.49880E+08         0.00000E+00
    0.00000E+00         0.00000E+00        -0.47974E+08
 
   -0.45210E+08         0.20546E+07         0.00000E+00
    0.20546E+07        -0.49868E+08         0.00000E+00
    0.00000E+00         0.00000E+00        -0.47974E+08
 
   -0.45315E+08         0.21293E+07         0.00000E+00
    0.21293E+07        -0.49855E+08         0.00000E+00
    0.00000E+00         0.00000E+00        -0.47974E+08
 
   -0.45418E+08         0.22034E+07         0.00000E+00
    0.22034E+07        -0.49841E+08         0.00000E+00
    0.00000E+00         0.00000E+00        -0.47974E+08
 
   -0.45521E+08         0.22768E+07         0.00000E+00
    0.22768E+07        -0.49826E+08         0.00000E+00
    0.00000E+00         0.00000E+00        -0.47974E+08
 
   -0.45624E+08         0.23496E+07         0.00000E+00
    0.23496E+07        -0.49811E+08         0.00000E+00
    0.00000E+00         0.00000E+00        -0.47974E+08
 
   -0.45725E+08         0.24220E+07         0.00000E+00
    0.24220E+07        -0.49794E+08         0.00000E+00
    0.00000E+00         0.00000E+00        -0.47974E+08
 
   -0.45827E+08         0.24938E+07         0.00000E+00
    0.24938E+07        -0.49776E+08         0.00000E+00
    0.00000E+00         0.00000E+00        -0.47974E+08
 
   -0.45927E+08         0.25652E+07         0.00000E+00
    0.25652E+07        -0.49758E+08         0.00000E+00
    0.00000E+00         0.00000E+00        -0.47974E+08
 
   -0.46027E+08         0.26363E+07         0.00000E+00
    0.26363E+07        -0.49738E+08         0.00000E+00
    0.00000E+00         0.00000E+00        -0.47974E+08
 
   -0.46127E+08         0.27069E+07         0.00000E+00
    0.27069E+07        -0.49717E+08         0.00000E+00
    0.00000E+00         0.00000E+00        -0.47974E+08
 
   -0.46226E+08         0.27773E+07         0.00000E+00
    0.27773E+07        -0.49694E+08         0.00000E+00
    0.00000E+00         0.00000E+00        -0.47974E+08
 
   -0.46325E+08         0.28473E+07         0.00000E+00
    0.28473E+07        -0.49671E+08         0.00000E+00
    0.00000E+00         0.00000E+00        -0.47974E+08
 
   -0.46424E+08         0.29170E+07         0.00000E+00
    0.29170E+07        -0.49646E+08         0.00000E+00
    0.00000E+00         0.00000E+00        -0.47974E+08
 
   -0.46523E+08         0.29865E+07         0.00000E+00
    0.29865E+07        -0.49620E+08         0.00000E+00
    0.00000E+00         0.00000E+00        -0.47974E+08
 
   -0.46622E+08         0.30557E+07         0.00000E+00
    0.30557E+07        -0.49592E+08         0.00000E+00
    0.00000E+00         0.00000E+00        -0.47974E+08
 
   -0.46720E+08         0.31246E+07         0.00000E+00
    0.31246E+07        -0.49563E+08         0.00000E+00
    0.00000E+00         0.00000E+00        -0.47974E+08
 
   -0.46819E+08         0.31934E+07         0.00000E+00
    0.31934E+07        -0.49533E+08         0.00000E+00
    0.00000E+00         0.00000E+00        -0.47974E+08
 
   -0.46918E+08         0.32619E+07         0.00000E+00
    0.32619E+07        -0.49500E+08         0.00000E+00
    0.00000E+00         0.00000E+00        -0.47974E+08
 
   -0.47016E+08         0.33301E+07         0.00000E+00
    0.33301E+07        -0.49467E+08         0.00000E+00
    0.00000E+00         0.00000E+00        -0.47974E+08
 
   -0.47116E+08         0.33981E+07         0.00000E+00
    0.33981E+07        -0.49431E+08         0.00000E+00
    0.00000E+00         0.00000E+00        -0.47974E+08
 
   -0.47215E+08         0.34659E+07         0.00000E+00
    0.34659E+07        -0.49394E+08         0.00000E+00
    0.00000E+00         0.00000E+00        -0.47974E+08
 
   -0.47315E+08         0.35334E+07         0.00000E+00
    0.35334E+07        -0.49356E+08         0.00000E+00
    0.00000E+00         0.00000E+00        -0.47974E+08
 
   -0.47415E+08         0.36007E+07         0.00000E+00
    0.36007E+07        -0.49315E+08         0.00000E+00
    0.00000E+00         0.00000E+00        -0.47974E+08
 
   -0.47515E+08         0.36677E+07         0.00000E+00
    0.36677E+07        -0.49273E+08         0.00000E+00
    0.00000E+00         0.00000E+00        -0.47974E+08
 
   -0.47616E+08         0.37345E+07         0.00000E+00
    0.37345E+07        -0.49229E+08         0.00000E+00
    0.00000E+00         0.00000E+00        -0.47974E+08
 
   -0.47718E+08         0.38009E+07         0.00000E+00
    0.38009E+07        -0.49183E+08         0.00000E+00
    0.00000E+00         0.00000E+00        -0.47974E+08
 
   -0.47820E+08         0.38670E+07         0.00000E+00
    0.38670E+07        -0.49135E+08         0.00000E+00
    0.00000E+00         0.00000E+00        -0.47974E+08
 
   -0.47923E+08         0.39328E+07         0.00000E+00
    0.39328E+07        -0.49086E+08         0.00000E+00
    0.00000E+00         0.00000E+00        -0.47974E+08
 
   -0.42057E+08         0.62974E+05         0.00000E+00
    0.62974E+05        -0.50000E+08         0.00000E+00
    0.00000E+00         0.00000E+00        -0.47621E+08
 
   -0.42201E+08         0.17911E+06         0.00000E+00
    0.17911E+06        -0.50000E+08         0.00000E+00
    0.00000E+00         0.00000E+00        -0.47621E+08
 
   -0.42344E+08         0.29194E+06         0.00000E+00
    0.29194E+06        -0.49999E+08         0.00000E+00
    0.00000E+00         0.00000E+00        -0.47621E+08
 
   -0.42485E+08         0.40166E+06         0.00000E+00
    0.40166E+06        -0.49998E+08         0.00000E+00
    0.00000E+00         0.00000E+00        -0.47621E+08
 
   -0.42624E+08         0.50845E+06         0.00000E+00
    0.50845E+06        -0.49997E+08         0.00000E+00
    0.00000E+00         0.00000E+00        -0.47621E+08
 
   -0.42762E+08         0.61249E+06         0.00000E+00
    0.61249E+06        -0.49996E+08         0.00000E+00
    0.00000E+00         0.00000E+00        -0.47621E+08
 
   -0.42897E+08         0.71395E+06         0.00000E+00
    0.71395E+06        -0.49994E+08         0.00000E+00
    0.00000E+00         0.00000E+00        -0.47621E+08
 
   -0.43031E+08         0.81302E+06         0.00000E+00
    0.81302E+06        -0.49992E+08         0.00000E+00
    0.00000E+00         0.00000E+00        -0.47621E+08
 
   -0.43163E+08         0.90985E+06         0.00000E+00
    0.90985E+06        -0.49990E+08         0.00000E+00
    0.00000E+00         0.00000E+00        -0.47621E+08
 
   -0.43293E+08         0.10046E+07         0.00000E+00
    0.10046E+07        -0.49988E+08         0.00000E+00
    0.00000E+00         0.00000E+00        -0.47621E+08
 
   -0.43421E+08         0.10974E+07         0.00000E+00
    0.10974E+07        -0.49986E+08         0.00000E+00
    0.00000E+00         0.00000E+00        -0.47621E+08
 
   -0.43547E+08         0.11885E+07         0.00000E+00
    0.11885E+07        -0.49983E+08         0.00000E+00
    0.00000E+00         0.00000E+00        -0.47621E+08
 
   -0.43671E+08         0.12779E+07         0.00000E+00
    0.12779E+07        -0.49980E+08         0.00000E+00
    0.00000E+00         0.00000E+00        -0.47621E+08
 
   -0.43794E+08         0.13658E+07         0.00000E+00
    0.13658E+07        -0.49976E+08         0.00000E+00
    0.00000E+00         0.00000E+00        -0.47621E+08
 
   -0.43914E+08         0.14523E+07         0.00000E+00
    0.14523E+07        -0.49973E+08         0.00000E+00
    0.00000E+00         0.00000E+00        -0.47621E+08
 
   -0.44034E+08         0.15375E+07         0.00000E+00
    0.15375E+07        -0.49968E+08         0.00000E+00
    0.00000E+00         0.00000E+00        -0.47621E+08
 
   -0.44151E+08         0.16217E+07         0.00000E+00
    0.16217E+07        -0.49964E+08         0.00000E+00
    0.00000E+00         0.00000E+00        -0.47621E+08
 
   -0.44267E+08         0.17048E+07         0.00000E+00
    0.17048E+07        -0.49959E+08         0.00000E+00
    0.00000E+00         0.00000E+00        -0.47621E+08
 
   -0.44381E+08         0.17869E+07         0.00000E+00
    0.17869E+07        -0.49953E+08         0.00000E+00
    0.00000E+00         0.00000E+00        -0.47621E+08
 
   -0.44494E+08         0.18683E+07         0.00000E+00
    0.18683E+07        -0.49947E+08         0.00000E+00
    0.00000E+00         0.00000E+00        -0.47621E+08
 
   -0.44605E+08         0.19489E+07         0.00000E+00
    0.19489E+07        -0.49940E+08         0.00000E+00
    0.00000E+00         0.00000E+00        -0.47621E+08
 
   -0.44715E+08         0.20289E+07         0.00000E+00
    0.20289E+07        -0.49932E+08         0.00000E+00
    0.00000E+00         0.00000E+00        -0.47621E+08
 
   -0.44824E+08         0.21083E+07         0.00000E+00
    0.21083E+07        -0.49924E+08         0.00000E+00
    0.00000E+00         0.00000E+00        -0.47621E+08
 
   -0.44932E+08         0.21872E+07         0.00000E+00
    0.21872E+07        -0.49915E+08         0.00000E+00
    0.00000E+00         0.00000E+00        -0.47621E+08
 
   -0.45038E+08         0.22656E+07         0.00000E+00
    0.22656E+07        -0.49904E+08         0.00000E+00
    0.00000E+00         0.00000E+00        -0.47621E+08
 
   -0.45143E+08         0.23437E+07         0.00000E+00
    0.23437E+07        -0.49893E+08         0.00000E+00
    0.00000E+00         0.00000E+00        -0.47621E+08
 
   -0.45248E+08         0.24215E+07         0.00000E+00
    0.24215E+07        -0.49881E+08         0.00000E+00
    0.00000E+00         0.00000E+00        -0.47621E+08
 
   -0.45351E+08         0.24991E+07         0.00000E+00
    0.24991E+07        -0.49868E+08         0.00000E+00
    0.00000E+00         0.00000E+00        -0.47621E+08
 
   -0.45454E+08         0.25764E+07         0.00000E+00
    0.25764E+07        -0.49854E+08         0.00000E+00
    0.00000E+00         0.00000E+00        -0.47621E+08
 
   -0.45556E+08         0.26535E+07         0.00000E+00
    0.26535E+07        -0.49839E+08         0.00000E+00
    0.00000E+00         0.00000E+00        -0.47621E+08
 
   -0.45658E+08         0.27306E+07         0.00000E+00
    0.27306E+07        -0.49823E+08         0.00000E+00
    0.00000E+00         0.00000E+00        -0.47621E+08
 
   -0.45758E+08         0.28075E+07         0.00000E+00
    0.28075E+07        -0.49805E+08         0.00000E+00
    0.00000E+00         0.00000E+00        -0.47621E+08
 
   -0.45859E+08         0.28844E+07         0.00000E+00
    0.28844E+07        -0.49786E+08         0.00000E+00
    0.00000E+00         0.00000E+00        -0.47621E+08
 
   -0.45959E+08         0.29612E+07         0.00000E+00
    0.29612E+07        -0.49765E+08         0.00000E+00
    0.00000E+00         0.00000E+00        -0.47621E+08
 
   -0.46058E+08         0.30380E+07         0.00000E+00
    0.30380E+07        -0.49743E+08         0.00000E+00
    0.00000E+00         0.00000E+00        -0.47621E+08
 
   -0.46158E+08         0.31148E+07         0.00000E+00
    0.31148E+07        -0.49720E+08         0.00000E+00
    0.00000E+00         0.00000E+00        -0.47621E+08
 
   -0.46257E+08         0.31916E+07         0.00000E+00
    0.31916E+07        -0.49694E+08         0.00000E+00
    0.00000E+00         0.00000E+00        -0.47621E+08
 
   -0.46356E+08         0.32683E+07         0.00000E+00
    0.32683E+07        -0.49668E+08         0.00000E+00
    0.00000E+00         0.00000E+00        -0.47621E+08
 
   -0.46455E+08         0.33451E+07         0.00000E+00
    0.33451E+07        -0.49639E+08         0.00000E+00
    0.00000E+00         0.00000E+00        -0.47621E+08
 
   -0.46555E+08         0.34219E+07         0.00000E+00
    0.34219E+07        -0.49609E+08         0.00000E+00
    0.00000E+00         0.00000E+00        -0.47621E+08
 
   -0.46654E+08         0.34987E+07         0.00000E+00
    0.34987E+07        -0.49577E+08         0.00000E+00
    0.00000E+00         0.00000E+00        -0.47621E+08
 
   -0.46754E+08         0.35755E+07         0.00000E+00
    0.35755E+07        -0.49544E+08         0.00000E+00
    0.00000E+00         0.00000E+00        -0.47621E+08
 
   -0.46854E+08         0.36523E+07         0.00000E+00
    0.36523E+07        -0.49508E+08         0.00000E+00
    0.00000E+00         0.00000E+00        -0.47621E+08
 
   -0.46954E+08         0.37291E+07         0.00000E+00
    0.37291E+07        -0.49470E+08         0.00000E+00
    0.00000E+00         0.00000E+00        -0.47621E+08
 
   -0.47055E+08         0.38058E+07         0.00000E+00
    0.38058E+07        -0.49431E+08         0.00000E+00
    0.00000E+00         0.00000E+00        -0.47621E+08
 
   -0.47157E+08         0.38824E+07         0.00000E+00
    0.38824E+07        -0.49389E+08         0.00000E+00
    0.00000E+00         0.00000E+00        -0.47621E+08
 
   -0.47259E+08         0.39590E+07         0.00000E+00
    0.39590E+07        -0.49345E+08         0.00000E+00
    0.00000E+00         0.00000E+00        -0.47621E+08
 
   -0.47361E+08         0.40355E+07         0.00000E+00
    0.40355E+07        -0.49300E+08         0.00000E+00
    0.00000E+00         0.00000E+00        -0.47621E+08
 
   -0.47464E+08         0.41118E+07         0.00000E+00
    0.41118E+07        -0.49252E+08         0.00000E+00
    0.00000E+00         0.00000E+00        -0.47621E+08
 
   -0.47568E+08         0.41880E+07         0.00000E+00
    0.41880E+07        -0.49201E+08         0.00000E+00
    0.00000E+00         0.00000E+00        -0.47621E+08
 
   -0.41465E+08         0.63475E+05         0.00000E+00
    0.63475E+05        -0.50000E+08         0.00000E+00
    0.00000E+00         0.00000E+00        -0.47211E+08
 
   -0.41627E+08         0.18014E+06         0.00000E+00
    0.18014E+06        -0.50000E+08         0.00000E+00
    0.00000E+00         0.00000E+00        -0.47211E+08
 
   -0.41786E+08         0.29339E+06         0.00000E+00
    0.29339E+06        -0.50000E+08         0.00000E+00
    0.00000E+00         0.00000E+00        -0.47211E+08
 
   -0.41942E+08         0.40344E+06         0.00000E+00
    0.40344E+06        -0.50001E+08         0.00000E+00
    0.00000E+00         0.00000E+00        -0.47211E+08
 
   -0.42096E+08         0.51054E+06         0.00000E+00
    0.51054E+06        -0.50001E+08         0.00000E+00
    0.00000E+00         0.00000E+00        -0.47211E+08
 
   -0.42246E+08         0.61488E+06         0.00000E+00
    0.61488E+06        -0.50002E+08         0.00000E+00
    0.00000E+00         0.00000E+00        -0.47211E+08
 
   -0.42394E+08         0.71668E+06         0.00000E+00
    0.71668E+06        -0.50002E+08         0.00000E+00
    0.00000E+00         0.00000E+00        -0.47211E+08
 
   -0.42539E+08         0.81615E+06         0.00000E+00
    0.81615E+06        -0.50003E+08         0.00000E+00
    0.00000E+00         0.00000E+00        -0.47211E+08
 
   -0.42682E+08         0.91348E+06         0.00000E+00
    0.91348E+06        -0.50004E+08         0.00000E+00
    0.00000E+00         0.00000E+00        -0.47211E+08
 
   -0.42821E+08         0.10088E+07         0.00000E+00
    0.10088E+07        -0.50004E+08         0.00000E+00
    0.00000E+00         0.00000E+00        -0.47211E+08
 
   -0.42958E+08         0.11024E+07         0.00000E+00
    0.11024E+07        -0.50005E+08         0.00000E+00
    0.00000E+00         0.00000E+00        -0.47211E+08
 
   -0.43092E+08         0.11944E+07         0.00000E+00
    0.11944E+07        -0.50006E+08         0.00000E+00
    0.00000E+00         0.00000E+00        -0.47211E+08
 
   -0.43224E+08         0.12849E+07         0.00000E+00
    0.12849E+07        -0.50006E+08         0.00000E+00
    0.00000E+00         0.00000E+00        -0.47211E+08
 
   -0.43353E+08         0.13742E+07         0.00000E+00
    0.13742E+07        -0.50007E+08         0.00000E+00
    0.00000E+00         0.00000E+00        -0.47211E+08
 
   -0.43480E+08         0.14623E+07         0.00000E+00
    0.14623E+07        -0.50007E+08         0.00000E+00
    0.00000E+00         0.00000E+00        -0.47211E+08
 
   -0.43605E+08         0.15494E+07         0.00000E+00
    0.15494E+07        -0.50007E+08         0.00000E+00
    0.00000E+00         0.00000E+00        -0.47211E+08
 
   -0.43727E+08         0.16356E+07         0.00000E+00
    0.16356E+07        -0.50007E+08         0.00000E+00
    0.00000E+00         0.00000E+00        -0.47211E+08
 
   -0.43847E+08         0.17210E+07         0.00000E+00
    0.17210E+07        -0.50006E+08         0.00000E+00
    0.00000E+00         0.00000E+00        -0.47211E+08
 
   -0.43965E+08         0.18059E+07         0.00000E+00
    0.18059E+07        -0.50005E+08         0.00000E+00
    0.00000E+00         0.00000E+00        -0.47211E+08
 
   -0.44081E+08         0.18901E+07         0.00000E+00
    0.18901E+07        -0.50003E+08         0.00000E+00
    0.00000E+00         0.00000E+00        -0.47211E+08
 
   -0.44195E+08         0.19740E+07         0.00000E+00
    0.19740E+07        -0.50001E+08         0.00000E+00
    0.00000E+00         0.00000E+00        -0.47211E+08
 
   -0.44307E+08         0.20575E+07         0.00000E+00
    0.20575E+07        -0.49998E+08         0.00000E+00
    0.00000E+00         0.00000E+00        -0.47211E+08
 
   -0.44418E+08         0.21408E+07         0.00000E+00
    0.21408E+07        -0.49994E+08         0.00000E+00
    0.00000E+00         0.00000E+00        -0.47211E+08
 
   -0.44527E+08         0.22239E+07         0.00000E+00
    0.22239E+07        -0.49990E+08         0.00000E+00
    0.00000E+00         0.00000E+00        -0.47211E+08
 
   -0.44635E+08         0.23069E+07         0.00000E+00
    0.23069E+07        -0.49984E+08         0.00000E+00
    0.00000E+00         0.00000E+00        -0.47211E+08
 
   -0.44741E+08         0.23899E+07         0.00000E+00
    0.23899E+07        -0.49978E+08         0.00000E+00
    0.00000E+00         0.00000E+00        -0.47211E+08
 
   -0.44846E+08         0.24729E+07         0.00000E+00
    0.24729E+07        -0.49971E+08         0.00000E+00
    0.00000E+00         0.00000E+00        -0.47211E+08
 
   -0.44950E+08         0.25560E+07         0.00000E+00
    0.25560E+07        -0.49962E+08         0.00000E+00
    0.00000E+00         0.00000E+00        -0.47211E+08
 
   -0.45053E+08         0.26392E+07         0.00000E+00
    0.26392E+07        -0.49952E+08         0.00000E+00
    0.00000E+00         0.00000E+00        -0.47211E+08
 
   -0.45155E+08         0.27226E+07         0.00000E+00
    0.27226E+07        -0.49941E+08         0.00000E+00
    0.00000E+00         0.00000E+00        -0.47211E+08
 
   -0.45256E+08         0.28062E+07         0.00000E+00
    0.28062E+07        -0.49929E+08         0.00000E+00
    0.00000E+00         0.00000E+00        -0.47211E+08
 
   -0.45356E+08         0.28900E+07         0.00000E+00
    0.28900E+07        -0.49915E+08         0.00000E+00
    0.00000E+00         0.00000E+00        -0.47211E+08
 
   -0.45456E+08         0.29741E+07         0.00000E+00
    0.29741E+07        -0.49900E+08         0.00000E+00
    0.00000E+00         0.00000E+00        -0.47211E+08
 
   -0.45555E+08         0.30585E+07         0.00000E+00
    0.30585E+07        -0.49884E+08         0.00000E+00
    0.00000E+00         0.00000E+00        -0.47211E+08
 
   -0.45654E+08         0.31431E+07         0.00000E+00
    0.31431E+07        -0.49865E+08         0.00000E+00
    0.00000E+00         0.00000E+00        -0.47211E+08
 
   -0.45753E+08         0.32281E+07         0.00000E+00
    0.32281E+07        -0.49845E+08         0.00000E+00
    0.00000E+00         0.00000E+00        -0.47211E+08
 
   -0.45851E+08         0.33133E+07         0.00000E+00
    0.33133E+07        -0.49824E+08         0.00000E+00
    0.00000E+00         0.00000E+00        -0.47211E+08
 
   -0.45950E+08         0.33989E+07         0.00000E+00
    0.33989E+07        -0.49800E+08         0.00000E+00
    0.00000E+00         0.00000E+00        -0.47211E+08
 
   -0.46048E+08         0.34848E+07         0.00000E+00
    0.34848E+07        -0.49774E+08         0.00000E+00
    0.00000E+00         0.00000E+00        -0.47211E+08
 
   -0.46147E+08         0.35709E+07         0.00000E+00
    0.35709E+07        -0.49747E+08         0.00000E+00
    0.00000E+00         0.00000E+00        -0.47211E+08
 
   -0.46246E+08         0.36574E+07         0.00000E+00
    0.36574E+07        -0.49718E+08         0.00000E+00
    0.00000E+00         0.00000E+00        -0.47211E+08
 
   -0.46345E+08         0.37441E+07         0.00000E+00
    0.37441E+07        -0.49686E+08         0.00000E+00
    0.00000E+00         0.00000E+00        -0.47211E+08
 
   -0.46444E+08         0.38311E+07         0.00000E+00
    0.38311E+07        -0.49652E+08         0.00000E+00
    0.00000E+00         0.00000E+00        -0.47211E+08
 
   -0.46544E+08         0.39183E+07         0.00000E+00
    0.39183E+07        -0.49616E+08         0.00000E+00
    0.00000E+00         0.00000E+00        -0.47211E+08
 
   -0.46645E+08         0.40057E+07         0.00000E+00
    0.40057E+07        -0.49578E+08         0.00000E+00
    0.00000E+00         0.00000E+00        -0.47211E+08
 
   -0.46746E+08         0.40933E+07         0.00000E+00
    0.40933E+07        -0.49538E+08         0.00000E+00
    0.00000E+00         0.00000E+00        -0.47211E+08
 
   -0.46848E+08         0.41810E+07         0.00000E+00
    0.41810E+07        -0.49495E+08         0.00000E+00
    0.00000E+00         0.00000E+00        -0.47211E+08
 
   -0.46951E+08         0.42689E+07         0.00000E+00
    0.42689E+07        -0.49450E+08         0.00000E+00
    0.00000E+00         0.00000E+00        -0.47211E+08
 
   -0.47054E+08         0.43568E+07         0.00000E+00
    0.43568E+07        -0.49402E+08         0.00000E+00
    0.00000E+00         0.00000E+00        -0.47211E+08
 
   -0.47158E+08         0.44448E+07         0.00000E+00
    0.44448E+07        -0.49352E+08         0.00000E+00
    0.00000E+00         0.00000E+00        -0.47211E+08
 
   -0.40876E+08         0.62768E+05         0.00000E+00
    0.62768E+05        -0.50000E+08         0.00000E+00
    0.00000E+00         0.00000E+00        -0.46737E+08
 
   -0.41055E+08         0.17777E+06         0.00000E+00
    0.17777E+06        -0.50001E+08         0.00000E+00
    0.00000E+00         0.00000E+00        -0.46737E+08
 
   -0.41231E+08         0.28934E+06         0.00000E+00
    0.28934E+06        -0.50002E+08         0.00000E+00
    0.00000E+00         0.00000E+00        -0.46737E+08
 
   -0.41402E+08         0.39773E+06         0.00000E+00
    0.39773E+06        -0.50004E+08         0.00000E+00
    0.00000E+00         0.00000E+00        -0.46737E+08
 
   -0.41570E+08         0.50322E+06         0.00000E+00
    0.50322E+06        -0.50006E+08         0.00000E+00
    0.00000E+00         0.00000E+00        -0.46737E+08
 
   -0.41734E+08         0.60605E+06         0.00000E+00
    0.60605E+06        -0.50009E+08         0.00000E+00
    0.00000E+00         0.00000E+00        -0.46737E+08
 
   -0.41893E+08         0.70649E+06         0.00000E+00
    0.70649E+06        -0.50012E+08         0.00000E+00
    0.00000E+00         0.00000E+00        -0.46737E+08
 
   -0.42049E+08         0.80476E+06         0.00000E+00
    0.80476E+06        -0.50016E+08         0.00000E+00
    0.00000E+00         0.00000E+00        -0.46737E+08
 
   -0.42201E+08         0.90108E+06         0.00000E+00
    0.90108E+06        -0.50020E+08         0.00000E+00
    0.00000E+00         0.00000E+00        -0.46737E+08
 
   -0.42350E+08         0.99567E+06         0.00000E+00
    0.99567E+06        -0.50024E+08         0.00000E+00
    0.00000E+00         0.00000E+00        -0.46737E+08
 
   -0.42494E+08         0.10887E+07         0.00000E+00
    0.10887E+07        -0.50029E+08         0.00000E+00
    0.00000E+00         0.00000E+00        -0.46737E+08
 
   -0.42636E+08         0.11805E+07         0.00000E+00
    0.11805E+07        -0.50034E+08         0.00000E+00
    0.00000E+00         0.00000E+00        -0.46737E+08
 
   -0.42773E+08         0.12711E+07         0.00000E+00
    0.12711E+07        -0.50039E+08         0.00000E+00
    0.00000E+00         0.00000E+00        -0.46737E+08
 
   -0.42908E+08         0.13607E+07         0.00000E+00
    0.13607E+07        -0.50044E+08         0.00000E+00
    0.00000E+00         0.00000E+00        -0.46737E+08
 
   -0.43039E+08         0.14495E+07         0.00000E+00
    0.14495E+07        -0.50050E+08         0.00000E+00
    0.00000E+00         0.00000E+00        -0.46737E+08
 
   -0.43168E+08         0.15377E+07         0.00000E+00
    0.15377E+07        -0.50055E+08         0.00000E+00
    0.00000E+00         0.00000E+00        -0.46737E+08
 
   -0.43293E+08         0.16253E+07         0.00000E+00
    0.16253E+07        -0.50060E+08         0.00000E+00
    0.00000E+00         0.00000E+00        -0.46737E+08
 
   -0.43416E+08         0.17126E+07         0.00000E+00
    0.17126E+07        -0.50064E+08         0.00000E+00
    0.00000E+00         0.00000E+00        -0.46737E+08
 
   -0.43536E+08         0.17996E+07         0.00000E+00
    0.17996E+07        -0.50069E+08         0.00000E+00
    0.00000E+00         0.00000E+00        -0.46737E+08
 
   -0.43653E+08         0.18865E+07         0.00000E+00
    0.18865E+07        -0.50072E+08         0.00000E+00
    0.00000E+00         0.00000E+00        -0.46737E+08
 
   -0.43768E+08         0.19734E+07         0.00000E+00
    0.19734E+07        -0.50076E+08         0.00000E+00
    0.00000E+00         0.00000E+00        -0.46737E+08
 
   -0.43881E+08         0.20603E+07         0.00000E+00
    0.20603E+07        -0.50078E+08         0.00000E+00
    0.00000E+00         0.00000E+00        -0.46737E+08
 
   -0.43992E+08         0.21474E+07         0.00000E+00
    0.21474E+07        -0.50080E+08         0.00000E+00
    0.00000E+00         0.00000E+00        -0.46737E+08
 
   -0.44100E+08         0.22348E+07         0.00000E+00
    0.22348E+07        -0.50082E+08         0.00000E+00
    0.00000E+00         0.00000E+00        -0.46737E+08
 
   -0.44207E+08         0.23225E+07         0.00000E+00
    0.23225E+07        -0.50082E+08         0.00000E+00
    0.00000E+00         0.00000E+00        -0.46737E+08
 
   -0.44312E+08         0.24105E+07         0.00000E+00
    0.24105E+07        -0.50081E+08         0.00000E+00
    0.00000E+00         0.00000E+00        -0.46737E+08
 
   -0.44416E+08         0.24990E+07         0.00000E+00
    0.24990E+07        -0.50079E+08         0.00000E+00
    0.00000E+00         0.00000E+00        -0.46737E+08
 
   -0.44518E+08         0.25881E+07         0.00000E+00
    0.25881E+07        -0.50076E+08         0.00000E+00
    0.00000E+00         0.00000E+00        -0.46737E+08
 
   -0.44620E+08         0.26776E+07         0.00000E+00
    0.26776E+07        -0.50072E+08         0.00000E+00
    0.00000E+00         0.00000E+00        -0.46737E+08
 
   -0.44720E+08         0.27678E+07         0.00000E+00
    0.27678E+07        -0.50067E+08         0.00000E+00
    0.00000E+00         0.00000E+00        -0.46737E+08
 
   -0.44819E+08         0.28585E+07         0.00000E+00
    0.28585E+07        -0.50060E+08         0.00000E+00
    0.00000E+00         0.00000E+00        -0.46737E+08
 
   -0.44917E+08         0.29499E+07         0.00000E+00
    0.29499E+07        -0.50051E+08         0.00000E+00
    0.00000E+00         0.00000E+00        -0.46737E+08
 
   -0.45014E+08         0.30420E+07         0.00000E+00
    0.30420E+07        -0.50041E+08         0.00000E+00
    0.00000E+00         0.00000E+00        -0.46737E+08
 
   -0.45111E+08         0.31347E+07         0.00000E+00
    0.31347E+07        -0.50029E+08         0.00000E+00
    0.00000E+00         0.00000E+00        -0.46737E+08
 
   -0.45208E+08         0.32281E+07         0.00000E+00
    0.32281E+07        -0.50015E+08         0.00000E+00
    0.00000E+00         0.00000E+00        -0.46737E+08
 
   -0.45304E+08         0.33221E+07         0.00000E+00
    0.33221E+07        -0.49999E+08         0.00000E+00
    0.00000E+00         0.00000E+00        -0.46737E+08
 
   -0.45400E+08         0.34169E+07         0.00000E+00
    0.34169E+07        -0.49982E+08         0.00000E+00
    0.00000E+00         0.00000E+00        -0.46737E+08
 
   -0.45496E+08         0.35123E+07         0.00000E+00
    0.35123E+07        -0.49962E+08         0.00000E+00
    0.00000E+00         0.00000E+00        -0.46737E+08
 
   -0.45592E+08         0.36084E+07         0.00000E+00
    0.36084E+07        -0.49940E+08         0.00000E+00
    0.00000E+00         0.00000E+00        -0.46737E+08
 
   -0.45689E+08         0.37051E+07         0.00000E+00
    0.37051E+07        -0.49916E+08         0.00000E+00
    0.00000E+00         0.00000E+00        -0.46737E+08
 
   -0.45785E+08         0.38024E+07         0.00000E+00
    0.38024E+07        -0.49890E+08         0.00000E+00
    0.00000E+00         0.00000E+00        -0.46737E+08
 
   -0.45882E+08         0.39003E+07         0.00000E+00
    0.39003E+07        -0.49862E+08         0.00000E+00
    0.00000E+00         0.00000E+00        -0.46737E+08
 
   -0.45980E+08         0.39988E+07         0.00000E+00
    0.39988E+07        -0.49831E+08         0.00000E+00
    0.00000E+00         0.00000E+00        -0.46737E+08
 
   -0.46078E+08         0.40978E+07         0.00000E+00
    0.40978E+07        -0.49797E+08         0.00000E+00
    0.00000E+00         0.00000E+00        -0.46737E+08
 
   -0.46177E+08         0.41974E+07         0.00000E+00
    0.41974E+07        -0.49761E+08         0.00000E+00
    0.00000E+00         0.00000E+00        -0.46737E+08
 
   -0.46277E+08         0.42973E+07         0.00000E+00
    0.42973E+07        -0.49723E+08         0.00000E+00
    0.00000E+00         0.00000E+00        -0.46737E+08
 
   -0.46377E+08         0.43977E+07         0.00000E+00
    0.43977E+07        -0.49681E+08         0.00000E+00
    0.00000E+00         0.00000E+00        -0.46737E+08
 
   -0.46479E+08         0.44985E+07         0.00000E+00
    0.44985E+07        -0.49637E+08         0.00000E+00
    0.00000E+00         0.00000E+00        -0.46737E+08
 
   -0.46581E+08         0.45996E+07         0.00000E+00
    0.45996E+07        -0.49591E+08         0.00000E+00
    0.00000E+00         0.00000E+00        -0.46737E+08
 
   -0.46685E+08         0.47009E+07         0.00000E+00
    0.47009E+07        -0.49541E+08         0.00000E+00
    0.00000E+00         0.00000E+00        -0.46737E+08
 
   -0.40301E+08         0.60544E+05         0.00000E+00
    0.60544E+05        -0.50000E+08         0.00000E+00
    0.00000E+00         0.00000E+00        -0.46191E+08
 
   -0.40498E+08         0.17119E+06         0.00000E+00
    0.17119E+06        -0.50002E+08         0.00000E+00
    0.00000E+00         0.00000E+00        -0.46191E+08
 
   -0.40690E+08         0.27848E+06         0.00000E+00
    0.27848E+06        -0.50004E+08         0.00000E+00
    0.00000E+00         0.00000E+00        -0.46191E+08
 
   -0.40877E+08         0.38275E+06         0.00000E+00
    0.38275E+06        -0.50008E+08         0.00000E+00
    0.00000E+00         0.00000E+00        -0.46191E+08
 
   -0.41058E+08         0.48431E+06         0.00000E+00
    0.48431E+06        -0.50012E+08         0.00000E+00
    0.00000E+00         0.00000E+00        -0.46191E+08
 
   -0.41233E+08         0.58345E+06         0.00000E+00
    0.58345E+06        -0.50018E+08         0.00000E+00
    0.00000E+00         0.00000E+00        -0.46191E+08
 
   -0.41404E+08         0.68046E+06         0.00000E+00
    0.68046E+06        -0.50024E+08         0.00000E+00
    0.00000E+00         0.00000E+00        -0.46191E+08
 
   -0.41569E+08         0.77560E+06         0.00000E+00
    0.77560E+06        -0.50032E+08         0.00000E+00
    0.00000E+00         0.00000E+00        -0.46191E+08
 
   -0.41729E+08         0.86913E+06         0.00000E+00
    0.86913E+06        -0.50040E+08         0.00000E+00
    0.00000E+00         0.00000E+00        -0.46191E+08
 
   -0.41885E+08         0.96129E+06         0.00000E+00
    0.96129E+06        -0.50049E+08         0.00000E+00
    0.00000E+00         0.00000E+00        -0.46191E+08
 
   -0.42036E+08         0.10523E+07         0.00000E+00
    0.10523E+07        -0.50058E+08         0.00000E+00
    0.00000E+00         0.00000E+00        -0.46191E+08
 
   -0.42183E+08         0.11424E+07         0.00000E+00
    0.11424E+07        -0.50068E+08         0.00000E+00
    0.00000E+00         0.00000E+00        -0.46191E+08
 
   -0.42325E+08         0.12318E+07         0.00000E+00
    0.12318E+07        -0.50079E+08         0.00000E+00
    0.00000E+00         0.00000E+00        -0.46191E+08
 
   -0.42463E+08         0.13207E+07         0.00000E+00
    0.13207E+07        -0.50090E+08         0.00000E+00
    0.00000E+00         0.00000E+00        -0.46191E+08
 
   -0.42596E+08         0.14092E+07         0.00000E+00
    0.14092E+07        -0.50101E+08         0.00000E+00
    0.00000E+00         0.00000E+00        -0.46191E+08
 
   -0.42726E+08         0.14976E+07         0.00000E+00
    0.14976E+07        -0.50112E+08         0.00000E+00
    0.00000E+00         0.00000E+00        -0.46191E+08
 
   -0.42853E+08         0.15859E+07         0.00000E+00
    0.15859E+07        -0.50123E+08         0.00000E+00
    0.00000E+00         0.00000E+00        -0.46191E+08
 
   -0.42976E+08         0.16744E+07         0.00000E+00
    0.16744E+07        -0.50134E+08         0.00000E+00
    0.00000E+00         0.00000E+00        -0.46191E+08
 
   -0.43095E+08         0.17631E+07         0.00000E+00
    0.17631E+07        -0.50145E+08         0.00000E+00
    0.00000E+00         0.00000E+00        -0.46191E+08
 
   -0.43212E+08         0.18522E+07         0.00000E+00
    0.18522E+07        -0.50156E+08         0.00000E+00
    0.00000E+00         0.00000E+00        -0.46191E+08
 
   -0.43326E+08         0.19418E+07         0.00000E+00
    0.19418E+07        -0.50166E+08         0.00000E+00
    0.00000E+00         0.00000E+00        -0.46191E+08
 
   -0.43437E+08         0.20320E+07         0.00000E+00
    0.20320E+07        -0.50175E+08         0.00000E+00
    0.00000E+00         0.00000E+00        -0.46191E+08
 
   -0.43545E+08         0.21228E+07         0.00000E+00
    0.21228E+07        -0.50184E+08         0.00000E+00
    0.00000E+00         0.00000E+00        -0.46191E+08
 
   -0.43651E+08         0.22145E+07         0.00000E+00
    0.22145E+07        -0.50192E+08         0.00000E+00
    0.00000E+00         0.00000E+00        -0.46191E+08
 
   -0.43755E+08         0.23070E+07         0.00000E+00
    0.23070E+07        -0.50199E+08         0.00000E+00
    0.00000E+00         0.00000E+00        -0.46191E+08
 
   -0.43857E+08         0.24004E+07         0.00000E+00
    0.24004E+07        -0.50205E+08         0.00000E+00
    0.00000E+00         0.00000E+00        -0.46191E+08
 
   -0.43957E+08         0.24948E+07         0.00000E+00
    0.24948E+07        -0.50210E+08         0.00000E+00
    0.00000E+00         0.00000E+00        -0.46191E+08
 
   -0.44055E+08         0.25901E+07         0.00000E+00
    0.25901E+07        -0.50213E+08         0.00000E+00
    0.00000E+00         0.00000E+00        -0.46191E+08
 
   -0.44152E+08         0.26866E+07         0.00000E+00
    0.26866E+07        -0.50215E+08         0.00000E+00
    0.00000E+00         0.00000E+00        -0.46191E+08
 
   -0.44248E+08         0.27841E+07         0.00000E+00
    0.27841E+07        -0.50216E+08         0.00000E+00
    0.00000E+00         0.00000E+00        -0.46191E+08
 
   -0.44343E+08         0.28827E+07         0.00000E+00
    0.28827E+07        -0.50215E+08         0.00000E+00
    0.00000E+00         0.00000E+00        -0.46191E+08
 
   -0.44437E+08         0.29824E+07         0.00000E+00
    0.29824E+07        -0.50213E+08         0.00000E+00
    0.00000E+00         0.00000E+00        -0.46191E+08
 
   -0.44530E+08         0.30832E+07         0.00000E+00
    0.30832E+07        -0.50208E+08         0.00000E+00
    0.00000E+00         0.00000E+00        -0.46191E+08
 
   -0.44622E+08         0.31852E+07         0.00000E+00
    0.31852E+07        -0.50202E+08         0.00000E+00
    0.00000E+00         0.00000E+00        -0.46191E+08
 
   -0.44714E+08         0.32884E+07         0.00000E+00
    0.32884E+07        -0.50194E+08         0.00000E+00
    0.00000E+00         0.00000E+00        -0.46191E+08
 
   -0.44806E+08         0.33926E+07         0.00000E+00
    0.33926E+07        -0.50184E+08         0.00000E+00
    0.00000E+00         0.00000E+00        -0.46191E+08
 
   -0.44898E+08         0.34979E+07         0.00000E+00
    0.34979E+07        -0.50171E+08         0.00000E+00
    0.00000E+00         0.00000E+00        -0.46191E+08
 
   -0.44990E+08         0.36044E+07         0.00000E+00
    0.36044E+07        -0.50156E+08         0.00000E+00
    0.00000E+00         0.00000E+00        -0.46191E+08
 
   -0.45082E+08         0.37119E+07         0.00000E+00
    0.37119E+07        -0.50139E+08         0.00000E+00
    0.00000E+00         0.00000E+00        -0.46191E+08
 
   -0.45174E+08         0.38204E+07         0.00000E+00
    0.38204E+07        -0.50119E+08         0.00000E+00
    0.00000E+00         0.00000E+00        -0.46191E+08
 
   -0.45266E+08         0.39300E+07         0.00000E+00
    0.39300E+07        -0.50097E+08         0.00000E+00
    0.00000E+00         0.00000E+00        -0.46191E+08
 
   -0.45360E+08         0.40405E+07         0.00000E+00
    0.40405E+07        -0.50072E+08         0.00000E+00
    0.00000E+00         0.00000E+00        -0.46191E+08
 
   -0.45454E+08         0.41519E+07         0.00000E+00
    0.41519E+07        -0.50045E+08         0.00000E+00
    0.00000E+00         0.00000E+00        -0.46191E+08
 
   -0.45548E+08         0.42642E+07         0.00000E+00
    0.42642E+07        -0.50014E+08         0.00000E+00
    0.00000E+00         0.00000E+00        -0.46191E+08
 
   -0.45644E+08         0.43774E+07         0.00000E+00
    0.43774E+07        -0.49981E+08         0.00000E+00
    0.00000E+00         0.00000E+00        -0.46191E+08
 
   -0.45741E+08         0.44913E+07         0.00000E+00
    0.44913E+07        -0.49945E+08         0.00000E+00
    0.00000E+00         0.00000E+00        -0.46191E+08
 
   -0.45838E+08         0.46059E+07         0.00000E+00
    0.46059E+07        -0.49906E+08         0.00000E+00
    0.00000E+00         0.00000E+00        -0.46191E+08
 
   -0.45938E+08         0.47212E+07         0.00000E+00
    0.47212E+07        -0.49864E+08         0.00000E+00
    0.00000E+00         0.00000E+00        -0.46191E+08
 
   -0.46038E+08         0.48371E+07         0.00000E+00
    0.48371E+07        -0.49819E+08         0.00000E+00
    0.00000E+00         0.00000E+00        -0.46191E+08
 
   -0.46140E+08         0.49536E+07         0.00000E+00
    0.49536E+07        -0.49770E+08         0.00000E+00
    0.00000E+00         0.00000E+00        -0.46191E+08
 
   -0.39756E+08         0.56456E+05         0.00000E+00
    0.56456E+05        -0.50001E+08         0.00000E+00
    0.00000E+00         0.00000E+00        -0.45564E+08
 
   -0.39971E+08         0.15945E+06         0.00000E+00
    0.15945E+06        -0.50003E+08         0.00000E+00
    0.00000E+00         0.00000E+00        -0.45564E+08
 
   -0.40178E+08         0.25938E+06         0.00000E+00
    0.25938E+06        -0.50006E+08         0.00000E+00
    0.00000E+00         0.00000E+00        -0.45564E+08
 
   -0.40378E+08         0.35659E+06         0.00000E+00
    0.35659E+06        -0.50012E+08         0.00000E+00
    0.00000E+00         0.00000E+00        -0.45564E+08
 
   -0.40571E+08         0.45145E+06         0.00000E+00
    0.45145E+06        -0.50019E+08         0.00000E+00
    0.00000E+00         0.00000E+00        -0.45564E+08
 
   -0.40757E+08         0.54430E+06         0.00000E+00
    0.54430E+06        -0.50028E+08         0.00000E+00
    0.00000E+00         0.00000E+00        -0.45564E+08
 
   -0.40936E+08         0.63545E+06         0.00000E+00
    0.63545E+06        -0.50039E+08         0.00000E+00
    0.00000E+00         0.00000E+00        -0.45564E+08
 
   -0.41109E+08         0.72521E+06         0.00000E+00
    0.72521E+06        -0.50050E+08         0.00000E+00
    0.00000E+00         0.00000E+00        -0.45564E+08
 
   -0.41276E+08         0.81386E+06         0.00000E+00
    0.81386E+06        -0.50064E+08         0.00000E+00
    0.00000E+00         0.00000E+00        -0.45564E+08
 
   -0.41436E+08         0.90167E+06         0.00000E+00
    0.90167E+06        -0.50078E+08         0.00000E+00
    0.00000E+00         0.00000E+00        -0.45564E+08
 
   -0.41591E+08         0.98889E+06         0.00000E+00
    0.98889E+06        -0.50093E+08         0.00000E+00
    0.00000E+00         0.00000E+00        -0.45564E+08
 
   -0.41740E+08         0.10758E+07         0.00000E+00
    0.10758E+07        -0.50109E+08         0.00000E+00
    0.00000E+00         0.00000E+00        -0.45564E+08
 
   -0.41884E+08         0.11625E+07         0.00000E+00
    0.11625E+07        -0.50126E+08         0.00000E+00
    0.00000E+00         0.00000E+00        -0.45564E+08
 
   -0.42023E+08         0.12494E+07         0.00000E+00
    0.12494E+07        -0.50143E+08         0.00000E+00
    0.00000E+00         0.00000E+00        -0.45564E+08
 
   -0.42156E+08         0.13365E+07         0.00000E+00
    0.13365E+07        -0.50161E+08         0.00000E+00
    0.00000E+00         0.00000E+00        -0.45564E+08
 
   -0.42285E+08         0.14240E+07         0.00000E+00
    0.14240E+07        -0.50180E+08         0.00000E+00
    0.00000E+00         0.00000E+00        -0.45564E+08
 
   -0.42410E+08         0.15122E+07         0.00000E+00
    0.15122E+07        -0.50198E+08         0.00000E+00
    0.00000E+00         0.00000E+00        -0.45564E+08
 
   -0.42530E+08         0.16011E+07         0.00000E+00
    0.16011E+07        -0.50216E+08         0.00000E+00
    0.00000E+00         0.00000E+00        -0.45564E+08
 
   -0.42647E+08         0.16910E+07         0.00000E+00
    0.16910E+07        -0.50235E+08         0.00000E+00
    0.00000E+00         0.00000E+00        -0.45564E+08
 
   -0.42760E+08         0.17819E+07         0.00000E+00
    0.17819E+07        -0.50253E+08         0.00000E+00
    0.00000E+00         0.00000E+00        -0.45564E+08
 
   -0.42869E+08         0.18739E+07         0.00000E+00
    0.18739E+07        -0.50271E+08         0.00000E+00
    0.00000E+00         0.00000E+00        -0.45564E+08
 
   -0.42975E+08         0.19671E+07         0.00000E+00
    0.19671E+07        -0.50288E+08         0.00000E+00
    0.00000E+00         0.00000E+00        -0.45564E+08
 
   -0.43078E+08         0.20617E+07         0.00000E+00
    0.20617E+07        -0.50305E+08         0.00000E+00
    0.00000E+00         0.00000E+00        -0.45564E+08
 
   -0.43179E+08         0.21577E+07         0.00000E+00
    0.21577E+07        -0.50321E+08         0.00000E+00
    0.00000E+00         0.00000E+00        -0.45564E+08
 
   -0.43277E+08         0.22552E+07         0.00000E+00
    0.22552E+07        -0.50335E+08         0.00000E+00
    0.00000E+00         0.00000E+00        -0.45564E+08
 
   -0.43372E+08         0.23542E+07         0.00000E+00
    0.23542E+07        -0.50349E+08         0.00000E+00
    0.00000E+00         0.00000E+00        -0.45564E+08
 
   -0.43466E+08         0.24548E+07         0.00000E+00
    0.24548E+07        -0.50362E+08         0.00000E+00
    0.00000E+00         0.00000E+00        -0.45564E+08
 
   -0.43558E+08         0.25570E+07         0.00000E+00
    0.25570E+07        -0.50373E+08         0.00000E+00
    0.00000E+00         0.00000E+00        -0.45564E+08
 
   -0.43648E+08         0.26609E+07         0.00000E+00
    0.26609E+07        -0.50383E+08         0.00000E+00
    0.00000E+00         0.00000E+00        -0.45564E+08
 
   -0.43737E+08         0.27664E+07         0.00000E+00
    0.27664E+07        -0.50391E+08         0.00000E+00
    0.00000E+00         0.00000E+00        -0.45564E+08
 
   -0.43825E+08         0.28736E+07         0.00000E+00
    0.28736E+07        -0.50397E+08         0.00000E+00
    0.00000E+00         0.00000E+00        -0.45564E+08
 
   -0.43912E+08         0.29825E+07         0.00000E+00
    0.29825E+07        -0.50402E+08         0.00000E+00
    0.00000E+00         0.00000E+00        -0.45564E+08
 
   -0.43998E+08         0.30931E+07         0.00000E+00
    0.30931E+07        -0.50404E+08         0.00000E+00
    0.00000E+00         0.00000E+00        -0.45564E+08
 
   -0.44083E+08         0.32054E+07         0.00000E+00
    0.32054E+07        -0.50405E+08         0.00000E+00
    0.00000E+00         0.00000E+00        -0.45564E+08
 
   -0.44168E+08         0.33193E+07         0.00000E+00
    0.33193E+07        -0.50403E+08         0.00000E+00
    0.00000E+00         0.00000E+00        -0.45564E+08
 
   -0.44253E+08         0.34349E+07         0.00000E+00
    0.34349E+07        -0.50399E+08         0.00000E+00
    0.00000E+00         0.00000E+00        -0.45564E+08
 
   -0.44338E+08         0.35520E+07         0.00000E+00
    0.35520E+07        -0.50392E+08         0.00000E+00
    0.00000E+00         0.00000E+00        -0.45564E+08
 
   -0.44424E+08         0.36707E+07         0.00000E+00
    0.36707E+07        -0.50383E+08         0.00000E+00
    0.00000E+00         0.00000E+00        -0.45564E+08
 
   -0.44509E+08         0.37910E+07         0.00000E+00
    0.37910E+07        -0.50371E+08         0.00000E+00
    0.00000E+00         0.00000E+00        -0.45564E+08
 
   -0.44595E+08         0.39128E+07         0.00000E+00
    0.39128E+07        -0.50357E+08         0.00000E+00
    0.00000E+00         0.00000E+00        -0.45564E+08
 
   -0.44682E+08         0.40360E+07         0.00000E+00
    0.40360E+07        -0.50339E+08         0.00000E+00
    0.00000E+00         0.00000E+00        -0.45564E+08
 
   -0.44769E+08         0.41606E+07         0.00000E+00
    0.41606E+07        -0.50319E+08         0.00000E+00
    0.00000E+00         0.00000E+00        -0.45564E+08
 
   -0.44858E+08         0.42865E+07         0.00000E+00
    0.42865E+07        -0.50296E+08         0.00000E+00
    0.00000E+00         0.00000E+00        -0.45564E+08
 
   -0.44947E+08         0.44137E+07         0.00000E+00
    0.44137E+07        -0.50270E+08         0.00000E+00
    0.00000E+00         0.00000E+00        -0.45564E+08
 
   -0.45038E+08         0.45421E+07         0.00000E+00
    0.45421E+07        -0.50240E+08         0.00000E+00
    0.00000E+00         0.00000E+00        -0.45564E+08
 
   -0.45130E+08         0.46716E+07         0.00000E+00
    0.46716E+07        -0.50207E+08         0.00000E+00
    0.00000E+00         0.00000E+00        -0.45564E+08
 
   -0.45224E+08         0.48022E+07         0.00000E+00
    0.48022E+07        -0.50171E+08         0.00000E+00
    0.00000E+00         0.00000E+00        -0.45564E+08
 
   -0.45319E+08         0.49338E+07         0.00000E+00
    0.49338E+07        -0.50132E+08         0.00000E+00
    0.00000E+00         0.00000E+00        -0.45564E+08
 
   -0.45415E+08         0.50663E+07         0.00000E+00
    0.50663E+07        -0.50089E+08         0.00000E+00
    0.00000E+00         0.00000E+00        -0.45564E+08
 
   -0.45514E+08         0.51997E+07         0.00000E+00
    0.51997E+07        -0.50042E+08         0.00000E+00
    0.00000E+00         0.00000E+00        -0.45564E+08
 
   -0.39260E+08         0.50122E+05         0.00000E+00
    0.50122E+05        -0.50001E+08         0.00000E+00
    0.00000E+00         0.00000E+00        -0.44846E+08
 
   -0.39490E+08         0.14160E+06         0.00000E+00
    0.14160E+06        -0.50004E+08         0.00000E+00
    0.00000E+00         0.00000E+00        -0.44846E+08
 
   -0.39710E+08         0.23049E+06         0.00000E+00
    0.23049E+06        -0.50009E+08         0.00000E+00
    0.00000E+00         0.00000E+00        -0.44846E+08
 
   -0.39921E+08         0.31721E+06         0.00000E+00
    0.31721E+06        -0.50017E+08         0.00000E+00
    0.00000E+00         0.00000E+00        -0.44846E+08
 
   -0.40124E+08         0.40215E+06         0.00000E+00
    0.40215E+06        -0.50028E+08         0.00000E+00
    0.00000E+00         0.00000E+00        -0.44846E+08
 
   -0.40318E+08         0.48570E+06         0.00000E+00
    0.48570E+06        -0.50041E+08         0.00000E+00
    0.00000E+00         0.00000E+00        -0.44846E+08
 
   -0.40503E+08         0.56821E+06         0.00000E+00
    0.56821E+06        -0.50056E+08         0.00000E+00
    0.00000E+00         0.00000E+00        -0.44846E+08
 
   -0.40681E+08         0.64999E+06         0.00000E+00
    0.64999E+06        -0.50072E+08         0.00000E+00
    0.00000E+00         0.00000E+00        -0.44846E+08
 
   -0.40851E+08         0.73138E+06         0.00000E+00
    0.73138E+06        -0.50091E+08         0.00000E+00
    0.00000E+00         0.00000E+00        -0.44846E+08
 
   -0.41013E+08         0.81265E+06         0.00000E+00
    0.81265E+06        -0.50111E+08         0.00000E+00
    0.00000E+00         0.00000E+00        -0.44846E+08
 
   -0.41168E+08         0.89409E+06         0.00000E+00
    0.89409E+06        -0.50133E+08         0.00000E+00
    0.00000E+00         0.00000E+00        -0.44846E+08
 
   -0.41317E+08         0.97594E+06         0.00000E+00
    0.97594E+06        -0.50156E+08         0.00000E+00
    0.00000E+00         0.00000E+00        -0.44846E+08
 
   -0.41459E+08         0.10584E+07         0.00000E+00
    0.10584E+07        -0.50180E+08         0.00000E+00
    0.00000E+00         0.00000E+00        -0.44846E+08
 
   -0.41595E+08         0.11418E+07         0.00000E+00
    0.11418E+07        -0.50205E+08         0.00000E+00
    0.00000E+00         0.00000E+00        -0.44846E+08
 
   -0.41725E+08         0.12262E+07         0.00000E+00
    0.12262E+07        -0.50231E+08         0.00000E+00
    0.00000E+00         0.00000E+00        -0.44846E+08
 
   -0.41849E+08         0.13119E+07         0.00000E+00
    0.13119E+07        -0.50257E+08         0.00000E+00
    0.00000E+00         0.00000E+00        -0.44846E+08
 
   -0.41968E+08         0.13990E+07         0.00000E+00
    0.13990E+07        -0.50284E+08         0.00000E+00
    0.00000E+00         0.00000E+00        -0.44846E+08
 
   -0.42082E+08         0.14876E+07         0.00000E+00
    0.14876E+07        -0.50311E+08         0.00000E+00
    0.00000E+00         0.00000E+00        -0.44846E+08
 
   -0.42192E+08         0.15780E+07         0.00000E+00
    0.15780E+07        -0.50338E+08         0.00000E+00
    0.00000E+00         0.00000E+00        -0.44846E+08
 
   -0.42298E+08         0.16702E+07         0.00000E+00
    0.16702E+07        -0.50365E+08         0.00000E+00
    0.00000E+00         0.00000E+00        -0.44846E+08
 
   -0.42399E+08         0.17643E+07         0.00000E+00
    0.17643E+07        -0.50392E+08         0.00000E+00
    0.00000E+00         0.00000E+00        -0.44846E+08
 
   -0.42497E+08         0.18604E+07         0.00000E+00
    0.18604E+07        -0.50418E+08         0.00000E+00
    0.00000E+00         0.00000E+00        -0.44846E+08
 
   -0.42591E+08         0.19587E+07         0.00000E+00
    0.19587E+07        -0.50443E+08         0.00000E+00
    0.00000E+00         0.00000E+00        -0.44846E+08
 
   -0.42683E+08         0.20591E+07         0.00000E+00
    0.20591E+07        -0.50468E+08         0.00000E+00
    0.00000E+00         0.00000E+00        -0.44846E+08
 
   -0.42771E+08         0.21618E+07         0.00000E+00
    0.21618E+07        -0.50492E+08         0.00000E+00
    0.00000E+00         0.00000E+00        -0.44846E+08
 
   -0.42857E+08         0.22667E+07         0.00000E+00
    0.22667E+07        -0.50514E+08         0.00000E+00
    0.00000E+00         0.00000E+00        -0.44846E+08
 
   -0.42941E+08         0.23739E+07         0.00000E+00
    0.23739E+07        -0.50536E+08         0.00000E+00
    0.00000E+00         0.00000E+00        -0.44846E+08
 
   -0.43023E+08         0.24835E+07         0.00000E+00
    0.24835E+07        -0.50555E+08         0.00000E+00
    0.00000E+00         0.00000E+00        -0.44846E+08
 
   -0.43104E+08         0.25955E+07         0.00000E+00
    0.25955E+07        -0.50574E+08         0.00000E+00
    0.00000E+00         0.00000E+00        -0.44846E+08
 
   -0.43182E+08         0.27098E+07         0.00000E+00
    0.27098E+07        -0.50590E+08         0.00000E+00
    0.00000E+00         0.00000E+00        -0.44846E+08
 
   -0.43260E+08         0.28264E+07         0.00000E+00
    0.28264E+07        -0.50605E+08         0.00000E+00
    0.00000E+00         0.00000E+00        -0.44846E+08
 
   -0.43337E+08         0.29454E+07         0.00000E+00
    0.29454E+07        -0.50617E+08         0.00000E+00
    0.00000E+00         0.00000E+00        -0.44846E+08
 
   -0.43413E+08         0.30667E+07         0.00000E+00
    0.30667E+07        -0.50628E+08         0.00000E+00
    0.00000E+00         0.00000E+00        -0.44846E+08
 
   -0.43489E+08         0.31903E+07         0.00000E+00
    0.31903E+07        -0.50636E+08         0.00000E+00
    0.00000E+00         0.00000E+00        -0.44846E+08
 
   -0.43564E+08         0.33162E+07         0.00000E+00
    0.33162E+07        -0.50641E+08         0.00000E+00
    0.00000E+00         0.00000E+00        -0.44846E+08
 
   -0.43640E+08         0.34443E+07         0.00000E+00
    0.34443E+07        -0.50644E+08         0.00000E+00
    0.00000E+00         0.00000E+00        -0.44846E+08
 
   -0.43715E+08         0.35745E+07         0.00000E+00
    0.35745E+07        -0.50645E+08         0.00000E+00
    0.00000E+00         0.00000E+00        -0.44846E+08
 
   -0.43792E+08         0.37069E+07         0.00000E+00
    0.37069E+07        -0.50642E+08         0.00000E+00
    0.00000E+00         0.00000E+00        -0.44846E+08
 
   -0.43868E+08         0.38414E+07         0.00000E+00
    0.38414E+07        -0.50637E+08         0.00000E+00
    0.00000E+00         0.00000E+00        -0.44846E+08
 
   -0.43946E+08         0.39778E+07         0.00000E+00
    0.39778E+07        -0.50628E+08         0.00000E+00
    0.00000E+00         0.00000E+00        -0.44846E+08
 
   -0.44024E+08         0.41162E+07         0.00000E+00
    0.41162E+07        -0.50617E+08         0.00000E+00
    0.00000E+00         0.00000E+00        -0.44846E+08
 
   -0.44104E+08         0.42564E+07         0.00000E+00
    0.42564E+07        -0.50602E+08         0.00000E+00
    0.00000E+00         0.00000E+00        -0.44846E+08
 
   -0.44184E+08         0.43984E+07         0.00000E+00
    0.43984E+07        -0.50584E+08         0.00000E+00
    0.00000E+00         0.00000E+00        -0.44846E+08
 
   -0.44267E+08         0.45422E+07         0.00000E+00
    0.45422E+07        -0.50562E+08         0.00000E+00
    0.00000E+00         0.00000E+00        -0.44846E+08
 
   -0.44350E+08         0.46875E+07         0.00000E+00
    0.46875E+07        -0.50537E+08         0.00000E+00
    0.00000E+00         0.00000E+00        -0.44846E+08
 
   -0.44436E+08         0.48345E+07         0.00000E+00
    0.48345E+07        -0.50508E+08         0.00000E+00
    0.00000E+00         0.00000E+00        -0.44846E+08
 
   -0.44523E+08         0.49828E+07         0.00000E+00
    0.49828E+07        -0.50476E+08         0.00000E+00
    0.00000E+00         0.00000E+00        -0.44846E+08
 
   -0.44613E+08         0.51326E+07         0.00000E+00
    0.51326E+07        -0.50440E+08         0.00000E+00
    0.00000E+00         0.00000E+00        -0.44846E+08
 
   -0.44704E+08         0.52836E+07         0.00000E+00
    0.52836E+07        -0.50400E+08         0.00000E+00
    0.00000E+00         0.00000E+00        -0.44846E+08
 
   -0.44798E+08         0.54358E+07         0.00000E+00
    0.54358E+07        -0.50356E+08         0.00000E+00
    0.00000E+00         0.00000E+00        -0.44846E+08
 
   -0.38834E+08         0.41145E+05         0.00000E+00
    0.41145E+05        -0.50001E+08         0.00000E+00
    0.00000E+00         0.00000E+00        -0.44027E+08
 
   -0.39076E+08         0.11661E+06         0.00000E+00
    0.11661E+06        -0.50005E+08         0.00000E+00
    0.00000E+00         0.00000E+00        -0.44027E+08
 
   -0.39306E+08         0.19026E+06         0.00000E+00
    0.19026E+06        -0.50013E+08         0.00000E+00
    0.00000E+00         0.00000E+00        -0.44027E+08
 
   -0.39526E+08         0.26256E+06         0.00000E+00
    0.26256E+06        -0.50024E+08         0.00000E+00
    0.00000E+00         0.00000E+00        -0.44027E+08
 
   -0.39734E+08         0.33393E+06         0.00000E+00
    0.33393E+06        -0.50038E+08         0.00000E+00
    0.00000E+00         0.00000E+00        -0.44027E+08
 
   -0.39932E+08         0.40479E+06         0.00000E+00
    0.40479E+06        -0.50055E+08         0.00000E+00
    0.00000E+00         0.00000E+00        -0.44027E+08
 
   -0.40119E+08         0.47551E+06         0.00000E+00
    0.47551E+06        -0.50075E+08         0.00000E+00
    0.00000E+00         0.00000E+00        -0.44027E+08
 
   -0.40297E+08         0.54645E+06         0.00000E+00
    0.54645E+06        -0.50097E+08         0.00000E+00
    0.00000E+00         0.00000E+00        -0.44027E+08
 
   -0.40466E+08         0.61793E+06         0.00000E+00
    0.61793E+06        -0.50122E+08         0.00000E+00
    0.00000E+00         0.00000E+00        -0.44027E+08
 
   -0.40626E+08         0.69026E+06         0.00000E+00
    0.69026E+06        -0.50149E+08         0.00000E+00
    0.00000E+00         0.00000E+00        -0.44027E+08
 
   -0.40778E+08         0.76372E+06         0.00000E+00
    0.76372E+06        -0.50178E+08         0.00000E+00
    0.00000E+00         0.00000E+00        -0.44027E+08
 
   -0.40921E+08         0.83857E+06         0.00000E+00
    0.83857E+06        -0.50209E+08         0.00000E+00
    0.00000E+00         0.00000E+00        -0.44027E+08
 
   -0.41057E+08         0.91505E+06         0.00000E+00
    0.91505E+06        -0.50241E+08         0.00000E+00
    0.00000E+00         0.00000E+00        -0.44027E+08
 
   -0.41186E+08         0.99338E+06         0.00000E+00
    0.99338E+06        -0.50275E+08         0.00000E+00
    0.00000E+00         0.00000E+00        -0.44027E+08
 
   -0.41307E+08         0.10738E+07         0.00000E+00
    0.10738E+07        -0.50309E+08         0.00000E+00
    0.00000E+00         0.00000E+00        -0.44027E+08
 
   -0.41423E+08         0.11564E+07         0.00000E+00
    0.11564E+07        -0.50344E+08         0.00000E+00
    0.00000E+00         0.00000E+00        -0.44027E+08
 
   -0.41532E+08         0.12414E+07         0.00000E+00
    0.12414E+07        -0.50380E+08         0.00000E+00
    0.00000E+00         0.00000E+00        -0.44027E+08
 
   -0.41636E+08         0.13289E+07         0.00000E+00
    0.13289E+07        -0.50417E+08         0.00000E+00
    0.00000E+00         0.00000E+00        -0.44027E+08
 
   -0.41735E+08         0.14191E+07         0.00000E+00
    0.14191E+07        -0.50454E+08         0.00000E+00
    0.00000E+00         0.00000E+00        -0.44027E+08
 
   -0.41828E+08         0.15121E+07         0.00000E+00
    0.15121E+07        -0.50490E+08         0.00000E+00
    0.00000E+00         0.00000E+00        -0.44027E+08
 
   -0.41918E+08         0.16080E+07         0.00000E+00
    0.16080E+07        -0.50527E+08         0.00000E+00
    0.00000E+00         0.00000E+00        -0.44027E+08
 
   -0.42003E+08         0.17068E+07         0.00000E+00
    0.17068E+07        -0.50562E+08         0.00000E+00
    0.00000E+00         0.00000E+00        -0.44027E+08
 
   -0.42084E+08         0.18086E+07         0.00000E+00
    0.18086E+07        -0.50598E+08         0.00000E+00
    0.00000E+00         0.00000E+00        -0.44027E+08
 
   -0.42162E+08         0.19136E+07         0.00000E+00
    0.19136E+07        -0.50632E+08         0.00000E+00
    0.00000E+00         0.00000E+00        -0.44027E+08
 
   -0.42238E+08         0.20216E+07         0.00000E+00
    0.20216E+07        -0.50666E+08         0.00000E+00
    0.00000E+00         0.00000E+00        -0.44027E+08
 
   -0.42310E+08         0.21328E+07         0.00000E+00
    0.21328E+07        -0.50698E+08         0.00000E+00
    0.00000E+00         0.00000E+00        -0.44027E+08
 
   -0.42380E+08         0.22471E+07         0.00000E+00
    0.22471E+07        -0.50729E+08         0.00000E+00
    0.00000E+00         0.00000E+00        -0.44027E+08
 
   -0.42449E+08         0.23647E+07         0.00000E+00
    0.23647E+07        -0.50759E+08         0.00000E+00
    0.00000E+00         0.00000E+00        -0.44027E+08
 
   -0.42515E+08         0.24854E+07         0.00000E+00
    0.24854E+07        -0.50787E+08         0.00000E+00
    0.00000E+00         0.00000E+00        -0.44027E+08
 
   -0.42580E+08         0.26092E+07         0.00000E+00
    0.26092E+07        -0.50812E+08         0.00000E+00
    0.00000E+00         0.00000E+00        -0.44027E+08
 
   -0.42644E+08         0.27362E+07         0.00000E+00
    0.27362E+07        -0.50836E+08         0.00000E+00
    0.00000E+00         0.00000E+00        -0.44027E+08
 
   -0.42708E+08         0.28662E+07         0.00000E+00
    0.28662E+07        -0.50858E+08         0.00000E+00
    0.00000E+00         0.00000E+00        -0.44027E+08
 
   -0.42771E+08         0.29993E+07         0.00000E+00
    0.29993E+07        -0.50877E+08         0.00000E+00
    0.00000E+00         0.00000E+00        -0.44027E+08
 
   -0.42833E+08         0.31354E+07         0.00000E+00
    0.31354E+07        -0.50893E+08         0.00000E+00
    0.00000E+00         0.00000E+00        -0.44027E+08
 
   -0.42896E+08         0.32744E+07         0.00000E+00
    0.32744E+07        -0.50907E+08         0.00000E+00
    0.00000E+00         0.00000E+00        -0.44027E+08
 
   -0.42959E+08         0.34163E+07         0.00000E+00
    0.34163E+07        -0.50918E+08         0.00000E+00
    0.00000E+00         0.00000E+00        -0.44027E+08
 
   -0.43022E+08         0.35610E+07         0.00000E+00
    0.35610E+07        -0.50926E+08         0.00000E+00
    0.00000E+00         0.00000E+00        -0.44027E+08
 
   -0.43086E+08         0.37085E+07         0.00000E+00
    0.37085E+07        -0.50931E+08         0.00000E+00
    0.00000E+00         0.00000E+00        -0.44027E+08
 
   -0.43152E+08         0.38585E+07         0.00000E+00
    0.38585E+07        -0.50933E+08         0.00000E+00
    0.00000E+00         0.00000E+00        -0.44027E+08
 
   -0.43218E+08         0.40112E+07         0.00000E+00
    0.40112E+07        -0.50932E+08         0.00000E+00
    0.00000E+00         0.00000E+00        -0.44027E+08
 
   -0.43285E+08         0.41663E+07         0.00000E+00
    0.41663E+07        -0.50927E+08         0.00000E+00
    0.00000E+00         0.00000E+00        -0.44027E+08
 
   -0.43354E+08         0.43238E+07         0.00000E+00
    0.43238E+07        -0.50918E+08         0.00000E+00
    0.00000E+00         0.00000E+00        -0.44027E+08
 
   -0.43425E+08         0.44836E+07         0.00000E+00
    0.44836E+07        -0.50906E+08         0.00000E+00
    0.00000E+00         0.00000E+00        -0.44027E+08
 
   -0.43498E+08         0.46456E+07         0.00000E+00
    0.46456E+07        -0.50890E+08         0.00000E+00
    0.00000E+00         0.00000E+00        -0.44027E+08
 
   -0.43573E+08         0.48097E+07         0.00000E+00
    0.48097E+07        -0.50870E+08         0.00000E+00
    0.00000E+00         0.00000E+00        -0.44027E+08
 
   -0.43650E+08         0.49758E+07         0.00000E+00
    0.49758E+07        -0.50846E+08         0.00000E+00
    0.00000E+00         0.00000E+00        -0.44027E+08
 
   -0.43729E+08         0.51437E+07         0.00000E+00
    0.51437E+07        -0.50818E+08         0.00000E+00
    0.00000E+00         0.00000E+00        -0.44027E+08
 
   -0.43811E+08         0.53135E+07         0.00000E+00
    0.53135E+07        -0.50786E+08         0.00000E+00
    0.00000E+00         0.00000E+00        -0.44027E+08
 
   -0.43895E+08         0.54850E+07         0.00000E+00
    0.54850E+07        -0.50750E+08         0.00000E+00
    0.00000E+00         0.00000E+00        -0.44027E+08
 
   -0.43983E+08         0.56579E+07         0.00000E+00
    0.56579E+07        -0.50710E+08         0.00000E+00
    0.00000E+00         0.00000E+00        -0.44027E+08
 
   -0.38503E+08         0.29133E+05         0.00000E+00
    0.29133E+05        -0.50002E+08         0.00000E+00
    0.00000E+00         0.00000E+00        -0.43097E+08
 
   -0.38752E+08         0.83536E+05         0.00000E+00
    0.83536E+05        -0.50007E+08         0.00000E+00
    0.00000E+00         0.00000E+00        -0.43097E+08
 
   -0.38988E+08         0.13726E+06         0.00000E+00
    0.13726E+06        -0.50016E+08         0.00000E+00
    0.00000E+00         0.00000E+00        -0.43097E+08
 
   -0.39210E+08         0.19078E+06         0.00000E+00
    0.19078E+06        -0.50030E+08         0.00000E+00
    0.00000E+00         0.00000E+00        -0.43097E+08
 
   -0.39419E+08         0.24456E+06         0.00000E+00
    0.24456E+06        -0.50049E+08         0.00000E+00
    0.00000E+00         0.00000E+00        -0.43097E+08
 
   -0.39616E+08         0.29903E+06         0.00000E+00
    0.29903E+06        -0.50071E+08         0.00000E+00
    0.00000E+00         0.00000E+00        -0.43097E+08
 
   -0.39800E+08         0.35456E+06         0.00000E+00
    0.35456E+06        -0.50096E+08         0.00000E+00
    0.00000E+00         0.00000E+00        -0.43097E+08
 
   -0.39973E+08         0.41153E+06         0.00000E+00
    0.41153E+06        -0.50125E+08         0.00000E+00
    0.00000E+00         0.00000E+00        -0.43097E+08
 
   -0.40136E+08         0.47026E+06         0.00000E+00
    0.47026E+06        -0.50156E+08         0.00000E+00
    0.00000E+00         0.00000E+00        -0.43097E+08
 
   -0.40288E+08         0.53106E+06         0.00000E+00
    0.53106E+06        -0.50191E+08         0.00000E+00
    0.00000E+00         0.00000E+00        -0.43097E+08
 
   -0.40430E+08         0.59422E+06         0.00000E+00
    0.59422E+06        -0.50228E+08         0.00000E+00
    0.00000E+00         0.00000E+00        -0.43097E+08
 
   -0.40563E+08         0.65999E+06         0.00000E+00
    0.65999E+06        -0.50267E+08         0.00000E+00
    0.00000E+00         0.00000E+00        -0.43097E+08
 
   -0.40687E+08         0.72859E+06         0.00000E+00
    0.72859E+06        -0.50308E+08         0.00000E+00
    0.00000E+00         0.00000E+00        -0.43097E+08
 
   -0.40803E+08         0.80025E+06         0.00000E+00
    0.80025E+06        -0.50350E+08         0.00000E+00
    0.00000E+00         0.00000E+00        -0.43097E+08
 
   -0.40911E+08         0.87515E+06         0.00000E+00
    0.87515E+06        -0.50394E+08         0.00000E+00
    0.00000E+00         0.00000E+00        -0.43097E+08
 
   -0.41012E+08         0.95345E+06         0.00000E+00
    0.95345E+06        -0.50439E+08         0.00000E+00
    0.00000E+00         0.00000E+00        -0.43097E+08
 
   -0.41107E+08         0.10353E+07         0.00000E+00
    0.10353E+07        -0.50485E+08         0.00000E+00
    0.00000E+00         0.00000E+00        -0.43097E+08
 
   -0.41195E+08         0.11209E+07         0.00000E+00
    0.11209E+07        -0.50532E+08         0.00000E+00
    0.00000E+00         0.00000E+00        -0.43097E+08
 
   -0.41277E+08         0.12102E+07         0.00000E+00
    0.12102E+07        -0.50578E+08         0.00000E+00
    0.00000E+00         0.00000E+00        -0.43097E+08
 
   -0.41354E+08         0.13034E+07         0.00000E+00
    0.13034E+07        -0.50625E+08         0.00000E+00
    0.00000E+00         0.00000E+00        -0.43097E+08
 
   -0.41426E+08         0.14006E+07         0.00000E+00
    0.14006E+07        -0.50672E+08         0.00000E+00
    0.00000E+00         0.00000E+00        -0.43097E+08
 
   -0.41494E+08         0.15019E+07         0.00000E+00
    0.15019E+07        -0.50719E+08         0.00000E+00
    0.00000E+00         0.00000E+00        -0.43097E+08
 
   -0.41557E+08         0.16072E+07         0.00000E+00
    0.16072E+07        -0.50765E+08         0.00000E+00
    0.00000E+00         0.00000E+00        -0.43097E+08
 
   -0.41617E+08         0.17167E+07         0.00000E+00
    0.17167E+07        -0.50810E+08         0.00000E+00
    0.00000E+00         0.00000E+00        -0.43097E+08
 
   -0.41674E+08         0.18303E+07         0.00000E+00
    0.18303E+07        -0.50854E+08         0.00000E+00
    0.00000E+00         0.00000E+00        -0.43097E+08
 
   -0.41729E+08         0.19480E+07         0.00000E+00
    0.19480E+07        -0.50897E+08         0.00000E+00
    0.00000E+00         0.00000E+00        -0.43097E+08
 
   -0.41781E+08         0.20699E+07         0.00000E+00
    0.20699E+07        -0.50939E+08         0.00000E+00
    0.00000E+00         0.00000E+00        -0.43097E+08
 
   -0.41831E+08         0.21959E+07         0.00000E+00
    0.21959E+07        -0.50979E+08         0.00000E+00
    0.00000E+00         0.00000E+00        -0.43097E+08
 
   -0.41879E+08         0.23260E+07         0.00000E+00
    0.23260E+07        -0.51017E+08         0.00000E+00
    0.00000E+00         0.00000E+00        -0.43097E+08
 
   -0.41927E+08         0.24601E+07         0.00000E+00
    0.24601E+07        -0.51053E+08         0.00000E+00
    0.00000E+00         0.00000E+00        -0.43097E+08
 
   -0.41973E+08         0.25983E+07         0.00000E+00
    0.25983E+07        -0.51087E+08         0.00000E+00
    0.00000E+00         0.00000E+00        -0.43097E+08
 
   -0.42019E+08         0.27404E+07         0.00000E+00
    0.27404E+07        -0.51118E+08         0.00000E+00
    0.00000E+00         0.00000E+00        -0.43097E+08
 
   -0.42065E+08         0.28863E+07         0.00000E+00
    0.28863E+07        -0.51147E+08         0.00000E+00
    0.00000E+00         0.00000E+00        -0.43097E+08
 
   -0.42111E+08         0.30361E+07         0.00000E+00
    0.30361E+07        -0.51173E+08         0.00000E+00
    0.00000E+00         0.00000E+00        -0.43097E+08
 
   -0.42157E+08         0.31895E+07         0.00000E+00
    0.31895E+07        -0.51196E+08         0.00000E+00
    0.00000E+00         0.00000E+00        -0.43097E+08
 
   -0.42204E+08         0.33465E+07         0.00000E+00
    0.33465E+07        -0.51216E+08         0.00000E+00
    0.00000E+00         0.00000E+00        -0.43097E+08
 
   -0.42252E+08         0.35071E+07         0.00000E+00
    0.35071E+07        -0.51233E+08         0.00000E+00
    0.00000E+00         0.00000E+00        -0.43097E+08
 
   -0.42301E+08         0.36710E+07         0.00000E+00
    0.36710E+07        -0.51246E+08         0.00000E+00
    0.00000E+00         0.00000E+00        -0.43097E+08
 
   -0.42352E+08         0.38382E+07         0.00000E+00
    0.38382E+07        -0.51256E+08         0.00000E+00
    0.00000E+00         0.00000E+00        -0.43097E+08
 
   -0.42404E+08         0.40086E+07         0.00000E+00
    0.40086E+07        -0.51262E+08         0.00000E+00
    0.00000E+00         0.00000E+00        -0.43097E+08
 
   -0.42458E+08         0.41820E+07         0.00000E+00
    0.41820E+07        -0.51265E+08         0.00000E+00
    0.00000E+00         0.00000E+00        -0.43097E+08
 
   -0.42514E+08         0.43584E+07         0.00000E+00
    0.43584E+07        -0.51264E+08         0.00000E+00
    0.00000E+00         0.00000E+00        -0.43097E+08
 
   -0.42572E+08         0.45376E+07         0.00000E+00
    0.45376E+07        -0.51258E+08         0.00000E+00
    0.00000E+00         0.00000E+00        -0.43097E+08
 
   -0.42633E+08         0.47195E+07         0.00000E+00
    0.47195E+07        -0.51249E+08         0.00000E+00
    0.00000E+00         0.00000E+00        -0.43097E+08
 
   -0.42696E+08         0.49041E+07         0.00000E+00
    0.49041E+07        -0.51235E+08         0.00000E+00
    0.00000E+00         0.00000E+00        -0.43097E+08
 
   -0.42762E+08         0.50911E+07         0.00000E+00
    0.50911E+07        -0.51217E+08         0.00000E+00
    0.00000E+00         0.00000E+00        -0.43097E+08
 
   -0.42831E+08         0.52805E+07         0.00000E+00
    0.52805E+07        -0.51195E+08         0.00000E+00
    0.00000E+00         0.00000E+00        -0.43097E+08
 
   -0.42903E+08         0.54721E+07         0.00000E+00
    0.54721E+07        -0.51168E+08         0.00000E+00
    0.00000E+00         0.00000E+00        -0.43097E+08
 
   -0.42978E+08         0.56658E+07         0.00000E+00
    0.56658E+07        -0.51136E+08         0.00000E+00
    0.00000E+00         0.00000E+00        -0.43097E+08
 
   -0.43057E+08         0.58617E+07         0.00000E+00
    0.58617E+07        -0.51100E+08         0.00000E+00
    0.00000E+00         0.00000E+00        -0.43097E+08
 
   -0.38293E+08         0.13751E+05         0.00000E+00
    0.13751E+05        -0.50002E+08         0.00000E+00
    0.00000E+00         0.00000E+00        -0.42047E+08
 
   -0.38544E+08         0.41618E+05         0.00000E+00
    0.41618E+05        -0.50008E+08         0.00000E+00
    0.00000E+00         0.00000E+00        -0.42047E+08
 
   -0.38778E+08         0.70360E+05         0.00000E+00
    0.70360E+05        -0.50020E+08         0.00000E+00
    0.00000E+00         0.00000E+00        -0.42047E+08
 
   -0.38996E+08         0.10047E+06         0.00000E+00
    0.10047E+06        -0.50038E+08         0.00000E+00
    0.00000E+00         0.00000E+00        -0.42047E+08
 
   -0.39199E+08         0.13241E+06         0.00000E+00
    0.13241E+06        -0.50060E+08         0.00000E+00
    0.00000E+00         0.00000E+00        -0.42047E+08
 
   -0.39388E+08         0.16658E+06         0.00000E+00
    0.16658E+06        -0.50087E+08         0.00000E+00
    0.00000E+00         0.00000E+00        -0.42047E+08
 
   -0.39562E+08         0.20338E+06         0.00000E+00
    0.20338E+06        -0.50118E+08         0.00000E+00
    0.00000E+00         0.00000E+00        -0.42047E+08
 
   -0.39724E+08         0.24315E+06         0.00000E+00
    0.24315E+06        -0.50154E+08         0.00000E+00
    0.00000E+00         0.00000E+00        -0.42047E+08
 
   -0.39873E+08         0.28621E+06         0.00000E+00
    0.28621E+06        -0.50192E+08         0.00000E+00
    0.00000E+00         0.00000E+00        -0.42047E+08
 
   -0.40010E+08         0.33285E+06         0.00000E+00
    0.33285E+06        -0.50234E+08         0.00000E+00
    0.00000E+00         0.00000E+00        -0.42047E+08
 
   -0.40137E+08         0.38333E+06         0.00000E+00
    0.38333E+06        -0.50279E+08         0.00000E+00
    0.00000E+00         0.00000E+00        -0.42047E+08
 
   -0.40252E+08         0.43788E+06         0.00000E+00
    0.43788E+06        -0.50327E+08         0.00000E+00
    0.00000E+00         0.00000E+00        -0.42047E+08
 
   -0.40358E+08         0.49672E+06         0.00000E+00
    0.49672E+06        -0.50377E+08         0.00000E+00
    0.00000E+00         0.00000E+00        -0.42047E+08
 
   -0.40455E+08         0.56002E+06         0.00000E+00
    0.56002E+06        -0.50429E+08         0.00000E+00
    0.00000E+00         0.00000E+00        -0.42047E+08
 
   -0.40544E+08         0.62795E+06         0.00000E+00
    0.62795E+06        -0.50482E+08         0.00000E+00
    0.00000E+00         0.00000E+00        -0.42047E+08
 
   -0.40624E+08         0.70065E+06         0.00000E+00
    0.70065E+06        -0.50537E+08         0.00000E+00
    0.00000E+00         0.00000E+00        -0.42047E+08
 
   -0.40697E+08         0.77825E+06         0.00000E+00
    0.77825E+06        -0.50593E+08         0.00000E+00
    0.00000E+00         0.00000E+00        -0.42047E+08
 
   -0.40763E+08         0.86084E+06         0.00000E+00
    0.86084E+06        -0.50650E+08         0.00000E+00
    0.00000E+00         0.00000E+00        -0.42047E+08
 
   -0.40823E+08         0.94853E+06         0.00000E+00
    0.94853E+06        -0.50708E+08         0.00000E+00
    0.00000E+00         0.00000E+00        -0.42047E+08
 
   -0.40877E+08         0.10414E+07         0.00000E+00
    0.10414E+07        -0.50766E+08         0.00000E+00
    0.00000E+00         0.00000E+00        -0.42047E+08
 
   -0.40926E+08         0.11394E+07         0.00000E+00
    0.11394E+07        -0.50823E+08         0.00000E+00
    0.00000E+00         0.00000E+00        -0.42047E+08
 
   -0.40970E+08         0.12427E+07         0.00000E+00
    0.12427E+07        -0.50881E+08         0.00000E+00
    0.00000E+00         0.00000E+00        -0.42047E+08
 
   -0.41011E+08         0.13513E+07         0.00000E+00
    0.13513E+07        -0.50938E+08         0.00000E+00
    0.00000E+00         0.00000E+00        -0.42047E+08
 
   -0.41047E+08         0.14652E+07         0.00000E+00
    0.14652E+07        -0.50994E+08         0.00000E+00
    0.00000E+00         0.00000E+00        -0.42047E+08
 
   -0.41081E+08         0.15843E+07         0.00000E+00
    0.15843E+07        -0.51049E+08         0.00000E+00
    0.00000E+00         0.00000E+00        -0.42047E+08
 
   -0.41112E+08         0.17087E+07         0.00000E+00
    0.17087E+07        -0.51104E+08         0.00000E+00
    0.00000E+00         0.00000E+00        -0.42047E+08
 
   -0.41140E+08         0.18384E+07         0.00000E+00
    0.18384E+07        -0.51156E+08         0.00000E+00
    0.00000E+00         0.00000E+00        -0.42047E+08
 
   -0.41167E+08         0.19732E+07         0.00000E+00
    0.19732E+07        -0.51207E+08         0.00000E+00
    0.00000E+00         0.00000E+00        -0.42047E+08
 
   -0.41193E+08         0.21132E+07         0.00000E+00
    0.21132E+07        -0.51256E+08         0.00000E+00
    0.00000E+00         0.00000E+00        -0.42047E+08
 
   -0.41218E+08         0.22583E+07         0.00000E+00
    0.22583E+07        -0.51303E+08         0.00000E+00
    0.00000E+00         0.00000E+00        -0.42047E+08
 
   -0.41242E+08         0.24084E+07         0.00000E+00
    0.24084E+07        -0.51348E+08         0.00000E+00
    0.00000E+00         0.00000E+00        -0.42047E+08
 
   -0.41266E+08         0.25633E+07         0.00000E+00
    0.25633E+07        -0.51390E+08         0.00000E+00
    0.00000E+00         0.00000E+00        -0.42047E+08
 
   -0.41290E+08         0.27231E+07         0.00000E+00
    0.27231E+07        -0.51430E+08         0.00000E+00
    0.00000E+00         0.00000E+00        -0.42047E+08
 
   -0.41315E+08         0.28876E+07         0.00000E+00
    0.28876E+07        -0.51466E+08         0.00000E+00
    0.00000E+00         0.00000E+00        -0.42047E+08
 
   -0.41341E+08         0.30566E+07         0.00000E+00
    0.30566E+07        -0.51500E+08         0.00000E+00
    0.00000E+00         0.00000E+00        -0.42047E+08
 
   -0.41369E+08         0.32301E+07         0.00000E+00
    0.32301E+07        -0.51530E+08         0.00000E+00
    0.00000E+00         0.00000E+00        -0.42047E+08
 
   -0.41397E+08         0.34079E+07         0.00000E+00
    0.34079E+07        -0.51556E+08         0.00000E+00
    0.00000E+00         0.00000E+00        -0.42047E+08
 
   -0.41428E+08         0.35898E+07         0.00000E+00
    0.35898E+07        -0.51579E+08         0.00000E+00
    0.00000E+00         0.00000E+00        -0.42047E+08
 
   -0.41461E+08         0.37757E+07         0.00000E+00
    0.37757E+07        -0.51598E+08         0.00000E+00
    0.00000E+00         0.00000E+00        -0.42047E+08
 
   -0.41496E+08         0.39654E+07         0.00000E+00
    0.39654E+07        -0.51613E+08         0.00000E+00
    0.00000E+00         0.00000E+00        -0.42047E+08
 
   -0.41533E+08         0.41587E+07         0.00000E+00
    0.41587E+07        -0.51624E+08         0.00000E+00
    0.00000E+00         0.00000E+00        -0.42047E+08
 
   -0.41573E+08         0.43556E+07         0.00000E+00
    0.43556E+07        -0.51631E+08         0.00000E+00
    0.00000E+00         0.00000E+00        -0.42047E+08
 
   -0.41617E+08         0.45559E+07         0.00000E+00
    0.45559E+07        -0.51633E+08         0.00000E+00
    0.00000E+00         0.00000E+00        -0.42047E+08
 
   -0.41663E+08         0.47593E+07         0.00000E+00
    0.47593E+07        -0.51631E+08         0.00000E+00
    0.00000E+00         0.00000E+00        -0.42047E+08
 
   -0.41712E+08         0.49658E+07         0.00000E+00
    0.49658E+07        -0.51625E+08         0.00000E+00
    0.00000E+00         0.00000E+00        -0.42047E+08
 
   -0.41765E+08         0.51753E+07         0.00000E+00
    0.51753E+07        -0.51614E+08         0.00000E+00
    0.00000E+00         0.00000E+00        -0.42047E+08
 
   -0.41821E+08         0.53878E+07         0.00000E+00
    0.53878E+07        -0.51598E+08         0.00000E+00
    0.00000E+00         0.00000E+00        -0.42047E+08
 
   -0.41880E+08         0.56033E+07         0.00000E+00
    0.56033E+07        -0.51578E+08         0.00000E+00
    0.00000E+00         0.00000E+00        -0.42047E+08
 
   -0.41944E+08         0.58214E+07         0.00000E+00
    0.58214E+07        -0.51552E+08         0.00000E+00
    0.00000E+00         0.00000E+00        -0.42047E+08
 
   -0.42012E+08         0.60414E+07         0.00000E+00
    0.60414E+07        -0.51521E+08         0.00000E+00
    0.00000E+00         0.00000E+00        -0.42047E+08
 
   -0.38236E+08        -0.52097E+04         0.00000E+00
   -0.52097E+04        -0.50002E+08         0.00000E+00
    0.00000E+00         0.00000E+00        -0.40865E+08
 
   -0.38478E+08        -0.95368E+04         0.00000E+00
   -0.95368E+04        -0.50010E+08         0.00000E+00
    0.00000E+00         0.00000E+00        -0.40865E+08
 
   -0.38702E+08        -0.10931E+05         0.00000E+00
   -0.10931E+05        -0.50024E+08         0.00000E+00
    0.00000E+00         0.00000E+00        -0.40865E+08
 
   -0.38907E+08        -0.89240E+04         0.00000E+00
   -0.89240E+04        -0.50045E+08         0.00000E+00
    0.00000E+00         0.00000E+00        -0.40865E+08
 
   -0.39095E+08        -0.30951E+04         0.00000E+00
   -0.30951E+04        -0.50072E+08         0.00000E+00
    0.00000E+00         0.00000E+00        -0.40865E+08
 
   -0.39267E+08         0.69380E+04         0.00000E+00
    0.69380E+04        -0.50104E+08         0.00000E+00
    0.00000E+00         0.00000E+00        -0.40865E+08
 
   -0.39423E+08         0.21519E+05         0.00000E+00
    0.21519E+05        -0.50141E+08         0.00000E+00
    0.00000E+00         0.00000E+00        -0.40865E+08
 
   -0.39564E+08         0.40956E+05         0.00000E+00
    0.40956E+05        -0.50182E+08         0.00000E+00
    0.00000E+00         0.00000E+00        -0.40865E+08
 
   -0.39692E+08         0.65524E+05         0.00000E+00
    0.65524E+05        -0.50228E+08         0.00000E+00
    0.00000E+00         0.00000E+00        -0.40865E+08
 
   -0.39806E+08         0.95466E+05         0.00000E+00
    0.95466E+05        -0.50277E+08         0.00000E+00
    0.00000E+00         0.00000E+00        -0.40865E+08
 
   -0.39908E+08         0.13100E+06         0.00000E+00
    0.13100E+06        -0.50330E+08         0.00000E+00
    0.00000E+00         0.00000E+00        -0.40865E+08
 
   -0.39999E+08         0.17231E+06         0.00000E+00
    0.17231E+06        -0.50386E+08         0.00000E+00
    0.00000E+00         0.00000E+00        -0.40865E+08
 
   -0.40079E+08         0.21955E+06         0.00000E+00
    0.21955E+06        -0.50445E+08         0.00000E+00
    0.00000E+00         0.00000E+00        -0.40865E+08
 
   -0.40150E+08         0.27288E+06         0.00000E+00
    0.27288E+06        -0.50506E+08         0.00000E+00
    0.00000E+00         0.00000E+00        -0.40865E+08
 
   -0.40211E+08         0.33241E+06         0.00000E+00
    0.33241E+06        -0.50568E+08         0.00000E+00
    0.00000E+00         0.00000E+00        -0.40865E+08
 
   -0.40263E+08         0.39823E+06         0.00000E+00
    0.39823E+06        -0.50633E+08         0.00000E+00
    0.00000E+00         0.00000E+00        -0.40865E+08
 
   -0.40308E+08         0.47044E+06         0.00000E+00
    0.47044E+06        -0.50699E+08         0.00000E+00
    0.00000E+00         0.00000E+00        -0.40865E+08
 
   -0.40345E+08         0.54908E+06         0.00000E+00
    0.54908E+06        -0.50766E+08         0.00000E+00
    0.00000E+00         0.00000E+00        -0.40865E+08
 
   -0.40376E+08         0.63422E+06         0.00000E+00
    0.63422E+06        -0.50833E+08         0.00000E+00
    0.00000E+00         0.00000E+00        -0.40865E+08
 
   -0.40401E+08         0.72588E+06         0.00000E+00
    0.72588E+06        -0.50901E+08         0.00000E+00
    0.00000E+00         0.00000E+00        -0.40865E+08
 
   -0.40420E+08         0.82409E+06         0.00000E+00
    0.82409E+06        -0.50969E+08         0.00000E+00
    0.00000E+00         0.00000E+00        -0.40865E+08
 
   -0.40435E+08         0.92885E+06         0.00000E+00
    0.92885E+06        -0.51038E+08         0.00000E+00
    0.00000E+00         0.00000E+00        -0.40865E+08
 
   -0.40446E+08         0.10402E+07         0.00000E+00
    0.10402E+07        -0.51106E+08         0.00000E+00
    0.00000E+00         0.00000E+00        -0.40865E+08
 
   -0.40453E+08         0.11580E+07         0.00000E+00
    0.11580E+07        -0.51173E+08         0.00000E+00
    0.00000E+00         0.00000E+00        -0.40865E+08
 
   -0.40458E+08         0.12824E+07         0.00000E+00
    0.12824E+07        -0.51239E+08         0.00000E+00
    0.00000E+00         0.00000E+00        -0.40865E+08
 
   -0.40459E+08         0.14132E+07         0.00000E+00
    0.14132E+07        -0.51305E+08         0.00000E+00
    0.00000E+00         0.00000E+00        -0.40865E+08
 
   -0.40459E+08         0.15504E+07         0.00000E+00
    0.15504E+07        -0.51368E+08         0.00000E+00
    0.00000E+00         0.00000E+00        -0.40865E+08
 
   -0.40457E+08         0.16940E+07         0.00000E+00
    0.16940E+07        -0.51431E+08         0.00000E+00
    0.00000E+00         0.00000E+00        -0.40865E+08
 
   -0.40454E+08         0.18439E+07         0.00000E+00
    0.18439E+07        -0.51492E+08         0.00000E+00
    0.00000E+00         0.00000E+00        -0.40865E+08
 
   -0.40451E+08         0.20000E+07         0.00000E+00
    0.20000E+07        -0.51550E+08         0.00000E+00
    0.00000E+00         0.00000E+00        -0.40865E+08
 
   -0.40448E+08         0.21622E+07         0.00000E+00
    0.21622E+07        -0.51606E+08         0.00000E+00
    0.00000E+00         0.00000E+00        -0.40865E+08
 
   -0.40445E+08         0.23305E+07         0.00000E+00
    0.23305E+07        -0.51660E+08         0.00000E+00
    0.00000E+00         0.00000E+00        -0.40865E+08
 
   -0.40443E+08         0.25046E+07         0.00000E+00
    0.25046E+07        -0.51711E+08         0.00000E+00
    0.00000E+00         0.00000E+00        -0.40865E+08
 
   -0.40442E+08         0.26845E+07         0.00000E+00
    0.26845E+07        -0.51759E+08         0.00000E+00
    0.00000E+00         0.00000E+00        -0.40865E+08
 
   -0.40443E+08         0.28699E+07         0.00000E+00
    0.28699E+07        -0.51804E+08         0.00000E+00
    0.00000E+00         0.00000E+00        -0.40865E+08
 
   -0.40446E+08         0.30609E+07         0.00000E+00
    0.30609E+07        -0.51846E+08         0.00000E+00
    0.00000E+00         0.00000E+00        -0.40865E+08
 
   -0.40452E+08         0.32570E+07         0.00000E+00
    0.32570E+07        -0.51883E+08         0.00000E+00
    0.00000E+00         0.00000E+00        -0.40865E+08
 
   -0.40460E+08         0.34583E+07         0.00000E+00
    0.34583E+07        -0.51917E+08         0.00000E+00
    0.00000E+00         0.00000E+00        -0.40865E+08
 
   -0.40471E+08         0.36643E+07         0.00000E+00
    0.36643E+07        -0.51947E+08         0.00000E+00
    0.00000E+00         0.00000E+00        -0.40865E+08
 
   -0.40485E+08         0.38751E+07         0.00000E+00
    0.38751E+07        -0.51973E+08         0.00000E+00
    0.00000E+00         0.00000E+00        -0.40865E+08
 
   -0.40503E+08         0.40902E+07         0.00000E+00
    0.40902E+07        -0.51994E+08         0.00000E+00
    0.00000E+00         0.00000E+00        -0.40865E+08
 
   -0.40525E+08         0.43094E+07         0.00000E+00
    0.43094E+07        -0.52011E+08         0.00000E+00
    0.00000E+00         0.00000E+00        -0.40865E+08
 
   -0.40550E+08         0.45325E+07         0.00000E+00
    0.45325E+07        -0.52023E+08         0.00000E+00
    0.00000E+00         0.00000E+00        -0.40865E+08
 
   -0.40579E+08         0.47593E+07         0.00000E+00
    0.47593E+07        -0.52030E+08         0.00000E+00
    0.00000E+00         0.00000E+00        -0.40865E+08
 
   -0.40613E+08         0.49898E+07         0.00000E+00
    0.49898E+07        -0.52032E+08         0.00000E+00
    0.00000E+00         0.00000E+00        -0.40865E+08
 
   -0.40650E+08         0.52236E+07         0.00000E+00
    0.52236E+07        -0.52028E+08         0.00000E+00
    0.00000E+00         0.00000E+00        -0.40865E+08
 
   -0.40691E+08         0.54601E+07         0.00000E+00
    0.54601E+07        -0.52020E+08         0.00000E+00
    0.00000E+00         0.00000E+00        -0.40865E+08
 
   -0.40736E+08         0.56990E+07         0.00000E+00
    0.56990E+07        -0.52006E+08         0.00000E+00
    0.00000E+00         0.00000E+00        -0.40865E+08
 
   -0.40784E+08         0.59418E+07         0.00000E+00
    0.59418E+07        -0.51989E+08         0.00000E+00
    0.00000E+00         0.00000E+00        -0.40865E+08
 
   -0.40837E+08         0.61903E+07         0.00000E+00
    0.61903E+07        -0.51970E+08         0.00000E+00
    0.00000E+00         0.00000E+00        -0.40865E+08
 
   -0.38359E+08        -0.27751E+05         0.00000E+00
   -0.27751E+05        -0.50003E+08         0.00000E+00
    0.00000E+00         0.00000E+00        -0.39544E+08
 
   -0.38581E+08        -0.69735E+05         0.00000E+00
   -0.69735E+05        -0.50012E+08         0.00000E+00
    0.00000E+00         0.00000E+00        -0.39544E+08
 
   -0.38783E+08        -0.10617E+06         0.00000E+00
   -0.10617E+06        -0.50028E+08         0.00000E+00
    0.00000E+00         0.00000E+00        -0.39544E+08
 
   -0.38964E+08        -0.13666E+06         0.00000E+00
   -0.13666E+06        -0.50052E+08         0.00000E+00
    0.00000E+00         0.00000E+00        -0.39544E+08
 
   -0.39126E+08        -0.16086E+06         0.00000E+00
   -0.16086E+06        -0.50082E+08         0.00000E+00
    0.00000E+00         0.00000E+00        -0.39544E+08
 
   -0.39270E+08        -0.17847E+06         0.00000E+00
   -0.17847E+06        -0.50119E+08         0.00000E+00
    0.00000E+00         0.00000E+00        -0.39544E+08
 
   -0.39397E+08        -0.18921E+06         0.00000E+00
   -0.18921E+06        -0.50161E+08         0.00000E+00
    0.00000E+00         0.00000E+00        -0.39544E+08
 
   -0.39508E+08        -0.19286E+06         0.00000E+00
   -0.19286E+06        -0.50208E+08         0.00000E+00
    0.00000E+00         0.00000E+00        -0.39544E+08
 
   -0.39604E+08        -0.18923E+06         0.00000E+00
   -0.18923E+06        -0.50260E+08         0.00000E+00
    0.00000E+00         0.00000E+00        -0.39544E+08
 
   -0.39686E+08        -0.17814E+06         0.00000E+00
   -0.17814E+06        -0.50316E+08         0.00000E+00
    0.00000E+00         0.00000E+00        -0.39544E+08
 
   -0.39755E+08        -0.15947E+06         0.00000E+00
   -0.15947E+06        -0.50376E+08         0.00000E+00
    0.00000E+00         0.00000E+00        -0.39544E+08
 
   -0.39812E+08        -0.13310E+06         0.00000E+00
   -0.13310E+06        -0.50439E+08         0.00000E+00
    0.00000E+00         0.00000E+00        -0.39544E+08
 
   -0.39858E+08        -0.98953E+05         0.00000E+00
   -0.98953E+05        -0.50505E+08         0.00000E+00
    0.00000E+00         0.00000E+00        -0.39544E+08
 
   -0.39893E+08        -0.56953E+05         0.00000E+00
   -0.56953E+05        -0.50573E+08         0.00000E+00
    0.00000E+00         0.00000E+00        -0.39544E+08
 
   -0.39919E+08        -0.70576E+04         0.00000E+00
   -0.70576E+04        -0.50644E+08         0.00000E+00
    0.00000E+00         0.00000E+00        -0.39544E+08
 
   -0.39936E+08         0.50764E+05         0.00000E+00
    0.50764E+05        -0.50716E+08         0.00000E+00
    0.00000E+00         0.00000E+00        -0.39544E+08
 
   -0.39945E+08         0.11653E+06         0.00000E+00
    0.11653E+06        -0.50791E+08         0.00000E+00
    0.00000E+00         0.00000E+00        -0.39544E+08
 
   -0.39946E+08         0.19023E+06         0.00000E+00
    0.19023E+06        -0.50866E+08         0.00000E+00
    0.00000E+00         0.00000E+00        -0.39544E+08
 
   -0.39941E+08         0.27188E+06         0.00000E+00
    0.27188E+06        -0.50942E+08         0.00000E+00
    0.00000E+00         0.00000E+00        -0.39544E+08
 
   -0.39930E+08         0.36144E+06         0.00000E+00
    0.36144E+06        -0.51019E+08         0.00000E+00
    0.00000E+00         0.00000E+00        -0.39544E+08
 
   -0.39913E+08         0.45889E+06         0.00000E+00
    0.45889E+06        -0.51096E+08         0.00000E+00
    0.00000E+00         0.00000E+00        -0.39544E+08
 
   -0.39892E+08         0.56420E+06         0.00000E+00
    0.56420E+06        -0.51174E+08         0.00000E+00
    0.00000E+00         0.00000E+00        -0.39544E+08
 
   -0.39867E+08         0.67733E+06         0.00000E+00
    0.67733E+06        -0.51251E+08         0.00000E+00
    0.00000E+00         0.00000E+00        -0.39544E+08
 
   -0.39839E+08         0.79822E+06         0.00000E+00
    0.79822E+06        -0.51328E+08         0.00000E+00
    0.00000E+00         0.00000E+00        -0.39544E+08
 
   -0.39808E+08         0.92684E+06         0.00000E+00
    0.92684E+06        -0.51404E+08         0.00000E+00
    0.00000E+00         0.00000E+00        -0.39544E+08
 
   -0.39774E+08         0.10631E+07         0.00000E+00
    0.10631E+07        -0.51480E+08         0.00000E+00
    0.00000E+00         0.00000E+00        -0.39544E+08
 
   -0.39739E+08         0.12070E+07         0.00000E+00
    0.12070E+07        -0.51554E+08         0.00000E+00
    0.00000E+00         0.00000E+00        -0.39544E+08
 
   -0.39703E+08         0.13584E+07         0.00000E+00
    0.13584E+07        -0.51627E+08         0.00000E+00
    0.00000E+00         0.00000E+00        -0.39544E+08
 
   -0.39666E+08         0.15172E+07         0.00000E+00
    0.15172E+07        -0.51699E+08         0.00000E+00
    0.00000E+00         0.00000E+00        -0.39544E+08
 
   -0.39629E+08         0.16835E+07         0.00000E+00
    0.16835E+07        -0.51769E+08         0.00000E+00
    0.00000E+00         0.00000E+00        -0.39544E+08
 
   -0.39593E+08         0.18570E+07         0.00000E+00
    0.18570E+07        -0.51837E+08         0.00000E+00
    0.00000E+00         0.00000E+00        -0.39544E+08
 
   -0.39557E+08         0.20376E+07         0.00000E+00
    0.20376E+07        -0.51903E+08         0.00000E+00
    0.00000E+00         0.00000E+00        -0.39544E+08
 
   -0.39523E+08         0.22254E+07         0.00000E+00
    0.22254E+07        -0.51966E+08         0.00000E+00
    0.00000E+00         0.00000E+00        -0.39544E+08
 
   -0.39491E+08         0.24200E+07         0.00000E+00
    0.24200E+07        -0.52027E+08         0.00000E+00
    0.00000E+00         0.00000E+00        -0.39544E+08
 
   -0.39462E+08         0.26215E+07         0.00000E+00
    0.26215E+07        -0.52085E+08         0.00000E+00
    0.00000E+00         0.00000E+00        -0.39544E+08
 
   -0.39435E+08         0.28296E+07         0.00000E+00
    0.28296E+07        -0.52140E+08         0.00000E+00
    0.00000E+00         0.00000E+00        -0.39544E+08
 
   -0.39412E+08         0.30442E+07         0.00000E+00
    0.30442E+07        -0.52191E+08         0.00000E+00
    0.00000E+00         0.00000E+00        -0.39544E+08
 
   -0.39392E+08         0.32650E+07         0.00000E+00
    0.32650E+07        -0.52239E+08         0.00000E+00
    0.00000E+00         0.00000E+00        -0.39544E+08
 
   -0.39377E+08         0.34918E+07         0.00000E+00
    0.34918E+07        -0.52283E+08         0.00000E+00
    0.00000E+00         0.00000E+00        -0.39544E+08
 
   -0.39366E+08         0.37243E+07         0.00000E+00
    0.37243E+07        -0.52323E+08         0.00000E+00
    0.00000E+00         0.00000E+00        -0.39544E+08
 
   -0.39360E+08         0.39625E+07         0.00000E+00
    0.39625E+07        -0.52358E+08         0.00000E+00
    0.00000E+00         0.00000E+00        -0.39544E+08
 
   -0.39359E+08         0.42061E+07         0.00000E+00
    0.42061E+07        -0.52389E+08         0.00000E+00
    0.00000E+00         0.00000E+00        -0.39544E+08
 
   -0.39363E+08         0.44546E+07         0.00000E+00
    0.44546E+07        -0.52415E+08         0.00000E+00
    0.00000E+00         0.00000E+00        -0.39544E+08
 
   -0.39373E+08         0.47068E+07         0.00000E+00
    0.47068E+07        -0.52435E+08         0.00000E+00
    0.00000E+00         0.00000E+00        -0.39544E+08
 
   -0.39388E+08         0.49627E+07         0.00000E+00
    0.49627E+07        -0.52450E+08         0.00000E+00
    0.00000E+00         0.00000E+00        -0.39544E+08
 
   -0.39406E+08         0.52222E+07         0.00000E+00
    0.52222E+07        -0.52461E+08         0.00000E+00
    0.00000E+00         0.00000E+00        -0.39544E+08
 
   -0.39429E+08         0.54871E+07         0.00000E+00
    0.54871E+07        -0.52468E+08         0.00000E+00
    0.00000E+00         0.00000E+00        -0.39544E+08
 
   -0.39458E+08         0.57583E+07         0.00000E+00
    0.57583E+07        -0.52467E+08         0.00000E+00
    0.00000E+00         0.00000E+00        -0.39544E+08
 
   -0.39492E+08         0.60293E+07         0.00000E+00
    0.60293E+07        -0.52449E+08         0.00000E+00
    0.00000E+00         0.00000E+00        -0.39544E+08
 
   -0.39527E+08         0.62970E+07         0.00000E+00
    0.62970E+07        -0.52421E+08         0.00000E+00
    0.00000E+00         0.00000E+00        -0.39544E+08
 
   -0.38690E+08        -0.53589E+05         0.00000E+00
   -0.53589E+05        -0.50003E+08         0.00000E+00
    0.00000E+00         0.00000E+00        -0.38076E+08
 
   -0.38878E+08        -0.13798E+06         0.00000E+00
   -0.13798E+06        -0.50013E+08         0.00000E+00
    0.00000E+00         0.00000E+00        -0.38076E+08
 
   -0.39043E+08        -0.21363E+06         0.00000E+00
   -0.21363E+06        -0.50031E+08         0.00000E+00
    0.00000E+00         0.00000E+00        -0.38076E+08
 
   -0.39186E+08        -0.28024E+06         0.00000E+00
   -0.28024E+06        -0.50058E+08         0.00000E+00
    0.00000E+00         0.00000E+00        -0.38076E+08
 
   -0.39309E+08        -0.33761E+06         0.00000E+00
   -0.33761E+06        -0.50091E+08         0.00000E+00
    0.00000E+00         0.00000E+00        -0.38076E+08
 
   -0.39413E+08        -0.38556E+06         0.00000E+00
   -0.38556E+06        -0.50131E+08         0.00000E+00
    0.00000E+00         0.00000E+00        -0.38076E+08
 
   -0.39498E+08        -0.42393E+06         0.00000E+00
   -0.42393E+06        -0.50177E+08         0.00000E+00
    0.00000E+00         0.00000E+00        -0.38076E+08
 
   -0.39567E+08        -0.45263E+06         0.00000E+00
   -0.45263E+06        -0.50228E+08         0.00000E+00
    0.00000E+00         0.00000E+00        -0.38076E+08
 
   -0.39621E+08        -0.47159E+06         0.00000E+00
   -0.47159E+06        -0.50285E+08         0.00000E+00
    0.00000E+00         0.00000E+00        -0.38076E+08
 
   -0.39660E+08        -0.48077E+06         0.00000E+00
   -0.48077E+06        -0.50345E+08         0.00000E+00
    0.00000E+00         0.00000E+00        -0.38076E+08
 
   -0.39685E+08        -0.48015E+06         0.00000E+00
   -0.48015E+06        -0.50410E+08         0.00000E+00
    0.00000E+00         0.00000E+00        -0.38076E+08
 
   -0.39698E+08        -0.46974E+06         0.00000E+00
   -0.46974E+06        -0.50478E+08         0.00000E+00
    0.00000E+00         0.00000E+00        -0.38076E+08
 
   -0.39700E+08        -0.44956E+06         0.00000E+00
   -0.44956E+06        -0.50549E+08         0.00000E+00
    0.00000E+00         0.00000E+00        -0.38076E+08
 
   -0.39692E+08        -0.41968E+06         0.00000E+00
   -0.41968E+06        -0.50622E+08         0.00000E+00
    0.00000E+00         0.00000E+00        -0.38076E+08
 
   -0.39674E+08        -0.38014E+06         0.00000E+00
   -0.38014E+06        -0.50698E+08         0.00000E+00
    0.00000E+00         0.00000E+00        -0.38076E+08
 
   -0.39647E+08        -0.33102E+06         0.00000E+00
   -0.33102E+06        -0.50776E+08         0.00000E+00
    0.00000E+00         0.00000E+00        -0.38076E+08
 
   -0.39612E+08        -0.27240E+06         0.00000E+00
   -0.27240E+06        -0.50856E+08         0.00000E+00
    0.00000E+00         0.00000E+00        -0.38076E+08
 
   -0.39570E+08        -0.20437E+06         0.00000E+00
   -0.20437E+06        -0.50936E+08         0.00000E+00
    0.00000E+00         0.00000E+00        -0.38076E+08
 
   -0.39522E+08        -0.12703E+06         0.00000E+00
   -0.12703E+06        -0.51018E+08         0.00000E+00
    0.00000E+00         0.00000E+00        -0.38076E+08
 
   -0.39468E+08        -0.40458E+05         0.00000E+00
   -0.40458E+05        -0.51101E+08         0.00000E+00
    0.00000E+00         0.00000E+00        -0.38076E+08
 
   -0.39410E+08         0.55237E+05         0.00000E+00
    0.55237E+05        -0.51184E+08         0.00000E+00
    0.00000E+00         0.00000E+00        -0.38076E+08
 
   -0.39347E+08         0.15996E+06         0.00000E+00
    0.15996E+06        -0.51267E+08         0.00000E+00
    0.00000E+00         0.00000E+00        -0.38076E+08
 
   -0.39280E+08         0.27363E+06         0.00000E+00
    0.27363E+06        -0.51351E+08         0.00000E+00
    0.00000E+00         0.00000E+00        -0.38076E+08
 
   -0.39210E+08         0.39615E+06         0.00000E+00
    0.39615E+06        -0.51434E+08         0.00000E+00
    0.00000E+00         0.00000E+00        -0.38076E+08
 
   -0.39138E+08         0.52743E+06         0.00000E+00
    0.52743E+06        -0.51518E+08         0.00000E+00
    0.00000E+00         0.00000E+00        -0.38076E+08
 
   -0.39064E+08         0.66739E+06         0.00000E+00
    0.66739E+06        -0.51600E+08         0.00000E+00
    0.00000E+00         0.00000E+00        -0.38076E+08
 
   -0.38988E+08         0.81596E+06         0.00000E+00
    0.81596E+06        -0.51683E+08         0.00000E+00
    0.00000E+00         0.00000E+00        -0.38076E+08
 
   -0.38912E+08         0.97305E+06         0.00000E+00
    0.97305E+06        -0.51764E+08         0.00000E+00
    0.00000E+00         0.00000E+00        -0.38076E+08
 
   -0.38836E+08         0.11386E+07         0.00000E+00
    0.11386E+07        -0.51845E+08         0.00000E+00
    0.00000E+00         0.00000E+00        -0.38076E+08
 
   -0.38760E+08         0.13125E+07         0.00000E+00
    0.13125E+07        -0.51924E+08         0.00000E+00
    0.00000E+00         0.00000E+00        -0.38076E+08
 
   -0.38685E+08         0.14948E+07         0.00000E+00
    0.14948E+07        -0.52002E+08         0.00000E+00
    0.00000E+00         0.00000E+00        -0.38076E+08
 
   -0.38611E+08         0.16853E+07         0.00000E+00
    0.16853E+07        -0.52079E+08         0.00000E+00
    0.00000E+00         0.00000E+00        -0.38076E+08
 
   -0.38539E+08         0.18839E+07         0.00000E+00
    0.18839E+07        -0.52154E+08         0.00000E+00
    0.00000E+00         0.00000E+00        -0.38076E+08
 
   -0.38470E+08         0.20906E+07         0.00000E+00
    0.20906E+07        -0.52227E+08         0.00000E+00
    0.00000E+00         0.00000E+00        -0.38076E+08
 
   -0.38404E+08         0.23051E+07         0.00000E+00
    0.23051E+07        -0.52298E+08         0.00000E+00
    0.00000E+00         0.00000E+00        -0.38076E+08
 
   -0.38342E+08         0.25276E+07         0.00000E+00
    0.25276E+07        -0.52367E+08         0.00000E+00
    0.00000E+00         0.00000E+00        -0.38076E+08
 
   -0.38284E+08         0.27576E+07         0.00000E+00
    0.27576E+07        -0.52433E+08         0.00000E+00
    0.00000E+00         0.00000E+00        -0.38076E+08
 
   -0.38231E+08         0.29950E+07         0.00000E+00
    0.29950E+07        -0.52496E+08         0.00000E+00
    0.00000E+00         0.00000E+00        -0.38076E+08
 
   -0.38183E+08         0.32399E+07         0.00000E+00
    0.32399E+07        -0.52557E+08         0.00000E+00
    0.00000E+00         0.00000E+00        -0.38076E+08
 
   -0.38141E+08         0.34920E+07         0.00000E+00
    0.34920E+07        -0.52615E+08         0.00000E+00
    0.00000E+00         0.00000E+00        -0.38076E+08
 
   -0.38106E+08         0.37500E+07         0.00000E+00
    0.37500E+07        -0.52668E+08         0.00000E+00
    0.00000E+00         0.00000E+00        -0.38076E+08
 
   -0.38076E+08         0.40137E+07         0.00000E+00
    0.40137E+07        -0.52719E+08         0.00000E+00
    0.00000E+00         0.00000E+00        -0.38076E+08
 
   -0.38053E+08         0.42841E+07         0.00000E+00
    0.42841E+07        -0.52769E+08         0.00000E+00
    0.00000E+00         0.00000E+00        -0.38076E+08
 
   -0.38037E+08         0.45632E+07         0.00000E+00
    0.45632E+07        -0.52815E+08         0.00000E+00
    0.00000E+00         0.00000E+00        -0.38076E+08
 
   -0.38031E+08         0.48489E+07         0.00000E+00
    0.48489E+07        -0.52853E+08         0.00000E+00
    0.00000E+00         0.00000E+00        -0.38076E+08
 
   -0.38037E+08         0.51385E+07         0.00000E+00
    0.51385E+07        -0.52878E+08         0.00000E+00
    0.00000E+00         0.00000E+00        -0.38076E+08
 
   -0.38051E+08         0.54227E+07         0.00000E+00
    0.54227E+07        -0.52898E+08         0.00000E+00
    0.00000E+00         0.00000E+00        -0.38076E+08
 
   -0.38062E+08         0.56980E+07         0.00000E+00
    0.56980E+07        -0.52925E+08         0.00000E+00
    0.00000E+00         0.00000E+00        -0.38076E+08
 
   -0.38066E+08         0.59881E+07         0.00000E+00
    0.59881E+07        -0.53002E+08         0.00000E+00
    0.00000E+00         0.00000E+00        -0.38076E+08
 
   -0.38134E+08         0.62584E+07         0.00000E+00
    0.62584E+07        -0.53073E+08         0.00000E+00
    0.00000E+00         0.00000E+00        -0.38138E+08
 
   -0.39251E+08        -0.82088E+05         0.00000E+00
   -0.82088E+05        -0.50003E+08         0.00000E+00
    0.00000E+00         0.00000E+00        -0.36455E+08
 
   -0.39387E+08        -0.21239E+06         0.00000E+00
   -0.21239E+06        -0.50014E+08         0.00000E+00
    0.00000E+00         0.00000E+00        -0.36455E+08
 
   -0.39499E+08        -0.33009E+06         0.00000E+00
   -0.33009E+06        -0.50033E+08         0.00000E+00
    0.00000E+00         0.00000E+00        -0.36455E+08
 
   -0.39587E+08        -0.43514E+06         0.00000E+00
   -0.43514E+06        -0.50061E+08         0.00000E+00
    0.00000E+00         0.00000E+00        -0.36455E+08
 
   -0.39655E+08        -0.52750E+06         0.00000E+00
   -0.52750E+06        -0.50096E+08         0.00000E+00
    0.00000E+00         0.00000E+00        -0.36455E+08
 
   -0.39704E+08        -0.60715E+06         0.00000E+00
   -0.60715E+06        -0.50138E+08         0.00000E+00
    0.00000E+00         0.00000E+00        -0.36455E+08
 
   -0.39734E+08        -0.67414E+06         0.00000E+00
   -0.67414E+06        -0.50186E+08         0.00000E+00
    0.00000E+00         0.00000E+00        -0.36455E+08
 
   -0.39747E+08        -0.72855E+06         0.00000E+00
   -0.72855E+06        -0.50240E+08         0.00000E+00
    0.00000E+00         0.00000E+00        -0.36455E+08
 
   -0.39745E+08        -0.77048E+06         0.00000E+00
   -0.77048E+06        -0.50298E+08         0.00000E+00
    0.00000E+00         0.00000E+00        -0.36455E+08
 
   -0.39729E+08        -0.80006E+06         0.00000E+00
   -0.80006E+06        -0.50360E+08         0.00000E+00
    0.00000E+00         0.00000E+00        -0.36455E+08
 
   -0.39700E+08        -0.81746E+06         0.00000E+00
   -0.81746E+06        -0.50426E+08         0.00000E+00
    0.00000E+00         0.00000E+00        -0.36455E+08
 
   -0.39659E+08        -0.82285E+06         0.00000E+00
   -0.82285E+06        -0.50496E+08         0.00000E+00
    0.00000E+00         0.00000E+00        -0.36455E+08
 
   -0.39608E+08        -0.81643E+06         0.00000E+00
   -0.81643E+06        -0.50568E+08         0.00000E+00
    0.00000E+00         0.00000E+00        -0.36455E+08
 
   -0.39546E+08        -0.79840E+06         0.00000E+00
   -0.79840E+06        -0.50643E+08         0.00000E+00
    0.00000E+00         0.00000E+00        -0.36455E+08
 
   -0.39476E+08        -0.76899E+06         0.00000E+00
   -0.76899E+06        -0.50720E+08         0.00000E+00
    0.00000E+00         0.00000E+00        -0.36455E+08
 
   -0.39398E+08        -0.72840E+06         0.00000E+00
   -0.72840E+06        -0.50798E+08         0.00000E+00
    0.00000E+00         0.00000E+00        -0.36455E+08
 
   -0.39312E+08        -0.67687E+06         0.00000E+00
   -0.67687E+06        -0.50878E+08         0.00000E+00
    0.00000E+00         0.00000E+00        -0.36455E+08
 
   -0.39220E+08        -0.61460E+06         0.00000E+00
   -0.61460E+06        -0.50959E+08         0.00000E+00
    0.00000E+00         0.00000E+00        -0.36455E+08
 
   -0.39123E+08        -0.54182E+06         0.00000E+00
   -0.54182E+06        -0.51042E+08         0.00000E+00
    0.00000E+00         0.00000E+00        -0.36455E+08
 
   -0.39021E+08        -0.45873E+06         0.00000E+00
   -0.45873E+06        -0.51125E+08         0.00000E+00
    0.00000E+00         0.00000E+00        -0.36455E+08
 
   -0.38914E+08        -0.36553E+06         0.00000E+00
   -0.36553E+06        -0.51208E+08         0.00000E+00
    0.00000E+00         0.00000E+00        -0.36455E+08
 
   -0.38804E+08        -0.26240E+06         0.00000E+00
   -0.26240E+06        -0.51292E+08         0.00000E+00
    0.00000E+00         0.00000E+00        -0.36455E+08
 
   -0.38691E+08        -0.14951E+06         0.00000E+00
   -0.14951E+06        -0.51377E+08         0.00000E+00
    0.00000E+00         0.00000E+00        -0.36455E+08
 
   -0.38575E+08        -0.27005E+05         0.00000E+00
   -0.27005E+05        -0.51461E+08         0.00000E+00
    0.00000E+00         0.00000E+00        -0.36455E+08
 
   -0.38458E+08         0.10497E+06         0.00000E+00
    0.10497E+06        -0.51546E+08         0.00000E+00
    0.00000E+00         0.00000E+00        -0.36455E+08
 
   -0.38339E+08         0.24630E+06         0.00000E+00
    0.24630E+06        -0.51630E+08         0.00000E+00
    0.00000E+00         0.00000E+00        -0.36455E+08
 
   -0.38219E+08         0.39689E+06         0.00000E+00
    0.39689E+06        -0.51715E+08         0.00000E+00
    0.00000E+00         0.00000E+00        -0.36455E+08
 
   -0.38098E+08         0.55666E+06         0.00000E+00
    0.55666E+06        -0.51799E+08         0.00000E+00
    0.00000E+00         0.00000E+00        -0.36455E+08
 
   -0.37978E+08         0.72555E+06         0.00000E+00
    0.72555E+06        -0.51884E+08         0.00000E+00
    0.00000E+00         0.00000E+00        -0.36455E+08
 
   -0.37859E+08         0.90349E+06         0.00000E+00
    0.90349E+06        -0.51968E+08         0.00000E+00
    0.00000E+00         0.00000E+00        -0.36455E+08
 
   -0.37740E+08         0.10905E+07         0.00000E+00
    0.10905E+07        -0.52051E+08         0.00000E+00
    0.00000E+00         0.00000E+00        -0.36455E+08
 
   -0.37624E+08         0.12864E+07         0.00000E+00
    0.12864E+07        -0.52134E+08         0.00000E+00
    0.00000E+00         0.00000E+00        -0.36455E+08
 
   -0.37510E+08         0.14913E+07         0.00000E+00
    0.14913E+07        -0.52216E+08         0.00000E+00
    0.00000E+00         0.00000E+00        -0.36455E+08
 
   -0.37398E+08         0.17052E+07         0.00000E+00
    0.17052E+07        -0.52298E+08         0.00000E+00
    0.00000E+00         0.00000E+00        -0.36455E+08
 
   -0.37291E+08         0.19278E+07         0.00000E+00
    0.19278E+07        -0.52378E+08         0.00000E+00
    0.00000E+00         0.00000E+00        -0.36455E+08
 
   -0.37188E+08         0.21592E+07         0.00000E+00
    0.21592E+07        -0.52457E+08         0.00000E+00
    0.00000E+00         0.00000E+00        -0.36455E+08
 
   -0.37090E+08         0.23994E+07         0.00000E+00
    0.23994E+07        -0.52535E+08         0.00000E+00
    0.00000E+00         0.00000E+00        -0.36455E+08
 
   -0.36998E+08         0.26481E+07         0.00000E+00
    0.26481E+07        -0.52612E+08         0.00000E+00
    0.00000E+00         0.00000E+00        -0.36455E+08
 
   -0.36912E+08         0.29041E+07         0.00000E+00
    0.29041E+07        -0.52685E+08         0.00000E+00
    0.00000E+00         0.00000E+00        -0.36455E+08
 
   -0.36833E+08         0.31680E+07         0.00000E+00
    0.31680E+07        -0.52759E+08         0.00000E+00
    0.00000E+00         0.00000E+00        -0.36455E+08
 
   -0.36763E+08         0.34420E+07         0.00000E+00
    0.34420E+07        -0.52833E+08         0.00000E+00
    0.00000E+00         0.00000E+00        -0.36455E+08
 
   -0.36704E+08         0.37253E+07         0.00000E+00
    0.37253E+07        -0.52899E+08         0.00000E+00
    0.00000E+00         0.00000E+00        -0.36455E+08
 
   -0.36660E+08         0.40110E+07         0.00000E+00
    0.40110E+07        -0.52952E+08         0.00000E+00
    0.00000E+00         0.00000E+00        -0.36455E+08
 
   -0.36623E+08         0.42906E+07         0.00000E+00
    0.42906E+07        -0.53003E+08         0.00000E+00
    0.00000E+00         0.00000E+00        -0.36455E+08
 
   -0.36587E+08         0.45706E+07         0.00000E+00
    0.45706E+07        -0.53079E+08         0.00000E+00
    0.00000E+00         0.00000E+00        -0.36455E+08
 
   -0.36563E+08         0.48512E+07         0.00000E+00
    0.48512E+07        -0.53189E+08         0.00000E+00
    0.00000E+00         0.00000E+00        -0.36471E+08
 
   -0.36624E+08         0.51123E+07         0.00000E+00
    0.51123E+07        -0.53283E+08         0.00000E+00
    0.00000E+00         0.00000E+00        -0.36569E+08
 
   -0.36706E+08         0.53647E+07         0.00000E+00
    0.53647E+07        -0.53376E+08         0.00000E+00
    0.00000E+00         0.00000E+00        -0.36675E+08
 
   -0.36883E+08         0.55780E+07         0.00000E+00
    0.55780E+07        -0.53438E+08         0.00000E+00
    0.00000E+00         0.00000E+00        -0.36867E+08
 
   -0.37088E+08         0.57819E+07         0.00000E+00
    0.57819E+07        -0.53526E+08         0.00000E+00
    0.00000E+00         0.00000E+00        -0.37083E+08
 
   -0.40058E+08        -0.11240E+06         0.00000E+00
   -0.11240E+06        -0.50003E+08         0.00000E+00
    0.00000E+00         0.00000E+00        -0.34679E+08
 
   -0.40120E+08        -0.29005E+06         0.00000E+00
   -0.29005E+06        -0.50014E+08         0.00000E+00
    0.00000E+00         0.00000E+00        -0.34679E+08
 
   -0.40158E+08        -0.45080E+06         0.00000E+00
   -0.45080E+06        -0.50034E+08         0.00000E+00
    0.00000E+00         0.00000E+00        -0.34679E+08
 
   -0.40174E+08        -0.59469E+06         0.00000E+00
   -0.59469E+06        -0.50062E+08         0.00000E+00
    0.00000E+00         0.00000E+00        -0.34679E+08
 
   -0.40168E+08        -0.72191E+06         0.00000E+00
   -0.72191E+06        -0.50097E+08         0.00000E+00
    0.00000E+00         0.00000E+00        -0.34679E+08
 
   -0.40145E+08        -0.83272E+06         0.00000E+00
   -0.83272E+06        -0.50139E+08         0.00000E+00
    0.00000E+00         0.00000E+00        -0.34679E+08
 
   -0.40103E+08        -0.92738E+06         0.00000E+00
   -0.92738E+06        -0.50186E+08         0.00000E+00
    0.00000E+00         0.00000E+00        -0.34679E+08
 
   -0.40047E+08        -0.10062E+07         0.00000E+00
   -0.10062E+07        -0.50238E+08         0.00000E+00
    0.00000E+00         0.00000E+00        -0.34679E+08
 
   -0.39976E+08        -0.10696E+07         0.00000E+00
   -0.10696E+07        -0.50295E+08         0.00000E+00
    0.00000E+00         0.00000E+00        -0.34679E+08
 
   -0.39892E+08        -0.11179E+07         0.00000E+00
   -0.11179E+07        -0.50355E+08         0.00000E+00
    0.00000E+00         0.00000E+00        -0.34679E+08
 
   -0.39796E+08        -0.11515E+07         0.00000E+00
   -0.11515E+07        -0.50419E+08         0.00000E+00
    0.00000E+00         0.00000E+00        -0.34679E+08
 
   -0.39690E+08        -0.11708E+07         0.00000E+00
   -0.11708E+07        -0.50485E+08         0.00000E+00
    0.00000E+00         0.00000E+00        -0.34679E+08
 
   -0.39575E+08        -0.11763E+07         0.00000E+00
   -0.11763E+07        -0.50553E+08         0.00000E+00
    0.00000E+00         0.00000E+00        -0.34679E+08
 
   -0.39452E+08        -0.11683E+07         0.00000E+00
   -0.11683E+07        -0.50623E+08         0.00000E+00
    0.00000E+00         0.00000E+00        -0.34679E+08
 
   -0.39321E+08        -0.11473E+07         0.00000E+00
   -0.11473E+07        -0.50695E+08         0.00000E+00
    0.00000E+00         0.00000E+00        -0.34679E+08
 
   -0.39185E+08        -0.11137E+07         0.00000E+00
   -0.11137E+07        -0.50768E+08         0.00000E+00
    0.00000E+00         0.00000E+00        -0.34679E+08
 
   -0.39042E+08        -0.10679E+07         0.00000E+00
   -0.10679E+07        -0.50842E+08         0.00000E+00
    0.00000E+00         0.00000E+00        -0.34679E+08
 
   -0.38895E+08        -0.10103E+07         0.00000E+00
   -0.10103E+07        -0.50917E+08         0.00000E+00
    0.00000E+00         0.00000E+00        -0.34679E+08
 
   -0.38743E+08        -0.94126E+06         0.00000E+00
   -0.94126E+06        -0.50992E+08         0.00000E+00
    0.00000E+00         0.00000E+00        -0.34679E+08
 
   -0.38588E+08        -0.86121E+06         0.00000E+00
   -0.86121E+06        -0.51068E+08         0.00000E+00
    0.00000E+00         0.00000E+00        -0.34679E+08
 
   -0.38430E+08        -0.77044E+06         0.00000E+00
   -0.77044E+06        -0.51144E+08         0.00000E+00
    0.00000E+00         0.00000E+00        -0.34679E+08
 
   -0.38269E+08        -0.66926E+06         0.00000E+00
   -0.66926E+06        -0.51221E+08         0.00000E+00
    0.00000E+00         0.00000E+00        -0.34679E+08
 
   -0.38107E+08        -0.55796E+06         0.00000E+00
   -0.55796E+06        -0.51298E+08         0.00000E+00
    0.00000E+00         0.00000E+00        -0.34679E+08
 
   -0.37943E+08        -0.43677E+06         0.00000E+00
   -0.43677E+06        -0.51376E+08         0.00000E+00
    0.00000E+00         0.00000E+00        -0.34679E+08
 
   -0.37777E+08        -0.30589E+06         0.00000E+00
   -0.30589E+06        -0.51454E+08         0.00000E+00
    0.00000E+00         0.00000E+00        -0.34679E+08
 
   -0.37611E+08        -0.16549E+06         0.00000E+00
   -0.16549E+06        -0.51532E+08         0.00000E+00
    0.00000E+00         0.00000E+00        -0.34679E+08
 
   -0.37445E+08        -0.15689E+05         0.00000E+00
   -0.15689E+05        -0.51610E+08         0.00000E+00
    0.00000E+00         0.00000E+00        -0.34679E+08
 
   -0.37278E+08         0.14343E+06         0.00000E+00
    0.14343E+06        -0.51689E+08         0.00000E+00
    0.00000E+00         0.00000E+00        -0.34679E+08
 
   -0.37112E+08         0.31181E+06         0.00000E+00
    0.31181E+06        -0.51769E+08         0.00000E+00
    0.00000E+00         0.00000E+00        -0.34679E+08
 
   -0.36947E+08         0.48947E+06         0.00000E+00
    0.48947E+06        -0.51849E+08         0.00000E+00
    0.00000E+00         0.00000E+00        -0.34679E+08
 
   -0.36782E+08         0.67644E+06         0.00000E+00
    0.67644E+06        -0.51929E+08         0.00000E+00
    0.00000E+00         0.00000E+00        -0.34679E+08
 
   -0.36620E+08         0.87278E+06         0.00000E+00
    0.87278E+06        -0.52010E+08         0.00000E+00
    0.00000E+00         0.00000E+00        -0.34679E+08
 
   -0.36460E+08         0.10786E+07         0.00000E+00
    0.10786E+07        -0.52092E+08         0.00000E+00
    0.00000E+00         0.00000E+00        -0.34679E+08
 
   -0.36302E+08         0.12940E+07         0.00000E+00
    0.12940E+07        -0.52173E+08         0.00000E+00
    0.00000E+00         0.00000E+00        -0.34679E+08
 
   -0.36148E+08         0.15191E+07         0.00000E+00
    0.15191E+07        -0.52255E+08         0.00000E+00
    0.00000E+00         0.00000E+00        -0.34679E+08
 
   -0.35999E+08         0.17541E+07         0.00000E+00
    0.17541E+07        -0.52337E+08         0.00000E+00
    0.00000E+00         0.00000E+00        -0.34679E+08
 
   -0.35855E+08         0.19985E+07         0.00000E+00
    0.19985E+07        -0.52418E+08         0.00000E+00
    0.00000E+00         0.00000E+00        -0.34679E+08
 
   -0.35717E+08         0.22531E+07         0.00000E+00
    0.22531E+07        -0.52500E+08         0.00000E+00
    0.00000E+00         0.00000E+00        -0.34679E+08
 
   -0.35588E+08         0.25206E+07         0.00000E+00
    0.25206E+07        -0.52583E+08         0.00000E+00
    0.00000E+00         0.00000E+00        -0.34679E+08
 
   -0.35471E+08         0.27965E+07         0.00000E+00
    0.27965E+07        -0.52653E+08         0.00000E+00
    0.00000E+00         0.00000E+00        -0.34679E+08
 
   -0.35363E+08         0.30723E+07         0.00000E+00
    0.30723E+07        -0.52717E+08         0.00000E+00
    0.00000E+00         0.00000E+00        -0.34679E+08
 
   -0.35257E+08         0.33506E+07         0.00000E+00
    0.33506E+07        -0.52805E+08         0.00000E+00
    0.00000E+00         0.00000E+00        -0.34679E+08
 
   -0.35200E+08         0.36287E+07         0.00000E+00
    0.36287E+07        -0.52916E+08         0.00000E+00
    0.00000E+00         0.00000E+00        -0.34732E+08
 
   -0.35184E+08         0.39028E+07         0.00000E+00
    0.39028E+07        -0.53019E+08         0.00000E+00
    0.00000E+00         0.00000E+00        -0.34823E+08
 
   -0.35231E+08         0.41633E+07         0.00000E+00
    0.41633E+07        -0.53100E+08         0.00000E+00
    0.00000E+00         0.00000E+00        -0.34973E+08
 
   -0.35351E+08         0.44023E+07         0.00000E+00
    0.44023E+07        -0.53162E+08         0.00000E+00
    0.00000E+00         0.00000E+00        -0.35191E+08
 
   -0.35504E+08         0.46424E+07         0.00000E+00
    0.46424E+07        -0.53255E+08         0.00000E+00
    0.00000E+00         0.00000E+00        -0.35432E+08
 
   -0.35667E+08         0.48688E+07         0.00000E+00
    0.48688E+07        -0.53352E+08         0.00000E+00
    0.00000E+00         0.00000E+00        -0.35664E+08
 
   -0.35855E+08         0.50876E+07         0.00000E+00
    0.50876E+07        -0.53454E+08         0.00000E+00
    0.00000E+00         0.00000E+00        -0.35882E+08
 
   -0.36064E+08         0.53047E+07         0.00000E+00
    0.53047E+07        -0.53548E+08         0.00000E+00
    0.00000E+00         0.00000E+00        -0.36080E+08
 
   -0.41113E+08        -0.14294E+06         0.00000E+00
   -0.14294E+06        -0.50003E+08         0.00000E+00
    0.00000E+00         0.00000E+00        -0.32750E+08
 
   -0.41077E+08        -0.36751E+06         0.00000E+00
   -0.36751E+06        -0.50014E+08         0.00000E+00
    0.00000E+00         0.00000E+00        -0.32750E+08
 
   -0.41018E+08        -0.56960E+06         0.00000E+00
   -0.56960E+06        -0.50033E+08         0.00000E+00
    0.00000E+00         0.00000E+00        -0.32750E+08
 
   -0.40939E+08        -0.75002E+06         0.00000E+00
   -0.75002E+06        -0.50060E+08         0.00000E+00
    0.00000E+00         0.00000E+00        -0.32750E+08
 
   -0.40840E+08        -0.90929E+06         0.00000E+00
   -0.90929E+06        -0.50092E+08         0.00000E+00
    0.00000E+00         0.00000E+00        -0.32750E+08
 
   -0.40725E+08        -0.10480E+07         0.00000E+00
   -0.10480E+07        -0.50131E+08         0.00000E+00
    0.00000E+00         0.00000E+00        -0.32750E+08
 
   -0.40595E+08        -0.11668E+07         0.00000E+00
   -0.11668E+07        -0.50174E+08         0.00000E+00
    0.00000E+00         0.00000E+00        -0.32750E+08
 
   -0.40452E+08        -0.12663E+07         0.00000E+00
   -0.12663E+07        -0.50220E+08         0.00000E+00
    0.00000E+00         0.00000E+00        -0.32750E+08
 
   -0.40297E+08        -0.13472E+07         0.00000E+00
   -0.13472E+07        -0.50271E+08         0.00000E+00
    0.00000E+00         0.00000E+00        -0.32750E+08
 
   -0.40132E+08        -0.14102E+07         0.00000E+00
   -0.14102E+07        -0.50323E+08         0.00000E+00
    0.00000E+00         0.00000E+00        -0.32750E+08
 
   -0.39958E+08        -0.14559E+07         0.00000E+00
   -0.14559E+07        -0.50378E+08         0.00000E+00
    0.00000E+00         0.00000E+00        -0.32750E+08
 
   -0.39777E+08        -0.14851E+07         0.00000E+00
   -0.14851E+07        -0.50435E+08         0.00000E+00
    0.00000E+00         0.00000E+00        -0.32750E+08
 
   -0.39589E+08        -0.14984E+07         0.00000E+00
   -0.14984E+07        -0.50493E+08         0.00000E+00
    0.00000E+00         0.00000E+00        -0.32750E+08
 
   -0.39396E+08        -0.14965E+07         0.00000E+00
   -0.14965E+07        -0.50551E+08         0.00000E+00
    0.00000E+00         0.00000E+00        -0.32750E+08
 
   -0.39198E+08        -0.14802E+07         0.00000E+00
   -0.14802E+07        -0.50610E+08         0.00000E+00
    0.00000E+00         0.00000E+00        -0.32750E+08
 
   -0.38996E+08        -0.14502E+07         0.00000E+00
   -0.14502E+07        -0.50670E+08         0.00000E+00
    0.00000E+00         0.00000E+00        -0.32750E+08
 
   -0.38791E+08        -0.14070E+07         0.00000E+00
   -0.14070E+07        -0.50729E+08         0.00000E+00
    0.00000E+00         0.00000E+00        -0.32750E+08
 
   -0.38585E+08        -0.13514E+07         0.00000E+00
   -0.13514E+07        -0.50789E+08         0.00000E+00
    0.00000E+00         0.00000E+00        -0.32750E+08
 
   -0.38376E+08        -0.12839E+07         0.00000E+00
   -0.12839E+07        -0.50849E+08         0.00000E+00
    0.00000E+00         0.00000E+00        -0.32750E+08
 
   -0.38166E+08        -0.12051E+07         0.00000E+00
   -0.12051E+07        -0.50908E+08         0.00000E+00
    0.00000E+00         0.00000E+00        -0.32750E+08
 
   -0.37955E+08        -0.11156E+07         0.00000E+00
   -0.11156E+07        -0.50968E+08         0.00000E+00
    0.00000E+00         0.00000E+00        -0.32750E+08
 
   -0.37743E+08        -0.10157E+07         0.00000E+00
   -0.10157E+07        -0.51028E+08         0.00000E+00
    0.00000E+00         0.00000E+00        -0.32750E+08
 
   -0.37531E+08        -0.90600E+06         0.00000E+00
   -0.90600E+06        -0.51087E+08         0.00000E+00
    0.00000E+00         0.00000E+00        -0.32750E+08
 
   -0.37319E+08        -0.78672E+06         0.00000E+00
   -0.78672E+06        -0.51148E+08         0.00000E+00
    0.00000E+00         0.00000E+00        -0.32750E+08
 
   -0.37106E+08        -0.65817E+06         0.00000E+00
   -0.65817E+06        -0.51209E+08         0.00000E+00
    0.00000E+00         0.00000E+00        -0.32750E+08
 
   -0.36894E+08        -0.52059E+06         0.00000E+00
   -0.52059E+06        -0.51270E+08         0.00000E+00
    0.00000E+00         0.00000E+00        -0.32750E+08
 
   -0.36682E+08        -0.37413E+06         0.00000E+00
   -0.37413E+06        -0.51332E+08         0.00000E+00
    0.00000E+00         0.00000E+00        -0.32750E+08
 
   -0.36470E+08        -0.21886E+06         0.00000E+00
   -0.21886E+06        -0.51395E+08         0.00000E+00
    0.00000E+00         0.00000E+00        -0.32750E+08
 
   -0.36258E+08        -0.54793E+05         0.00000E+00
   -0.54793E+05        -0.51460E+08         0.00000E+00
    0.00000E+00         0.00000E+00        -0.32750E+08
 
   -0.36047E+08         0.11814E+06         0.00000E+00
    0.11814E+06        -0.51526E+08         0.00000E+00
    0.00000E+00         0.00000E+00        -0.32750E+08
 
   -0.35836E+08         0.30010E+06         0.00000E+00
    0.30010E+06        -0.51593E+08         0.00000E+00
    0.00000E+00         0.00000E+00        -0.32750E+08
 
   -0.35626E+08         0.49131E+06         0.00000E+00
    0.49131E+06        -0.51662E+08         0.00000E+00
    0.00000E+00         0.00000E+00        -0.32750E+08
 
   -0.35417E+08         0.69212E+06         0.00000E+00
    0.69212E+06        -0.51732E+08         0.00000E+00
    0.00000E+00         0.00000E+00        -0.32750E+08
 
   -0.35210E+08         0.90290E+06         0.00000E+00
    0.90290E+06        -0.51804E+08         0.00000E+00
    0.00000E+00         0.00000E+00        -0.32750E+08
 
   -0.35005E+08         0.11240E+07         0.00000E+00
    0.11240E+07        -0.51878E+08         0.00000E+00
    0.00000E+00         0.00000E+00        -0.32750E+08
 
   -0.34802E+08         0.13563E+07         0.00000E+00
    0.13563E+07        -0.51952E+08         0.00000E+00
    0.00000E+00         0.00000E+00        -0.32750E+08
 
   -0.34604E+08         0.16019E+07         0.00000E+00
    0.16019E+07        -0.52030E+08         0.00000E+00
    0.00000E+00         0.00000E+00        -0.32750E+08
 
   -0.34413E+08         0.18578E+07         0.00000E+00
    0.18578E+07        -0.52104E+08         0.00000E+00
    0.00000E+00         0.00000E+00        -0.32750E+08
 
   -0.34222E+08         0.21174E+07         0.00000E+00
    0.21174E+07        -0.52171E+08         0.00000E+00
    0.00000E+00         0.00000E+00        -0.32750E+08
 
   -0.34065E+08         0.23836E+07         0.00000E+00
    0.23836E+07        -0.52268E+08         0.00000E+00
    0.00000E+00         0.00000E+00        -0.32794E+08
 
   -0.33943E+08         0.26544E+07         0.00000E+00
    0.26544E+07        -0.52374E+08         0.00000E+00
    0.00000E+00         0.00000E+00        -0.32878E+08
 
   -0.33892E+08         0.29204E+07         0.00000E+00
    0.29204E+07        -0.52455E+08         0.00000E+00
    0.00000E+00         0.00000E+00        -0.33039E+08
 
   -0.33923E+08         0.31789E+07         0.00000E+00
    0.31789E+07        -0.52530E+08         0.00000E+00
    0.00000E+00         0.00000E+00        -0.33287E+08
 
   -0.33978E+08         0.34308E+07         0.00000E+00
    0.34308E+07        -0.52621E+08         0.00000E+00
    0.00000E+00         0.00000E+00        -0.33545E+08
 
   -0.34060E+08         0.36781E+07         0.00000E+00
    0.36781E+07        -0.52722E+08         0.00000E+00
    0.00000E+00         0.00000E+00        -0.33801E+08
 
   -0.34174E+08         0.39227E+07         0.00000E+00
    0.39227E+07        -0.52824E+08         0.00000E+00
    0.00000E+00         0.00000E+00        -0.34045E+08
 
   -0.34314E+08         0.41669E+07         0.00000E+00
    0.41669E+07        -0.52920E+08         0.00000E+00
    0.00000E+00         0.00000E+00        -0.34267E+08
 
   -0.34480E+08         0.44147E+07         0.00000E+00
    0.44147E+07        -0.53012E+08         0.00000E+00
    0.00000E+00         0.00000E+00        -0.34478E+08
 
   -0.34664E+08         0.46684E+07         0.00000E+00
    0.46684E+07        -0.53093E+08         0.00000E+00
    0.00000E+00         0.00000E+00        -0.34679E+08
 
   -0.34865E+08         0.49245E+07         0.00000E+00
    0.49245E+07        -0.53166E+08         0.00000E+00
    0.00000E+00         0.00000E+00        -0.34873E+08
 
   -0.42406E+08        -0.17411E+06         0.00000E+00
   -0.17411E+06        -0.50005E+08         0.00000E+00
    0.00000E+00         0.00000E+00        -0.30674E+08
 
   -0.42243E+08        -0.43897E+06         0.00000E+00
   -0.43897E+06        -0.50013E+08         0.00000E+00
    0.00000E+00         0.00000E+00        -0.30674E+08
 
   -0.42061E+08        -0.67676E+06         0.00000E+00
   -0.67676E+06        -0.50029E+08         0.00000E+00
    0.00000E+00         0.00000E+00        -0.30674E+08
 
   -0.41862E+08        -0.88775E+06         0.00000E+00
   -0.88775E+06        -0.50051E+08         0.00000E+00
    0.00000E+00         0.00000E+00        -0.30674E+08
 
   -0.41649E+08        -0.10730E+07         0.00000E+00
   -0.10730E+07        -0.50078E+08         0.00000E+00
    0.00000E+00         0.00000E+00        -0.30674E+08
 
   -0.41422E+08        -0.12336E+07         0.00000E+00
   -0.12336E+07        -0.50108E+08         0.00000E+00
    0.00000E+00         0.00000E+00        -0.30674E+08
 
   -0.41185E+08        -0.13704E+07         0.00000E+00
   -0.13704E+07        -0.50142E+08         0.00000E+00
    0.00000E+00         0.00000E+00        -0.30674E+08
 
   -0.40938E+08        -0.14843E+07         0.00000E+00
   -0.14843E+07        -0.50179E+08         0.00000E+00
    0.00000E+00         0.00000E+00        -0.30674E+08
 
   -0.40684E+08        -0.15760E+07         0.00000E+00
   -0.15760E+07        -0.50217E+08         0.00000E+00
    0.00000E+00         0.00000E+00        -0.30674E+08
 
   -0.40424E+08        -0.16468E+07         0.00000E+00
   -0.16468E+07        -0.50256E+08         0.00000E+00
    0.00000E+00         0.00000E+00        -0.30674E+08
 
   -0.40160E+08        -0.16977E+07         0.00000E+00
   -0.16977E+07        -0.50296E+08         0.00000E+00
    0.00000E+00         0.00000E+00        -0.30674E+08
 
   -0.39892E+08        -0.17297E+07         0.00000E+00
   -0.17297E+07        -0.50335E+08         0.00000E+00
    0.00000E+00         0.00000E+00        -0.30674E+08
 
   -0.39622E+08        -0.17441E+07         0.00000E+00
   -0.17441E+07        -0.50374E+08         0.00000E+00
    0.00000E+00         0.00000E+00        -0.30674E+08
 
   -0.39352E+08        -0.17420E+07         0.00000E+00
   -0.17420E+07        -0.50412E+08         0.00000E+00
    0.00000E+00         0.00000E+00        -0.30674E+08
 
   -0.39081E+08        -0.17243E+07         0.00000E+00
   -0.17243E+07        -0.50449E+08         0.00000E+00
    0.00000E+00         0.00000E+00        -0.30674E+08
 
   -0.38811E+08        -0.16923E+07         0.00000E+00
   -0.16923E+07        -0.50485E+08         0.00000E+00
    0.00000E+00         0.00000E+00        -0.30674E+08
 
   -0.38542E+08        -0.16469E+07         0.00000E+00
   -0.16469E+07        -0.50520E+08         0.00000E+00
    0.00000E+00         0.00000E+00        -0.30674E+08
 
   -0.38275E+08        -0.15891E+07         0.00000E+00
   -0.15891E+07        -0.50554E+08         0.00000E+00
    0.00000E+00         0.00000E+00        -0.30674E+08
 
   -0.38009E+08        -0.15197E+07         0.00000E+00
   -0.15197E+07        -0.50587E+08         0.00000E+00
    0.00000E+00         0.00000E+00        -0.30674E+08
 
   -0.37745E+08        -0.14395E+07         0.00000E+00
   -0.14395E+07        -0.50619E+08         0.00000E+00
    0.00000E+00         0.00000E+00        -0.30674E+08
 
   -0.37483E+08        -0.13493E+07         0.00000E+00
   -0.13493E+07        -0.50651E+08         0.00000E+00
    0.00000E+00         0.00000E+00        -0.30674E+08
 
   -0.37223E+08        -0.12497E+07         0.00000E+00
   -0.12497E+07        -0.50683E+08         0.00000E+00
    0.00000E+00         0.00000E+00        -0.30674E+08
 
   -0.36965E+08        -0.11411E+07         0.00000E+00
   -0.11411E+07        -0.50715E+08         0.00000E+00
    0.00000E+00         0.00000E+00        -0.30674E+08
 
   -0.36708E+08        -0.10242E+07         0.00000E+00
   -0.10242E+07        -0.50748E+08         0.00000E+00
    0.00000E+00         0.00000E+00        -0.30674E+08
 
   -0.36452E+08        -0.89914E+06         0.00000E+00
   -0.89914E+06        -0.50781E+08         0.00000E+00
    0.00000E+00         0.00000E+00        -0.30674E+08
 
   -0.36198E+08        -0.76631E+06         0.00000E+00
   -0.76631E+06        -0.50815E+08         0.00000E+00
    0.00000E+00         0.00000E+00        -0.30674E+08
 
   -0.35944E+08        -0.62585E+06         0.00000E+00
   -0.62585E+06        -0.50851E+08         0.00000E+00
    0.00000E+00         0.00000E+00        -0.30674E+08
 
   -0.35691E+08        -0.47785E+06         0.00000E+00
   -0.47785E+06        -0.50888E+08         0.00000E+00
    0.00000E+00         0.00000E+00        -0.30674E+08
 
   -0.35437E+08        -0.32229E+06         0.00000E+00
   -0.32229E+06        -0.50928E+08         0.00000E+00
    0.00000E+00         0.00000E+00        -0.30674E+08
 
   -0.35184E+08        -0.15903E+06         0.00000E+00
   -0.15903E+06        -0.50969E+08         0.00000E+00
    0.00000E+00         0.00000E+00        -0.30674E+08
 
   -0.34929E+08         0.12180E+05         0.00000E+00
    0.12180E+05        -0.51014E+08         0.00000E+00
    0.00000E+00         0.00000E+00        -0.30674E+08
 
   -0.34674E+08         0.19172E+06         0.00000E+00
    0.19172E+06        -0.51061E+08         0.00000E+00
    0.00000E+00         0.00000E+00        -0.30674E+08
 
   -0.34417E+08         0.38011E+06         0.00000E+00
    0.38011E+06        -0.51112E+08         0.00000E+00
    0.00000E+00         0.00000E+00        -0.30674E+08
 
   -0.34158E+08         0.57813E+06         0.00000E+00
    0.57813E+06        -0.51166E+08         0.00000E+00
    0.00000E+00         0.00000E+00        -0.30674E+08
 
   -0.33898E+08         0.78728E+06         0.00000E+00
    0.78728E+06        -0.51224E+08         0.00000E+00
    0.00000E+00         0.00000E+00        -0.30674E+08
 
   -0.33636E+08         0.10066E+07         0.00000E+00
    0.10066E+07        -0.51286E+08         0.00000E+00
    0.00000E+00         0.00000E+00        -0.30674E+08
 
   -0.33373E+08         0.12334E+07         0.00000E+00
    0.12334E+07        -0.51346E+08         0.00000E+00
    0.00000E+00         0.00000E+00        -0.30680E+08
 
   -0.33135E+08         0.14684E+07         0.00000E+00
    0.14684E+07        -0.51412E+08         0.00000E+00
    0.00000E+00         0.00000E+00        -0.30733E+08
 
   -0.32925E+08         0.17127E+07         0.00000E+00
    0.17127E+07        -0.51502E+08         0.00000E+00
    0.00000E+00         0.00000E+00        -0.30830E+08
 
   -0.32806E+08         0.19571E+07         0.00000E+00
    0.19571E+07        -0.51578E+08         0.00000E+00
    0.00000E+00         0.00000E+00        -0.31046E+08
 
   -0.32735E+08         0.21977E+07         0.00000E+00
    0.21977E+07        -0.51660E+08         0.00000E+00
    0.00000E+00         0.00000E+00        -0.31310E+08
 
   -0.32698E+08         0.24358E+07         0.00000E+00
    0.24358E+07        -0.51762E+08         0.00000E+00
    0.00000E+00         0.00000E+00        -0.31587E+08
 
   -0.32694E+08         0.26773E+07         0.00000E+00
    0.26773E+07        -0.51866E+08         0.00000E+00
    0.00000E+00         0.00000E+00        -0.31858E+08
 
   -0.32723E+08         0.29289E+07         0.00000E+00
    0.29289E+07        -0.51970E+08         0.00000E+00
    0.00000E+00         0.00000E+00        -0.32116E+08
 
   -0.32786E+08         0.31868E+07         0.00000E+00
    0.31868E+07        -0.52071E+08         0.00000E+00
    0.00000E+00         0.00000E+00        -0.32365E+08
 
   -0.32877E+08         0.34551E+07         0.00000E+00
    0.34551E+07        -0.52168E+08         0.00000E+00
    0.00000E+00         0.00000E+00        -0.32604E+08
 
   -0.32995E+08         0.37317E+07         0.00000E+00
    0.37317E+07        -0.52259E+08         0.00000E+00
    0.00000E+00         0.00000E+00        -0.32837E+08
 
   -0.33136E+08         0.40148E+07         0.00000E+00
    0.40148E+07        -0.52343E+08         0.00000E+00
    0.00000E+00         0.00000E+00        -0.33061E+08
 
   -0.33302E+08         0.43019E+07         0.00000E+00
    0.43019E+07        -0.52421E+08         0.00000E+00
    0.00000E+00         0.00000E+00        -0.33279E+08
 
   -0.33491E+08         0.45987E+07         0.00000E+00
    0.45987E+07        -0.52488E+08         0.00000E+00
    0.00000E+00         0.00000E+00        -0.33489E+08
 
   -0.43896E+08        -0.19317E+06         0.00000E+00
   -0.19317E+06        -0.49993E+08         0.00000E+00
    0.00000E+00         0.00000E+00        -0.28464E+08
 
   -0.43580E+08        -0.49188E+06         0.00000E+00
   -0.49188E+06        -0.50002E+08         0.00000E+00
    0.00000E+00         0.00000E+00        -0.28464E+08
 
   -0.43250E+08        -0.75686E+06         0.00000E+00
   -0.75686E+06        -0.50013E+08         0.00000E+00
    0.00000E+00         0.00000E+00        -0.28464E+08
 
   -0.42909E+08        -0.99116E+06         0.00000E+00
   -0.99116E+06        -0.50027E+08         0.00000E+00
    0.00000E+00         0.00000E+00        -0.28464E+08
 
   -0.42557E+08        -0.11951E+07         0.00000E+00
   -0.11951E+07        -0.50046E+08         0.00000E+00
    0.00000E+00         0.00000E+00        -0.28464E+08
 
   -0.42197E+08        -0.13689E+07         0.00000E+00
   -0.13689E+07        -0.50067E+08         0.00000E+00
    0.00000E+00         0.00000E+00        -0.28464E+08
 
   -0.41830E+08        -0.15135E+07         0.00000E+00
   -0.15135E+07        -0.50088E+08         0.00000E+00
    0.00000E+00         0.00000E+00        -0.28464E+08
 
   -0.41461E+08        -0.16304E+07         0.00000E+00
   -0.16304E+07        -0.50108E+08         0.00000E+00
    0.00000E+00         0.00000E+00        -0.28464E+08
 
   -0.41091E+08        -0.17214E+07         0.00000E+00
   -0.17214E+07        -0.50126E+08         0.00000E+00
    0.00000E+00         0.00000E+00        -0.28464E+08
 
   -0.40721E+08        -0.17882E+07         0.00000E+00
   -0.17882E+07        -0.50142E+08         0.00000E+00
    0.00000E+00         0.00000E+00        -0.28464E+08
 
   -0.40355E+08        -0.18325E+07         0.00000E+00
   -0.18325E+07        -0.50156E+08         0.00000E+00
    0.00000E+00         0.00000E+00        -0.28464E+08
 
   -0.39993E+08        -0.18562E+07         0.00000E+00
   -0.18562E+07        -0.50166E+08         0.00000E+00
    0.00000E+00         0.00000E+00        -0.28464E+08
 
   -0.39636E+08        -0.18613E+07         0.00000E+00
   -0.18613E+07        -0.50174E+08         0.00000E+00
    0.00000E+00         0.00000E+00        -0.28464E+08
 
   -0.39285E+08        -0.18496E+07         0.00000E+00
   -0.18496E+07        -0.50178E+08         0.00000E+00
    0.00000E+00         0.00000E+00        -0.28464E+08
 
   -0.38940E+08        -0.18228E+07         0.00000E+00
   -0.18228E+07        -0.50179E+08         0.00000E+00
    0.00000E+00         0.00000E+00        -0.28464E+08
 
   -0.38603E+08        -0.17822E+07         0.00000E+00
   -0.17822E+07        -0.50178E+08         0.00000E+00
    0.00000E+00         0.00000E+00        -0.28464E+08
 
   -0.38272E+08        -0.17292E+07         0.00000E+00
   -0.17292E+07        -0.50175E+08         0.00000E+00
    0.00000E+00         0.00000E+00        -0.28464E+08
 
   -0.37947E+08        -0.16652E+07         0.00000E+00
   -0.16652E+07        -0.50171E+08         0.00000E+00
    0.00000E+00         0.00000E+00        -0.28464E+08
 
   -0.37629E+08        -0.15913E+07         0.00000E+00
   -0.15913E+07        -0.50165E+08         0.00000E+00
    0.00000E+00         0.00000E+00        -0.28464E+08
 
   -0.37317E+08        -0.15083E+07         0.00000E+00
   -0.15083E+07        -0.50158E+08         0.00000E+00
    0.00000E+00         0.00000E+00        -0.28464E+08
 
   -0.37011E+08        -0.14171E+07         0.00000E+00
   -0.14171E+07        -0.50152E+08         0.00000E+00
    0.00000E+00         0.00000E+00        -0.28464E+08
 
   -0.36709E+08        -0.13183E+07         0.00000E+00
   -0.13183E+07        -0.50145E+08         0.00000E+00
    0.00000E+00         0.00000E+00        -0.28464E+08
 
   -0.36412E+08        -0.12125E+07         0.00000E+00
   -0.12125E+07        -0.50140E+08         0.00000E+00
    0.00000E+00         0.00000E+00        -0.28464E+08
 
   -0.36118E+08        -0.11002E+07         0.00000E+00
   -0.11002E+07        -0.50136E+08         0.00000E+00
    0.00000E+00         0.00000E+00        -0.28464E+08
 
   -0.35827E+08        -0.98179E+06         0.00000E+00
   -0.98179E+06        -0.50133E+08         0.00000E+00
    0.00000E+00         0.00000E+00        -0.28464E+08
 
   -0.35539E+08        -0.85745E+06         0.00000E+00
   -0.85745E+06        -0.50133E+08         0.00000E+00
    0.00000E+00         0.00000E+00        -0.28464E+08
 
   -0.35252E+08        -0.72741E+06         0.00000E+00
   -0.72741E+06        -0.50135E+08         0.00000E+00
    0.00000E+00         0.00000E+00        -0.28464E+08
 
   -0.34965E+08        -0.59176E+06         0.00000E+00
   -0.59176E+06        -0.50140E+08         0.00000E+00
    0.00000E+00         0.00000E+00        -0.28464E+08
 
   -0.34678E+08        -0.45050E+06         0.00000E+00
   -0.45050E+06        -0.50149E+08         0.00000E+00
    0.00000E+00         0.00000E+00        -0.28464E+08
 
   -0.34389E+08        -0.30354E+06         0.00000E+00
   -0.30354E+06        -0.50161E+08         0.00000E+00
    0.00000E+00         0.00000E+00        -0.28464E+08
 
   -0.34099E+08        -0.15064E+06         0.00000E+00
   -0.15064E+06        -0.50178E+08         0.00000E+00
    0.00000E+00         0.00000E+00        -0.28464E+08
 
   -0.33805E+08         0.85879E+04         0.00000E+00
    0.85879E+04        -0.50199E+08         0.00000E+00
    0.00000E+00         0.00000E+00        -0.28464E+08
 
   -0.33506E+08         0.17475E+06         0.00000E+00
    0.17475E+06        -0.50226E+08         0.00000E+00
    0.00000E+00         0.00000E+00        -0.28464E+08
 
   -0.33201E+08         0.34821E+06         0.00000E+00
    0.34821E+06        -0.50259E+08         0.00000E+00
    0.00000E+00         0.00000E+00        -0.28464E+08
 
   -0.32890E+08         0.52770E+06         0.00000E+00
    0.52770E+06        -0.50298E+08         0.00000E+00
    0.00000E+00         0.00000E+00        -0.28468E+08
 
   -0.32590E+08         0.71389E+06         0.00000E+00
    0.71389E+06        -0.50328E+08         0.00000E+00
    0.00000E+00         0.00000E+00        -0.28512E+08
 
   -0.32289E+08         0.90943E+06         0.00000E+00
    0.90943E+06        -0.50383E+08         0.00000E+00
    0.00000E+00         0.00000E+00        -0.28570E+08
 
   -0.32049E+08         0.11096E+07         0.00000E+00
    0.11096E+07        -0.50456E+08         0.00000E+00
    0.00000E+00         0.00000E+00        -0.28732E+08
 
   -0.31872E+08         0.13060E+07         0.00000E+00
    0.13060E+07        -0.50527E+08         0.00000E+00
    0.00000E+00         0.00000E+00        -0.28983E+08
 
   -0.31724E+08         0.15032E+07         0.00000E+00
    0.15032E+07        -0.50614E+08         0.00000E+00
    0.00000E+00         0.00000E+00        -0.29249E+08
 
   -0.31602E+08         0.17114E+07         0.00000E+00
    0.17114E+07        -0.50709E+08         0.00000E+00
    0.00000E+00         0.00000E+00        -0.29515E+08
 
   -0.31512E+08         0.19337E+07         0.00000E+00
    0.19337E+07        -0.50806E+08         0.00000E+00
    0.00000E+00         0.00000E+00        -0.29785E+08
 
   -0.31452E+08         0.21723E+07         0.00000E+00
    0.21723E+07        -0.50907E+08         0.00000E+00
    0.00000E+00         0.00000E+00        -0.30058E+08
 
   -0.31424E+08         0.24259E+07         0.00000E+00
    0.24259E+07        -0.51010E+08         0.00000E+00
    0.00000E+00         0.00000E+00        -0.30333E+08
 
   -0.31427E+08         0.26958E+07         0.00000E+00
    0.26958E+07        -0.51114E+08         0.00000E+00
    0.00000E+00         0.00000E+00        -0.30608E+08
 
   -0.31463E+08         0.29804E+07         0.00000E+00
    0.29804E+07        -0.51217E+08         0.00000E+00
    0.00000E+00         0.00000E+00        -0.30881E+08
 
   -0.31531E+08         0.32781E+07         0.00000E+00
    0.32781E+07        -0.51320E+08         0.00000E+00
    0.00000E+00         0.00000E+00        -0.31153E+08
 
   -0.31632E+08         0.35882E+07         0.00000E+00
    0.35882E+07        -0.51418E+08         0.00000E+00
    0.00000E+00         0.00000E+00        -0.31421E+08
 
   -0.31770E+08         0.39056E+07         0.00000E+00
    0.39056E+07        -0.51513E+08         0.00000E+00
    0.00000E+00         0.00000E+00        -0.31677E+08
 
   -0.31947E+08         0.42237E+07         0.00000E+00
    0.42237E+07        -0.51610E+08         0.00000E+00
    0.00000E+00         0.00000E+00        -0.31923E+08
 
   -0.45514E+08        -0.20572E+06         0.00000E+00
   -0.20572E+06        -0.50032E+08         0.00000E+00
    0.00000E+00         0.00000E+00        -0.26137E+08
 
   -0.45032E+08        -0.52070E+06         0.00000E+00
   -0.52070E+06        -0.50024E+08         0.00000E+00
    0.00000E+00         0.00000E+00        -0.26137E+08
 
   -0.44533E+08        -0.80570E+06         0.00000E+00
   -0.80570E+06        -0.50028E+08         0.00000E+00
    0.00000E+00         0.00000E+00        -0.26137E+08
 
   -0.44019E+08        -0.10505E+07         0.00000E+00
   -0.10505E+07        -0.50037E+08         0.00000E+00
    0.00000E+00         0.00000E+00        -0.26137E+08
 
   -0.43496E+08        -0.12544E+07         0.00000E+00
   -0.12544E+07        -0.50039E+08         0.00000E+00
    0.00000E+00         0.00000E+00        -0.26137E+08
 
   -0.42971E+08        -0.14191E+07         0.00000E+00
   -0.14191E+07        -0.50033E+08         0.00000E+00
    0.00000E+00         0.00000E+00        -0.26137E+08
 
   -0.42450E+08        -0.15483E+07         0.00000E+00
   -0.15483E+07        -0.50024E+08         0.00000E+00
    0.00000E+00         0.00000E+00        -0.26137E+08
 
   -0.41938E+08        -0.16452E+07         0.00000E+00
   -0.16452E+07        -0.50010E+08         0.00000E+00
    0.00000E+00         0.00000E+00        -0.26137E+08
 
   -0.41438E+08        -0.17135E+07         0.00000E+00
   -0.17135E+07        -0.49987E+08         0.00000E+00
    0.00000E+00         0.00000E+00        -0.26137E+08
 
   -0.40951E+08        -0.17565E+07         0.00000E+00
   -0.17565E+07        -0.49957E+08         0.00000E+00
    0.00000E+00         0.00000E+00        -0.26137E+08
 
   -0.40479E+08        -0.17777E+07         0.00000E+00
   -0.17777E+07        -0.49920E+08         0.00000E+00
    0.00000E+00         0.00000E+00        -0.26137E+08
 
   -0.40022E+08        -0.17798E+07         0.00000E+00
   -0.17798E+07        -0.49877E+08         0.00000E+00
    0.00000E+00         0.00000E+00        -0.26137E+08
 
   -0.39580E+08        -0.17650E+07         0.00000E+00
   -0.17650E+07        -0.49830E+08         0.00000E+00
    0.00000E+00         0.00000E+00        -0.26137E+08
 
   -0.39155E+08        -0.17352E+07         0.00000E+00
   -0.17352E+07        -0.49780E+08         0.00000E+00
    0.00000E+00         0.00000E+00        -0.26137E+08
 
   -0.38746E+08        -0.16931E+07         0.00000E+00
   -0.16931E+07        -0.49725E+08         0.00000E+00
    0.00000E+00         0.00000E+00        -0.26137E+08
 
   -0.38351E+08        -0.16412E+07         0.00000E+00
   -0.16412E+07        -0.49668E+08         0.00000E+00
    0.00000E+00         0.00000E+00        -0.26137E+08
 
   -0.37969E+08        -0.15807E+07         0.00000E+00
   -0.15807E+07        -0.49610E+08         0.00000E+00
    0.00000E+00         0.00000E+00        -0.26137E+08
 
   -0.37600E+08        -0.15126E+07         0.00000E+00
   -0.15126E+07        -0.49552E+08         0.00000E+00
    0.00000E+00         0.00000E+00        -0.26137E+08
 
   -0.37242E+08        -0.14376E+07         0.00000E+00
   -0.14376E+07        -0.49494E+08         0.00000E+00
    0.00000E+00         0.00000E+00        -0.26137E+08
 
   -0.36894E+08        -0.13567E+07         0.00000E+00
   -0.13567E+07        -0.49438E+08         0.00000E+00
    0.00000E+00         0.00000E+00        -0.26137E+08
 
   -0.36554E+08        -0.12704E+07         0.00000E+00
   -0.12704E+07        -0.49384E+08         0.00000E+00
    0.00000E+00         0.00000E+00        -0.26137E+08
 
   -0.36222E+08        -0.11793E+07         0.00000E+00
   -0.11793E+07        -0.49333E+08         0.00000E+00
    0.00000E+00         0.00000E+00        -0.26137E+08
 
   -0.35897E+08        -0.10838E+07         0.00000E+00
   -0.10838E+07        -0.49284E+08         0.00000E+00
    0.00000E+00         0.00000E+00        -0.26137E+08
 
   -0.35577E+08        -0.98409E+06         0.00000E+00
   -0.98409E+06        -0.49239E+08         0.00000E+00
    0.00000E+00         0.00000E+00        -0.26137E+08
 
   -0.35261E+08        -0.88044E+06         0.00000E+00
   -0.88044E+06        -0.49199E+08         0.00000E+00
    0.00000E+00         0.00000E+00        -0.26137E+08
 
   -0.34948E+08        -0.77303E+06         0.00000E+00
   -0.77303E+06        -0.49162E+08         0.00000E+00
    0.00000E+00         0.00000E+00        -0.26137E+08
 
   -0.34638E+08        -0.66199E+06         0.00000E+00
   -0.66199E+06        -0.49131E+08         0.00000E+00
    0.00000E+00         0.00000E+00        -0.26137E+08
 
   -0.34328E+08        -0.54742E+06         0.00000E+00
   -0.54742E+06        -0.49105E+08         0.00000E+00
    0.00000E+00         0.00000E+00        -0.26137E+08
 
   -0.34018E+08        -0.42939E+06         0.00000E+00
   -0.42939E+06        -0.49084E+08         0.00000E+00
    0.00000E+00         0.00000E+00        -0.26137E+08
 
   -0.33706E+08        -0.30798E+06         0.00000E+00
   -0.30798E+06        -0.49070E+08         0.00000E+00
    0.00000E+00         0.00000E+00        -0.26137E+08
 
   -0.33391E+08        -0.18326E+06         0.00000E+00
   -0.18326E+06        -0.49062E+08         0.00000E+00
    0.00000E+00         0.00000E+00        -0.26137E+08
 
   -0.33072E+08        -0.55299E+05         0.00000E+00
   -0.55299E+05        -0.49061E+08         0.00000E+00
    0.00000E+00         0.00000E+00        -0.26137E+08
 
   -0.32745E+08         0.75863E+05         0.00000E+00
    0.75863E+05        -0.49067E+08         0.00000E+00
    0.00000E+00         0.00000E+00        -0.26137E+08
 
   -0.32415E+08         0.21056E+06         0.00000E+00
    0.21056E+06        -0.49077E+08         0.00000E+00
    0.00000E+00         0.00000E+00        -0.26151E+08
 
   -0.32090E+08         0.34814E+06         0.00000E+00
    0.34814E+06        -0.49089E+08         0.00000E+00
    0.00000E+00         0.00000E+00        -0.26194E+08
 
   -0.31758E+08         0.48838E+06         0.00000E+00
    0.48838E+06        -0.49129E+08         0.00000E+00
    0.00000E+00         0.00000E+00        -0.26241E+08
 
   -0.31463E+08         0.62870E+06         0.00000E+00
    0.62870E+06        -0.49178E+08         0.00000E+00
    0.00000E+00         0.00000E+00        -0.26371E+08
 
   -0.31218E+08         0.76881E+06         0.00000E+00
    0.76881E+06        -0.49237E+08         0.00000E+00
    0.00000E+00         0.00000E+00        -0.26589E+08
 
   -0.30992E+08         0.91658E+06         0.00000E+00
    0.91658E+06        -0.49305E+08         0.00000E+00
    0.00000E+00         0.00000E+00        -0.26816E+08
 
   -0.30784E+08         0.10770E+07         0.00000E+00
    0.10770E+07        -0.49380E+08         0.00000E+00
    0.00000E+00         0.00000E+00        -0.27057E+08
 
   -0.30596E+08         0.12505E+07         0.00000E+00
    0.12505E+07        -0.49464E+08         0.00000E+00
    0.00000E+00         0.00000E+00        -0.27313E+08
 
   -0.30428E+08         0.14394E+07         0.00000E+00
    0.14394E+07        -0.49558E+08         0.00000E+00
    0.00000E+00         0.00000E+00        -0.27585E+08
 
   -0.30281E+08         0.16460E+07         0.00000E+00
    0.16460E+07        -0.49661E+08         0.00000E+00
    0.00000E+00         0.00000E+00        -0.27874E+08
 
   -0.30159E+08         0.18732E+07         0.00000E+00
    0.18732E+07        -0.49775E+08         0.00000E+00
    0.00000E+00         0.00000E+00        -0.28181E+08
 
   -0.30069E+08         0.21228E+07         0.00000E+00
    0.21228E+07        -0.49898E+08         0.00000E+00
    0.00000E+00         0.00000E+00        -0.28501E+08
 
   -0.30016E+08         0.23960E+07         0.00000E+00
    0.23960E+07        -0.50029E+08         0.00000E+00
    0.00000E+00         0.00000E+00        -0.28834E+08
 
   -0.30004E+08         0.26926E+07         0.00000E+00
    0.26926E+07        -0.50168E+08         0.00000E+00
    0.00000E+00         0.00000E+00        -0.29174E+08
 
   -0.30039E+08         0.30044E+07         0.00000E+00
    0.30044E+07        -0.50312E+08         0.00000E+00
    0.00000E+00         0.00000E+00        -0.29512E+08
 
   -0.30130E+08         0.33412E+07         0.00000E+00
    0.33412E+07        -0.50458E+08         0.00000E+00
    0.00000E+00         0.00000E+00        -0.29844E+08
 
   -0.30252E+08         0.36860E+07         0.00000E+00
    0.36860E+07        -0.50591E+08         0.00000E+00
    0.00000E+00         0.00000E+00        -0.30162E+08
 
   -0.47251E+08        -0.24049E+06         0.00000E+00
   -0.24049E+06        -0.49959E+08         0.00000E+00
    0.00000E+00         0.00000E+00        -0.24748E+08
 
   -0.46544E+08        -0.59393E+06         0.00000E+00
   -0.59393E+06        -0.50011E+08         0.00000E+00
    0.00000E+00         0.00000E+00        -0.24594E+08
 
   -0.45785E+08        -0.85566E+06         0.00000E+00
   -0.85566E+06        -0.50019E+08         0.00000E+00
    0.00000E+00         0.00000E+00        -0.24460E+08
 
   -0.45023E+08        -0.10486E+07         0.00000E+00
   -0.10486E+07        -0.49996E+08         0.00000E+00
    0.00000E+00         0.00000E+00        -0.24335E+08
 
   -0.44275E+08        -0.11858E+07         0.00000E+00
   -0.11858E+07        -0.49959E+08         0.00000E+00
    0.00000E+00         0.00000E+00        -0.24219E+08
 
   -0.43554E+08        -0.12778E+07         0.00000E+00
   -0.12778E+07        -0.49904E+08         0.00000E+00
    0.00000E+00         0.00000E+00        -0.24110E+08
 
   -0.42866E+08        -0.13351E+07         0.00000E+00
   -0.13351E+07        -0.49830E+08         0.00000E+00
    0.00000E+00         0.00000E+00        -0.24035E+08
 
   -0.42215E+08        -0.13661E+07         0.00000E+00
   -0.13661E+07        -0.49741E+08         0.00000E+00
    0.00000E+00         0.00000E+00        -0.23985E+08
 
   -0.41602E+08        -0.13783E+07         0.00000E+00
   -0.13783E+07        -0.49638E+08         0.00000E+00
    0.00000E+00         0.00000E+00        -0.23935E+08
 
   -0.41021E+08        -0.13768E+07         0.00000E+00
   -0.13768E+07        -0.49523E+08         0.00000E+00
    0.00000E+00         0.00000E+00        -0.23886E+08
 
   -0.40469E+08        -0.13637E+07         0.00000E+00
   -0.13637E+07        -0.49403E+08         0.00000E+00
    0.00000E+00         0.00000E+00        -0.23839E+08
 
   -0.39945E+08        -0.13414E+07         0.00000E+00
   -0.13414E+07        -0.49278E+08         0.00000E+00
    0.00000E+00         0.00000E+00        -0.23794E+08
 
   -0.39447E+08        -0.13127E+07         0.00000E+00
   -0.13127E+07        -0.49148E+08         0.00000E+00
    0.00000E+00         0.00000E+00        -0.23749E+08
 
   -0.38973E+08        -0.12783E+07         0.00000E+00
   -0.12783E+07        -0.49015E+08         0.00000E+00
    0.00000E+00         0.00000E+00        -0.23721E+08
 
   -0.38520E+08        -0.12368E+07         0.00000E+00
   -0.12368E+07        -0.48883E+08         0.00000E+00
    0.00000E+00         0.00000E+00        -0.23721E+08
 
   -0.38088E+08        -0.11886E+07         0.00000E+00
   -0.11886E+07        -0.48761E+08         0.00000E+00
    0.00000E+00         0.00000E+00        -0.23721E+08
 
   -0.37674E+08        -0.11349E+07         0.00000E+00
   -0.11349E+07        -0.48639E+08         0.00000E+00
    0.00000E+00         0.00000E+00        -0.23721E+08
 
   -0.37278E+08        -0.10776E+07         0.00000E+00
   -0.10776E+07        -0.48521E+08         0.00000E+00
    0.00000E+00         0.00000E+00        -0.23721E+08
 
   -0.36896E+08        -0.10175E+07         0.00000E+00
   -0.10175E+07        -0.48408E+08         0.00000E+00
    0.00000E+00         0.00000E+00        -0.23721E+08
 
   -0.36526E+08        -0.95471E+06         0.00000E+00
   -0.95471E+06        -0.48301E+08         0.00000E+00
    0.00000E+00         0.00000E+00        -0.23721E+08
 
   -0.36168E+08        -0.88954E+06         0.00000E+00
   -0.88954E+06        -0.48200E+08         0.00000E+00
    0.00000E+00         0.00000E+00        -0.23721E+08
 
   -0.35819E+08        -0.82212E+06         0.00000E+00
   -0.82212E+06        -0.48105E+08         0.00000E+00
    0.00000E+00         0.00000E+00        -0.23721E+08
 
   -0.35477E+08        -0.75253E+06         0.00000E+00
   -0.75253E+06        -0.48018E+08         0.00000E+00
    0.00000E+00         0.00000E+00        -0.23721E+08
 
   -0.35141E+08        -0.68084E+06         0.00000E+00
   -0.68084E+06        -0.47937E+08         0.00000E+00
    0.00000E+00         0.00000E+00        -0.23721E+08
 
   -0.34811E+08        -0.60708E+06         0.00000E+00
   -0.60708E+06        -0.47865E+08         0.00000E+00
    0.00000E+00         0.00000E+00        -0.23721E+08
 
   -0.34484E+08        -0.53128E+06         0.00000E+00
   -0.53128E+06        -0.47800E+08         0.00000E+00
    0.00000E+00         0.00000E+00        -0.23721E+08
 
   -0.34159E+08        -0.45346E+06         0.00000E+00
   -0.45346E+06        -0.47743E+08         0.00000E+00
    0.00000E+00         0.00000E+00        -0.23721E+08
 
   -0.33836E+08        -0.37366E+06         0.00000E+00
   -0.37366E+06        -0.47695E+08         0.00000E+00
    0.00000E+00         0.00000E+00        -0.23721E+08
 
   -0.33513E+08        -0.29195E+06         0.00000E+00
   -0.29195E+06        -0.47656E+08         0.00000E+00
    0.00000E+00         0.00000E+00        -0.23721E+08
 
   -0.33189E+08        -0.20849E+06         0.00000E+00
   -0.20849E+06        -0.47626E+08         0.00000E+00
    0.00000E+00         0.00000E+00        -0.23721E+08
 
   -0.32864E+08        -0.12354E+06         0.00000E+00
   -0.12354E+06        -0.47605E+08         0.00000E+00
    0.00000E+00         0.00000E+00        -0.23721E+08
 
   -0.32535E+08        -0.37556E+05         0.00000E+00
   -0.37556E+05        -0.47593E+08         0.00000E+00
    0.00000E+00         0.00000E+00        -0.23721E+08
 
   -0.32202E+08         0.48745E+05         0.00000E+00
    0.48745E+05        -0.47592E+08         0.00000E+00
    0.00000E+00         0.00000E+00        -0.23721E+08
 
   -0.31866E+08         0.13419E+06         0.00000E+00
    0.13419E+06        -0.47604E+08         0.00000E+00
    0.00000E+00         0.00000E+00        -0.23727E+08
 
   -0.31535E+08         0.21945E+06         0.00000E+00
    0.21945E+06        -0.47630E+08         0.00000E+00
    0.00000E+00         0.00000E+00        -0.23764E+08
 
   -0.31206E+08         0.30494E+06         0.00000E+00
    0.30494E+06        -0.47661E+08         0.00000E+00
    0.00000E+00         0.00000E+00        -0.23815E+08
 
   -0.30898E+08         0.39035E+06         0.00000E+00
    0.39035E+06        -0.47693E+08         0.00000E+00
    0.00000E+00         0.00000E+00        -0.23924E+08
 
   -0.30617E+08         0.47961E+06         0.00000E+00
    0.47961E+06        -0.47734E+08         0.00000E+00
    0.00000E+00         0.00000E+00        -0.24094E+08
 
   -0.30347E+08         0.57569E+06         0.00000E+00
    0.57569E+06        -0.47795E+08         0.00000E+00
    0.00000E+00         0.00000E+00        -0.24290E+08
 
   -0.30085E+08         0.67956E+06         0.00000E+00
    0.67956E+06        -0.47868E+08         0.00000E+00
    0.00000E+00         0.00000E+00        -0.24506E+08
 
   -0.29832E+08         0.79324E+06         0.00000E+00
    0.79324E+06        -0.47954E+08         0.00000E+00
    0.00000E+00         0.00000E+00        -0.24744E+08
 
   -0.29586E+08         0.91960E+06         0.00000E+00
    0.91960E+06        -0.48053E+08         0.00000E+00
    0.00000E+00         0.00000E+00        -0.25008E+08
 
   -0.29346E+08         0.10594E+07         0.00000E+00
    0.10594E+07        -0.48168E+08         0.00000E+00
    0.00000E+00         0.00000E+00        -0.25301E+08
 
   -0.29118E+08         0.12170E+07         0.00000E+00
    0.12170E+07        -0.48298E+08         0.00000E+00
    0.00000E+00         0.00000E+00        -0.25626E+08
 
   -0.28902E+08         0.13977E+07         0.00000E+00
    0.13977E+07        -0.48446E+08         0.00000E+00
    0.00000E+00         0.00000E+00        -0.25986E+08
 
   -0.28710E+08         0.16063E+07         0.00000E+00
    0.16063E+07        -0.48612E+08         0.00000E+00
    0.00000E+00         0.00000E+00        -0.26380E+08
 
   -0.28554E+08         0.18489E+07         0.00000E+00
    0.18489E+07        -0.48799E+08         0.00000E+00
    0.00000E+00         0.00000E+00        -0.26807E+08
 
   -0.28444E+08         0.21358E+07         0.00000E+00
    0.21358E+07        -0.49004E+08         0.00000E+00
    0.00000E+00         0.00000E+00        -0.27265E+08
 
   -0.28389E+08         0.24569E+07         0.00000E+00
    0.24569E+07        -0.49229E+08         0.00000E+00
    0.00000E+00         0.00000E+00        -0.27748E+08
 
   -0.28435E+08         0.28412E+07         0.00000E+00
    0.28412E+07        -0.49485E+08         0.00000E+00
    0.00000E+00         0.00000E+00        -0.28244E+08
 
   -0.48741E+08        -0.32744E+06         0.00000E+00
   -0.32744E+06        -0.49991E+08         0.00000E+00
    0.00000E+00         0.00000E+00        -0.26396E+08
 
   -0.47620E+08        -0.41895E+06         0.00000E+00
   -0.41895E+06        -0.49875E+08         0.00000E+00
    0.00000E+00         0.00000E+00        -0.25326E+08
 
   -0.46566E+08        -0.48362E+06         0.00000E+00
   -0.48362E+06        -0.49732E+08         0.00000E+00
    0.00000E+00         0.00000E+00        -0.24466E+08
 
   -0.45588E+08        -0.52835E+06         0.00000E+00
   -0.52835E+06        -0.49565E+08         0.00000E+00
    0.00000E+00         0.00000E+00        -0.23755E+08
 
   -0.44669E+08        -0.56140E+06         0.00000E+00
   -0.56140E+06        -0.49373E+08         0.00000E+00
    0.00000E+00         0.00000E+00        -0.23214E+08
 
   -0.43808E+08        -0.58070E+06         0.00000E+00
   -0.58070E+06        -0.49167E+08         0.00000E+00
    0.00000E+00         0.00000E+00        -0.22836E+08
 
   -0.43015E+08        -0.58881E+06         0.00000E+00
   -0.58881E+06        -0.48953E+08         0.00000E+00
    0.00000E+00         0.00000E+00        -0.22546E+08
 
   -0.42286E+08        -0.58824E+06         0.00000E+00
   -0.58824E+06        -0.48734E+08         0.00000E+00
    0.00000E+00         0.00000E+00        -0.22336E+08
 
   -0.41615E+08        -0.58134E+06         0.00000E+00
   -0.58134E+06        -0.48517E+08         0.00000E+00
    0.00000E+00         0.00000E+00        -0.22151E+08
 
   -0.40985E+08        -0.56838E+06         0.00000E+00
   -0.56838E+06        -0.48306E+08         0.00000E+00
    0.00000E+00         0.00000E+00        -0.21980E+08
 
   -0.40392E+08        -0.54945E+06         0.00000E+00
   -0.54945E+06        -0.48097E+08         0.00000E+00
    0.00000E+00         0.00000E+00        -0.21819E+08
 
   -0.39839E+08        -0.52789E+06         0.00000E+00
   -0.52789E+06        -0.47894E+08         0.00000E+00
    0.00000E+00         0.00000E+00        -0.21671E+08
 
   -0.39318E+08        -0.50352E+06         0.00000E+00
   -0.50352E+06        -0.47698E+08         0.00000E+00
    0.00000E+00         0.00000E+00        -0.21533E+08
 
   -0.38822E+08        -0.47721E+06         0.00000E+00
   -0.47721E+06        -0.47512E+08         0.00000E+00
    0.00000E+00         0.00000E+00        -0.21406E+08
 
   -0.38354E+08        -0.45313E+06         0.00000E+00
   -0.45313E+06        -0.47334E+08         0.00000E+00
    0.00000E+00         0.00000E+00        -0.21313E+08
 
   -0.37909E+08        -0.43178E+06         0.00000E+00
   -0.43178E+06        -0.47158E+08         0.00000E+00
    0.00000E+00         0.00000E+00        -0.21264E+08
 
   -0.37484E+08        -0.41131E+06         0.00000E+00
   -0.41131E+06        -0.46992E+08         0.00000E+00
    0.00000E+00         0.00000E+00        -0.21247E+08
 
   -0.37077E+08        -0.38990E+06         0.00000E+00
   -0.38990E+06        -0.46835E+08         0.00000E+00
    0.00000E+00         0.00000E+00        -0.21247E+08
 
   -0.36685E+08        -0.36743E+06         0.00000E+00
   -0.36743E+06        -0.46686E+08         0.00000E+00
    0.00000E+00         0.00000E+00        -0.21247E+08
 
   -0.36308E+08        -0.34403E+06         0.00000E+00
   -0.34403E+06        -0.46547E+08         0.00000E+00
    0.00000E+00         0.00000E+00        -0.21247E+08
 
   -0.35941E+08        -0.31982E+06         0.00000E+00
   -0.31982E+06        -0.46416E+08         0.00000E+00
    0.00000E+00         0.00000E+00        -0.21247E+08
 
   -0.35584E+08        -0.29486E+06         0.00000E+00
   -0.29486E+06        -0.46296E+08         0.00000E+00
    0.00000E+00         0.00000E+00        -0.21247E+08
 
   -0.35235E+08        -0.26919E+06         0.00000E+00
   -0.26919E+06        -0.46185E+08         0.00000E+00
    0.00000E+00         0.00000E+00        -0.21247E+08
 
   -0.34893E+08        -0.24283E+06         0.00000E+00
   -0.24283E+06        -0.46084E+08         0.00000E+00
    0.00000E+00         0.00000E+00        -0.21247E+08
 
   -0.34555E+08        -0.21578E+06         0.00000E+00
   -0.21578E+06        -0.45994E+08         0.00000E+00
    0.00000E+00         0.00000E+00        -0.21247E+08
 
   -0.34221E+08        -0.18804E+06         0.00000E+00
   -0.18804E+06        -0.45915E+08         0.00000E+00
    0.00000E+00         0.00000E+00        -0.21247E+08
 
   -0.33890E+08        -0.15960E+06         0.00000E+00
   -0.15960E+06        -0.45846E+08         0.00000E+00
    0.00000E+00         0.00000E+00        -0.21247E+08
 
   -0.33561E+08        -0.13045E+06         0.00000E+00
   -0.13045E+06        -0.45789E+08         0.00000E+00
    0.00000E+00         0.00000E+00        -0.21247E+08
 
   -0.33232E+08        -0.10061E+06         0.00000E+00
   -0.10061E+06        -0.45743E+08         0.00000E+00
    0.00000E+00         0.00000E+00        -0.21247E+08
 
   -0.32903E+08        -0.70141E+05         0.00000E+00
   -0.70141E+05        -0.45708E+08         0.00000E+00
    0.00000E+00         0.00000E+00        -0.21247E+08
 
   -0.32574E+08        -0.39152E+05         0.00000E+00
   -0.39152E+05        -0.45686E+08         0.00000E+00
    0.00000E+00         0.00000E+00        -0.21247E+08
 
   -0.32245E+08        -0.78533E+04         0.00000E+00
   -0.78533E+04        -0.45676E+08         0.00000E+00
    0.00000E+00         0.00000E+00        -0.21247E+08
 
   -0.31915E+08         0.23402E+05         0.00000E+00
    0.23402E+05        -0.45678E+08         0.00000E+00
    0.00000E+00         0.00000E+00        -0.21247E+08
 
   -0.31586E+08         0.54154E+05         0.00000E+00
    0.54154E+05        -0.45693E+08         0.00000E+00
    0.00000E+00         0.00000E+00        -0.21247E+08
 
   -0.31258E+08         0.83637E+05         0.00000E+00
    0.83637E+05        -0.45726E+08         0.00000E+00
    0.00000E+00         0.00000E+00        -0.21247E+08
 
   -0.30930E+08         0.11077E+06         0.00000E+00
    0.11077E+06        -0.45774E+08         0.00000E+00
    0.00000E+00         0.00000E+00        -0.21247E+08
 
   -0.30605E+08         0.13895E+06         0.00000E+00
    0.13895E+06        -0.45836E+08         0.00000E+00
    0.00000E+00         0.00000E+00        -0.21266E+08
 
   -0.30298E+08         0.17124E+06         0.00000E+00
    0.17124E+06        -0.45907E+08         0.00000E+00
    0.00000E+00         0.00000E+00        -0.21355E+08
 
   -0.30004E+08         0.20546E+06         0.00000E+00
    0.20546E+06        -0.45984E+08         0.00000E+00
    0.00000E+00         0.00000E+00        -0.21505E+08
 
   -0.29715E+08         0.24127E+06         0.00000E+00
    0.24127E+06        -0.46075E+08         0.00000E+00
    0.00000E+00         0.00000E+00        -0.21692E+08
 
   -0.29423E+08         0.28009E+06         0.00000E+00
    0.28009E+06        -0.46181E+08         0.00000E+00
    0.00000E+00         0.00000E+00        -0.21904E+08
 
   -0.29127E+08         0.32318E+06         0.00000E+00
    0.32318E+06        -0.46304E+08         0.00000E+00
    0.00000E+00         0.00000E+00        -0.22146E+08
 
   -0.28826E+08         0.37293E+06         0.00000E+00
    0.37293E+06        -0.46445E+08         0.00000E+00
    0.00000E+00         0.00000E+00        -0.22422E+08
 
   -0.28517E+08         0.43020E+06         0.00000E+00
    0.43020E+06        -0.46607E+08         0.00000E+00
    0.00000E+00         0.00000E+00        -0.22739E+08
 
   -0.28197E+08         0.49706E+06         0.00000E+00
    0.49706E+06        -0.46792E+08         0.00000E+00
    0.00000E+00         0.00000E+00        -0.23107E+08
 
   -0.27868E+08         0.57821E+06         0.00000E+00
    0.57821E+06        -0.47005E+08         0.00000E+00
    0.00000E+00         0.00000E+00        -0.23535E+08
 
   -0.27532E+08         0.67905E+06         0.00000E+00
    0.67905E+06        -0.47250E+08         0.00000E+00
    0.00000E+00         0.00000E+00        -0.24034E+08
 
   -0.27202E+08         0.80725E+06         0.00000E+00
    0.80725E+06        -0.47532E+08         0.00000E+00
    0.00000E+00         0.00000E+00        -0.24613E+08
 
   -0.26886E+08         0.98026E+06         0.00000E+00
    0.98026E+06        -0.47857E+08         0.00000E+00
    0.00000E+00         0.00000E+00        -0.25288E+08
 
   -0.26580E+08         0.11910E+07         0.00000E+00
    0.11910E+07        -0.48227E+08         0.00000E+00
    0.00000E+00         0.00000E+00        -0.26079E+08
 
SCALARS stresss double 
LOOKUP_TABLE default
  -49999427.5279236     
  -49999424.3632557     
  -49999421.5193245     
  -49999418.9986327     
  -49999416.8032066     
  -49999414.9347063     
  -49999413.3944892     
  -49999412.1836474     
  -49999411.3030309     
  -49999410.7532627     
  -49999410.5347493     
  -49999410.6476876     
  -49999411.0920702     
  -49999411.8676892     
  -49999412.9741397     
  -49999414.4108216     
  -49999416.1769425     
  -49999418.2715188     
  -49999420.6933780     
  -49999423.4411599     
  -49999426.5133185     
  -49999429.9081230     
  -49999433.6236598     
  -49999437.6578340     
  -49999442.0083707     
  -49999446.6728169     
  -49999451.6485430     
  -49999456.9327448     
  -49999462.5224454     
  -49999468.4144969     
  -49999474.6055824     
  -49999481.0922185     
  -49999487.8707571     
  -49999494.9373882     
  -49999502.2881420     
  -49999509.9188916     
  -49999517.8253558     
  -49999526.0031022     
  -49999534.4475500     
  -49999543.1539737     
  -49999552.1175069     
  -49999561.3331465     
  -49999570.7957575     
  -49999580.5000792     
  -49999590.4407327     
  -49999600.6122307     
  -49999611.0089922     
  -49999621.6253645     
  -49999632.4556597     
  -49999643.4942192     
  -49999419.3779162     
  -49999416.1506445     
  -49999413.2538478     
  -49999410.6882954     
  -49999408.4549675     
  -49999406.5548655     
  -49999404.9889149     
  -49999403.7579146     
  -49999402.8625085     
  -49999402.3031703     
  -49999402.0801948     
  -49999402.1936930     
  -49999402.6435886     
  -49999403.4296174     
  -49999404.5513257     
  -49999406.0080708     
  -49999407.7990209     
  -49999409.9231554     
  -49999412.3792659     
  -49999415.1659568     
  -49999418.2816461     
  -49999421.7245669     
  -49999425.4927680     
  -49999429.5841157     
  -49999433.9962948     
  -49999438.7268103     
  -49999443.7729887     
  -49999449.1319799     
  -49999454.8007587     
  -49999460.7761270     
  -49999467.0547153     
  -49999473.6329849     
  -49999480.5072300     
  -49999487.6735800     
  -49999495.1280013     
  -49999502.8663003     
  -49999510.8841252     
  -49999519.1769687     
  -49999527.7401703     
  -49999536.5689190     
  -49999545.6582553     
  -49999555.0030732     
  -49999564.5981218     
  -49999574.4380062     
  -49999584.5171854     
  -49999594.8299683     
  -49999605.3705016     
  -49999616.1327450     
  -49999627.1104184     
  -49999638.2968927     
  -49999402.9906932     
  -49999399.6683204     
  -49999396.6850625     
  -49999394.0425875     
  -49999391.7422377     
  -49999389.7851340     
  -49999388.1722133     
  -49999386.9042396     
  -49999385.9818039     
  -49999385.4053221     
  -49999385.1750307     
  -49999385.2909840     
  -49999385.7530511     
  -49999386.5609142     
  -49999387.7140672     
  -49999389.2118142     
  -49999391.0532697     
  -49999393.2373580     
  -49999395.7628135     
  -49999398.6281806     
  -49999401.8318149     
  -49999405.3718835     
  -49999409.2463661     
  -49999413.4530557     
  -49999417.9895603     
  -49999422.8533038     
  -49999428.0415275     
  -49999433.5512919     
  -49999439.3794777     
  -49999445.5227884     
  -49999451.9777514     
  -49999458.7407204     
  -49999465.8078769     
  -49999473.1752328     
  -49999480.8386322     
  -49999488.7937535     
  -49999497.0361121     
  -49999505.5610619     
  -49999514.3637982     
  -49999523.4393596     
  -49999532.7826298     
  -49999542.3883404     
  -49999552.2510718     
  -49999562.3652560     
  -49999572.7251781     
  -49999583.3249796     
  -49999594.1586644     
  -49999605.2201125     
  -49999616.5031128     
  -49999628.0014431     
  -49999378.1204553     
  -49999374.6606298     
  -49999371.5539849     
  -49999368.8021224     
  -49999366.4064851     
  -49999364.3683193     
  -49999362.6886677     
  -49999361.3683702     
  -49999360.4080663     
  -49999359.8081973     
  -49999359.5690069     
  -49999359.6905419     
  -49999360.1726518     
  -49999361.0149892     
  -49999362.2170091     
  -49999363.7779689     
  -49999365.6969285     
  -49999367.9727505     
  -49999370.6041004     
  -49999373.5894468     
  -49999376.9270626     
  -49999380.6150253     
  -49999384.6512178     
  -49999389.0333300     
  -49999393.7588593     
  -49999398.8251126     
  -49999404.2292070     
  -49999409.9680718     
  -49999416.0384501     
  -49999422.4369004     
  -49999429.1597985     
  -49999436.2033395     
  -49999443.5635397     
  -49999451.2362392     
  -49999459.2171032     
  -49999467.5016252     
  -49999476.0851291     
  -49999484.9627713     
  -49999494.1295436     
  -49999503.5802757     
  -49999513.3096383     
  -49999523.3121454     
  -49999533.5821580     
  -49999544.1138874     
  -49999554.9013991     
  -49999565.9386171     
  -49999577.2193284     
  -49999588.7371848     
  -49999600.4856975     
  -49999612.4582063     
  -49999344.4140615     
  -49999340.7709824     
  -49999337.5000065     
  -49999334.6028751     
  -49999332.0811102     
  -49999329.9360252     
  -49999328.1687254     
  -49999326.7801063     
  -49999325.7708526     
  -49999325.1414381     
  -49999324.8921251     
  -49999325.0229649     
  -49999325.5337983     
  -49999326.4242553     
  -49999327.6937561     
  -49999329.3415109     
  -49999331.3665206     
  -49999333.7675776     
  -49999336.5432657     
  -49999339.6919616     
  -49999343.2118353     
  -49999347.1008509     
  -49999351.3567682     
  -49999355.9771433     
  -49999360.9593303     
  -49999366.3004824     
  -49999371.9975537     
  -49999378.0473008     
  -49999384.4462843     
  -49999391.1908711     
  -49999398.2772359     
  -49999405.7013637     
  -49999413.4590515     
  -49999421.5459113     
  -49999429.9573717     
  -49999438.6886812     
  -49999447.7349100     
  -49999457.0909535     
  -49999466.7515344     
  -49999476.7112062     
  -49999486.9643559     
  -49999497.5052077     
  -49999508.3278256     
  -49999519.4261171     
  -49999530.7938368     
  -49999542.4245892     
  -49999554.3118319     
  -49999566.4488792     
  -49999578.8289081     
  -49999591.4449754     
  -49999301.3916128     
  -49999297.5166011     
  -49999294.0378697     
  -49999290.9572685     
  -49999288.2764263     
  -49999285.9967473     
  -49999284.1194102     
  -49999282.6453692     
  -49999281.5753532     
  -49999280.9098656     
  -49999280.6491849     
  -49999280.7933640     
  -49999281.3422302     
  -49999282.2953862     
  -49999283.6522098     
  -49999285.4118547     
  -49999287.5732510     
  -49999290.1351057     
  -49999293.0959038     
  -49999296.4539089     
  -49999300.2071646     
  -49999304.3534952     
  -49999308.8905070     
  -49999313.8155900     
  -49999319.1259188     
  -49999324.8184548     
  -49999330.8899473     
  -49999337.3369357     
  -49999344.1557513     
  -49999351.3425193     
  -49999358.8931609     
  -49999366.8033959     
  -49999375.0687447     
  -49999383.6845307     
  -49999392.6458833     
  -49999401.9477406     
  -49999411.5848518     
  -49999421.5517803     
  -49999431.8429071     
  -49999442.4524335     
  -49999453.3743844     
  -49999464.6026118     
  -49999476.1307981     
  -49999487.9524598     
  -49999500.0609508     
  -49999512.4494664     
  -49999525.1110473     
  -49999538.0385838     
  -49999551.2248190     
  -49999564.6623491     
  -49999248.4411315     
  -49999244.2822116     
  -49999240.5493357     
  -49999237.2444888     
  -49999234.3694151     
  -49999231.9256186     
  -49999229.9143616     
  -49999228.3366648     
  -49999227.1933063     
  -49999226.4848220     
  -49999226.2115048     
  -49999226.3734055     
  -49999226.9703322     
  -49999228.0018509     
  -49999229.4672858     
  -49999231.3657201     
  -49999233.6959962     
  -49999236.4567169     
  -49999239.6462459     
  -49999243.2627092     
  -49999247.3039958     
  -49999251.7677594     
  -49999256.6514195     
  -49999261.9521630     
  -49999267.6669459     
  -49999273.7924947     
  -49999280.3253089     
  -49999287.2616622     
  -49999294.5976055     
  -49999302.3289682     
  -49999310.4513614     
  -49999318.9601797     
  -49999327.8506043     
  -49999337.1176054     
  -49999346.7559449     
  -49999356.7601798     
  -49999367.1246649     
  -49999377.8435559     
  -49999388.9108131     
  -49999400.3202041     
  -49999412.0653078     
  -49999424.1395180     
  -49999436.5360466     
  -49999449.2479280     
  -49999462.2680225     
  -49999475.5890206     
  -49999489.2034468     
  -49999503.1036638     
  -49999517.2818768     
  -49999531.7301391     
  -49999184.8094472     
  -49999180.3108667     
  -49999176.2740982     
  -49999172.7012818     
  -49999169.5942976     
  -49999166.9547646     
  -49999164.7840403     
  -49999163.0832202     
  -49999161.8531372     
  -49999161.0943615     
  -49999160.8072004     
  -49999160.9916985     
  -49999161.6476376     
  -49999162.7745373     
  -49999164.3716552     
  -49999166.4379876     
  -49999168.9722702     
  -49999171.9729790     
  -49999175.4383313     
  -49999179.3662867     
  -49999183.7545485     
  -49999188.6005650     
  -49999193.9015312     
  -49999199.6543903     
  -49999205.8558354     
  -49999212.5023119     
  -49999219.5900188     
  -49999227.1149117     
  -49999235.0727046     
  -49999243.4588725     
  -49999252.2686540     
  -49999261.4970540     
  -49999271.1388463     
  -49999281.1885770     
  -49999291.6405673     
  -49999302.4889164     
  -49999313.7275055     
  -49999325.3500006     
  -49999337.3498564     
  -49999349.7203197     
  -49999362.4544335     
  -49999375.5450405     
  -49999388.9847873     
  -49999402.7661286     
  -49999416.8813311     
  -49999431.3224778     
  -49999446.0814729     
  -49999461.1500455     
  -49999476.5197550     
  -49999492.1819946     
  -49999109.5914407     
  -49999104.6930484     
  -49999100.2987407     
  -49999096.4108370     
  -49999093.0313728     
  -49999090.1620992     
  -49999087.8044822     
  -49999085.9597016     
  -49999084.6286514     
  -49999083.8119388     
  -49999083.5098844     
  -49999083.7225224     
  -49999084.4496007     
  -49999085.6905808     
  -49999087.4446392     
  -49999089.7106672     
  -49999092.4872722     
  -49999095.7727787     
  -49999099.5652288     
  -49999103.8623844     
  -49999108.6617277     
  -49999113.9604633     
  -49999119.7555199     
  -49999126.0435516     
  -49999132.8209407     
  -49999140.0837991     
  -49999147.8279709     
  -49999156.0490351     
  -49999164.7423074     
  -49999173.9028437     
  -49999183.5254424     
  -49999193.6046475     
  -49999204.1347518     
  -49999215.1098000     
  -49999226.5235921     
  -49999238.3696870     
  -49999250.6414059     
  -49999263.3318362     
  -49999276.4338353     
  -49999289.9400346     
  -49999303.8428438     
  -49999318.1344545     
  -49999332.8068455     
  -49999347.8517864     
  -49999363.2608424     
  -49999379.0253792     
  -49999395.1365676     
  -49999411.5853882     
  -49999428.3626368     
  -49999445.4589290     
  -49999021.7170716     
  -49999016.3536348     
  -49999011.5436493     
  -49999007.2896397     
  -49999003.5938190     
  -49999000.4580885     
  -49998997.8840365     
  -49998995.8729379     
  -49998994.4257537     
  -49998993.5431310     
  -49998993.2254024     
  -49998993.4725865     
  -49998994.2843882     
  -49998995.6601985     
  -49998997.5990960     
  -49999000.0998467     
  -49999003.1609056     
  -49999006.7804176     
  -49999010.9562186     
  -49999015.6858369     
  -49999020.9664948     
  -49999026.7951108     
  -49999033.1683004     
  -49999040.0823795     
  -49999047.5333653     
  -49999055.5169797     
  -49999064.0286511     
  -49999073.0635176     
  -49999082.6164294     
  -49999092.6819519     
  -49999103.2543691     
  -49999114.3276863     
  -49999125.8956340     
  -49999137.9516713     
  -49999150.4889895     
  -49999163.5005161     
  -49999176.9789185     
  -49999190.9166084     
  -49999205.3057460     
  -49999220.1382442     
  -49999235.4057731     
  -49999251.0997648     
  -49999267.2114181     
  -49999283.7317033     
  -49999300.6513670     
  -49999317.9609378     
  -49999335.6507308     
  -49999353.7108533     
  -49999372.1312102     
  -49999390.9015096     
  -49998919.9360620     
  -49998914.0365226     
  -49998908.7475831     
  -49998904.0720006     
  -49998900.0121895     
  -49998896.5702201     
  -49998893.7478182     
  -49998891.5463645     
  -49998889.9668937     
  -49998889.0100945     
  -49998888.6763098     
  -49998888.9655365     
  -49998889.8774256     
  -49998891.4112834     
  -49998893.5660714     
  -49998896.3404077     
  -49998899.7325676     
  -49998903.7404852     
  -49998908.3617547     
  -49998913.5936318     
  -49998919.4330354     
  -49998925.8765501     
  -49998932.9204275     
  -49998940.5605892     
  -49998948.7926286     
  -49998957.6118142     
  -49998967.0130917     
  -49998976.9910875     
  -49998987.5401116     
  -49998998.6541609     
  -49999010.3269227     
  -49999022.5517782     
  -49999035.3218062     
  -49999048.6297876     
  -49999062.4682085     
  -49999076.8292654     
  -49999091.7048688     
  -49999107.0866484     
  -49999122.9659573     
  -49999139.3338768     
  -49999156.1812217     
  -49999173.4985451     
  -49999191.2761437     
  -49999209.5040633     
  -49999228.1721040     
  -49999247.2698260     
  -49999266.7865552     
  -49999286.7113892     
  -49999307.0332032     
  -49999327.7406560     
  -49998802.8000058     
  -49998796.2866796     
  -49998790.4496779     
  -49998785.2920204     
  -49998780.8163473     
  -49998777.0249188     
  -49998773.9196137     
  -49998771.5019291     
  -49998769.7729796     
  -49998768.7334977     
  -49998768.3838329     
  -49998768.7239528     
  -49998769.7534427     
  -49998771.4715065     
  -49998773.8769676     
  -49998776.9682698     
  -49998780.7434782     
  -49998785.2002811     
  -49998790.3359912     
  -49998796.1475474     
  -49998802.6315168     
  -49998809.7840973     
  -49998817.6011190     
  -49998826.0780478     
  -49998835.2099875     
  -49998844.9916828     
  -49998855.4175225     
  -49998866.4815430     
  -49998878.1774314     
  -49998890.4985292     
  -49998903.4378365     
  -49998916.9880156     
  -49998931.1413953     
  -49998945.8899755     
  -49998961.2254313     
  -49998977.1391179     
  -49998993.6220756     
  -49999010.6650344     
  -49999028.2584196     
  -49999046.3923568     
  -49999065.0566776     
  -49999084.2409249     
  -49999103.9343593     
  -49999124.1259640     
  -49999144.8044519     
  -49999165.9582712     
  -49999187.5756117     
  -49999209.6444114     
  -49999232.1523632     
  -49999255.0869215     
  -49998668.6416492     
  -49998661.4293660     
  -49998654.9686203     
  -49998649.2627258     
  -49998644.3145756     
  -49998640.1266404     
  -49998636.7009683     
  -49998634.0391839     
  -49998632.1424876     
  -49998631.0116559     
  -49998630.6470410     
  -49998631.0485713     
  -49998632.2157515     
  -49998634.1476639     
  -49998636.8429687     
  -49998640.2999055     
  -49998644.5162947     
  -49998649.4895387     
  -49998655.2166241     
  -49998661.6941235     
  -49998668.9181977     
  -49998676.8845984     
  -49998685.5886705     
  -49998695.0253552     
  -49998705.1891930     
  -49998716.0743269     
  -49998727.6745060     
  -49998739.9830891     
  -49998752.9930488     
  -49998766.6969749     
  -49998781.0870797     
  -49998796.1552015     
  -49998811.8928099     
  -49998828.2910103     
  -49998845.3405490     
  -49998863.0318185     
  -49998881.3548628     
  -49998900.2993829     
  -49998919.8547425     
  -49998940.0099742     
  -49998960.7537851     
  -49998982.0745636     
  -49999003.9603850     
  -49999026.3990190     
  -49999049.3779355     
  -49999072.8843120     
  -49999096.9050405     
  -49999121.4267344     
  -49999146.4357361     
  -49999171.9181240     
  -49998515.5510426     
  -49998507.5462257     
  -49998500.3786898     
  -49998494.0520763     
  -49998488.5695585     
  -49998483.9338404     
  -49998480.1471556     
  -49998477.2112668     
  -49998475.1274656     
  -49998473.8965716     
  -49998473.5189335     
  -49998473.9944284     
  -49998475.3224633     
  -49998477.5019754     
  -49998480.5314331     
  -49998484.4088377     
  -49998489.1317249     
  -49998494.6971662     
  -49998501.1017715     
  -49998508.3416909     
  -49998516.4126177     
  -49998525.3097908     
  -49998535.0279976     
  -49998545.5615778     
  -49998556.9044262     
  -49998569.0499966     
  -49998581.9913061     
  -49998595.7209384     
  -49998610.2310489     
  -49998625.5133689     
  -49998641.5592104     
  -49998658.3594713     
  -49998675.9046400     
  -49998694.1848016     
  -49998713.1896430     
  -49998732.9084585     
  -49998753.3301565     
  -49998774.4432650     
  -49998796.2359383     
  -49998818.6959633     
  -49998841.8107668     
  -49998865.5674216     
  -49998889.9526543     
  -49998914.9528523     
  -49998940.5540710     
  -49998966.7420418     
  -49998993.5021795     
  -49999020.8195905     
  -49999048.6790806     
  -49999077.0651636     
  -49998341.3482213     
  -49998332.4479044     
  -49998324.4823279     
  -49998317.4554966     
  -49998311.3708933     
  -49998306.2314780     
  -49998302.0396864     
  -49998298.7974298     
  -49998296.5060943     
  -49998295.1665409     
  -49998294.7791058     
  -49998295.3436004     
  -49998296.8593125     
  -49998299.3250070     
  -49998302.7389275     
  -49998307.0987973     
  -49998312.4018219     
  -49998318.6446905     
  -49998325.8235785     
  -49998333.9341504     
  -49998342.9715622     
  -49998352.9304648     
  -49998363.8050074     
  -49998375.5888412     
  -49998388.2751229     
  -49998401.8565194     
  -49998416.3252116     
  -49998431.6728995     
  -49998447.8908069     
  -49998464.9696863     
  -49998482.8998247     
  -49998501.6710488     
  -49998521.2727308     
  -49998541.6937947     
  -49998562.9227223     
  -49998584.9475597     
  -49998607.7559242     
  -49998631.3350108     
  -49998655.6715998     
  -49998680.7520635     
  -49998706.5623742     
  -49998733.0881116     
  -49998760.3144710     
  -49998788.2262710     
  -49998816.8079620     
  -49998846.0436345     
  -49998875.9170278     
  -49998906.4115389     
  -49998937.5102311     
  -49998969.1958435     
  -49998143.5520192     
  -49998133.6427990     
  -49998124.7788397     
  -49998116.9645465     
  -49998110.2037424     
  -49998104.4996664     
  -49998099.8549730     
  -49998096.2717310     
  -49998093.7514237     
  -49998092.2949488     
  -49998091.9026182     
  -49998092.5741595     
  -49998094.3087160     
  -49998097.1048482     
  -49998100.9605358     
  -49998105.8731786     
  -49998111.8395995     
  -49998118.8560463     
  -49998126.9181945     
  -49998136.0211505     
  -49998146.1594546     
  -49998157.3270848     
  -49998169.5174603     
  -49998182.7234461     
  -49998196.9373569     
  -49998212.1509620     
  -49998228.3554905     
  -49998245.5416359     
  -49998263.6995620     
  -49998282.8189086     
  -49998302.8887974     
  -49998323.8978384     
  -49998345.8341361     
  -49998368.6852965     
  -49998392.4384340     
  -49998417.0801786     
  -49998442.5966835     
  -49998468.9736325     
  -49998496.1962484     
  -49998524.2493006     
  -49998553.1171138     
  -49998582.7835766     
  -49998613.2321500     
  -49998644.4458768     
  -49998676.4073902     
  -49998709.0989239     
  -49998742.5023211     
  -49998776.5990448     
  -49998811.3701870     
  -49998846.7964798     
  -49997919.3445665     
  -49997908.3014928     
  -49997898.4287827     
  -49997889.7312814     
  -49997882.2131829     
  -49997875.8780290     
  -49997870.7287082     
  -49997866.7674552     
  -49997863.9958505     
  -49997862.4148206     
  -49997862.0246387     
  -49997862.8249249     
  -49997864.8146479     
  -49997867.9921259     
  -49997872.3550289     
  -49997877.9003806     
  -49997884.6245607     
  -49997892.5233078     
  -49997901.5917228     
  -49997911.8242715     
  -49997923.2147892     
  -49997935.7564844     
  -49997949.4419430     
  -49997964.2631330     
  -49997980.2114100     
  -49997997.2775217     
  -49998015.4516140     
  -49998034.7232366     
  -49998055.0813493     
  -49998076.5143286     
  -49998099.0099740     
  -49998122.5555155     
  -49998147.1376204     
  -49998172.7424013     
  -49998199.3554236     
  -49998226.9617140     
  -49998255.5457681     
  -49998285.0915599     
  -49998315.5825500     
  -49998347.0016950     
  -49998379.3314568     
  -49998412.5538118     
  -49998446.6502614     
  -49998481.6018415     
  -49998517.3891328     
  -49998553.9922715     
  -49998591.3909595     
  -49998629.5644760     
  -49998668.4916877     
  -49998708.1510608     
  -49997665.5309590     
  -49997653.2163633     
  -49997642.2135346     
  -49997632.5277982     
  -49997624.1637511     
  -49997617.1252609     
  -49997611.4154646     
  -49997607.0367683     
  -49997603.9908470     
  -49997602.2786452     
  -49997601.9003767     
  -49997602.8555265     
  -49997605.1428517     
  -49997608.7603832     
  -49997613.7054281     
  -49997619.9745721     
  -49997627.5636821     
  -49997636.4679099     
  -49997646.6816951     
  -49997658.1987696     
  -49997671.0121618     
  -49997685.1142008     
  -49997700.4965217     
  -49997717.1500710     
  -49997735.0651120     
  -49997754.2312307     
  -49997774.6373425     
  -49997796.2716985     
  -49997819.1218925     
  -49997843.1748682     
  -49997868.4169270     
  -49997894.8337357     
  -49997922.4103347     
  -49997951.1311464     
  -49997980.9799844     
  -49998011.9400620     
  -49998043.9940017     
  -49998077.1238451     
  -49998111.3110625     
  -49998146.5365633     
  -49998182.7807060     
  -49998220.0233096     
  -49998258.2436637     
  -49998297.4205402     
  -49998337.5322049     
  -49998378.5564284     
  -49998420.4704988     
  -49998463.2512333     
  -49998506.8749907     
  -49998551.3176840     
  -49997378.4935169     
  -49997364.7557867     
  -49997352.4894640     
  -49997341.7003957     
  -49997332.3936133     
  -49997324.5733322     
  -49997318.2429504     
  -49997313.4050483     
  -49997310.0613889     
  -49997308.2129179     
  -49997307.8597648     
  -49997309.0012443     
  -49997311.6358575     
  -49997315.7612948     
  -49997321.3744376     
  -49997328.4713617     
  -49997337.0473406     
  -49997347.0968490     
  -49997358.6135672     
  -49997371.5903853     
  -49997386.0194084     
  -49997401.8919618     
  -49997419.1985963     
  -49997437.9290949     
  -49997458.0724786     
  -49997479.6170135     
  -49997502.5502177     
  -49997526.8588692     
  -49997552.5290132     
  -49997579.5459705     
  -49997607.8943465     
  -49997637.5580391     
  -49997668.5202487     
  -49997700.7634875     
  -49997734.2695893     
  -49997769.0197195     
  -49997804.9943858     
  -49997842.1734490     
  -49997880.5361340     
  -49997920.0610408     
  -49997960.7261570     
  -49998002.5088689     
  -49998045.3859741     
  -49998089.3336938     
  -49998134.3276860     
  -49998180.3430577     
  -49998227.3543789     
  -49998275.3356958     
  -49998324.2605442     
  -49998374.1019642     
  -49997054.1399754     
  -49997038.8122822     
  -49997025.1360540     
  -49997013.1177007     
  -49997002.7627194     
  -49996994.0756932     
  -49996987.0602906     
  -49996981.7192651     
  -49996978.0544559     
  -49996976.0667879     
  -49996975.7562734     
  -49996977.1220137     
  -49996980.1622009     
  -49996984.8741207     
  -49996991.2541552     
  -49996999.2977868     
  -49997008.9996013     
  -49997020.3532930     
  -49997033.3516690     
  -49997047.9866547     
  -49997064.2492991     
  -49997082.1297810     
  -49997101.6174155     
  -49997122.7006609     
  -49997145.3671258     
  -49997169.6035771     
  -49997195.3959476     
  -49997222.7293450     
  -49997251.5880602     
  -49997281.9555771     
  -49997313.8145819     
  -49997347.1469730     
  -49997381.9338716     
  -49997418.1556321     
  -49997455.7918536     
  -49997494.8213907     
  -49997535.2223657     
  -49997576.9721807     
  -49997620.0475294     
  -49997664.4244106     
  -49997710.0781408     
  -49997756.9833673     
  -49997805.1140824     
  -49997854.4436371     
  -49997904.9447550     
  -49997956.5895472     
  -49998009.3495270     
  -49998063.1956247     
  -49998118.0982032     
  -49998174.0270734     
  -49996687.8448613     
  -49996670.7438565     
  -49996655.4972416     
  -49996642.1120306     
  -49996630.5942148     
  -49996620.9487622     
  -49996613.1796172     
  -49996607.2896998     
  -49996603.2809068     
  -49996601.1541127     
  -49996600.9091709     
  -49996602.5449164     
  -49996606.0591677     
  -49996611.4487303     
  -49996618.7094002     
  -49996627.8359678     
  -49996638.8222227     
  -49996651.6609586     
  -49996666.3439787     
  -49996682.8621020     
  -49996701.2051694     
  -49996721.3620509     
  -49996743.3206528     
  -49996767.0679260     
  -49996792.5898733     
  -49996819.8715594     
  -49996848.8971188     
  -49996879.6497665     
  -49996912.1118071     
  -49996946.2646458     
  -49996982.0887992     
  -49997019.5639063     
  -49997058.6687401     
  -49997099.3812200     
  -49997141.6784239     
  -49997185.5366011     
  -49997230.9311855     
  -49997277.8368088     
  -49997326.2273150     
  -49997376.0757742     
  -49997427.3544970     
  -49997480.0350498     
  -49997534.0882698     
  -49997589.4842808     
  -49997646.1925086     
  -49997704.1816976     
  -49997763.4199270     
  -49997823.8746278     
  -49997885.5125995     
  -49997948.3000276     
  -49996274.3832117     
  -49996255.3077104     
  -49996238.3151430     
  -49996223.4131663     
  -49996210.6082921     
  -49996199.9058859     
  -49996191.3101667     
  -49996184.8242078     
  -49996180.4499370     
  -49996178.1881384     
  -49996178.0384546     
  -49996179.9993888     
  -49996184.0683086     
  -49996190.2414489     
  -49996198.5139170     
  -49996208.8796967     
  -49996221.3316543     
  -49996235.8615437     
  -49996252.4600134     
  -49996271.1166134     
  -49996291.8198022     
  -49996314.5569553     
  -49996339.3143732     
  -49996366.0772904     
  -49996394.8298854     
  -49996425.5552898     
  -49996458.2355991     
  -49996492.8518838     
  -49996529.3842003     
  -49996567.8116028     
  -49996608.1121557     
  -49996650.2629462     
  -49996694.2400971     
  -49996740.0187810     
  -49996787.5732334     
  -49996836.8767678     
  -49996887.9017901     
  -49996940.6198137     
  -49996995.0014752     
  -49997051.0165503     
  -49997108.6339701     
  -49997167.8218374     
  -49997228.5474444     
  -49997290.7772895     
  -49997354.4770950     
  -49997419.6118256     
  -49997486.1457061     
  -49997554.0422407     
  -49997623.2642313     
  -49997693.7737973     
  -49995807.8556826     
  -49995786.5853626     
  -49995767.6552260     
  -49995751.0736086     
  -49995736.8475628     
  -49995724.9828579     
  -49995715.4839796     
  -49995708.3541310     
  -49995703.5952338     
  -49995701.2079305     
  -49995701.1915864     
  -49995703.5442938     
  -49995708.2628752     
  -49995715.3428878     
  -49995724.7786287     
  -49995736.5631408     
  -49995750.6882186     
  -49995767.1444154     
  -49995785.9210507     
  -49995807.0062179     
  -49995830.3867934     
  -49995856.0484453     
  -49995883.9756432     
  -49995914.1516686     
  -49995946.5586253     
  -49995981.1774510     
  -49996017.9879290     
  -49996056.9687006     
  -49996098.0972778     
  -49996141.3500567     
  -49996186.7023312     
  -49996234.1283073     
  -49996283.6011182     
  -49996335.0928390     
  -49996388.5745027     
  -49996444.0161162     
  -49996501.3866768     
  -49996560.6541896     
  -49996621.7856842     
  -49996684.7472331     
  -49996749.5039695     
  -49996816.0201064     
  -49996884.2589548     
  -49996954.1829442     
  -49997025.7536411     
  -49997098.9317699     
  -49997173.6772332     
  -49997249.9491323     
  -49997327.7057885     
  -49997406.9047646     
  -49995281.6039744     
  -49995257.8981268     
  -49995236.8218772     
  -49995218.3842697     
  -49995202.5929118     
  -49995189.4539738     
  -49995178.9721890     
  -49995171.1508559     
  -49995165.9918392     
  -49995163.4955730     
  -49995163.6610638     
  -49995166.4858949     
  -49995171.9662308     
  -49995180.0968228     
  -49995190.8710148     
  -49995204.2807504     
  -49995220.3165799     
  -49995238.9676685     
  -49995260.2218049     
  -49995284.0654105     
  -49995310.4835495     
  -49995339.4599392     
  -49995370.9769610     
  -49995405.0156726     
  -49995441.5558197     
  -49995480.5758491     
  -49995522.0529222     
  -49995565.9629288     
  -49995612.2805018     
  -49995660.9790322     
  -49995712.0306846     
  -49995765.4064134     
  -49995821.0759795     
  -49995879.0079672     
  -49995939.1698021     
  -49996001.5277688     
  -49996066.0470301     
  -49996132.6916453     
  -49996201.4245902     
  -49996272.2077769     
  -49996345.0020739     
  -49996419.7673274     
  -49996496.4623818     
  -49996575.0451021     
  -49996655.4723953     
  -49996737.7002329     
  -49996821.6836737     
  -49996907.3768870     
  -49996994.7331761     
  -49997083.7050017     
  -49994688.1153593     
  -49994661.7117402     
  -49994638.2631711     
  -49994617.7794271     
  -49994600.2686740     
  -49994585.7374686     
  -49994574.1907602     
  -49994565.6318922     
  -49994560.0626050     
  -49994557.4830393     
  -49994557.8917405     
  -49994561.2856636     
  -49994567.6601791     
  -49994577.0090792     
  -49994589.3245855     
  -49994604.5973564     
  -49994622.8164961     
  -49994643.9695641     
  -49994668.0425848     
  -49994695.0200585     
  -49994724.8849730     
  -49994757.6188155     
  -49994793.2015851     
  -49994831.6118067     
  -49994872.8265447     
  -49994916.8214177     
  -49994963.5706138     
  -49995013.0469063     
  -49995065.2216706     
  -49995120.0649007     
  -49995177.5452272     
  -49995237.6299352     
  -49995300.2849832     
  -49995365.4750226     
  -49995433.1634170     
  -49995503.3122628     
  -49995575.8824100     
  -49995650.8334834     
  -49995728.1239049     
  -49995807.7109148     
  -49995889.5505957     
  -49995973.5978948     
  -49996059.8066483     
  -49996148.1296046     
  -49996238.5184496     
  -49996330.9238313     
  -49996425.2953849     
  -49996521.5817590     
  -49996619.7306411     
  -49996719.6887846     
  -49994018.9149464     
  -49993989.5287915     
  -49993963.4635090     
  -49993940.7296148     
  -49993921.3358233     
  -49993905.2890484     
  -49993892.5944054     
  -49993883.2552137     
  -49993877.2730007     
  -49993874.6475061     
  -49993875.3766873     
  -49993879.4567256     
  -49993886.8820333     
  -49993897.6452613     
  -49993911.7373081     
  -49993929.1473286     
  -49993949.8627450     
  -49993973.8692573     
  -49994001.1508551     
  -49994031.6898303     
  -49994065.4667899     
  -49994102.4606703     
  -49994142.6487516     
  -49994186.0066734     
  -49994232.5084503     
  -49994282.1264891     
  -49994334.8316056     
  -49994390.5930432     
  -49994449.3784912     
  -49994511.1541043     
  -49994575.8845222     
  -49994643.5328906     
  -49994714.0608818     
  -49994787.4287165     
  -49994863.5951866     
  -49994942.5176771     
  -49995024.1521902     
  -49995108.4533688     
  -49995195.3745210     
  -49995284.8676452     
  -49995376.8834550     
  -49995471.3714059     
  -49995568.2797208     
  -49995667.5554174     
  -49995769.1443354     
  -49995872.9911640     
  -49995979.0394703     
  -49996087.2317276     
  -49996197.5093446     
  -49996309.8126947     
  -49993264.4441451     
  -49993231.7674303     
  -49993202.8226217     
  -49993177.6209708     
  -49993156.1717129     
  -49993138.4820689     
  -49993124.5572485     
  -49993114.4004539     
  -49993108.0128849     
  -49993105.3937441     
  -49993106.5402446     
  -49993111.4476167     
  -49993120.1091167     
  -49993132.5160368     
  -49993148.6577145     
  -49993168.5215446     
  -49993192.0929907     
  -49993219.3555983     
  -49993250.2910081     
  -49993284.8789710     
  -49993323.0973629     
  -49993364.9222012     
  -49993410.3276612     
  -49993459.2860938     
  -49993511.7680442     
  -49993567.7422704     
  -49993627.1757633     
  -49993690.0337673     
  -49993756.2798009     
  -49993825.8756793     
  -49993898.7815363     
  -49993974.9558478     
  -49994054.3554552     
  -49994136.9355904     
  -49994222.6499003     
  -49994311.4504725     
  -49994403.2878616     
  -49994498.1111160     
  -49994595.8678049     
  -49994696.5040467     
  -49994799.9645365     
  -49994906.1925761     
  -49995015.1301023     
  -49995126.7177176     
  -49995240.8947199     
  -49995357.5991339     
  -49995476.7677420     
  -49995598.3361162     
  -49995722.2386499     
  -49995848.4085909     
  -49992413.9235967     
  -49992377.6246459     
  -49992345.5192524     
  -49992317.6193763     
  -49992293.9347226     
  -49992274.4727436     
  -49992259.2386436     
  -49992248.2353843     
  -49992241.4636906     
  -49992238.9220586     
  -49992240.6067633     
  -49992246.5118686     
  -49992256.6292374     
  -49992270.9485428     
  -49992289.4572804     
  -49992312.1407819     
  -49992338.9822289     
  -49992369.9626678     
  -49992405.0610261     
  -49992444.2541291     
  -49992487.5167176     
  -49992534.8214663     
  -49992586.1390034     
  -49992641.4379305     
  -49992700.6848438     
  -49992763.8443557     
  -49992830.8791174     
  -49992901.7498423     
  -49992976.4153296     
  -49993054.8324896     
  -49993136.9563687     
  -49993222.7401757     
  -49993312.1353085     
  -49993405.0913820     
  -49993501.5562552     
  -49993601.4760612     
  -49993704.7952356     
  -49993811.4565469     
  -49993921.4011267     
  -49994034.5685013     
  -49994150.8966228     
  -49994270.3219018     
  -49994392.7792395     
  -49994518.2020618     
  -49994646.5223522     
  -49994777.6706866     
  -49994911.5762676     
  -49995048.1669599     
  -49995187.3693259     
  -49995329.1086616     
  -49991455.1986264     
  -49991414.9221988     
  -49991379.3576255     
  -49991348.5175211     
  -49991322.4119781     
  -49991301.0485719     
  -49991284.4323667     
  -49991272.5659221     
  -49991265.4493018     
  -49991263.0800827     
  -49991265.4533651     
  -49991272.5617845     
  -49991284.3955240     
  -49991300.9423278     
  -49991322.1875162     
  -49991348.1140010     
  -49991378.7023024     
  -49991413.9305662     
  -49991453.7745829     
  -49991498.2078071     
  -49991547.2013780     
  -49991600.7241407     
  -49991658.7426686     
  -49991721.2212865     
  -49991788.1220947     
  -49991859.4049936     
  -49991935.0277099     
  -49992014.9458225     
  -49992099.1127899     
  -49992187.4799784     
  -49992279.9966909     
  -49992376.6101958     
  -49992477.2657583     
  -49992581.9066700     
  -49992690.4742815     
  -49992802.9080342     
  -49992919.1454931     
  -49993039.1223807     
  -49993162.7726105     
  -49993290.0283226     
  -49993420.8199179     
  -49993555.0760951     
  -49993692.7238861     
  -49993833.6886938     
  -49993977.8943290     
  -49994125.2630485     
  -49994275.7155938     
  -49994429.1712295     
  -49994585.5477835     
  -49994744.7616860     
  -49990374.5650290     
  -49990329.9330489     
  -49990290.5945833     
  -49990256.5628101     
  -49990227.8480892     
  -49990204.4579690     
  -49990186.3971942     
  -49990173.6677153     
  -49990166.2686988     
  -49990164.1965388     
  -49990167.4448702     
  -49990176.0045826     
  -49990189.8638352     
  -49990209.0080737     
  -49990233.4200476     
  -49990263.0798284     
  -49990297.9648299     
  -49990338.0498284     
  -49990383.3069849     
  -49990433.7058672     
  -49990489.2134744     
  -49990549.7942612     
  -49990615.4101637     
  -49990686.0206260     
  -49990761.5826275     
  -49990842.0507116     
  -49990927.3770150     
  -49991017.5112974     
  -49991112.4009727     
  -49991211.9911411     
  -49991316.2246206     
  -49991425.0419816     
  -49991538.3815798     
  -49991656.1795916     
  -49991778.3700495     
  -49991904.8848779     
  -49992035.6539304     
  -49992170.6050270     
  -49992309.6639922     
  -49992452.7546940     
  -49992599.7990827     
  -49992750.7172314     
  -49992905.4273762     
  -49993063.8459572     
  -49993225.8876603     
  -49993391.4654589     
  -49993560.4906568     
  -49993732.8729310     
  -49993908.5203757     
  -49994087.3395457     
  -49989156.5727353     
  -49989107.1858686     
  -49989063.7450142     
  -49989026.2637766     
  -49988994.7526130     
  -49988969.2188427     
  -49988949.6666573     
  -49988936.0971329     
  -49988928.5082430     
  -49988926.8948734     
  -49988931.2488378     
  -49988941.5588950     
  -49988957.8107677     
  -49988979.9871613     
  -49989008.0677859     
  -49989042.0293773     
  -49989081.8457207     
  -49989127.4876749     
  -49989178.9231980     
  -49989236.1173732     
  -49989299.0324372     
  -49989367.6278082     
  -49989441.8601159     
  -49989521.6832315     
  -49989607.0482999     
  -49989697.9037719     
  -49989794.1954373     
  -49989895.8664594     
  -49990002.8574104     
  -49990115.1063068     
  -49990232.5486465     
  -49990355.1174465     
  -49990482.7432808     
  -49990615.3543200     
  -49990752.8763708     
  -49990895.2329165     
  -49991042.3451587     
  -49991194.1320585     
  -49991350.5103796     
  -49991511.3947313     
  -49991676.6976122     
  -49991846.3294545     
  -49992020.1986694     
  -49992198.2116921     
  -49992380.2730282     
  -49992566.2853001     
  -49992756.1492940     
  -49992949.7640079     
  -49993147.0266991     
  -49993347.8329331     
  -49987783.8046066     
  -49987729.2449363     
  -49987681.3629217     
  -49987640.1723976     
  -49987605.6836868     
  -49987577.9036122     
  -49987556.8355107     
  -49987542.4792483     
  -49987534.8312365     
  -49987533.8844510     
  -49987539.6284504     
  -49987552.0493980     
  -49987571.1300830     
  -49987596.8499453     
  -49987629.1850992     
  -49987668.1083604     
  -49987713.5892728     
  -49987765.5941372     
  -49987824.0860412     
  -49987889.0248899     
  -49987960.3674381     
  -49988038.0673228     
  -49988122.0750982     
  -49988212.3382701     
  -49988308.8013322     
  -49988411.4058038     
  -49988520.0902672     
  -49988634.7904067     
  -49988755.4390490     
  -49988881.9662036     
  -49989014.2991045     
  -49989152.3622524     
  -49989296.0774580     
  -49989445.3638864     
  -49989600.1381009     
  -49989760.3141094     
  -49989925.8034099     
  -49990096.5150374     
  -49990272.3556116     
  -49990453.2293846     
  -49990639.0382902     
  -49990829.6819926     
  -49991025.0579364     
  -49991225.0613974     
  -49991429.5855331     
  -49991638.5214344     
  -49991851.7581778     
  -49992069.1828774     
  -49992290.6807381     
  -49992516.1351090     
  -49986236.6272761     
  -49986176.4623902     
  -49986123.7951691     
  -49986078.6394075     
  -49986041.0049844     
  -49986010.8978788     
  -49985988.3201872     
  -49985973.2701433     
  -49985965.7421384     
  -49985965.7267443     
  -49985973.2107366     
  -49985988.1771205     
  -49986010.6051577     
  -49986040.4703943     
  -49986077.7446908     
  -49986122.3962526     
  -49986174.3896631     
  -49986233.6859162     
  -49986300.2424518     
  -49986374.0131916     
  -49986454.9485759     
  -49986542.9956026     
  -49986638.0978657     
  -49986740.1955963     
  -49986849.2257041     
  -49986965.1218195     
  -49987087.8143373     
  -49987217.2304610     
  -49987353.2942482     
  -49987495.9266566     
  -49987645.0455911     
  -49987800.5659519     
  -49987962.3996828     
  -49988130.4558207     
  -49988304.6405459     
  -49988484.8572330     
  -49988671.0065022     
  -49988862.9862719     
  -49989060.6918113     
  -49989264.0157943     
  -49989472.8483532     
  -49989687.0771335     
  -49989906.5873494     
  -49990131.2618393     
  -49990360.9811223     
  -49990595.6234551     
  -49990835.0648888     
  -49991079.1793274     
  -49991327.8385854     
  -49991580.9124469     
  -49984492.9105924     
  -49984426.6994657     
  -49984368.9045965     
  -49984319.5393760     
  -49984278.6128333     
  -49984246.1296559     
  -49984222.0902120     
  -49984206.4905749     
  -49984199.3225490     
  -49984200.5736975     
  -49984210.2273710     
  -49984228.2627392     
  -49984254.6548226     
  -49984289.3745266     
  -49984332.3886766     
  -49984383.6600550     
  -49984443.1474389     
  -49984510.8056397     
  -49984586.5855440     
  -49984670.4341549     
  -49984762.2946358     
  -49984862.1063542     
  -49984969.8049275     
  -49985085.3222693     
  -49985208.5866370     
  -49985339.5226806     
  -49985478.0514920     
  -49985624.0906557     
  -49985777.5543001     
  -49985938.3531501     
  -49986106.3945800     
  -49986281.5826678     
  -49986463.8182495     
  -49986652.9989752     
  -49986849.0193649     
  -49987051.7708657     
  -49987261.1419095     
  -49987477.0179712     
  -49987699.2816274     
  -49987927.8126161     
  -49988162.4878971     
  -49988403.1817118     
  -49988649.7656450     
  -49988902.1086864     
  -49989160.0772927     
  -49989423.5354501     
  -49989692.3447375     
  -49989966.3643899     
  -49990245.4513621     
  -49990529.4603935     
  -49982527.7118178     
  -49982455.0129580     
  -49982391.7588355     
  -49982337.9619589     
  -49982293.6299822     
  -49982258.7657311     
  -49982233.3672316     
  -49982217.4277403     
  -49982210.9357762     
  -49982213.8751551     
  -49982226.2250247     
  -49982247.9599023     
  -49982279.0497136     
  -49982319.4598331     
  -49982369.1511259     
  -49982428.0799918     
  -49982496.1984095     
  -49982573.4539832     
  -49982659.7899902     
  -49982755.1454298     
  -49982859.4550733     
  -49982972.6495152     
  -49983094.6552258     
  -49983225.3946049     
  -49983364.7860361     
  -49983512.7439425     
  -49983669.1788433     
  -49983833.9974115     
  -49984007.1025322     
  -49984188.3933617     
  -49984377.7653881     
  -49984575.1104917     
  -49984780.3170070     
  -49984993.2697850     
  -49985213.8502561     
  -49985441.9364941     
  -49985677.4032804     
  -49985920.1221690     
  -49986169.9615520     
  -49986426.7867257     
  -49986690.4599571     
  -49986960.8405513     
  -49987237.7849185     
  -49987521.1466426     
  -49987810.7765491     
  -49988106.5227745     
  -49988408.2308350     
  -49988715.7436963     
  -49989028.9018438     
  -49989347.5433523     
  -49980312.9202956     
  -49980233.3027228     
  -49980164.2807358     
  -49980105.8653380     
  -49980058.0621362     
  -49980020.8713742     
  -49979994.2879685     
  -49979978.3015457     
  -49979972.8964827     
  -49979978.0519478     
  -49979993.7419439     
  -49980019.9353539     
  -49980056.5959871     
  -49980103.6826278     
  -49980161.1490852     
  -49980228.9442448     
  -49980307.0121214     
  -49980395.2919134     
  -49980493.7180585     
  -49980602.2202907     
  -49980720.7236984     
  -49980849.1487841     
  -49980987.4115243     
  -49981135.4234321     
  -49981293.0916189     
  -49981460.3188588     
  -49981637.0036525     
  -49981823.0402936     
  -49982018.3189344     
  -49982222.7256532     
  -49982436.1425225     
  -49982658.4476773     
  -49982889.5153846     
  -49983129.2161137     
  -49983377.4166066     
  -49983633.9799493     
  -49983898.7656434     
  -49984171.6296790     
  -49984452.4246068     
  -49984740.9996121     
  -49985037.2005878     
  -49985340.8702091     
  -49985651.8480079     
  -49985969.9704472     
  -49986295.0709972     
  -49986626.9802102     
  -49986965.5257964     
  -49987310.5327006     
  -49987661.8231782     
  -49988019.2168718     
  -49977816.8578159     
  -49977729.9155690     
  -49977654.8558785     
  -49977591.6874431     
  -49977540.4129702     
  -49977501.0292180     
  -49977473.5270398     
  -49977457.8914307     
  -49977454.1015768     
  -49977462.1309048     
  -49977481.9471353     
  -49977513.5123371     
  -49977556.7829825     
  -49977611.7100062     
  -49977678.2388638     
  -49977756.3095930     
  -49977845.8568759     
  -49977946.8101029     
  -49978059.0934377     
  -49978182.6258840     
  -49978317.3213526     
  -49978463.0887308     
  -49978619.8319517     
  -49978787.4500659     
  -49978965.8373124     
  -49979154.8831926     
  -49979354.4725431     
  -49979564.4856108     
  -49979784.7981283     
  -49980015.2813895     
  -49980255.8023271     
  -49980506.2235892     
  -49980766.4036180     
  -49981036.1967282     
  -49981315.4531859     
  -49981604.0192882     
  -49981901.7374437     
  -49982208.4462523     
  -49982523.9805866     
  -49982848.1716724     
  -49983180.8471711     
  -49983521.8312606     
  -49983870.9447180     
  -49984228.0050013     
  -49984592.8263327     
  -49984965.2197807     
  -49985344.9933432     
  -49985731.9520307     
  -49986125.8979494     
  -49986526.6303845     
  -49975003.8293919     
  -49974909.2003998     
  -49974827.8921745     
  -49974759.9100948     
  -49974705.2528964     
  -49974663.9127251     
  -49974635.8751918     
  -49974621.1194301     
  -49974619.6181560     
  -49974631.3377289     
  -49974656.2382155     
  -49974694.2734555     
  -49974745.3911280     
  -49974809.5328209     
  -49974886.6341015     
  -49974976.6245877     
  -49975079.4280227     
  -49975194.9623486     
  -49975323.1397834     
  -49975463.8668982     
  -49975617.0446956     
  -49975782.5686895     
  -49975960.3289857     
  -49976150.2103638     
  -49976352.0923593     
  -49976565.8493475     
  -49976791.3506273     
  -49977028.4605062     
  -49977277.0383861     
  -49977536.9388488     
  -49977808.0117437     
  -49978090.1022739     
  -49978383.0510850     
  -49978686.6943525     
  -49979000.8638704     
  -49979325.3871402     
  -49979660.0874598     
  -49980004.7840133     
  -49980359.2919598     
  -49980723.4225241     
  -49981096.9830859     
  -49981479.7772705     
  -49981871.6050383     
  -49982272.2627757     
  -49982681.5433851     
  -49983099.2363752     
  -49983525.1279517     
  -49983959.0011076     
  -49984400.6357131     
  -49984849.8086068     
  -49971833.6185920     
  -49971731.0089171     
  -49971643.3260343     
  -49971570.5707219     
  -49971512.7364044     
  -49971469.8092183     
  -49971441.7680803     
  -49971428.5847577     
  -49971430.2239411     
  -49971446.6433189     
  -49971477.7936540     
  -49971523.6188625     
  -49971584.0560938     
  -49971659.0358128     
  -49971748.4818832     
  -49971852.3116527     
  -49971970.4360399     
  -49972102.7596213     
  -49972249.1807209     
  -49972409.5915003     
  -49972583.8780496     
  -49972771.9204801     
  -49972973.5930171     
  -49973188.7640940     
  -49973417.2964470     
  -49973659.0472106     
  -49973913.8680134     
  -49974181.6050750     
  -49974462.0993028     
  -49974755.1863897     
  -49975060.6969120     
  -49975378.4564276     
  -49975708.2855746     
  -49976050.0001697     
  -49976403.4113075     
  -49976768.3254593     
  -49977144.5445720     
  -49977531.8661679     
  -49977930.0834430     
  -49978338.9853671     
  -49978758.3567820     
  -49979187.9785010     
  -49979627.6274079     
  -49980077.0765554     
  -49980536.0952639     
  -49981004.4492199     
  -49981481.9005745     
  -49981968.2080409     
  -49982463.1269927     
  -49982966.4095616     
  -49968260.9209698     
  -49968150.1356370     
  -49968056.0690520     
  -49967978.7157909     
  -49967918.0623032     
  -49967874.0869928     
  -49967846.7603021     
  -49967836.0447980     
  -49967841.8952597     
  -49967864.2587698     
  -49967903.0748057     
  -49967958.2753347     
  -49968029.7849091     
  -49968117.5207640     
  -49968221.3929162     
  -49968341.3042648     
  -49968477.1506930     
  -49968628.8211702     
  -49968796.1978573     
  -49968979.1562105     
  -49969177.5650879     
  -49969391.2868560     
  -49969620.1774972     
  -49969864.0867180     
  -49970122.8580572     
  -49970396.3289957     
  -49970684.3310656     
  -49970986.6899603     
  -49971303.2256443     
  -49971633.7524640     
  -49971978.0792577     
  -49972336.0094666     
  -49972707.3412449     
  -49973091.8675704     
  -49973489.3763551     
  -49973899.6505557     
  -49974322.4682827     
  -49974757.6029114     
  -49975204.8231908     
  -49975663.8933530     
  -49976134.5732224     
  -49976616.6183240     
  -49977109.7799917     
  -49977613.8054762     
  -49978128.4380522     
  -49978653.4171253     
  -49979188.4783389     
  -49979733.3536792     
  -49980287.7715818     
  -49980851.4570361     
  -49964234.7084973     
  -49964115.6903556     
  -49964015.3885799     
  -49963933.7895529     
  -49963870.8706935     
  -49963826.6005569     
  -49963800.9389375     
  -49963793.8369726     
  -49963805.2372505     
  -49963835.0739184     
  -49963883.2727941     
  -49963949.7514782     
  -49964034.4194683     
  -49964137.1782749     
  -49964257.9215386     
  -49964396.5351482     
  -49964552.8973605     
  -49964726.8789206     
  -49964918.3431835     
  -49965127.1462358     
  -49965353.1370192     
  -49965596.1574538     
  -49965856.0425615     
  -49966132.6205911     
  -49966425.7131419     
  -49966735.1352896     
  -49967060.6957104     
  -49967402.1968058     
  -49967759.4348281     
  -49968132.2000047     
  -49968520.2766627     
  -49968923.4433531     
  -49969341.4729749     
  -49969774.1328986     
  -49970221.1850893     
  -49970682.3862294     
  -49971157.4878404     
  -49971646.2364049     
  -49972148.3734871     
  -49972663.6358531     
  -49973191.7555904     
  -49973732.4602272     
  -49974285.4728494     
  -49974850.5122192     
  -49975427.2928905     
  -49976015.5253255     
  -49976614.9160088     
  -49977225.1675623     
  -49977845.9788579     
  -49978477.0451300     
  -49959697.5172369     
  -49959570.3955815     
  -49959464.2149798     
  -49959378.9511595     
  -49959314.5699828     
  -49959271.0275685     
  -49959248.2704173     
  -49959246.2355383     
  -49959264.8505787     
  -49959304.0339543     
  -49959363.6949829     
  -49959443.7340182     
  -49959544.0425861     
  -49959664.5035217     
  -49959804.9911078     
  -49959965.3712140     
  -49960145.5014373     
  -49960345.2312428     
  -49960564.4021053     
  -49960802.8476517     
  -49961060.3938030     
  -49961336.8589171     
  -49961632.0539319     
  -49961945.7825078     
  -49962277.8411703     
  -49962628.0194531     
  -49962996.1000398     
  -49963381.8589060     
  -49963785.0654609     
  -49964205.4826880     
  -49964642.8672853     
  -49965096.9698052     
  -49965567.5347929     
  -49966054.3009248     
  -49966557.0011452     
  -49967075.3628029     
  -49967609.1077859     
  -49968157.9526562     
  -49968721.6087823     
  -49969299.7824712     
  -49969892.1750998     
  -49970498.4832438     
  -49971118.3988067     
  -49971751.6091468     
  -49972397.7972033     
  -49973056.6416210     
  -49973727.8168741     
  -49974410.9933880     
  -49975105.8376609     
  -49975812.0123833     
  -49954584.6497969     
  -49954449.8008019     
  -49954338.3677354     
  -49954250.3126434     
  -49954185.5867397     
  -49954144.1305556     
  -49954125.8740906     
  -49954130.7369666     
  -49954158.6285831     
  -49954209.4482746     
  -49954283.0854693     
  -49954379.4198491     
  -49954498.3215112     
  -49954639.6511303     
  -49954803.2601219     
  -49954988.9908056     
  -49955196.6765705     
  -49955426.1420388     
  -49955677.2032318     
  -49955949.6677338     
  -49956243.3348583     
  -49956557.9958117     
  -49956893.4338583     
  -49957249.4244841     
  -49957625.7355602     
  -49958022.1275055     
  -49958438.3534488     
  -49958874.1593895     
  -49959329.2843580     
  -49959803.4605746     
  -49960296.4136073     
  -49960807.8625282     
  -49961337.5200694     
  -49961885.0927758     
  -49962450.2811589     
  -49963032.7798466     
  -49963632.2777334     
  -49964248.4581279     
  -49964880.9988987     
  -49965529.5726194     
  -49966193.8467113     
  -49966873.4835841     
  -49967568.1407755     
  -49968277.4710888     
  -49969001.1227286     
  -49969738.7394345     
  -49970489.9606139     
  -49971254.4214718     
  -49972031.7531399     
  -49972821.5828034     
  -49948823.2834233     
  -49948681.4048109     
  -49948565.6920200     
  -49948476.0897108     
  -49948412.5306828     
  -49948374.9360555     
  -49948363.2154521     
  -49948377.2671841     
  -49948416.9784382     
  -49948482.2254641     
  -49948572.8737644     
  -49948688.7782842     
  -49948829.7836029     
  -49948995.7241254     
  -49949186.4242744     
  -49949401.6986829     
  -49949641.3523861     
  -49949905.1810143     
  -49950192.9709842     
  -49950504.4996907     
  -49950839.5356975     
  -49951197.8389274     
  -49951579.1608511     
  -49951983.2446755     
  -49952409.8255306     
  -49952858.6306547     
  -49953329.3795790     
  -49953821.7843099     
  -49954335.5495100     
  -49954870.3726772     
  -49955425.9443224     
  -49956001.9481443     
  -49956598.0612037     
  -49957213.9540939     
  -49957849.2911109     
  -49958503.7304196     
  -49959176.9242194     
  -49959868.5189057     
  -49960578.1552309     
  -49961305.4684618     
  -49962050.0885354     
  -49962811.6402109     
  -49963589.7432214     
  -49964384.0124212     
  -49965194.0579317     
  -49966019.4852846     
  -49966859.8955626     
  -49967714.8855378     
  -49968584.0478071     
  -49969466.9709267     
  -49942331.4738971     
  -49942183.6767001     
  -49942065.0967396     
  -49941975.6567778     
  -49941915.2666294     
  -49941883.8233810     
  -49941881.2116115     
  -49941907.3036144     
  -49941961.9596209     
  -49942045.0280247     
  -49942156.3456073     
  -49942295.7377627     
  -49942463.0187245     
  -49942657.9917910     
  -49942880.4495513     
  -49943130.1741107     
  -49943406.9373151     
  -49943710.5009753     
  -49944040.6170900     
  -49944397.0280673     
  -49944779.4669451     
  -49945187.6576103     
  -49945621.3150160     
  -49946080.1453968     
  -49946563.8464820     
  -49947072.1077076     
  -49947604.6104248     
  -49948161.0281067     
  -49948741.0265531     
  -49949344.2640916     
  -49949970.3917772     
  -49950619.0535877     
  -49951289.8866181     
  -49951982.5212702     
  -49952696.5814406     
  -49953431.6847049     
  -49954187.4424990     
  -49954963.4602975     
  -49955759.3377883     
  -49956574.6690448     
  -49957409.0426940     
  -49958262.0420819     
  -49959133.2454356     
  -49960022.2260218     
  -49960928.5523026     
  -49961851.7880870     
  -49962791.4926805     
  -49963747.2210305     
  -49964718.5238689     
  -49965704.9478513     
  -49935017.0447631     
  -49934864.9655330     
  -49934745.4845535     
  -49934658.4972151     
  -49934603.8848246     
  -49934581.5148691     
  -49934591.2412806     
  -49934632.9047020     
  -49934706.3327537     
  -49934811.3403005     
  -49934947.7297188     
  -49935115.2911629     
  -49935313.8028324     
  -49935543.0312368     
  -49935802.7314610     
  -49936092.6474282     
  -49936412.5121626     
  -49936762.0480494     
  -49937140.9670933     
  -49937548.9711755     
  -49937985.7523077     
  -49938450.9928834     
  -49938944.3659278     
  -49939465.5353439     
  -49940014.1561556     
  -49940589.8747484     
  -49941192.3291064     
  -49941821.1490460     
  -49942475.9564456     
  -49943156.3654735     
  -49943861.9828091     
  -49944592.4078635     
  -49945347.2329938     
  -49946126.0437146     
  -49946928.4189052     
  -49947753.9310130     
  -49948602.1462519     
  -49949472.6247975     
  -49950364.9209777     
  -49951278.5834584     
  -49952213.1554265     
  -49953168.1747666     
  -49954143.1742357     
  -49955137.6816311     
  -49956151.2199563     
  -49957183.3075814     
  -49958233.4583996     
  -49959301.1819794     
  -49960385.9837133     
  -49961487.3649609     
  -49926776.3508484     
  -49926622.2882226     
  -49926504.5639354     
  -49926423.0393937     
  -49926377.5607462     
  -49926367.9592002     
  -49926394.0513379     
  -49926455.6394340     
  -49926552.5117725     
  -49926684.4429637     
  -49926851.1942595     
  -49927052.5138682     
  -49927288.1372685     
  -49927557.7875203     
  -49927861.1755747     
  -49928198.0005817     
  -49928567.9501949     
  -49928970.7008738     
  -49929405.9181832     
  -49929873.2570891     
  -49930372.3622515     
  -49930902.8683133     
  -49931464.4001858     
  -49932056.5733299     
  -49932678.9940328     
  -49933331.2596814     
  -49934012.9590301     
  -49934723.6724649     
  -49935462.9722621     
  -49936230.4228424     
  -49937025.5810203     
  -49937847.9962479     
  -49938697.2108539     
  -49939572.7602776     
  -49940474.1732968     
  -49941400.9722512     
  -49942352.6732602     
  -49943328.7864347     
  -49944328.8160842     
  -49945352.2609180     
  -49946398.6142410     
  -49947467.3641437     
  -49948557.9936877     
  -49949669.9810844     
  -49950802.7998691     
  -49951955.9190695     
  -49953128.8033691     
  -49954320.9132646     
  -49955531.7052187     
  -49956760.6318076     
  -49917492.9045833     
  -49917339.9847598     
  -49917227.5330354     
  -49917155.3688785     
  -49917123.2953037     
  -49917131.0992494     
  -49917178.5519563     
  -49917265.4093439     
  -49917391.4123866     
  -49917556.2874880     
  -49917759.7468533     
  -49918001.4888595     
  -49918281.1984227     
  -49918598.5473629     
  -49918953.1947654     
  -49919344.7873389     
  -49919772.9597687     
  -49920237.3350679     
  -49920737.5249218     
  -49921273.1300299     
  -49921843.7404412     
  -49922448.9358862     
  -49923088.2861020     
  -49923761.3511532     
  -49924467.6817466     
  -49925206.8195400     
  -49925978.2974456     
  -49926781.6399262     
  -49927616.3632866     
  -49928481.9759574     
  -49929377.9787730     
  -49930303.8652430     
  -49931259.1218162     
  -49932243.2281391     
  -49933255.6573064     
  -49934295.8761056     
  -49935363.3452539     
  -49936457.5196289     
  -49937577.8484918     
  -49938723.7757038     
  -49939894.7399360     
  -49941090.1748714     
  -49942309.5094012     
  -49943552.1678130     
  -49944817.5699732     
  -49946105.1315019     
  -49947414.2639412     
  -49948744.3749176     
  -49950094.8682963     
  -49951465.1443309     
  -49907035.8533679     
  -49906888.2297428     
  -49906785.6249739     
  -49906727.8070586     
  -49906714.5263462     
  -49906745.5159881     
  -49906820.4923864     
  -49906939.1556409     
  -49907101.1899929     
  -49907306.2642662     
  -49907554.0323052     
  -49907844.1334087     
  -49908176.1927596     
  -49908549.8218505     
  -49908964.6189043     
  -49909420.1692892     
  -49909916.0459291     
  -49910451.8097073     
  -49911027.0098650     
  -49911641.1843927     
  -49912293.8604156     
  -49912984.5545721     
  -49913712.7733848     
  -49914478.0136249     
  -49915279.7626692     
  -49916117.4988483     
  -49916990.6917890     
  -49917898.8027469     
  -49918841.2849321     
  -49919817.5838265     
  -49920827.1374922     
  -49921869.3768726     
  -49922943.7260838     
  -49924049.6026989     
  -49925186.4180221     
  -49926353.5773554     
  -49927550.4802562     
  -49928776.5207864     
  -49930031.0877520     
  -49931313.5649355     
  -49932623.3313180     
  -49933959.7612941     
  -49935322.2248774     
  -49936710.0878971     
  -49938122.7121875     
  -49939559.4557675     
  -49941019.6730128     
  -49942502.7148197     
  -49944007.9287602     
  -49945534.6592300     
  -49895258.2962166     
  -49895121.3892240     
  -49895034.5043342     
  -49894997.3466964     
  -49895009.6026498     
  -49895070.9402581     
  -49895181.0098408     
  -49895339.4444997     
  -49895545.8606421     
  -49895799.8584987     
  -49896101.0226364     
  -49896448.9224656     
  -49896843.1127412     
  -49897283.1340574     
  -49897768.5133356     
  -49898298.7643047     
  -49898873.3879750     
  -49899491.8731029     
  -49900153.6966485     
  -49900858.3242240     
  -49901605.2105343     
  -49902393.7998078     
  -49903223.5262187     
  -49904093.8142991     
  -49905004.0793428     
  -49905953.7277979     
  -49906942.1576506     
  -49907968.7587982     
  -49909032.9134124     
  -49910133.9962918     
  -49911271.3752044     
  -49912444.4112192     
  -49913652.4590275     
  -49914894.8672535     
  -49916170.9787538     
  -49917480.1309071     
  -49918821.6558920     
  -49920194.8809549     
  -49921599.1286668     
  -49923033.7171696     
  -49924497.9604114     
  -49925991.1683715     
  -49927512.6472747     
  -49929061.6997955     
  -49930637.6252507     
  -49932239.7197833     
  -49933867.2765353     
  -49935519.5858101     
  -49937195.9352263     
  -49938895.6098601     
  -49881995.4282525     
  -49881876.2122994     
  -49881812.5050946     
  -49881803.9354141     
  -49881850.1121360     
  -49881950.6248720     
  -49882105.0445931     
  -49882312.9242489     
  -49882573.7993814     
  -49882887.1887306     
  -49883252.5948337     
  -49883669.5046152     
  -49884137.3899693     
  -49884655.7083334     
  -49885223.9032518     
  -49885841.4049305     
  -49886507.6307811     
  -49887221.9859555     
  -49887983.8638686     
  -49888792.6467115     
  -49889647.7059517     
  -49890548.4028238     
  -49891494.0888068     
  -49892484.1060906     
  -49893517.7880293     
  -49894594.4595833     
  -49895713.4377483     
  -49896874.0319712     
  -49898075.5445545     
  -49899317.2710467     
  -49900598.5006202     
  -49901918.5164362     
  -49903276.5959964     
  -49904672.0114815     
  -49906104.0300769     
  -49907571.9142849     
  -49909074.9222235     
  -49910612.3079130     
  -49912183.3215482     
  -49913787.2097587     
  -49915423.2158556     
  -49917090.5800652     
  -49918788.5397502     
  -49920516.3296182     
  -49922273.1819172     
  -49924058.3266188     
  -49925870.9915894     
  -49927710.4027488     
  -49929575.7842167     
  -49931466.3584477     
  -49867062.5024287     
  -49866969.8477352     
  -49866938.7011626     
  -49866968.5991032     
  -49867059.0570896     
  -49867209.5705373     
  -49867419.6154791     
  -49867688.6492909     
  -49868016.1114080     
  -49868401.4240314     
  -49868843.9928241     
  -49869343.2075963     
  -49869898.4429790     
  -49870509.0590860     
  -49871174.4021637     
  -49871893.8052281     
  -49872666.5886884     
  -49873492.0609585     
  -49874369.5190531     
  -49875298.2491708     
  -49876277.5272630     
  -49877306.6195879     
  -49878384.7832495     
  -49879511.2667223     
  -49880685.3103601     
  -49881906.1468900     
  -49883173.0018909     
  -49884485.0942556     
  -49885841.6366381     
  -49887241.8358847     
  -49888684.8934491     
  -49890170.0057915     
  -49891696.3647624     
  -49893263.1579691     
  -49894869.5691275     
  -49896514.7783974     
  -49898197.9627013     
  -49899918.2960284     
  -49901674.9497218     
  -49903467.0927504     
  -49905293.8919651     
  -49907154.5123394     
  -49909048.1171945     
  -49910973.8684091     
  -49912930.9266146     
  -49914918.4513742     
  -49916935.6013480     
  -49918981.5344440     
  -49921055.4079531     
  -49923156.3786718     
  -49850252.5992748     
  -49850197.6773946     
  -49850210.8021861     
  -49850291.3987854     
  -49850438.8706997     
  -49850652.6006778     
  -49850931.9515682     
  -49851276.2671648     
  -49851684.8730410     
  -49852157.0773690     
  -49852692.1717260     
  -49853289.4318857     
  -49853948.1185949     
  -49854667.4783343     
  -49855446.7440641     
  -49856285.1359525     
  -49857181.8620883     
  -49858136.1191759     
  -49859147.0932134     
  -49860213.9601526     
  -49861335.8865419     
  -49862512.0301497     
  -49863741.5405710     
  -49865023.5598142     
  -49866357.2228698     
  -49867741.6582601     
  -49869175.9885698     
  -49870659.3309573     
  -49872190.7976475     
  -49873769.4964043     
  -49875394.5309849     
  -49877065.0015737     
  -49878780.0051980     
  -49880538.6361234     
  -49882339.9862305     
  -49884183.1453721     
  -49886067.2017118     
  -49887991.2420425     
  -49889954.3520874     
  -49891955.6167804     
  -49893994.1205297     
  -49896068.9474611     
  -49898179.1816445     
  -49900323.9073007     
  -49902502.2089917     
  -49904713.1717918     
  -49906955.8814420     
  -49909229.4244871     
  -49911532.8883950     
  -49913865.3616599     
  -49831334.1976813     
  -49831330.9604667     
  -49831402.8695638     
  -49831549.2167043     
  -49831769.2715007     
  -49832062.2824600     
  -49832427.4779822     
  -49832864.0673428     
  -49833371.2416571     
  -49833948.1748275     
  -49834594.0244729     
  -49835307.9328381     
  -49836089.0276854     
  -49836936.4231648     
  -49837849.2206655     
  -49838826.5096455     
  -49839867.3684412     
  -49840970.8650547     
  -49842136.0579204     
  -49843361.9966492     
  -49844647.7227506     
  -49845992.2703319     
  -49847394.6667763     
  -49848853.9333962     
  -49850369.0860656     
  -49851939.1358281     
  -49853563.0894824     
  -49855239.9501449     
  -49856968.7177885     
  -49858748.3897585     
  -49860577.9612657     
  -49862456.4258554     
  -49864382.7758545     
  -49866356.0027942     
  -49868375.0978108     
  -49870439.0520234     
  -49872546.8568880     
  -49874697.5045303     
  -49876889.9880553     
  -49879123.3018344     
  -49881396.4417711     
  -49883708.4055440     
  -49886058.1928290     
  -49888444.8054993     
  -49890867.2478044     
  -49893324.5265285     
  -49895815.6511277     
  -49898339.6338472     
  -49900895.4898182     
  -49903482.2371350     
  -49810048.5429547     
  -49810114.2857084     
  -49810262.8507646     
  -49810493.3705824     
  -49810804.9553940     
  -49811196.6943811     
  -49811667.6568308     
  -49812216.8932692     
  -49812843.4365738     
  -49813546.3030614     
  -49814324.4935540     
  -49815176.9944197     
  -49816102.7785893     
  -49817100.8065483     
  -49818170.0273026     
  -49819309.3793194     
  -49820517.7914413     
  -49821794.1837744     
  -49823137.4685492     
  -49824546.5509549     
  -49826020.3299468     
  -49827557.6990255     
  -49829157.5469901     
  -49830818.7586619     
  -49832540.2155823     
  -49834320.7966820     
  -49836159.3789225     
  -49838054.8379101     
  -49840006.0484822     
  -49842011.8852656     
  -49844071.2232078     
  -49846182.9380797     
  -49848345.9069523     
  -49850559.0086451     
  -49852821.1241475     
  -49855131.1370135     
  -49857487.9337297     
  -49859890.4040559     
  -49862337.4413408     
  -49864827.9428101     
  -49867360.8098292     
  -49869934.9481412     
  -49872549.2680779     
  -49875202.6847471     
  -49877894.1181945     
  -49880622.4935414     
  -49883386.7410983     
  -49886185.7964545     
  -49889018.6005446     
  -49891884.0996919     
  -49786106.8128623     
  -49786262.8333280     
  -49786509.9344089     
  -49786847.0592276     
  -49787273.1290863     
  -49787787.0448247     
  -49788387.6881502     
  -49789073.9229408     
  -49789844.5965183     
  -49790698.5408933     
  -49791634.5739795     
  -49792651.5007785     
  -49793748.1145329     
  -49794923.1978495     
  -49796175.5237892     
  -49797503.8569271     
  -49798906.9543783     
  -49800383.5667932     
  -49801932.4393189     
  -49803552.3125285     
  -49805241.9233169     
  -49807000.0057645     
  -49808825.2919669     
  -49810716.5128320     
  -49812672.3988439     
  -49814691.6807937     
  -49816773.0904771     
  -49818915.3613598     
  -49821117.2292085     
  -49823377.4326913     
  -49825694.7139433     
  -49828067.8191018     
  -49830495.4988079     
  -49832976.5086765     
  -49835509.6097353     
  -49838093.5688310     
  -49840727.1590054     
  -49843409.1598397     
  -49846138.3577686     
  -49848913.5463643     
  -49851733.5265896     
  -49854597.1070224     
  -49857503.1040498     
  -49860450.3420342     
  -49863437.6534499     
  -49866463.8789926     
  -49869527.8676597     
  -49872628.4768045     
  -49875764.5721624     
  -49878935.0278512     
  -49759187.0884357     
  -49759459.4540629     
  -49759831.7343361     
  -49760302.6482892     
  -49760870.8942175     
  -49761535.1512344     
  -49762294.0807952     
  -49763146.3281828     
  -49764090.5239592     
  -49765125.2853786     
  -49766249.2177644     
  -49767460.9158477     
  -49768758.9650676     
  -49770141.9428339     
  -49771608.4197500     
  -49773156.9607972     
  -49774786.1264801     
  -49776494.4739325     
  -49778280.5579835     
  -49780142.9321845     
  -49782080.1497970     
  -49784090.7647398     
  -49786173.3324980     
  -49788326.4109915     
  -49790548.5614054     
  -49792838.3489797     
  -49795194.3437619     
  -49797615.1213193     
  -49800099.2634134     
  -49802645.3586356     
  -49805252.0030060     
  -49807917.8005323     
  -49810641.3637338     
  -49813421.3141258     
  -49816256.2826692     
  -49819144.9101824     
  -49822085.8477174     
  -49825077.7569010     
  -49828119.3102390     
  -49831209.1913876     
  -49834346.0953884     
  -49837528.7288710     
  -49840755.8102204     
  -49844026.0697128     
  -49847338.2496174     
  -49850691.1042669     
  -49854083.4000954     
  -49857513.9156459     
  -49860981.4415461     
  -49864484.7804548     
  -49728931.1442938     
  -49729351.5807576     
  -49729881.3183926     
  -49730518.8122081     
  -49731262.4984260     
  -49732110.7962556     
  -49733062.1096250     
  -49734114.8288671     
  -49735267.3323607     
  -49736517.9881251     
  -49737865.1553689     
  -49739307.1859922     
  -49740842.4260423     
  -49742469.2171218     
  -49744185.8977501     
  -49745990.8046772     
  -49747882.2741506     
  -49749858.6431347     
  -49751918.2504827     
  -49754059.4380623     
  -49756280.5518328     
  -49758579.9428767     
  -49760955.9683840     
  -49763406.9925902     
  -49765931.3876679     
  -49768527.5345728     
  -49771193.8238439     
  -49773928.6563590     
  -49776730.4440443     
  -49779597.6105408     
  -49782528.5918258     
  -49785521.8367908     
  -49788575.8077769     
  -49791688.9810670     
  -49794859.8473356     
  -49798086.9120571     
  -49801368.6958732     
  -49804703.7349187     
  -49808090.5811083     
  -49811527.8023822     
  -49815013.9829140     
  -49818547.7232788     
  -49822127.6405842     
  -49825752.3685630     
  -49829420.5576289     
  -49833130.8748969     
  -49836882.0041662     
  -49840672.6458684     
  -49844501.5169820     
  -49848367.3509107     
  -49694941.0835647     
  -49695547.9977103     
  -49696274.1072643     
  -49697117.5576117     
  -49698076.4784067     
  -49699148.9855821     
  -49700333.1833026     
  -49701627.1658625     
  -49703029.0195277     
  -49704536.8243205     
  -49706148.6557482     
  -49707862.5864752     
  -49709676.6879374     
  -49711589.0319006     
  -49713597.6919613     
  -49715700.7449911     
  -49717896.2725249     
  -49720182.3620920     
  -49722557.1084911     
  -49725018.6150107     
  -49727564.9945919     
  -49730194.3709379     
  -49732904.8795680     
  -49735694.6688174     
  -49738561.9007828     
  -49741504.7522159     
  -49744521.4153627     
  -49747610.0987514     
  -49750769.0279283     
  -49753996.4461430     
  -49757290.6149828     
  -49760649.8149572     
  -49764072.3460332     
  -49767556.5281226     
  -49771100.7015204     
  -49774703.2272964     
  -49778362.4876406     
  -49782076.8861614     
  -49785844.8481399     
  -49789664.8207387     
  -49793535.2731668     
  -49797454.6968016     
  -49801421.6052679     
  -49805434.5344748     
  -49809492.0426119     
  -49813592.7101037     
  -49817735.1395252     
  -49821917.9554775     
  -49826139.8044243     
  -49830399.3544912     
  -49656775.8556275     
  -49657615.5056804     
  -49658584.6807605     
  -49659681.1649323     
  -49660902.7309755     
  -49662247.1426391     
  -49663712.1568287     
  -49665295.5257237     
  -49666994.9988260     
  -49668808.3249407     
  -49670733.2540867     
  -49672767.5393394     
  -49674908.9386051     
  -49677155.2163261     
  -49679504.1451189     
  -49681953.5073447     
  -49684501.0966118     
  -49687144.7192129     
  -49689882.1954951     
  -49692711.3611649     
  -49695630.0685279     
  -49698636.1876650     
  -49701727.6075441     
  -49704902.2370698     
  -49708158.0060702     
  -49711492.8662234     
  -49714904.7919220     
  -49718391.7810794     
  -49721951.8558762     
  -49725583.0634491     
  -49729283.4765217     
  -49733051.1939803     
  -49736884.3413926     
  -49740781.0714733     
  -49744739.5644946     
  -49748758.0286445     
  -49752834.7003328     
  -49756967.8444456     
  -49761155.7545501     
  -49765396.7530490     
  -49769689.1912868     
  -49774031.4496080     
  -49778421.9373679     
  -49782859.0928973     
  -49787341.3834220     
  -49791867.3049368     
  -49796435.3820358     
  -49801044.1677000     
  -49805692.2430412     
  -49810378.2170047     
  -49613947.7113891     
  -49615075.5362002     
  -49616343.5439594     
  -49617749.0992731     
  -49619289.5616324     
  -49620962.2879210     
  -49622764.6348380     
  -49624693.9612387     
  -49626747.6303898     
  -49628923.0121432     
  -49631217.4850253     
  -49633628.4382455     
  -49636153.2736216     
  -49638789.4074243     
  -49641534.2721422     
  -49644385.3181655     
  -49647340.0153917     
  -49650395.8547534     
  -49653550.3496683     
  -49656801.0374133     
  -49660145.4804239     
  -49663581.2675179     
  -49667106.0150482     
  -49670717.3679814     
  -49674413.0009066     
  -49678190.6189743     
  -49682047.9587661     
  -49685982.7890974     
  -49689992.9117530     
  -49694076.1621582     
  -49698230.4099847     
  -49702453.5596948     
  -49706743.5510227     
  -49711098.3593959     
  -49715515.9962957     
  -49719994.5095610     
  -49724531.9836335     
  -49729126.5397465     
  -49733776.3360594     
  -49738479.5677371     
  -49743234.4669764     
  -49748039.3029805     
  -49752892.3818820     
  -49757792.0466157     
  -49762736.6767416     
  -49767724.6882204     
  -49772754.5331402     
  -49777824.6993973     
  -49782933.7103303     
  -49788080.1243097     
  -49565918.6712351     
  -49567400.7882615     
  -49569033.9240380     
  -49570814.9589266     
  -49572740.7764645     
  -49574808.2661233     
  -49577014.3259648     
  -49579355.8651965     
  -49581829.8066258     
  -49584433.0890153     
  -49587162.6693378     
  -49590015.5249349     
  -49592988.6555773     
  -49596079.0854306     
  -49599283.8649256     
  -49602600.0725357     
  -49606024.8164623     
  -49609555.2362298     
  -49613188.5041905     
  -49616921.8269429     
  -49620752.4466625     
  -49624677.6423490     
  -49628694.7309892     
  -49632801.0686382     
  -49636994.0514215     
  -49641271.1164563     
  -49645629.7426981     
  -49650067.4517103     
  -49654581.8083594     
  -49659170.4214394     
  -49663830.9442235     
  -49668561.0749474     
  -49673358.5572244     
  -49678221.1803937     
  -49683146.7798044     
  -49688133.2370352     
  -49693178.4800518     
  -49698280.4833044     
  -49703437.2677641     
  -49708646.9009027     
  -49713907.4966138     
  -49719217.2150794     
  -49724574.2625812     
  -49729976.8912579     
  -49735423.3988112     
  -49740912.1281588     
  -49746441.4670384     
  -49752009.8475610     
  -49757615.7457161     
  -49763257.6808289     
  -49512097.1057927     
  -49514011.9841093     
  -49516088.6909262     
  -49518323.5509281     
  -49520712.9028507     
  -49523253.1024763     
  -49525940.5255066     
  -49528771.5703143     
  -49531742.6605745     
  -49534850.2477772     
  -49538090.8136236     
  -49541460.8723054     
  -49544956.9726720     
  -49548575.7002848     
  -49552313.6793617     
  -49556167.5746132     
  -49560134.0929725     
  -49564209.9852216     
  -49568392.0475145     
  -49572677.1228008     
  -49577062.1021510     
  -49581543.9259864     
  -49586119.5852140     
  -49590786.1222707     
  -49595540.6320778     
  -49600380.2629072     
  -49605302.2171627     
  -49610303.7520781     
  -49615382.1803337     
  -49620534.8705934     
  -49625759.2479647     
  -49631052.7943832     
  -49636413.0489242     
  -49641837.6080415     
  -49647324.1257380     
  -49652870.3136674     
  -49658473.9411697     
  -49664132.8352428     
  -49669844.8804503     
  -49675608.0187688     
  -49681420.2493749     
  -49687279.6283736     
  -49693184.2684703     
  -49699132.3385862     
  -49705122.0634203     
  -49711151.7229570     
  -49717219.6519222     
  -49723324.2391883     
  -49729463.9271281     
  -49735637.2109211     
  -49451834.5598901     
  -49454274.8693730     
  -49456887.5216736     
  -49459668.2080206     
  -49462612.6476905     
  -49465716.5912109     
  -49468975.8234166     
  -49472386.1663623     
  -49475943.4820923     
  -49479643.6752710     
  -49483482.6956760     
  -49487456.5405557     
  -49491561.2568553     
  -49495792.9433129     
  -49500147.7524285     
  -49504621.8923085     
  -49509211.6283897     
  -49513913.2850435     
  -49518723.2470648     
  -49523637.9610482     
  -49528653.9366533     
  -49533767.7477635     
  -49538976.0335397     
  -49544275.4993732     
  -49549662.9177388     
  -49555135.1289527     
  -49560689.0418364     
  -49566321.6342911     
  -49572029.9537828     
  -49577811.1177431     
  -49583662.3138870     
  -49589580.8004505     
  -49595563.9063499     
  -49601609.0312663     
  -49607713.6456571     
  -49613875.2906954     
  -49620091.5781419     
  -49626360.1901495     
  -49632678.8790033     
  -49639045.4667971     
  -49645457.8450504     
  -49651913.9742641     
  -49658411.8834201     
  -49664949.6694237     
  -49671525.4964921     
  -49678137.5954884     
  -49684784.2632044     
  -49691463.8615922     
  -49698174.8169454     
  -49704915.6190317     
  -49384422.9862509     
  -49387497.6166711     
  -49390754.4600862     
  -49394188.4908520     
  -49397794.7291068     
  -49401568.2441304     
  -49405504.1575296     
  -49409597.6462532     
  -49413843.9454414     
  -49418238.3511108     
  -49422776.2226803     
  -49427452.9853410     
  -49432264.1322729     
  -49437205.2267137     
  -49442271.9038821     
  -49447459.8727600     
  -49452764.9177373     
  -49458182.9001229     
  -49463709.7595266     
  -49469341.5151142     
  -49475074.2667409     
  -49480904.1959668     
  -49486827.5669568     
  -49492840.7272704     
  -49498940.1085440     
  -49505122.2270696     
  -49511383.6842734     
  -49517721.1670977     
  -49524131.4482899     
  -49530611.3866011     
  -49537157.9268990     
  -49543768.1001961     
  -49550439.0235982     
  -49557167.9001754     
  -49563952.0187585     
  -49570788.7536627     
  -49577675.5643435     
  -49584609.9949840     
  -49591589.6740197     
  -49598612.3135997     
  -49605675.7089890     
  -49612777.7379121     
  -49619916.3598409     
  -49627089.6152287     
  -49634295.6246910     
  -49641532.5881357     
  -49648798.7838433     
  -49656092.5674986     
  -49663412.3711753     
  -49670756.7022745     
  -49309092.5981757     
  -49312928.8316949     
  -49316956.0602319     
  -49321168.4534723     
  -49325560.2490557     
  -49330125.7560097     
  -49334859.3579816     
  -49339755.5162705     
  -49344808.7726674     
  -49350013.7521045     
  -49355365.1651223     
  -49360857.8101567     
  -49366486.5756525     
  -49372246.4420085     
  -49378132.4833580     
  -49384139.8691913     
  -49390263.8658245     
  -49396499.8377193     
  -49402843.2486604     
  -49409289.6627931     
  -49415834.7455288     
  -49422474.2643209     
  -49429204.0893180     
  -49436020.1938967     
  -49442918.6550821     
  -49449895.6538571     
  -49456947.4753675     
  -49464070.5090261     
  -49471261.2485197     
  -49478516.2917257     
  -49485832.3405385     
  -49493206.2006129     
  -49500634.7810259     
  -49508115.0938634     
  -49515644.2537313     
  -49523219.4771986     
  -49530838.0821722     
  -49538497.4872087     
  -49546195.2107652     
  -49553928.8703915     
  -49561696.1818670     
  -49569494.9582843     
  -49577323.1090813     
  -49585178.6390251     
  -49593059.6471477     
  -49600964.3256371     
  -49608890.9586842     
  -49616837.9212866     
  -49624803.6780121     
  -49632786.7817207     
  -49225010.6002939     
  -49229756.4070454     
  -49234700.3451695     
  -49239835.6894821     
  -49245155.8101429     
  -49250654.1760472     
  -49256324.3579848     
  -49262160.0315671     
  -49268154.9799335     
  -49274303.0962400     
  -49280598.3859390     
  -49287034.9688564     
  -49293607.0810720     
  -49300309.0766112     
  -49307135.4289537     
  -49314080.7323661     
  -49321139.7030655     
  -49328307.1802205     
  -49335578.1267952     
  -49342947.6302447     
  -49350410.9030668     
  -49357963.2832159     
  -49365600.2343876     
  -49373317.3461768     
  -49381110.3341188     
  -49388975.0396153     
  -49396907.4297548     
  -49404903.5970302     
  -49412959.7589593     
  -49421072.2576153     
  -49429237.5590699     
  -49437452.2527548     
  -49445713.0507466     
  -49454016.7869792     
  -49462360.4163875     
  -49470741.0139875     
  -49479155.7738951     
  -49487602.0082892     
  -49496077.1463208     
  -49504578.7329720     
  -49513104.4278680     
  -49521652.0040451     
  -49530219.3466758     
  -49538804.4517557     
  -49547405.4247524     
  -49556020.4792187     
  -49564647.9353724     
  -49573286.2186439     
  -49581933.8581916     
  -49590589.4853891     
  -49131281.1138112     
  -49137107.5220559     
  -49143136.8608958     
  -49149361.4205821     
  -49155773.6201776     
  -49162366.0107460     
  -49169131.2782709     
  -49176062.2463117     
  -49183151.8784065     
  -49190393.2802310     
  -49197779.7015197     
  -49205304.5377612     
  -49212961.3316758     
  -49220743.7744819     
  -49228645.7069630     
  -49236661.1203416     
  -49244784.1569704     
  -49253009.1108471     
  -49261330.4279633     
  -49269742.7064941     
  -49278240.6968378     
  -49286819.3015118     
  -49295473.5749147     
  -49304198.7229603     
  -49312990.1025918     
  -49321843.2211835     
  -49330753.7358358     
  -49339717.4525722     
  -49348730.3254437     
  -49357788.4555460     
  -49366888.0899586     
  -49376025.6206071     
  -49385197.5830597     
  -49394400.6552587     
  -49403631.6561943     
  -49412887.5445257     
  -49422165.4171524     
  -49431462.5077425     
  -49440776.1852199     
  -49450103.9522146     
  -49459443.4434809     
  -49468792.4242846     
  -49478148.7887646     
  -49487510.5582684     
  -49496875.8796676     
  -49506243.0236521     
  -49515610.3830072     
  -49524976.4708731     
  -49534339.9189899     
  -49543699.4759288     
  -49026946.6776845     
  -49034050.1465014     
  -49041358.1599414     
  -49048861.9385828     
  -49056552.8722947     
  -49064422.5230022     
  -49072462.6271440     
  -49080665.0978336     
  -49089022.0267352     
  -49097525.6856671     
  -49106168.5279417     
  -49114943.1894559     
  -49123842.4895418     
  -49132859.4315891     
  -49141987.2034504     
  -49151219.1776406     
  -49160548.9113411     
  -49169970.1462187     
  -49179476.8080701     
  -49189063.0063039     
  -49198723.0332664     
  -49208451.3634252     
  -49218242.6524167     
  -49228091.7359695     
  -49237993.6287113     
  -49247943.5228677     
  -49257936.7868636     
  -49267968.9638329     
  -49278035.7700461     
  -49288133.0932633     
  -49298256.9910187     
  -49308403.6888458     
  -49318569.5784481     
  -49328751.2158220     
  -49338945.3193401     
  -49349148.7677967     
  -49359358.5984247     
  -49369572.0048873     
  -49379786.3352485     
  -49389999.0899285     
  -49400207.9196460     
  -49410410.6233541     
  -49420605.1461688     
  -49430789.5772976     
  -49440962.1479674     
  -49451121.2293561     
  -49461265.3305283     
  -49471393.0963780     
  -49481503.3055784     
  -49491594.8685405     
  -48910991.7795780     
  -48919596.4721156     
  -48928403.1088097     
  -48937401.7656017     
  -48946582.7361969     
  -48955936.5341154     
  -48965453.8943958     
  -48975125.7749700     
  -48984943.3577214     
  -48994898.0492420     
  -49004981.4813035     
  -49015185.5110561     
  -49025502.2209692     
  -49035923.9185289     
  -49046443.1357055     
  -49057052.6282044     
  -49067745.3745153     
  -49078514.5747711     
  -49089353.6494299     
  -49100256.2377941     
  -49111216.1963771     
  -49122227.5971303     
  -49133284.7255427     
  -49144382.0786237     
  -49155514.3627801     
  -49166676.4915990     
  -49177863.5835451     
  -49189070.9595846     
  -49200294.1407431     
  -49211528.8456079     
  -49222770.9877833     
  -49234016.6733070     
  -49245262.1980361     
  -49256504.0450092     
  -49267738.8817929     
  -49278963.5578191     
  -49290175.1017188     
  -49301370.7186588     
  -49312547.7876875     
  -49323703.8590927     
  -49334836.6517784     
  -49345944.0506635     
  -49357024.1041060     
  -49368075.0213567     
  -49379095.1700447     
  -49390083.0736976     
  -49401037.4092984     
  -49411957.0048799     
  -49422840.8371588     
  -49433688.0292098     
  -48782348.9495515     
  -48792708.7673507     
  -48803262.4775975     
  -48813998.9541447     
  -48824907.3460855     
  -48835977.0787106     
  -48847197.8540837     
  -48858559.6512543     
  -48870052.7261264     
  -48881667.6110022     
  -48893395.1138172     
  -48905226.3170879     
  -48917152.5765860     
  -48929165.5197601     
  -48941257.0439198     
  -48953419.3142000     
  -48965644.7613214     
  -48977926.0791640     
  -48990256.2221682     
  -49002628.4025810     
  -49015036.0875589     
  -49027472.9961460     
  -49039933.0961377     
  -49052410.6008467     
  -49064899.9657819     
  -49077395.8852555     
  -49089893.2889280     
  -49102387.3383050     
  -49114873.4231960     
  -49127347.1581464     
  -49139804.3788525     
  -49152241.1385702     
  -49164653.7045263     
  -49177038.5543403     
  -49189392.3724676     
  -49201712.0466680     
  -49213994.6645106     
  -49226237.5099196     
  -49238438.0597677     
  -49250593.9805232     
  -49262703.1249555     
  -49274763.5289045     
  -49286773.4081168     
  -49298731.1551533     
  -49310635.3363717     
  -49322484.6889850     
  -49334278.1181993     
  -49346014.6944327     
  -49357693.6506151     
  -49369314.3795705     
  -48639908.0337037     
  -48652308.2262523     
  -48664887.3370017     
  -48677633.0073550     
  -48690533.2214222     
  -48703576.3054042     
  -48716750.9265630     
  -48730046.0918002     
  -48743451.1458697     
  -48756955.7692451     
  -48770549.9756653     
  -48784224.1093813     
  -48797968.8421241     
  -48811775.1698172     
  -48825634.4090529     
  -48839538.1933541     
  -48853478.4692406     
  -48867447.4921201     
  -48881437.8220225     
  -48895442.3191959     
  -48909454.1395826     
  -48923466.7301916     
  -48937473.8243853     
  -48951469.4370959     
  -48965447.8599875     
  -48979403.6565786     
  -48993331.6573399     
  -49007226.9547803     
  -49021084.8985353     
  -49034901.0904702     
  -49048671.3798093     
  -49062391.8583029     
  -49076058.8554442     
  -49089668.9337432     
  -49103218.8840706     
  -49116705.7210777     
  -49130126.6787022     
  -49143479.2057673     
  -49156760.9616807     
  -49169969.8122406     
  -49183103.8255530     
  -49196161.2680681     
  -49209140.6007381     
  -49222040.4753003     
  -49234859.7306916     
  -49247597.3895935     
  -49260252.6551123     
  -49272824.9075951     
  -49285313.7015824     
  -49297718.7628985     
  -48482529.3520726     
  -48497287.4592417     
  -48512200.8550515     
  -48527255.9574062     
  -48542439.6052829     
  -48557739.0559405     
  -48573141.9816889     
  -48588636.4662475     
  -48604211.0007212     
  -48619854.4792238     
  -48635556.1941729     
  -48651305.8312872     
  -48667093.4643095     
  -48682909.5494833     
  -48698744.9198062     
  -48714590.7790872     
  -48730438.6958289     
  -48746280.5969598     
  -48762108.7614390     
  -48777915.8137537     
  -48793694.7173324     
  -48809438.7678930     
  -48825141.5867457     
  -48840797.1140699     
  -48856399.6021828     
  -48871943.6088175     
  -48887423.9904270     
  -48902835.8955301     
  -48918174.7581148     
  -48933436.2911122     
  -48948616.4799572     
  -48963711.5762455     
  -48978718.0915024     
  -48993632.7910725     
  -49008452.6881423     
  -49023175.0379050     
  -49037797.3318771     
  -49052317.2923749     
  -49066732.8671598     
  -49081042.2242579     
  -49095243.7469613     
  -49109336.0290162     
  -49123317.8700045     
  -49137188.2709193     
  -49150946.4299420     
  -49164591.7384223     
  -49178123.7770612     
  -49191542.3123024     
  -49204847.2929293     
  -49218038.8468698     
  -48309061.5314356     
  -48326527.3484715     
  -48344114.1497496     
  -48361807.1932979     
  -48379592.2482285     
  -48397455.5890270     
  -48415383.9893885     
  -48433364.7156354     
  -48451385.5197502     
  -48469434.6320595     
  -48487500.7536009     
  -48505573.0482051     
  -48523641.1343259     
  -48541695.0766472     
  -48559725.3774987     
  -48577722.9681080     
  -48595679.1997173     
  -48613585.8345933     
  -48631435.0369545     
  -48649219.3638428     
  -48666931.7559644     
  -48684565.5285211     
  -48702114.3620577     
  -48719572.2933451     
  -48736933.7063205     
  -48754193.3231047     
  -48771346.1951160     
  -48788387.6942965     
  -48805313.5044712     
  -48822119.6128535     
  -48838802.3017129     
  -48855358.1402208     
  -48871783.9764854     
  -48888076.9297913     
  -48904234.3830530     
  -48920253.9754942     
  -48936133.5955647     
  -48951871.3740998     
  -48967465.6777366     
  -48982915.1025892     
  -48998218.4681936     
  -49013374.8117258     
  -49028383.3825001     
  -49043243.6367507     
  -49057955.2327015     
  -49072518.0259254     
  -49086932.0649965     
  -49101197.5874377     
  -49115315.0159589     
  -49129284.9549942     
  -48118364.8843875     
  -48138919.0583707     
  -48159546.9095547     
  -48180232.6734160     
  -48200961.1986430     
  -48221717.9375982     
  -48242488.9363314     
  -48263260.8241825     
  -48284020.8030187     
  -48304756.6361445     
  -48325456.6369260     
  -48346109.6571652     
  -48366705.0752644     
  -48387232.7842145     
  -48407683.1794438     
  -48428047.1465608     
  -48448316.0490228     
  -48468481.7157634     
  -48488536.4288076     
  -48508472.9109054     
  -48528284.3132097     
  -48547964.2030280     
  -48567506.5516714     
  -48586905.7224255     
  -48606156.4586691     
  -48625253.8721579     
  -48644193.4315008     
  -48662970.9508418     
  -48681582.5787723     
  -48700024.7874876     
  -48718294.3622058     
  -48736388.3908652     
  -48754304.2541135     
  -48772039.6156037     
  -48789592.4126080     
  -48806960.8469631     
  -48824143.3763556     
  -48841138.7059590     
  -48857945.7804293     
  -48874563.7762699     
  -48890992.0945699     
  -48907230.3541240     
  -48923278.3849376     
  -48939136.2221240     
  -48954804.1001958     
  -48970282.4477528     
  -48985571.8825682     
  -49000673.2070785     
  -49015587.4042724     
  -49030315.6339752     
  -47909341.2747107     
  -47933392.0465900     
  -47957453.5348786     
  -47981509.1868067     
  -48005543.1771147     
  -48029540.3935940     
  -48053486.4222053     
  -48077367.5318236     
  -48101170.6586598     
  -48124883.3904059     
  -48148493.9501522     
  -48171991.1801183     
  -48195364.5252454     
  -48218604.0166875     
  -48241700.2552463     
  -48264644.3947854     
  -48287428.1256633     
  -48310043.6582197     
  -48332483.7063514     
  -48354741.4712084     
  -48376810.6250428     
  -48398685.2952413     
  -48420360.0485675     
  -48441829.8756426     
  -48463090.1756899     
  -48484136.7415662     
  -48504965.7451040     
  -48525573.7227854     
  -48545957.5617675     
  -48566114.4862788     
  -48586042.0444031     
  -48605738.0952688     
  -48625200.7966568     
  -48644428.5930427     
  -48663420.2040856     
  -48682174.6135749     
  -48700691.0588464     
  -48718969.0206777     
  -48737008.2136708     
  -48754808.5771312     
  -48772370.2664485     
  -48789693.6449870     
  -48806779.2764887     
  -48823627.9179953     
  -48840240.5132916     
  -48856618.1868709     
  -48872762.2384346     
  -48888674.1379064     
  -48904355.5209752     
  -48919808.1851898     
  -47680971.4571945     
  -47708948.9533463     
  -47736855.5720553     
  -47764674.3317492     
  -47792389.1042842     
  -47819984.5942566     
  -47847446.3179538     
  -47874760.5820021     
  -47901914.4617700     
  -47928895.7795835     
  -47955693.0828067     
  -47982295.6218406     
  -48008693.3280892     
  -48034876.7919426     
  -48060837.2408215     
  -48086566.5173298     
  -48112057.0575542     
  -48137301.8695540     
  -48162294.5120776     
  -48187029.0735431     
  -48211500.1513156     
  -48235702.8313162     
  -48259632.6679911     
  -48283285.6646702     
  -48306658.2543431     
  -48329747.2808768     
  -48352549.9806986     
  -48375063.9649669     
  -48397287.2022499     
  -48419218.0017312     
  -48440854.9969598     
  -48462197.1301600     
  -48483243.6371174     
  -48503994.0326523     
  -48524448.0966955     
  -48544605.8609746     
  -48564467.5963235     
  -48584033.8006225     
  -48603305.1873775     
  -48622282.6749458     
  -48640967.3764130     
  -48659360.5901288     
  -48677463.7909044     
  -48695278.6218738     
  -48712806.8870299     
  -48730050.5444298     
  -48747011.7000480     
  -48763692.6023527     
  -48780095.6375364     
  -48796223.3253352     
  -47432360.8968649     
  -47464708.2470338     
  -47496881.1952254     
  -47528862.8493874     
  -47560637.3070394     
  -47592189.6268066     
  -47623505.7996994     
  -47654572.7202092     
  -47685378.1572863     
  -47715910.7252679     
  -47746159.8548155     
  -47776115.7639240     
  -47805769.4290587     
  -47835112.5564745     
  -47864137.5537704     
  -47892837.5017270     
  -47921206.1264752     
  -47949237.7720389     
  -47976927.3732942     
  -48004270.4293830     
  -48031262.9776184     
  -48057901.5679155     
  -48084183.2377788     
  -48110105.4878766     
  -48135666.2582291     
  -48160863.9050349     
  -48185697.1781590     
  -48210165.1993046     
  -48234267.4408852     
  -48258003.7056179     
  -48281374.1068508     
  -48304379.0496396     
  -48327019.2125875     
  -48349295.5304568     
  -48371209.1775659     
  -48392761.5519774     
  -48413954.2604878     
  -48434789.1044225     
  -48455268.0662453     
  -48475393.2969851     
  -48495167.1044862     
  -48514591.9424845     
  -48533670.4005102     
  -48552405.1946291     
  -48570799.1589971     
  -48588855.2382608     
  -48606576.4808708     
  -48623966.0330398     
  -48641027.1336452     
  -48657763.1102392     
  -47162795.0431887     
  -47199955.4552970     
  -47236812.4250119     
  -47273349.8671541     
  -47309552.8299285     
  -47345407.4568531     
  -47380900.9486034     
  -47416021.5248554     
  -47450758.3862065     
  -47485101.6762481     
  -47519042.4438628     
  -47552572.6058135     
  -47585684.9096895     
  -47618372.8972696     
  -47650630.8683606     
  -47682453.8451646     
  -47713837.5372251     
  -47744778.3069991     
  -47775273.1360990     
  -47805319.5922436     
  -47834915.7969565     
  -47864060.3940440     
  -47892752.5188852     
  -47920991.7685612     
  -47948778.1728484     
  -47976112.1660996     
  -48002994.5600315     
  -48029426.5174374     
  -48055409.5268404     
  -48080945.3780997     
  -48106036.1389825     
  -48130684.1327109     
  -48154891.9164912     
  -48178662.2610343     
  -48201998.1310704     
  -48224902.6668621     
  -48247379.1667201     
  -48269431.0705290     
  -48291061.9442725     
  -48312275.4655733     
  -48333075.4102311     
  -48353465.6397780     
  -48373450.0900448     
  -48393032.7607166     
  -48412217.7059619     
  -48431009.0260079     
  -48449410.8594840     
  -48467427.3775028     
  -48485062.7781797     
  -48502321.2813300     
  -46871804.9366667     
  -46914203.6894039     
  -46956140.6303104     
  -46997601.4450622     
  -47038573.1000475     
  -47079043.7925352     
  -47119002.9010217     
  -47158440.9358478     
  -47197349.4901776     
  -47235721.1914266     
  -47273549.6532198     
  -47310829.4279553     
  -47347555.9600468     
  -47383725.5399099     
  -47419335.2587548     
  -47454382.9642428     
  -47488867.2170577     
  -47522787.2484420     
  -47556142.9187384     
  -47588934.6769786     
  -47621163.5215529     
  -47652830.9619908     
  -47683938.9818810     
  -47714490.0029539     
  -47744486.8503456     
  -47773932.7190606     
  -47802831.1416473     
  -47831185.9570958     
  -47859001.2809659     
  -47886281.4767526     
  -47913031.1284896     
  -47939255.0145948     
  -47964958.0829549     
  -47990145.4272488     
  -48014822.2645032     
  -48038993.9138862     
  -48062665.7767249     
  -48085843.3177215     
  -48108532.0474163     
  -48130737.5058298     
  -48152465.2473457     
  -48173720.8267496     
  -48194509.7864467     
  -48214837.6449401     
  -48234709.8862634     
  -48254131.9508829     
  -48273109.2284628     
  -48291647.0490870     
  -48309750.6783484     
  -48327425.3159429     
  -46559243.8187850     
  -46607263.9336173     
  -46654630.5969725     
  -46701332.5323904     
  -46747359.8885479     
  -46792704.1751480     
  -46837358.1993579     
  -46881316.0029231     
  -46924572.8000548     
  -46967124.9161931     
  -47008969.7277316     
  -47050105.6027919     
  -47090531.8431211     
  -47130248.6271854     
  -47169256.9545225     
  -47207558.5914094     
  -47245156.0178993     
  -47282052.3762706     
  -47318251.4209290     
  -47353757.4697970     
  -47388575.3572188     
  -47422710.3884046     
  -47456168.2954343     
  -47488955.1948330     
  -47521077.5467293     
  -47552542.1156027     
  -47583355.9326203     
  -47613526.2595622     
  -47643060.5543310     
  -47671966.4380352     
  -47700251.6636387     
  -47727924.0861599     
  -47754991.6344077     
  -47781462.2842399     
  -47807344.0333257     
  -47832644.8773641     
  -47857372.7877825     
  -47881535.6909443     
  -47905141.4486470     
  -47928197.8401348     
  -47950712.5453522     
  -47972693.1297442     
  -47994147.0304303     
  -48015081.5434283     
  -48035503.8129582     
  -48055420.8208581     
  -48074839.3755022     
  -48093766.1118743     
  -48112207.4809083     
  -48130169.7346272     
  -46225375.0245479     
  -46279325.1405982     
  -46332392.9835432     
  -46384571.9515793     
  -46435856.9998992     
  -46486244.5593049     
  -46535732.4559836     
  -46584319.8325303     
  -46632007.0703427     
  -46678795.7134985     
  -46724688.3942064     
  -46769688.7599231     
  -46813801.4022059     
  -46857031.7873793     
  -46899386.1890674     
  -46940871.6226498     
  -46981495.7816845     
  -47021266.9763331     
  -47060194.0738222     
  -47098286.4409626     
  -47135553.8887430     
  -47172006.6190123     
  -47207655.1732528     
  -47242510.3834459     
  -47276583.3250235     
  -47309885.2718951     
  -47342427.6535343     
  -47374222.0141039     
  -47405279.9735955     
  -47435613.1909548     
  -47465233.3291583     
  -47494152.0222086     
  -47522380.8440065     
  -47549931.2790508     
  -47576814.6949298     
  -47603042.3166511     
  -47628625.2025860     
  -47653574.2218651     
  -47677900.0339263     
  -47701613.0691765     
  -47724723.5117059     
  -47747241.2827348     
  -47769176.0255838     
  -47790537.0932001     
  -47811333.5345806     
  -47831574.0871834     
  -47851267.1747741     
  -47870420.8719190     
  -47889042.9213044     
  -47907140.7599453     
  -45870970.7043131     
  -45931043.3942955     
  -45989964.1683073     
  -46047733.1843767     
  -46104352.2620298     
  -46159824.7804091     
  -46214155.5782499     
  -46267350.8560147     
  -46319418.0802640     
  -46370365.8903625     
  -46420204.0076164     
  -46468943.1469144     
  -46516594.9309464     
  -46563171.8070468     
  -46608686.9667117     
  -46653154.2678277     
  -46696588.1596356     
  -46739003.6104559     
  -46780416.0381837     
  -46820841.2435648     
  -46860295.3462482     
  -46898794.7236133     
  -46936355.9523557     
  -46972995.7528149     
  -47008730.9360172     
  -47043578.3534026     
  -47077554.8491980     
  -47110677.2153918     
  -47142962.1492590     
  -47174426.2133818     
  -47205085.7981021     
  -47234957.0863374     
  -47264056.0206885     
  -47292398.2727931     
  -47319999.2147882     
  -47346873.8925406     
  -47373037.0012742     
  -47398502.8636618     
  -47423285.4076320     
  -47447398.1478581     
  -47470854.1670530     
  -47493666.1018488     
  -47515846.1293361     
  -47537405.9506037     
  -47558356.7842945     
  -47578709.3449659     
  -47598473.8163618     
  -47617659.9446975     
  -47636276.9208580     
  -47654333.2877961     
  -45497419.5442866     
  -45563637.9841914     
  -45628391.0535174     
  -45691688.2927994     
  -45753540.9592752     
  -45813961.9004788     
  -45872965.4315441     
  -45930567.2157589     
  -45986784.1485787     
  -46041634.2451888     
  -46095136.5316557     
  -46147310.9397198     
  -46198178.2052245     
  -46247759.7702349     
  -46296077.6888258     
  -46343154.5365503     
  -46389013.3235853     
  -46433677.4115359     
  -46477170.4338946     
  -46519516.2201288     
  -46560738.7233843     
  -46600861.9517769     
  -46639909.9032456     
  -46677906.5039357     
  -46714875.5500726     
  -46750840.6532815     
  -46785825.1892983     
  -46819852.2500068     
  -46852944.5987283     
  -46885124.6286763     
  -46916414.3244805     
  -46946835.2266785     
  -46976408.3990482     
  -47005154.3985662     
  -47033093.2480926     
  -47060244.4123232     
  -47086626.7741218     
  -47112258.6115872     
  -47137157.5848688     
  -47161340.7161756     
  -47184824.3780598     
  -47207624.2717619     
  -47229755.4125440     
  -47251232.1328136     
  -47272068.0550373     
  -47292276.1219328     
  -47311868.6249272     
  -47330856.8400137     
  -47349251.5123970     
  -47367063.0491012     
  -45106839.0858325     
  -45178989.6859589     
  -45249315.8916888     
  -45317839.8804431     
  -45384585.5165308     
  -45449578.1992876     
  -45512844.7148114     
  -45574413.0932416     
  -45634312.4712442     
  -45692572.9596049     
  -45749225.5159288     
  -45804301.8223208     
  -45857834.1681064     
  -45909855.3373918     
  -45960398.5014710     
  -46009497.1159805     
  -46057184.8227102     
  -46103495.3560498     
  -46148462.4539635     
  -46192119.7734931     
  -46234500.8107085     
  -46275638.8251003     
  -46315566.7683848     
  -46354317.2177039     
  -46391922.3132060     
  -46428413.6999948     
  -46463822.4744217     
  -46498179.1346895     
  -46531513.5357109     
  -46563854.8481434     
  -46595231.5214837     
  -46625671.2510566     
  -46655200.9487690     
  -46683846.7176556     
  -46711633.8291119     
  -46738586.7008957     
  -46764728.8855747     
  -46790083.0633181     
  -46814671.0085323     
  -46838513.5954151     
  -46861630.7790576     
  -46884041.6180764     
  -46905764.2676731     
  -46926815.9150159     
  -46947212.8333981     
  -46966970.2500962     
  -46986102.2920022     
  -47004623.1897252     
  -47022545.1959166     
  -47039878.3672692     
  -44702183.6394006     
  -44779732.1407939     
  -44855052.0389147     
  -44928182.1029142     
  -44999162.6296150     
  -45068035.2590816     
  -45134842.8032579     
  -45199629.0811050     
  -45262438.7609086     
  -45323317.2097632     
  -45382310.3498540     
  -45439464.5216015     
  -45494826.3528904     
  -45548442.6346430     
  -45600360.2021809     
  -45650625.8222726     
  -45699286.0857405     
  -45746387.3052894     
  -45791975.4186168     
  -45836095.8964989     
  -45878793.6559453     
  -45920112.9782956     
  -45960097.4322846     
  -45998789.8021349     
  -46036232.0207539     
  -46072465.1081564     
  -46107529.1152601     
  -46141463.0732170     
  -46174304.9484405     
  -46206091.6034677     
  -46236858.7637579     
  -46266640.9904668     
  -46295471.6588862     
  -46323382.9416622     
  -46350405.7995178     
  -46376569.9823906     
  -46401904.0059942     
  -46426435.1378221     
  -46450189.4852809     
  -46473191.9289827     
  -46495466.1668280     
  -46517034.6233528     
  -46537918.4983546     
  -46558137.9979324     
  -46577712.1033920     
  -46596658.9541026     
  -46614995.8037652     
  -46632735.0842595     
  -46649892.8132862     
  -46666487.2111623     
  -44287331.1538654     
  -44369320.2235268     
  -44448635.1600790     
  -44525336.0033413     
  -44599483.9397527     
  -44671141.1147384     
  -44740370.4382129     
  -44807235.4033625     
  -44871799.9158610     
  -44934128.1322923     
  -44994284.3076270     
  -45052332.6497710     
  -45108337.1827891     
  -45162361.6164024     
  -45214469.2224776     
  -45264722.7176102     
  -45313184.1511408     
  -45359914.7989121     
  -45404975.0616163     
  -45448424.3682774     
  -45490321.0840467     
  -45530722.4225186     
  -45569684.3625037     
  -45607261.5692855     
  -45643507.3205815     
  -45678473.4375296     
  -45712210.2211509     
  -45744766.3948829     
  -45776189.0539168     
  -45806523.6221873     
  -45835813.8179213     
  -45864101.6286585     
  -45891427.2973703     
  -45917829.3218642     
  -45943344.4569585     
  -45968007.7143640     
  -45991852.4733575     
  -46014910.5328142     
  -46037211.8403248     
  -46058784.8801950     
  -46079656.5817802     
  -46099852.6714093     
  -46119397.4685322     
  -46138313.1991908     
  -46156621.0830187     
  -46174340.2943041     
  -46191488.5692388     
  -46208094.4688425     
  -46224164.6538667     
  -46239697.6126927     
  -43867121.3388521     
  -43952049.5025591     
  -44033825.9489194     
  -44112537.1728799     
  -44188270.2092829     
  -44261112.3745174     
  -44331151.0810568     
  -44398473.6580617     
  -44463167.1824797     
  -44525318.3207235     
  -44585013.1784698     
  -44642337.1640412     
  -44697374.8558693     
  -44750209.8802087     
  -44800924.7938554     
  -44849600.9728166     
  -44896318.5070210     
  -44941156.0976457     
  -44984190.9597568     
  -45025498.7264226     
  -45065153.3561330     
  -45103227.0419766     
  -45139790.1222924     
  -45174910.9927848     
  -45208656.0200024     
  -45241089.4563476     
  -45272273.3570726     
  -45302267.5000444     
  -45331129.3094536     
  -45358913.7851529     
  -45385673.4399788     
  -45411458.2480212     
  -45436315.6051804     
  -45460290.3035437     
  -45483424.5607113     
  -45505758.1040193     
  -45527327.9474422     
  -45548168.5879577     
  -45568313.2420867     
  -45587792.4363461     
  -45606634.8016126     
  -45624866.4402480     
  -45642512.2366243     
  -45659598.0182004     
  -45676146.1605950     
  -45692179.0692569     
  -45707717.4528970     
  -45722744.0352408     
  -45737325.8339281     
  -45751530.1447010     
  -43447304.3979408     
  -43532990.3399898     
  -43615031.6227053     
  -43693546.7560302     
  -43768653.5854641     
  -43840469.2705957     
  -43909110.0923169     
  -43974691.2896637     
  -44037326.9115941     
  -44097129.6841604     
  -44154210.8979849     
  -44208680.2867197     
  -44260645.9296658     
  -44310214.1513896     
  -44357489.4332333     
  -44402574.3286217     
  -44445569.3781007     
  -44486573.0336090     
  -44525681.5769435     
  -44562989.0440526     
  -44598587.1448724     
  -44632565.1809864     
  -44665009.9598970     
  -44696005.7039137     
  -44725633.9526666     
  -44753973.4582903     
  -44781100.0724595     
  -44807086.6247466     
  -44832002.7921817     
  -44855914.9603638     
  -44878886.0770484     
  -44900975.5006700     
  -44922238.8547760     
  -44942727.8977949     
  -44962490.3019151     
  -44981569.4371576     
  -45000005.3247419     
  -45017833.8729185     
  -45035083.4568221     
  -45051782.1946872     
  -45067955.2671588     
  -45083627.0391028     
  -45098817.4040140     
  -45113538.5830420     
  -45127814.0727175     
  -45141665.7638211     
  -45155114.1686356     
  -45168283.4520013     
  -45180965.8492191     
  -45193055.1712331     
  -43034351.4246584     
  -43117793.4147255     
  -43197109.4674166     
  -43272454.3567841     
  -43343981.3663703     
  -43411841.6183330     
  -43476183.9940321     
  -43537155.0428288     
  -43594898.9154196     
  -43649557.2911168     
  -43701269.2701180     
  -43750171.3515038     
  -43796397.3599212     
  -43840078.4155301     
  -43881342.8883090     
  -43920316.3632665     
  -43957121.6242918     
  -43991878.6127336     
  -44024704.4152325     
  -44055713.2269970     
  -44085016.3217581     
  -44112722.0145181     
  -44138935.6128239     
  -44163759.3562387     
  -44187292.3403014     
  -44209630.4211320     
  -44230866.0967839     
  -44251088.3612618     
  -44270382.5269672     
  -44288830.0114108     
  -44306508.0842101     
  -44323489.5681177     
  -44339842.4679814     
  -44355629.5285108     
  -44370908.0715831     
  -44385729.6518846     
  -44400136.0707961     
  -44414162.9186272     
  -44427849.5355470     
  -44441209.0013659     
  -44454245.0221335     
  -44466953.0318886     
  -44479334.7866943     
  -44491398.9169553     
  -44503095.4726550     
  -44514383.6685011     
  -44525273.7525414     
  -44535523.4134456     
  -44546114.0072456     
  -44557224.5853922     
  -42635082.5309227     
  -42712332.8977453     
  -42785022.6347138     
  -42853348.5127023     
  -42917501.9475915     
  -42977670.6299979     
  -43034038.4712745     
  -43086785.5808210     
  -43136088.1311154     
  -43182118.3059228     
  -43225044.4649394     
  -43265031.0075664     
  -43302238.4728093     
  -43336823.5262621     
  -43368939.0401955     
  -43398734.1542982     
  -43426354.2895811     
  -43451941.2798434     
  -43475633.3884931     
  -43497565.4159939     
  -43517868.7715605     
  -43536671.5400343     
  -43554098.5493121     
  -43570271.4242829     
  -43585308.6223564     
  -43599325.4451241     
  -43612434.0192807     
  -43624743.2387154     
  -43636358.6583042     
  -43647382.3280844     
  -43657912.5549219     
  -43668043.5850240     
  -43677865.2513910     
  -43687462.5021665     
  -43696913.7287697     
  -43706289.8563823     
  -43715664.2958830     
  -43725092.5373441     
  -43734581.4845367     
  -43744204.3499915     
  -43754004.5988598     
  -43763965.8157027     
  -43773983.6801181     
  -43783938.9891728     
  -43793931.8240437     
  -43803959.3418814     
  -43813624.4614658     
  -43823119.4436974     
  -43828530.6869816     
  -43830683.9163260     
  -42256108.8691826     
  -42322174.1153972     
  -42383344.6128079     
  -42439852.8181303     
  -42491930.4729083     
  -42539803.6661001     
  -42583692.5628415     
  -42623811.1766842     
  -42660367.8983983     
  -42693565.7641553     
  -42723601.8371987     
  -42750667.8745777     
  -42774950.1706269     
  -42796629.8428635     
  -42815882.8272135     
  -42832880.0283666     
  -42847787.6863747     
  -42860767.3143208     
  -42871976.1497669     
  -42881567.2884747     
  -42889689.9487116     
  -42896489.7678185     
  -42902109.0807232     
  -42906687.2065398     
  -42910360.7387195     
  -42913263.8303020     
  -42915528.4654529     
  -42917284.7078181     
  -42918660.9155698     
  -42919783.9126508     
  -42920779.1021796     
  -42921770.4809190     
  -42922880.3784685     
  -42924229.2322210     
  -42925938.4135911     
  -42928128.4036774     
  -42930883.3679192     
  -42934329.1986662     
  -42938699.1108118     
  -42943884.3769405     
  -42949900.4343834     
  -42957031.5177578     
  -42965726.9880557     
  -42975996.6088934     
  -42986671.6114665     
  -42997018.7713864     
  -43008442.6439625     
  -43021023.0735689     
  -43047660.2721391     
  -43115139.2970592     
  -41903116.0647578     
  -41951934.4225452     
  -41995645.5366832     
  -42034544.9343114     
  -42068904.7873325     
  -42098987.4353211     
  -42125047.2447309     
  -42147332.4193658     
  -42166083.0434392     
  -42181530.1286994     
  -42193898.5675655     
  -42203405.0012360     
  -42210258.8443716     
  -42214661.8941287     
  -42216809.1182391     
  -42216888.8750288     
  -42215082.5208476     
  -42211565.8946932     
  -42206508.8123455     
  -42200075.8795193     
  -42192427.0049508     
  -42183717.8458524     
  -42174100.3956491     
  -42163723.6225499     
  -42152734.1496512     
  -42141276.9782133     
  -42129496.2526799     
  -42117536.0610230     
  -42105541.2583853     
  -42093658.2971801     
  -42082036.0545784     
  -42070826.7194960     
  -42060187.1173382     
  -42050279.1340668     
  -42041260.8788203     
  -42033295.7881224     
  -42026660.6055249     
  -42021439.8092880     
  -42017426.0169042     
  -42015770.4110298     
  -42016770.9650790     
  -42019289.3815698     
  -42022039.5555679     
  -42026881.0428707     
  -42040350.7838112     
  -42074255.1070620     
  -42158622.2917316     
  -42252461.4510749     
  -42395711.4234405     
  -42565740.8211480     
  -41580200.1441621     
  -41604508.2141377     
  -41623782.5796103     
  -41638294.6479732     
  -41648348.8317649     
  -41654249.5068772     
  -41656292.8170748     
  -41654757.1894926     
  -41649911.3678206     
  -41642019.0283961     
  -41631326.9073632     
  -41618073.3350896     
  -41602485.2637718     
  -41584780.4359216     
  -41565165.6309247     
  -41543837.7172911     
  -41520986.8048285     
  -41496791.9419819     
  -41471425.2115058     
  -41445051.0944356     
  -41417826.8628647     
  -41389903.6311957     
  -41361427.2222115     
  -41332539.1142847     
  -41303377.5186834     
  -41274078.5908449     
  -41244777.7767663     
  -41215611.3010691     
  -41186717.8081118     
  -41158240.1624506     
  -41130327.3665736     
  -41103136.3487599     
  -41076832.6586052     
  -41051594.6636924     
  -41027643.0378582     
  -41005206.0180837     
  -40984194.6361286     
  -40965337.2989254     
  -40950055.7753755     
  -40934595.7006881     
  -40919969.9720686     
  -40913733.2746018     
  -40949230.3094258     
  -41008492.3671436     
  -41101441.8385179     
  -41234689.2873603     
  -41397304.9836415     
  -41561047.4271380     
  -41730098.7824405     
  -41896987.2969888     
  -41288797.3014458     
  -41280521.3075819     
  -41267242.1452240     
  -41249482.0259297     
  -41227640.6541397     
  -41202059.8921077     
  -41173053.5640448     
  -41140949.9627150     
  -41106057.6923314     
  -41068643.7030649     
  -41028981.7719649     
  -40987321.9624135     
  -40943903.6363360     
  -40898950.4171745     
  -40852678.0361900     
  -40805289.6259161     
  -40756965.1167441     
  -40707881.3157871     
  -40658197.9899828     
  -40608062.0278968     
  -40557609.6583221     
  -40506966.3999200     
  -40456248.0086064     
  -40405561.7535137     
  -40355007.8649042     
  -40304681.1353888     
  -40254672.6854632     
  -40205071.9085951     
  -40155968.6191052     
  -40107455.4670661     
  -40059630.8338704     
  -40012602.8962561     
  -39966496.9490390     
  -39921451.2073412     
  -39877547.0039371     
  -39834944.0886470     
  -39794870.0496170     
  -39755582.5071579     
  -39714408.0881930     
  -39708986.3313013     
  -39731700.2868505     
  -39795033.3731458     
  -39913174.1397158     
  -40047662.0510747     
  -40194227.4847170     
  -40347764.1651445     
  -40500141.4432736     
  -40656554.3727830     
  -40811998.8750055     
  -40967759.4718914     
  -41028474.0153761     
  -40976769.9162970     
  -40921415.0481327     
  -40862457.7786272     
  -40800162.0526511     
  -40734929.6441887     
  -40667185.7112493     
  -40597193.9801574     
  -40525204.8212176     
  -40451566.8854145     
  -40376543.4078470     
  -40300427.8143295     
  -40223489.4521709     
  -40145981.8930886     
  -40068112.0480534     
  -39990065.3466343     
  -39912045.7421157     
  -39834192.2470466     
  -39756635.5344729     
  -39679489.0922618     
  -39602843.2332423     
  -39526769.1459101     
  -39451321.0062104     
  -39376537.6125875     
  -39302443.9674535     
  -39229052.9160404     
  -39156366.8814868     
  -39084379.7270595     
  -39013078.7569741     
  -38942446.7674297     
  -38872463.7411858     
  -38803106.9003644     
  -38734345.5229179     
  -38666174.1762253     
  -38598809.7748888     
  -38532321.2101196     
  -38466346.0237418     
  -38426594.2870295     
  -38418901.7315578     
  -38476552.9297915     
  -38568455.4934439     
  -38682126.1556369     
  -38805856.0254826     
  -38936361.1802318     
  -39073984.2358697     
  -39216239.2944978     
  -39363383.1214155     
  -39513558.9047237     
  -39667362.2470476     
  -39822552.2519233     
  -40784184.2793410     
  -40681861.0551347     
  -40575531.3301612     
  -40466466.5091847     
  -40355387.6947033     
  -40242347.8478113     
  -40127251.2896759     
  -40010701.7496489     
  -39893414.7479579     
  -39775686.7893387     
  -39658055.3096114     
  -39540829.7185508     
  -39424294.6483126     
  -39308698.4898843     
  -39194353.6064228     
  -39081501.4297732     
  -38970163.6822095     
  -38860496.1955235     
  -38752574.8308584     
  -38646420.1883538     
  -38542032.1410065     
  -38439386.9266719     
  -38338438.0938364     
  -38239118.2995476     
  -38141340.9129903     
  -38045001.1225248     
  -37949976.5355161     
  -37856127.4073863     
  -37763296.7863119     
  -37671311.1318864     
  -37579982.5499788     
  -37489115.0980709     
  -37398520.6485174     
  -37307931.8216003     
  -37218512.2901765     
  -37143114.5316358     
  -37080587.6532420     
  -37079029.1736152     
  -37127308.1320279     
  -37195642.7633781     
  -37275494.0556203     
  -37367818.5276723     
  -37472501.6170462     
  -37588944.9065749     
  -37716198.7235547     
  -37854001.7343566     
  -38001275.5839415     
  -38156948.4317846     
  -38319909.5850339     
  -38493608.6635643     
  -40561256.0986375     
  -40397580.8747490     
  -40232923.8985915     
  -40064297.1812882     
  -39890445.7105742     
  -39713595.2428964     
  -39537134.1995185     
  -39361700.6107652     
  -39187195.1904200     
  -39014921.4424048     
  -38845067.0698282     
  -38678467.4870862     
  -38515739.8111487     
  -38357214.6199564     
  -38202638.7041783     
  -38051859.1909845     
  -37905393.5463684     
  -37762980.1304126     
  -37624430.3228976     
  -37489625.0666961     
  -37358404.0361664     
  -37230583.9139714     
  -37105966.8541681     
  -36984344.1285652     
  -36865497.1155579     
  -36749196.5339622     
  -36635200.2283935     
  -36523249.4799743     
  -36413063.5564824     
  -36304331.9006546     
  -36196702.8179795     
  -36089766.4258238     
  -35983027.1531050     
  -35881126.8686536     
  -35790893.3462859     
  -35709303.0304555     
  -35670514.0854940     
  -35681601.5786925     
  -35704344.2212457     
  -35740533.8200564     
  -35791293.0012439     
  -35857002.8629536     
  -35938807.9866508     
  -36038056.7867880     
  -36155960.6880156     
  -36292967.7984654     
  -36448441.6508480     
  -36621358.8784742     
  -36810268.7926618     
  -37001738.7410907     
  -40652839.3746891     
  -40382663.0956042     
  -40087953.6312862     
  -39784748.4446478     
  -39484579.9652572     
  -39189471.1374789     
  -38910357.3330985     
  -38646633.1872096     
  -38391798.9268666     
  -38143261.9484812     
  -37903752.8639366     
  -37672229.9903675     
  -37448249.7567067     
  -37236219.4008890     
  -37041469.8837959     
  -36856378.3798507     
  -36678025.5171951     
  -36506454.5897479     
  -36341507.4726282     
  -36182660.6141722     
  -36029456.5781218     
  -35881483.3155141     
  -35738362.7356941     
  -35599743.7241992     
  -35465297.3124128     
  -35334712.8448621     
  -35207694.4904488     
  -35083957.6409971     
  -34963224.7835877     
  -34845220.3976332     
  -34729664.3845241     
  -34616263.6388917     
  -34504702.0330294     
  -34399021.6952581     
  -34309987.9528702     
  -34227135.9993826     
  -34171693.8569919     
  -34148506.1581112     
  -34144282.7417252     
  -34152989.7470099     
  -34176356.1549937     
  -34215521.1453648     
  -34271751.9812718     
  -34347237.9260236     
  -34444512.1674361     
  -34567270.8909787     
  -34719645.1881323     
  -34904163.7945711     
  -35121997.2764544     
  -35387966.2213488     
  -41709194.3032514     
  -40940286.1538554     
  -40254711.6173342     
  -39636186.0246628     
  -39085463.1450529     
  -38603709.1197276     
  -38171283.7689090     
  -37785177.4782482     
  -37427488.3782262     
  -37090122.6374737     
  -36769420.0246886     
  -36467872.6140080     
  -36183088.4870925     
  -35913479.5274482     
  -35667113.3077209     
  -35443371.4794219     
  -35240704.2464853     
  -35052697.4718244     
  -34872776.0578750     
  -34700323.6900952     
  -34534775.0692486     
  -34375616.2459976     
  -34222382.6059982     
  -34074656.3844026     
  -33932064.5997555     
  -33794277.8811876     
  -33661010.5164052     
  -33532022.0411848     
  -33407120.7712009     
  -33286169.8259246     
  -33169096.4041259     
  -33055905.3162173     
  -32946697.9586912     
  -32841924.6851347     
  -32743645.4574872     
  -32650234.5546351     
  -32568965.5388658     
  -32520041.2715884     
  -32497437.0884603     
  -32493771.1376867     
  -32502674.0941231     
  -32525508.5575229     
  -32564051.6212809     
  -32620836.8211452     
  -32698756.3599695     
  -32802621.7574369     
  -32938373.7405832     
  -33115400.2979307     
  -33343566.3775373     
  -33628587.6414299     
SCALARS 2waySource double 
LOOKUP_TABLE default
  0.000000000000000E+000
  0.000000000000000E+000
  0.000000000000000E+000
  0.000000000000000E+000
  0.000000000000000E+000
  0.000000000000000E+000
  0.000000000000000E+000
  0.000000000000000E+000
  0.000000000000000E+000
  0.000000000000000E+000
  0.000000000000000E+000
  0.000000000000000E+000
  0.000000000000000E+000
  0.000000000000000E+000
  0.000000000000000E+000
  0.000000000000000E+000
  0.000000000000000E+000
  0.000000000000000E+000
  0.000000000000000E+000
  0.000000000000000E+000
  0.000000000000000E+000
  0.000000000000000E+000
  0.000000000000000E+000
  0.000000000000000E+000
  0.000000000000000E+000
  0.000000000000000E+000
  0.000000000000000E+000
  0.000000000000000E+000
  0.000000000000000E+000
  0.000000000000000E+000
  0.000000000000000E+000
  0.000000000000000E+000
  0.000000000000000E+000
  0.000000000000000E+000
  0.000000000000000E+000
  0.000000000000000E+000
  0.000000000000000E+000
  0.000000000000000E+000
  0.000000000000000E+000
  0.000000000000000E+000
  0.000000000000000E+000
  0.000000000000000E+000
  0.000000000000000E+000
  0.000000000000000E+000
  0.000000000000000E+000
  0.000000000000000E+000
  0.000000000000000E+000
  0.000000000000000E+000
  0.000000000000000E+000
  0.000000000000000E+000
  0.000000000000000E+000
  0.000000000000000E+000
  0.000000000000000E+000
  0.000000000000000E+000
  0.000000000000000E+000
  0.000000000000000E+000
  0.000000000000000E+000
  0.000000000000000E+000
  0.000000000000000E+000
  0.000000000000000E+000
  0.000000000000000E+000
  0.000000000000000E+000
  0.000000000000000E+000
  0.000000000000000E+000
  0.000000000000000E+000
  0.000000000000000E+000
  0.000000000000000E+000
  0.000000000000000E+000
  0.000000000000000E+000
  0.000000000000000E+000
  0.000000000000000E+000
  0.000000000000000E+000
  0.000000000000000E+000
  0.000000000000000E+000
  0.000000000000000E+000
  0.000000000000000E+000
  0.000000000000000E+000
  0.000000000000000E+000
  0.000000000000000E+000
  0.000000000000000E+000
  0.000000000000000E+000
  0.000000000000000E+000
  0.000000000000000E+000
  0.000000000000000E+000
  0.000000000000000E+000
  0.000000000000000E+000
  0.000000000000000E+000
  0.000000000000000E+000
  0.000000000000000E+000
  0.000000000000000E+000
  0.000000000000000E+000
  0.000000000000000E+000
  0.000000000000000E+000
  0.000000000000000E+000
  0.000000000000000E+000
  0.000000000000000E+000
  0.000000000000000E+000
  0.000000000000000E+000
  0.000000000000000E+000
  0.000000000000000E+000
  0.000000000000000E+000
  0.000000000000000E+000
  0.000000000000000E+000
  0.000000000000000E+000
  0.000000000000000E+000
  0.000000000000000E+000
  0.000000000000000E+000
  0.000000000000000E+000
  0.000000000000000E+000
  0.000000000000000E+000
  0.000000000000000E+000
  0.000000000000000E+000
  0.000000000000000E+000
  0.000000000000000E+000
  0.000000000000000E+000
  0.000000000000000E+000
  0.000000000000000E+000
  0.000000000000000E+000
  0.000000000000000E+000
  0.000000000000000E+000
  0.000000000000000E+000
  0.000000000000000E+000
  0.000000000000000E+000
  0.000000000000000E+000
  0.000000000000000E+000
  0.000000000000000E+000
  0.000000000000000E+000
  0.000000000000000E+000
  0.000000000000000E+000
  0.000000000000000E+000
  0.000000000000000E+000
  0.000000000000000E+000
  0.000000000000000E+000
  0.000000000000000E+000
  0.000000000000000E+000
  0.000000000000000E+000
  0.000000000000000E+000
  0.000000000000000E+000
  0.000000000000000E+000
  0.000000000000000E+000
  0.000000000000000E+000
  0.000000000000000E+000
  0.000000000000000E+000
  0.000000000000000E+000
  0.000000000000000E+000
  0.000000000000000E+000
  0.000000000000000E+000
  0.000000000000000E+000
  0.000000000000000E+000
  0.000000000000000E+000
  0.000000000000000E+000
  0.000000000000000E+000
  0.000000000000000E+000
  0.000000000000000E+000
  0.000000000000000E+000
  0.000000000000000E+000
  0.000000000000000E+000
  0.000000000000000E+000
  0.000000000000000E+000
  0.000000000000000E+000
  0.000000000000000E+000
  0.000000000000000E+000
  0.000000000000000E+000
  0.000000000000000E+000
  0.000000000000000E+000
  0.000000000000000E+000
  0.000000000000000E+000
  0.000000000000000E+000
  0.000000000000000E+000
  0.000000000000000E+000
  0.000000000000000E+000
  0.000000000000000E+000
  0.000000000000000E+000
  0.000000000000000E+000
  0.000000000000000E+000
  0.000000000000000E+000
  0.000000000000000E+000
  0.000000000000000E+000
  0.000000000000000E+000
  0.000000000000000E+000
  0.000000000000000E+000
  0.000000000000000E+000
  0.000000000000000E+000
  0.000000000000000E+000
  0.000000000000000E+000
  0.000000000000000E+000
  0.000000000000000E+000
  0.000000000000000E+000
  0.000000000000000E+000
  0.000000000000000E+000
  0.000000000000000E+000
  0.000000000000000E+000
  0.000000000000000E+000
  0.000000000000000E+000
  0.000000000000000E+000
  0.000000000000000E+000
  0.000000000000000E+000
  0.000000000000000E+000
  0.000000000000000E+000
  0.000000000000000E+000
  0.000000000000000E+000
  0.000000000000000E+000
  0.000000000000000E+000
  0.000000000000000E+000
  0.000000000000000E+000
  0.000000000000000E+000
  0.000000000000000E+000
  0.000000000000000E+000
  0.000000000000000E+000
  0.000000000000000E+000
  0.000000000000000E+000
  0.000000000000000E+000
  0.000000000000000E+000
  0.000000000000000E+000
  0.000000000000000E+000
  0.000000000000000E+000
  0.000000000000000E+000
  0.000000000000000E+000
  0.000000000000000E+000
  0.000000000000000E+000
  0.000000000000000E+000
  0.000000000000000E+000
  0.000000000000000E+000
  0.000000000000000E+000
  0.000000000000000E+000
  0.000000000000000E+000
  0.000000000000000E+000
  0.000000000000000E+000
  0.000000000000000E+000
  0.000000000000000E+000
  0.000000000000000E+000
  0.000000000000000E+000
  0.000000000000000E+000
  0.000000000000000E+000
  0.000000000000000E+000
  0.000000000000000E+000
  0.000000000000000E+000
  0.000000000000000E+000
  0.000000000000000E+000
  0.000000000000000E+000
  0.000000000000000E+000
  0.000000000000000E+000
  0.000000000000000E+000
  0.000000000000000E+000
  0.000000000000000E+000
  0.000000000000000E+000
  0.000000000000000E+000
  0.000000000000000E+000
  0.000000000000000E+000
  0.000000000000000E+000
  0.000000000000000E+000
  0.000000000000000E+000
  0.000000000000000E+000
  0.000000000000000E+000
  0.000000000000000E+000
  0.000000000000000E+000
  0.000000000000000E+000
  0.000000000000000E+000
  0.000000000000000E+000
  0.000000000000000E+000
  0.000000000000000E+000
  0.000000000000000E+000
  0.000000000000000E+000
  0.000000000000000E+000
  0.000000000000000E+000
  0.000000000000000E+000
  0.000000000000000E+000
  0.000000000000000E+000
  0.000000000000000E+000
  0.000000000000000E+000
  0.000000000000000E+000
  0.000000000000000E+000
  0.000000000000000E+000
  0.000000000000000E+000
  0.000000000000000E+000
  0.000000000000000E+000
  0.000000000000000E+000
  0.000000000000000E+000
  0.000000000000000E+000
  0.000000000000000E+000
  0.000000000000000E+000
  0.000000000000000E+000
  0.000000000000000E+000
  0.000000000000000E+000
  0.000000000000000E+000
  0.000000000000000E+000
  0.000000000000000E+000
  0.000000000000000E+000
  0.000000000000000E+000
  0.000000000000000E+000
  0.000000000000000E+000
  0.000000000000000E+000
  0.000000000000000E+000
  0.000000000000000E+000
  0.000000000000000E+000
  0.000000000000000E+000
  0.000000000000000E+000
  0.000000000000000E+000
  0.000000000000000E+000
  0.000000000000000E+000
  0.000000000000000E+000
  0.000000000000000E+000
  0.000000000000000E+000
  0.000000000000000E+000
  0.000000000000000E+000
  0.000000000000000E+000
  0.000000000000000E+000
  0.000000000000000E+000
  0.000000000000000E+000
  0.000000000000000E+000
  0.000000000000000E+000
  0.000000000000000E+000
  0.000000000000000E+000
  0.000000000000000E+000
  0.000000000000000E+000
  0.000000000000000E+000
  0.000000000000000E+000
  0.000000000000000E+000
  0.000000000000000E+000
  0.000000000000000E+000
  0.000000000000000E+000
  0.000000000000000E+000
  0.000000000000000E+000
  0.000000000000000E+000
  0.000000000000000E+000
  0.000000000000000E+000
  0.000000000000000E+000
  0.000000000000000E+000
  0.000000000000000E+000
  0.000000000000000E+000
  0.000000000000000E+000
  0.000000000000000E+000
  0.000000000000000E+000
  0.000000000000000E+000
  0.000000000000000E+000
  0.000000000000000E+000
  0.000000000000000E+000
  0.000000000000000E+000
  0.000000000000000E+000
  0.000000000000000E+000
  0.000000000000000E+000
  0.000000000000000E+000
  0.000000000000000E+000
  0.000000000000000E+000
  0.000000000000000E+000
  0.000000000000000E+000
  0.000000000000000E+000
  0.000000000000000E+000
  0.000000000000000E+000
  0.000000000000000E+000
  0.000000000000000E+000
  0.000000000000000E+000
  0.000000000000000E+000
  0.000000000000000E+000
  0.000000000000000E+000
  0.000000000000000E+000
  0.000000000000000E+000
  0.000000000000000E+000
  0.000000000000000E+000
  0.000000000000000E+000
  0.000000000000000E+000
  0.000000000000000E+000
  0.000000000000000E+000
  0.000000000000000E+000
  0.000000000000000E+000
  0.000000000000000E+000
  0.000000000000000E+000
  0.000000000000000E+000
  0.000000000000000E+000
  0.000000000000000E+000
  0.000000000000000E+000
  0.000000000000000E+000
  0.000000000000000E+000
  0.000000000000000E+000
  0.000000000000000E+000
  0.000000000000000E+000
  0.000000000000000E+000
  0.000000000000000E+000
  0.000000000000000E+000
  0.000000000000000E+000
  0.000000000000000E+000
  0.000000000000000E+000
  0.000000000000000E+000
  0.000000000000000E+000
  0.000000000000000E+000
  0.000000000000000E+000
  0.000000000000000E+000
  0.000000000000000E+000
  0.000000000000000E+000
  0.000000000000000E+000
  0.000000000000000E+000
  0.000000000000000E+000
  0.000000000000000E+000
  0.000000000000000E+000
  0.000000000000000E+000
  0.000000000000000E+000
  0.000000000000000E+000
  0.000000000000000E+000
  0.000000000000000E+000
  0.000000000000000E+000
  0.000000000000000E+000
  0.000000000000000E+000
  0.000000000000000E+000
  0.000000000000000E+000
  0.000000000000000E+000
  0.000000000000000E+000
  0.000000000000000E+000
  0.000000000000000E+000
  0.000000000000000E+000
  0.000000000000000E+000
  0.000000000000000E+000
  0.000000000000000E+000
  0.000000000000000E+000
  0.000000000000000E+000
  0.000000000000000E+000
  0.000000000000000E+000
  0.000000000000000E+000
  0.000000000000000E+000
  0.000000000000000E+000
  0.000000000000000E+000
  0.000000000000000E+000
  0.000000000000000E+000
  0.000000000000000E+000
  0.000000000000000E+000
  0.000000000000000E+000
  0.000000000000000E+000
  0.000000000000000E+000
  0.000000000000000E+000
  0.000000000000000E+000
  0.000000000000000E+000
  0.000000000000000E+000
  0.000000000000000E+000
  0.000000000000000E+000
  0.000000000000000E+000
  0.000000000000000E+000
  0.000000000000000E+000
  0.000000000000000E+000
  0.000000000000000E+000
  0.000000000000000E+000
  0.000000000000000E+000
  0.000000000000000E+000
  0.000000000000000E+000
  0.000000000000000E+000
  0.000000000000000E+000
  0.000000000000000E+000
  0.000000000000000E+000
  0.000000000000000E+000
  0.000000000000000E+000
  0.000000000000000E+000
  0.000000000000000E+000
  0.000000000000000E+000
  0.000000000000000E+000
  0.000000000000000E+000
  0.000000000000000E+000
  0.000000000000000E+000
  0.000000000000000E+000
  0.000000000000000E+000
  0.000000000000000E+000
  0.000000000000000E+000
  0.000000000000000E+000
  0.000000000000000E+000
  0.000000000000000E+000
  0.000000000000000E+000
  0.000000000000000E+000
  0.000000000000000E+000
  0.000000000000000E+000
  0.000000000000000E+000
  0.000000000000000E+000
  0.000000000000000E+000
  0.000000000000000E+000
  0.000000000000000E+000
  0.000000000000000E+000
  0.000000000000000E+000
  0.000000000000000E+000
  0.000000000000000E+000
  0.000000000000000E+000
  0.000000000000000E+000
  0.000000000000000E+000
  0.000000000000000E+000
  0.000000000000000E+000
  0.000000000000000E+000
  0.000000000000000E+000
  0.000000000000000E+000
  0.000000000000000E+000
  0.000000000000000E+000
  0.000000000000000E+000
  0.000000000000000E+000
  0.000000000000000E+000
  0.000000000000000E+000
  0.000000000000000E+000
  0.000000000000000E+000
  0.000000000000000E+000
  0.000000000000000E+000
  0.000000000000000E+000
  0.000000000000000E+000
  0.000000000000000E+000
  0.000000000000000E+000
  0.000000000000000E+000
  0.000000000000000E+000
  0.000000000000000E+000
  0.000000000000000E+000
  0.000000000000000E+000
  0.000000000000000E+000
  0.000000000000000E+000
  0.000000000000000E+000
  0.000000000000000E+000
  0.000000000000000E+000
  0.000000000000000E+000
  0.000000000000000E+000
  0.000000000000000E+000
  0.000000000000000E+000
  0.000000000000000E+000
  0.000000000000000E+000
  0.000000000000000E+000
  0.000000000000000E+000
  0.000000000000000E+000
  0.000000000000000E+000
  0.000000000000000E+000
  0.000000000000000E+000
  0.000000000000000E+000
  0.000000000000000E+000
  0.000000000000000E+000
  0.000000000000000E+000
  0.000000000000000E+000
  0.000000000000000E+000
  0.000000000000000E+000
  0.000000000000000E+000
  0.000000000000000E+000
  0.000000000000000E+000
  0.000000000000000E+000
  0.000000000000000E+000
  0.000000000000000E+000
  0.000000000000000E+000
  0.000000000000000E+000
  0.000000000000000E+000
  0.000000000000000E+000
  0.000000000000000E+000
  0.000000000000000E+000
  0.000000000000000E+000
  0.000000000000000E+000
  0.000000000000000E+000
  0.000000000000000E+000
  0.000000000000000E+000
  0.000000000000000E+000
  0.000000000000000E+000
  0.000000000000000E+000
  0.000000000000000E+000
  0.000000000000000E+000
  0.000000000000000E+000
  0.000000000000000E+000
  0.000000000000000E+000
  0.000000000000000E+000
  0.000000000000000E+000
  0.000000000000000E+000
  0.000000000000000E+000
  0.000000000000000E+000
  0.000000000000000E+000
  0.000000000000000E+000
  0.000000000000000E+000
  0.000000000000000E+000
  0.000000000000000E+000
  0.000000000000000E+000
  0.000000000000000E+000
  0.000000000000000E+000
  0.000000000000000E+000
  0.000000000000000E+000
  0.000000000000000E+000
  0.000000000000000E+000
  0.000000000000000E+000
  0.000000000000000E+000
  0.000000000000000E+000
  0.000000000000000E+000
  0.000000000000000E+000
  0.000000000000000E+000
  0.000000000000000E+000
  0.000000000000000E+000
  0.000000000000000E+000
  0.000000000000000E+000
  0.000000000000000E+000
  0.000000000000000E+000
  0.000000000000000E+000
  0.000000000000000E+000
  0.000000000000000E+000
  0.000000000000000E+000
  0.000000000000000E+000
  0.000000000000000E+000
  0.000000000000000E+000
  0.000000000000000E+000
  0.000000000000000E+000
  0.000000000000000E+000
  0.000000000000000E+000
  0.000000000000000E+000
  0.000000000000000E+000
  0.000000000000000E+000
  0.000000000000000E+000
  0.000000000000000E+000
  0.000000000000000E+000
  0.000000000000000E+000
  0.000000000000000E+000
  0.000000000000000E+000
  0.000000000000000E+000
  0.000000000000000E+000
  0.000000000000000E+000
  0.000000000000000E+000
  0.000000000000000E+000
  0.000000000000000E+000
  0.000000000000000E+000
  0.000000000000000E+000
  0.000000000000000E+000
  0.000000000000000E+000
  0.000000000000000E+000
  0.000000000000000E+000
  0.000000000000000E+000
  0.000000000000000E+000
  0.000000000000000E+000
  0.000000000000000E+000
  0.000000000000000E+000
  0.000000000000000E+000
  0.000000000000000E+000
  0.000000000000000E+000
  0.000000000000000E+000
  0.000000000000000E+000
  0.000000000000000E+000
  0.000000000000000E+000
  0.000000000000000E+000
  0.000000000000000E+000
  0.000000000000000E+000
  0.000000000000000E+000
  0.000000000000000E+000
  0.000000000000000E+000
  0.000000000000000E+000
  0.000000000000000E+000
  0.000000000000000E+000
  0.000000000000000E+000
  0.000000000000000E+000
  0.000000000000000E+000
  0.000000000000000E+000
  0.000000000000000E+000
  0.000000000000000E+000
  0.000000000000000E+000
  0.000000000000000E+000
  0.000000000000000E+000
  0.000000000000000E+000
  0.000000000000000E+000
  0.000000000000000E+000
  0.000000000000000E+000
  0.000000000000000E+000
  0.000000000000000E+000
  0.000000000000000E+000
  0.000000000000000E+000
  0.000000000000000E+000
  0.000000000000000E+000
  0.000000000000000E+000
  0.000000000000000E+000
  0.000000000000000E+000
  0.000000000000000E+000
  0.000000000000000E+000
  0.000000000000000E+000
  0.000000000000000E+000
  0.000000000000000E+000
  0.000000000000000E+000
  0.000000000000000E+000
  0.000000000000000E+000
  0.000000000000000E+000
  0.000000000000000E+000
  0.000000000000000E+000
  0.000000000000000E+000
  0.000000000000000E+000
  0.000000000000000E+000
  0.000000000000000E+000
  0.000000000000000E+000
  0.000000000000000E+000
  0.000000000000000E+000
  0.000000000000000E+000
  0.000000000000000E+000
  0.000000000000000E+000
  0.000000000000000E+000
  0.000000000000000E+000
  0.000000000000000E+000
  0.000000000000000E+000
  0.000000000000000E+000
  0.000000000000000E+000
  0.000000000000000E+000
  0.000000000000000E+000
  0.000000000000000E+000
  0.000000000000000E+000
  0.000000000000000E+000
  0.000000000000000E+000
  0.000000000000000E+000
  0.000000000000000E+000
  0.000000000000000E+000
  0.000000000000000E+000
  0.000000000000000E+000
  0.000000000000000E+000
  0.000000000000000E+000
  0.000000000000000E+000
  0.000000000000000E+000
  0.000000000000000E+000
  0.000000000000000E+000
  0.000000000000000E+000
  0.000000000000000E+000
  0.000000000000000E+000
  0.000000000000000E+000
  0.000000000000000E+000
  0.000000000000000E+000
  0.000000000000000E+000
  0.000000000000000E+000
  0.000000000000000E+000
  0.000000000000000E+000
  0.000000000000000E+000
  0.000000000000000E+000
  0.000000000000000E+000
  0.000000000000000E+000
  0.000000000000000E+000
  0.000000000000000E+000
  0.000000000000000E+000
  0.000000000000000E+000
  0.000000000000000E+000
  0.000000000000000E+000
  0.000000000000000E+000
  0.000000000000000E+000
  0.000000000000000E+000
  0.000000000000000E+000
  0.000000000000000E+000
  0.000000000000000E+000
  0.000000000000000E+000
  0.000000000000000E+000
  0.000000000000000E+000
  0.000000000000000E+000
  0.000000000000000E+000
  0.000000000000000E+000
  0.000000000000000E+000
  0.000000000000000E+000
  0.000000000000000E+000
  0.000000000000000E+000
  0.000000000000000E+000
  0.000000000000000E+000
  0.000000000000000E+000
  0.000000000000000E+000
  0.000000000000000E+000
  0.000000000000000E+000
  0.000000000000000E+000
  0.000000000000000E+000
  0.000000000000000E+000
  0.000000000000000E+000
  0.000000000000000E+000
  0.000000000000000E+000
  0.000000000000000E+000
  0.000000000000000E+000
  0.000000000000000E+000
  0.000000000000000E+000
  0.000000000000000E+000
  0.000000000000000E+000
  0.000000000000000E+000
  0.000000000000000E+000
  0.000000000000000E+000
  0.000000000000000E+000
  0.000000000000000E+000
  0.000000000000000E+000
  0.000000000000000E+000
  0.000000000000000E+000
  0.000000000000000E+000
  0.000000000000000E+000
  0.000000000000000E+000
  0.000000000000000E+000
  0.000000000000000E+000
  0.000000000000000E+000
  0.000000000000000E+000
  0.000000000000000E+000
  0.000000000000000E+000
  0.000000000000000E+000
  0.000000000000000E+000
  0.000000000000000E+000
  0.000000000000000E+000
  0.000000000000000E+000
  0.000000000000000E+000
  0.000000000000000E+000
  0.000000000000000E+000
  0.000000000000000E+000
  0.000000000000000E+000
  0.000000000000000E+000
  0.000000000000000E+000
  0.000000000000000E+000
  0.000000000000000E+000
  0.000000000000000E+000
  0.000000000000000E+000
  0.000000000000000E+000
  0.000000000000000E+000
  0.000000000000000E+000
  0.000000000000000E+000
  0.000000000000000E+000
  0.000000000000000E+000
  0.000000000000000E+000
  0.000000000000000E+000
  0.000000000000000E+000
  0.000000000000000E+000
  0.000000000000000E+000
  0.000000000000000E+000
  0.000000000000000E+000
  0.000000000000000E+000
  0.000000000000000E+000
  0.000000000000000E+000
  0.000000000000000E+000
  0.000000000000000E+000
  0.000000000000000E+000
  0.000000000000000E+000
  0.000000000000000E+000
  0.000000000000000E+000
  0.000000000000000E+000
  0.000000000000000E+000
  0.000000000000000E+000
  0.000000000000000E+000
  0.000000000000000E+000
  0.000000000000000E+000
  0.000000000000000E+000
  0.000000000000000E+000
  0.000000000000000E+000
  0.000000000000000E+000
  0.000000000000000E+000
  0.000000000000000E+000
  0.000000000000000E+000
  0.000000000000000E+000
  0.000000000000000E+000
  0.000000000000000E+000
  0.000000000000000E+000
  0.000000000000000E+000
  0.000000000000000E+000
  0.000000000000000E+000
  0.000000000000000E+000
  0.000000000000000E+000
  0.000000000000000E+000
  0.000000000000000E+000
  0.000000000000000E+000
  0.000000000000000E+000
  0.000000000000000E+000
  0.000000000000000E+000
  0.000000000000000E+000
  0.000000000000000E+000
  0.000000000000000E+000
  0.000000000000000E+000
  0.000000000000000E+000
  0.000000000000000E+000
  0.000000000000000E+000
  0.000000000000000E+000
  0.000000000000000E+000
  0.000000000000000E+000
  0.000000000000000E+000
  0.000000000000000E+000
  0.000000000000000E+000
  0.000000000000000E+000
  0.000000000000000E+000
  0.000000000000000E+000
  0.000000000000000E+000
  0.000000000000000E+000
  0.000000000000000E+000
  0.000000000000000E+000
  0.000000000000000E+000
  0.000000000000000E+000
  0.000000000000000E+000
  0.000000000000000E+000
  0.000000000000000E+000
  0.000000000000000E+000
  0.000000000000000E+000
  0.000000000000000E+000
  0.000000000000000E+000
  0.000000000000000E+000
  0.000000000000000E+000
  0.000000000000000E+000
  0.000000000000000E+000
  0.000000000000000E+000
  0.000000000000000E+000
  0.000000000000000E+000
  0.000000000000000E+000
  0.000000000000000E+000
  0.000000000000000E+000
  0.000000000000000E+000
  0.000000000000000E+000
  0.000000000000000E+000
  0.000000000000000E+000
  0.000000000000000E+000
  0.000000000000000E+000
  0.000000000000000E+000
  0.000000000000000E+000
  0.000000000000000E+000
  0.000000000000000E+000
  0.000000000000000E+000
  0.000000000000000E+000
  0.000000000000000E+000
  0.000000000000000E+000
  0.000000000000000E+000
  0.000000000000000E+000
  0.000000000000000E+000
  0.000000000000000E+000
  0.000000000000000E+000
  0.000000000000000E+000
  0.000000000000000E+000
  0.000000000000000E+000
  0.000000000000000E+000
  0.000000000000000E+000
  0.000000000000000E+000
  0.000000000000000E+000
  0.000000000000000E+000
  0.000000000000000E+000
  0.000000000000000E+000
  0.000000000000000E+000
  0.000000000000000E+000
  0.000000000000000E+000
  0.000000000000000E+000
  0.000000000000000E+000
  0.000000000000000E+000
  0.000000000000000E+000
  0.000000000000000E+000
  0.000000000000000E+000
  0.000000000000000E+000
  0.000000000000000E+000
  0.000000000000000E+000
  0.000000000000000E+000
  0.000000000000000E+000
  0.000000000000000E+000
  0.000000000000000E+000
  0.000000000000000E+000
  0.000000000000000E+000
  0.000000000000000E+000
  0.000000000000000E+000
  0.000000000000000E+000
  0.000000000000000E+000
  0.000000000000000E+000
  0.000000000000000E+000
  0.000000000000000E+000
  0.000000000000000E+000
  0.000000000000000E+000
  0.000000000000000E+000
  0.000000000000000E+000
  0.000000000000000E+000
  0.000000000000000E+000
  0.000000000000000E+000
  0.000000000000000E+000
  0.000000000000000E+000
  0.000000000000000E+000
  0.000000000000000E+000
  0.000000000000000E+000
  0.000000000000000E+000
  0.000000000000000E+000
  0.000000000000000E+000
  0.000000000000000E+000
  0.000000000000000E+000
  0.000000000000000E+000
  0.000000000000000E+000
  0.000000000000000E+000
  0.000000000000000E+000
  0.000000000000000E+000
  0.000000000000000E+000
  0.000000000000000E+000
  0.000000000000000E+000
  0.000000000000000E+000
  0.000000000000000E+000
  0.000000000000000E+000
  0.000000000000000E+000
  0.000000000000000E+000
  0.000000000000000E+000
  0.000000000000000E+000
  0.000000000000000E+000
  0.000000000000000E+000
  0.000000000000000E+000
  0.000000000000000E+000
  0.000000000000000E+000
  0.000000000000000E+000
  0.000000000000000E+000
  0.000000000000000E+000
  0.000000000000000E+000
  0.000000000000000E+000
  0.000000000000000E+000
  0.000000000000000E+000
  0.000000000000000E+000
  0.000000000000000E+000
  0.000000000000000E+000
  0.000000000000000E+000
  0.000000000000000E+000
  0.000000000000000E+000
  0.000000000000000E+000
  0.000000000000000E+000
  0.000000000000000E+000
  0.000000000000000E+000
  0.000000000000000E+000
  0.000000000000000E+000
  0.000000000000000E+000
  0.000000000000000E+000
  0.000000000000000E+000
  0.000000000000000E+000
  0.000000000000000E+000
  0.000000000000000E+000
  0.000000000000000E+000
  0.000000000000000E+000
  0.000000000000000E+000
  0.000000000000000E+000
  0.000000000000000E+000
  0.000000000000000E+000
  0.000000000000000E+000
  0.000000000000000E+000
  0.000000000000000E+000
  0.000000000000000E+000
  0.000000000000000E+000
  0.000000000000000E+000
  0.000000000000000E+000
  0.000000000000000E+000
  0.000000000000000E+000
  0.000000000000000E+000
  0.000000000000000E+000
  0.000000000000000E+000
  0.000000000000000E+000
  0.000000000000000E+000
  0.000000000000000E+000
  0.000000000000000E+000
  0.000000000000000E+000
  0.000000000000000E+000
  0.000000000000000E+000
  0.000000000000000E+000
  0.000000000000000E+000
  0.000000000000000E+000
  0.000000000000000E+000
  0.000000000000000E+000
  0.000000000000000E+000
  0.000000000000000E+000
  0.000000000000000E+000
  0.000000000000000E+000
  0.000000000000000E+000
  0.000000000000000E+000
  0.000000000000000E+000
  0.000000000000000E+000
  0.000000000000000E+000
  0.000000000000000E+000
  0.000000000000000E+000
  0.000000000000000E+000
  0.000000000000000E+000
  0.000000000000000E+000
  0.000000000000000E+000
  0.000000000000000E+000
  0.000000000000000E+000
  0.000000000000000E+000
  0.000000000000000E+000
  0.000000000000000E+000
  0.000000000000000E+000
  0.000000000000000E+000
  0.000000000000000E+000
  0.000000000000000E+000
  0.000000000000000E+000
  0.000000000000000E+000
  0.000000000000000E+000
  0.000000000000000E+000
  0.000000000000000E+000
  0.000000000000000E+000
  0.000000000000000E+000
  0.000000000000000E+000
  0.000000000000000E+000
  0.000000000000000E+000
  0.000000000000000E+000
  0.000000000000000E+000
  0.000000000000000E+000
  0.000000000000000E+000
  0.000000000000000E+000
  0.000000000000000E+000
  0.000000000000000E+000
  0.000000000000000E+000
  0.000000000000000E+000
  0.000000000000000E+000
  0.000000000000000E+000
  0.000000000000000E+000
  0.000000000000000E+000
  0.000000000000000E+000
  0.000000000000000E+000
  0.000000000000000E+000
  0.000000000000000E+000
  0.000000000000000E+000
  0.000000000000000E+000
  0.000000000000000E+000
  0.000000000000000E+000
  0.000000000000000E+000
  0.000000000000000E+000
  0.000000000000000E+000
  0.000000000000000E+000
  0.000000000000000E+000
  0.000000000000000E+000
  0.000000000000000E+000
  0.000000000000000E+000
  0.000000000000000E+000
  0.000000000000000E+000
  0.000000000000000E+000
  0.000000000000000E+000
  0.000000000000000E+000
  0.000000000000000E+000
  0.000000000000000E+000
  0.000000000000000E+000
  0.000000000000000E+000
  0.000000000000000E+000
  0.000000000000000E+000
  0.000000000000000E+000
  0.000000000000000E+000
  0.000000000000000E+000
  0.000000000000000E+000
  0.000000000000000E+000
  0.000000000000000E+000
  0.000000000000000E+000
  0.000000000000000E+000
  0.000000000000000E+000
  0.000000000000000E+000
  0.000000000000000E+000
  0.000000000000000E+000
  0.000000000000000E+000
  0.000000000000000E+000
  0.000000000000000E+000
  0.000000000000000E+000
  0.000000000000000E+000
  0.000000000000000E+000
  0.000000000000000E+000
  0.000000000000000E+000
  0.000000000000000E+000
  0.000000000000000E+000
  0.000000000000000E+000
  0.000000000000000E+000
  0.000000000000000E+000
  0.000000000000000E+000
  0.000000000000000E+000
  0.000000000000000E+000
  0.000000000000000E+000
  0.000000000000000E+000
  0.000000000000000E+000
  0.000000000000000E+000
  0.000000000000000E+000
  0.000000000000000E+000
  0.000000000000000E+000
  0.000000000000000E+000
  0.000000000000000E+000
  0.000000000000000E+000
  0.000000000000000E+000
  0.000000000000000E+000
  0.000000000000000E+000
  0.000000000000000E+000
  0.000000000000000E+000
  0.000000000000000E+000
  0.000000000000000E+000
  0.000000000000000E+000
  0.000000000000000E+000
  0.000000000000000E+000
  0.000000000000000E+000
  0.000000000000000E+000
  0.000000000000000E+000
  0.000000000000000E+000
  0.000000000000000E+000
  0.000000000000000E+000
  0.000000000000000E+000
  0.000000000000000E+000
  0.000000000000000E+000
  0.000000000000000E+000
  0.000000000000000E+000
  0.000000000000000E+000
  0.000000000000000E+000
  0.000000000000000E+000
  0.000000000000000E+000
  0.000000000000000E+000
  0.000000000000000E+000
  0.000000000000000E+000
  0.000000000000000E+000
  0.000000000000000E+000
  0.000000000000000E+000
  0.000000000000000E+000
  0.000000000000000E+000
  0.000000000000000E+000
  0.000000000000000E+000
  0.000000000000000E+000
  0.000000000000000E+000
  0.000000000000000E+000
  0.000000000000000E+000
  0.000000000000000E+000
  0.000000000000000E+000
  0.000000000000000E+000
  0.000000000000000E+000
  0.000000000000000E+000
  0.000000000000000E+000
  0.000000000000000E+000
  0.000000000000000E+000
  0.000000000000000E+000
  0.000000000000000E+000
  0.000000000000000E+000
  0.000000000000000E+000
  0.000000000000000E+000
  0.000000000000000E+000
  0.000000000000000E+000
  0.000000000000000E+000
  0.000000000000000E+000
  0.000000000000000E+000
  0.000000000000000E+000
  0.000000000000000E+000
  0.000000000000000E+000
  0.000000000000000E+000
  0.000000000000000E+000
  0.000000000000000E+000
  0.000000000000000E+000
  0.000000000000000E+000
  0.000000000000000E+000
  0.000000000000000E+000
  0.000000000000000E+000
  0.000000000000000E+000
  0.000000000000000E+000
  0.000000000000000E+000
  0.000000000000000E+000
  0.000000000000000E+000
  0.000000000000000E+000
  0.000000000000000E+000
  0.000000000000000E+000
  0.000000000000000E+000
  0.000000000000000E+000
  0.000000000000000E+000
  0.000000000000000E+000
  0.000000000000000E+000
  0.000000000000000E+000
  0.000000000000000E+000
  0.000000000000000E+000
  0.000000000000000E+000
  0.000000000000000E+000
  0.000000000000000E+000
  0.000000000000000E+000
  0.000000000000000E+000
  0.000000000000000E+000
  0.000000000000000E+000
  0.000000000000000E+000
  0.000000000000000E+000
  0.000000000000000E+000
  0.000000000000000E+000
  0.000000000000000E+000
  0.000000000000000E+000
  0.000000000000000E+000
  0.000000000000000E+000
  0.000000000000000E+000
  0.000000000000000E+000
  0.000000000000000E+000
  0.000000000000000E+000
  0.000000000000000E+000
  0.000000000000000E+000
  0.000000000000000E+000
  0.000000000000000E+000
  0.000000000000000E+000
  0.000000000000000E+000
  0.000000000000000E+000
  0.000000000000000E+000
  0.000000000000000E+000
  0.000000000000000E+000
  0.000000000000000E+000
  0.000000000000000E+000
  0.000000000000000E+000
  0.000000000000000E+000
  0.000000000000000E+000
  0.000000000000000E+000
  0.000000000000000E+000
  0.000000000000000E+000
  0.000000000000000E+000
  0.000000000000000E+000
  0.000000000000000E+000
  0.000000000000000E+000
  0.000000000000000E+000
  0.000000000000000E+000
  0.000000000000000E+000
  0.000000000000000E+000
  0.000000000000000E+000
  0.000000000000000E+000
  0.000000000000000E+000
  0.000000000000000E+000
  0.000000000000000E+000
  0.000000000000000E+000
  0.000000000000000E+000
  0.000000000000000E+000
  0.000000000000000E+000
  0.000000000000000E+000
  0.000000000000000E+000
  0.000000000000000E+000
  0.000000000000000E+000
  0.000000000000000E+000
  0.000000000000000E+000
  0.000000000000000E+000
  0.000000000000000E+000
  0.000000000000000E+000
  0.000000000000000E+000
  0.000000000000000E+000
  0.000000000000000E+000
  0.000000000000000E+000
  0.000000000000000E+000
  0.000000000000000E+000
  0.000000000000000E+000
  0.000000000000000E+000
  0.000000000000000E+000
  0.000000000000000E+000
  0.000000000000000E+000
  0.000000000000000E+000
  0.000000000000000E+000
  0.000000000000000E+000
  0.000000000000000E+000
  0.000000000000000E+000
  0.000000000000000E+000
  0.000000000000000E+000
  0.000000000000000E+000
  0.000000000000000E+000
  0.000000000000000E+000
  0.000000000000000E+000
  0.000000000000000E+000
  0.000000000000000E+000
  0.000000000000000E+000
  0.000000000000000E+000
  0.000000000000000E+000
  0.000000000000000E+000
  0.000000000000000E+000
  0.000000000000000E+000
  0.000000000000000E+000
  0.000000000000000E+000
  0.000000000000000E+000
  0.000000000000000E+000
  0.000000000000000E+000
  0.000000000000000E+000
  0.000000000000000E+000
  0.000000000000000E+000
  0.000000000000000E+000
  0.000000000000000E+000
  0.000000000000000E+000
  0.000000000000000E+000
  0.000000000000000E+000
  0.000000000000000E+000
  0.000000000000000E+000
  0.000000000000000E+000
  0.000000000000000E+000
  0.000000000000000E+000
  0.000000000000000E+000
  0.000000000000000E+000
  0.000000000000000E+000
  0.000000000000000E+000
  0.000000000000000E+000
  0.000000000000000E+000
  0.000000000000000E+000
  0.000000000000000E+000
  0.000000000000000E+000
  0.000000000000000E+000
  0.000000000000000E+000
  0.000000000000000E+000
  0.000000000000000E+000
  0.000000000000000E+000
  0.000000000000000E+000
  0.000000000000000E+000
  0.000000000000000E+000
  0.000000000000000E+000
  0.000000000000000E+000
  0.000000000000000E+000
  0.000000000000000E+000
  0.000000000000000E+000
  0.000000000000000E+000
  0.000000000000000E+000
  0.000000000000000E+000
  0.000000000000000E+000
  0.000000000000000E+000
  0.000000000000000E+000
  0.000000000000000E+000
  0.000000000000000E+000
  0.000000000000000E+000
  0.000000000000000E+000
  0.000000000000000E+000
  0.000000000000000E+000
  0.000000000000000E+000
  0.000000000000000E+000
  0.000000000000000E+000
  0.000000000000000E+000
  0.000000000000000E+000
  0.000000000000000E+000
  0.000000000000000E+000
  0.000000000000000E+000
  0.000000000000000E+000
  0.000000000000000E+000
  0.000000000000000E+000
  0.000000000000000E+000
  0.000000000000000E+000
  0.000000000000000E+000
  0.000000000000000E+000
  0.000000000000000E+000
  0.000000000000000E+000
  0.000000000000000E+000
  0.000000000000000E+000
  0.000000000000000E+000
  0.000000000000000E+000
  0.000000000000000E+000
  0.000000000000000E+000
  0.000000000000000E+000
  0.000000000000000E+000
  0.000000000000000E+000
  0.000000000000000E+000
  0.000000000000000E+000
  0.000000000000000E+000
  0.000000000000000E+000
  0.000000000000000E+000
  0.000000000000000E+000
  0.000000000000000E+000
  0.000000000000000E+000
  0.000000000000000E+000
  0.000000000000000E+000
  0.000000000000000E+000
  0.000000000000000E+000
  0.000000000000000E+000
  0.000000000000000E+000
  0.000000000000000E+000
  0.000000000000000E+000
  0.000000000000000E+000
  0.000000000000000E+000
  0.000000000000000E+000
  0.000000000000000E+000
  0.000000000000000E+000
  0.000000000000000E+000
  0.000000000000000E+000
  0.000000000000000E+000
  0.000000000000000E+000
  0.000000000000000E+000
  0.000000000000000E+000
  0.000000000000000E+000
  0.000000000000000E+000
  0.000000000000000E+000
  0.000000000000000E+000
  0.000000000000000E+000
  0.000000000000000E+000
  0.000000000000000E+000
  0.000000000000000E+000
  0.000000000000000E+000
  0.000000000000000E+000
  0.000000000000000E+000
  0.000000000000000E+000
  0.000000000000000E+000
  0.000000000000000E+000
  0.000000000000000E+000
  0.000000000000000E+000
  0.000000000000000E+000
  0.000000000000000E+000
  0.000000000000000E+000
  0.000000000000000E+000
  0.000000000000000E+000
  0.000000000000000E+000
  0.000000000000000E+000
  0.000000000000000E+000
  0.000000000000000E+000
  0.000000000000000E+000
  0.000000000000000E+000
  0.000000000000000E+000
  0.000000000000000E+000
  0.000000000000000E+000
  0.000000000000000E+000
  0.000000000000000E+000
  0.000000000000000E+000
  0.000000000000000E+000
  0.000000000000000E+000
  0.000000000000000E+000
  0.000000000000000E+000
  0.000000000000000E+000
  0.000000000000000E+000
  0.000000000000000E+000
  0.000000000000000E+000
  0.000000000000000E+000
  0.000000000000000E+000
  0.000000000000000E+000
  0.000000000000000E+000
  0.000000000000000E+000
  0.000000000000000E+000
  0.000000000000000E+000
  0.000000000000000E+000
  0.000000000000000E+000
  0.000000000000000E+000
  0.000000000000000E+000
  0.000000000000000E+000
  0.000000000000000E+000
  0.000000000000000E+000
  0.000000000000000E+000
  0.000000000000000E+000
  0.000000000000000E+000
  0.000000000000000E+000
  0.000000000000000E+000
  0.000000000000000E+000
  0.000000000000000E+000
  0.000000000000000E+000
  0.000000000000000E+000
  0.000000000000000E+000
  0.000000000000000E+000
  0.000000000000000E+000
  0.000000000000000E+000
  0.000000000000000E+000
  0.000000000000000E+000
  0.000000000000000E+000
  0.000000000000000E+000
  0.000000000000000E+000
  0.000000000000000E+000
  0.000000000000000E+000
  0.000000000000000E+000
  0.000000000000000E+000
  0.000000000000000E+000
  0.000000000000000E+000
  0.000000000000000E+000
  0.000000000000000E+000
  0.000000000000000E+000
  0.000000000000000E+000
  0.000000000000000E+000
  0.000000000000000E+000
  0.000000000000000E+000
  0.000000000000000E+000
  0.000000000000000E+000
  0.000000000000000E+000
  0.000000000000000E+000
  0.000000000000000E+000
  0.000000000000000E+000
  0.000000000000000E+000
  0.000000000000000E+000
  0.000000000000000E+000
  0.000000000000000E+000
  0.000000000000000E+000
  0.000000000000000E+000
  0.000000000000000E+000
  0.000000000000000E+000
  0.000000000000000E+000
  0.000000000000000E+000
  0.000000000000000E+000
  0.000000000000000E+000
  0.000000000000000E+000
  0.000000000000000E+000
  0.000000000000000E+000
  0.000000000000000E+000
  0.000000000000000E+000
  0.000000000000000E+000
  0.000000000000000E+000
  0.000000000000000E+000
  0.000000000000000E+000
  0.000000000000000E+000
  0.000000000000000E+000
  0.000000000000000E+000
  0.000000000000000E+000
  0.000000000000000E+000
  0.000000000000000E+000
  0.000000000000000E+000
  0.000000000000000E+000
  0.000000000000000E+000
  0.000000000000000E+000
  0.000000000000000E+000
  0.000000000000000E+000
  0.000000000000000E+000
  0.000000000000000E+000
  0.000000000000000E+000
  0.000000000000000E+000
  0.000000000000000E+000
  0.000000000000000E+000
  0.000000000000000E+000
  0.000000000000000E+000
  0.000000000000000E+000
  0.000000000000000E+000
  0.000000000000000E+000
  0.000000000000000E+000
  0.000000000000000E+000
  0.000000000000000E+000
  0.000000000000000E+000
  0.000000000000000E+000
  0.000000000000000E+000
  0.000000000000000E+000
  0.000000000000000E+000
  0.000000000000000E+000
  0.000000000000000E+000
  0.000000000000000E+000
  0.000000000000000E+000
  0.000000000000000E+000
  0.000000000000000E+000
  0.000000000000000E+000
  0.000000000000000E+000
  0.000000000000000E+000
  0.000000000000000E+000
  0.000000000000000E+000
  0.000000000000000E+000
  0.000000000000000E+000
  0.000000000000000E+000
  0.000000000000000E+000
  0.000000000000000E+000
  0.000000000000000E+000
  0.000000000000000E+000
  0.000000000000000E+000
  0.000000000000000E+000
  0.000000000000000E+000
  0.000000000000000E+000
  0.000000000000000E+000
  0.000000000000000E+000
  0.000000000000000E+000
  0.000000000000000E+000
  0.000000000000000E+000
  0.000000000000000E+000
  0.000000000000000E+000
  0.000000000000000E+000
  0.000000000000000E+000
  0.000000000000000E+000
  0.000000000000000E+000
  0.000000000000000E+000
  0.000000000000000E+000
  0.000000000000000E+000
  0.000000000000000E+000
  0.000000000000000E+000
  0.000000000000000E+000
  0.000000000000000E+000
  0.000000000000000E+000
  0.000000000000000E+000
  0.000000000000000E+000
  0.000000000000000E+000
  0.000000000000000E+000
  0.000000000000000E+000
  0.000000000000000E+000
  0.000000000000000E+000
  0.000000000000000E+000
  0.000000000000000E+000
  0.000000000000000E+000
  0.000000000000000E+000
  0.000000000000000E+000
  0.000000000000000E+000
  0.000000000000000E+000
  0.000000000000000E+000
  0.000000000000000E+000
  0.000000000000000E+000
  0.000000000000000E+000
  0.000000000000000E+000
  0.000000000000000E+000
  0.000000000000000E+000
  0.000000000000000E+000
  0.000000000000000E+000
  0.000000000000000E+000
  0.000000000000000E+000
  0.000000000000000E+000
  0.000000000000000E+000
  0.000000000000000E+000
  0.000000000000000E+000
  0.000000000000000E+000
  0.000000000000000E+000
  0.000000000000000E+000
  0.000000000000000E+000
  0.000000000000000E+000
  0.000000000000000E+000
  0.000000000000000E+000
  0.000000000000000E+000
  0.000000000000000E+000
  0.000000000000000E+000
  0.000000000000000E+000
  0.000000000000000E+000
  0.000000000000000E+000
  0.000000000000000E+000
  0.000000000000000E+000
  0.000000000000000E+000
  0.000000000000000E+000
  0.000000000000000E+000
  0.000000000000000E+000
  0.000000000000000E+000
  0.000000000000000E+000
  0.000000000000000E+000
  0.000000000000000E+000
  0.000000000000000E+000
  0.000000000000000E+000
  0.000000000000000E+000
  0.000000000000000E+000
  0.000000000000000E+000
  0.000000000000000E+000
  0.000000000000000E+000
  0.000000000000000E+000
  0.000000000000000E+000
  0.000000000000000E+000
  0.000000000000000E+000
  0.000000000000000E+000
  0.000000000000000E+000
  0.000000000000000E+000
  0.000000000000000E+000
  0.000000000000000E+000
  0.000000000000000E+000
  0.000000000000000E+000
  0.000000000000000E+000
  0.000000000000000E+000
  0.000000000000000E+000
  0.000000000000000E+000
  0.000000000000000E+000
  0.000000000000000E+000
  0.000000000000000E+000
  0.000000000000000E+000
  0.000000000000000E+000
  0.000000000000000E+000
  0.000000000000000E+000
  0.000000000000000E+000
  0.000000000000000E+000
  0.000000000000000E+000
  0.000000000000000E+000
  0.000000000000000E+000
  0.000000000000000E+000
  0.000000000000000E+000
  0.000000000000000E+000
  0.000000000000000E+000
  0.000000000000000E+000
  0.000000000000000E+000
  0.000000000000000E+000
  0.000000000000000E+000
  0.000000000000000E+000
  0.000000000000000E+000
  0.000000000000000E+000
  0.000000000000000E+000
  0.000000000000000E+000
  0.000000000000000E+000
  0.000000000000000E+000
  0.000000000000000E+000
  0.000000000000000E+000
  0.000000000000000E+000
  0.000000000000000E+000
  0.000000000000000E+000
  0.000000000000000E+000
  0.000000000000000E+000
  0.000000000000000E+000
  0.000000000000000E+000
  0.000000000000000E+000
  0.000000000000000E+000
  0.000000000000000E+000
  0.000000000000000E+000
  0.000000000000000E+000
  0.000000000000000E+000
  0.000000000000000E+000
  0.000000000000000E+000
  0.000000000000000E+000
  0.000000000000000E+000
  0.000000000000000E+000
  0.000000000000000E+000
  0.000000000000000E+000
  0.000000000000000E+000
  0.000000000000000E+000
  0.000000000000000E+000
  0.000000000000000E+000
  0.000000000000000E+000
  0.000000000000000E+000
  0.000000000000000E+000
  0.000000000000000E+000
  0.000000000000000E+000
  0.000000000000000E+000
  0.000000000000000E+000
  0.000000000000000E+000
  0.000000000000000E+000
  0.000000000000000E+000
  0.000000000000000E+000
  0.000000000000000E+000
  0.000000000000000E+000
  0.000000000000000E+000
  0.000000000000000E+000
  0.000000000000000E+000
  0.000000000000000E+000
  0.000000000000000E+000
  0.000000000000000E+000
  0.000000000000000E+000
  0.000000000000000E+000
  0.000000000000000E+000
  0.000000000000000E+000
  0.000000000000000E+000
  0.000000000000000E+000
  0.000000000000000E+000
  0.000000000000000E+000
  0.000000000000000E+000
  0.000000000000000E+000
  0.000000000000000E+000
  0.000000000000000E+000
  0.000000000000000E+000
  0.000000000000000E+000
  0.000000000000000E+000
  0.000000000000000E+000
  0.000000000000000E+000
  0.000000000000000E+000
  0.000000000000000E+000
  0.000000000000000E+000
  0.000000000000000E+000
  0.000000000000000E+000
  0.000000000000000E+000
  0.000000000000000E+000
  0.000000000000000E+000
  0.000000000000000E+000
  0.000000000000000E+000
  0.000000000000000E+000
  0.000000000000000E+000
  0.000000000000000E+000
  0.000000000000000E+000
  0.000000000000000E+000
  0.000000000000000E+000
  0.000000000000000E+000
  0.000000000000000E+000
  0.000000000000000E+000
  0.000000000000000E+000
  0.000000000000000E+000
  0.000000000000000E+000
  0.000000000000000E+000
  0.000000000000000E+000
  0.000000000000000E+000
  0.000000000000000E+000
  0.000000000000000E+000
  0.000000000000000E+000
  0.000000000000000E+000
  0.000000000000000E+000
  0.000000000000000E+000
  0.000000000000000E+000
  0.000000000000000E+000
  0.000000000000000E+000
  0.000000000000000E+000
  0.000000000000000E+000
  0.000000000000000E+000
  0.000000000000000E+000
  0.000000000000000E+000
  0.000000000000000E+000
  0.000000000000000E+000
  0.000000000000000E+000
  0.000000000000000E+000
  0.000000000000000E+000
  0.000000000000000E+000
  0.000000000000000E+000
  0.000000000000000E+000
  0.000000000000000E+000
  0.000000000000000E+000
  0.000000000000000E+000
  0.000000000000000E+000
  0.000000000000000E+000
  0.000000000000000E+000
  0.000000000000000E+000
  0.000000000000000E+000
  0.000000000000000E+000
  0.000000000000000E+000
  0.000000000000000E+000
  0.000000000000000E+000
  0.000000000000000E+000
  0.000000000000000E+000
  0.000000000000000E+000
  0.000000000000000E+000
  0.000000000000000E+000
  0.000000000000000E+000
  0.000000000000000E+000
  0.000000000000000E+000
  0.000000000000000E+000
  0.000000000000000E+000
  0.000000000000000E+000
  0.000000000000000E+000
  0.000000000000000E+000
  0.000000000000000E+000
  0.000000000000000E+000
  0.000000000000000E+000
  0.000000000000000E+000
  0.000000000000000E+000
  0.000000000000000E+000
  0.000000000000000E+000
  0.000000000000000E+000
  0.000000000000000E+000
  0.000000000000000E+000
  0.000000000000000E+000
  0.000000000000000E+000
  0.000000000000000E+000
  0.000000000000000E+000
  0.000000000000000E+000
  0.000000000000000E+000
  0.000000000000000E+000
  0.000000000000000E+000
  0.000000000000000E+000
  0.000000000000000E+000
  0.000000000000000E+000
  0.000000000000000E+000
  0.000000000000000E+000
  0.000000000000000E+000
  0.000000000000000E+000
  0.000000000000000E+000
  0.000000000000000E+000
  0.000000000000000E+000
  0.000000000000000E+000
  0.000000000000000E+000
  0.000000000000000E+000
  0.000000000000000E+000
  0.000000000000000E+000
  0.000000000000000E+000
  0.000000000000000E+000
  0.000000000000000E+000
  0.000000000000000E+000
  0.000000000000000E+000
  0.000000000000000E+000
  0.000000000000000E+000
  0.000000000000000E+000
  0.000000000000000E+000
  0.000000000000000E+000
  0.000000000000000E+000
  0.000000000000000E+000
  0.000000000000000E+000
  0.000000000000000E+000
  0.000000000000000E+000
  0.000000000000000E+000
  0.000000000000000E+000
  0.000000000000000E+000
  0.000000000000000E+000
  0.000000000000000E+000
  0.000000000000000E+000
  0.000000000000000E+000
  0.000000000000000E+000
  0.000000000000000E+000
  0.000000000000000E+000
  0.000000000000000E+000
  0.000000000000000E+000
  0.000000000000000E+000
  0.000000000000000E+000
  0.000000000000000E+000
  0.000000000000000E+000
  0.000000000000000E+000
  0.000000000000000E+000
  0.000000000000000E+000
  0.000000000000000E+000
  0.000000000000000E+000
  0.000000000000000E+000
  0.000000000000000E+000
  0.000000000000000E+000
  0.000000000000000E+000
  0.000000000000000E+000
  0.000000000000000E+000
  0.000000000000000E+000
  0.000000000000000E+000
  0.000000000000000E+000
  0.000000000000000E+000
  0.000000000000000E+000
  0.000000000000000E+000
  0.000000000000000E+000
  0.000000000000000E+000
  0.000000000000000E+000
  0.000000000000000E+000
  0.000000000000000E+000
  0.000000000000000E+000
  0.000000000000000E+000
  0.000000000000000E+000
  0.000000000000000E+000
  0.000000000000000E+000
  0.000000000000000E+000
  0.000000000000000E+000
  0.000000000000000E+000
  0.000000000000000E+000
  0.000000000000000E+000
  0.000000000000000E+000
  0.000000000000000E+000
  0.000000000000000E+000
  0.000000000000000E+000
  0.000000000000000E+000
  0.000000000000000E+000
  0.000000000000000E+000
  0.000000000000000E+000
  0.000000000000000E+000
  0.000000000000000E+000
  0.000000000000000E+000
  0.000000000000000E+000
  0.000000000000000E+000
  0.000000000000000E+000
  0.000000000000000E+000
  0.000000000000000E+000
  0.000000000000000E+000
  0.000000000000000E+000
  0.000000000000000E+000
  0.000000000000000E+000
  0.000000000000000E+000
  0.000000000000000E+000
  0.000000000000000E+000
  0.000000000000000E+000
  0.000000000000000E+000
  0.000000000000000E+000
  0.000000000000000E+000
  0.000000000000000E+000
  0.000000000000000E+000
  0.000000000000000E+000
  0.000000000000000E+000
  0.000000000000000E+000
  0.000000000000000E+000
  0.000000000000000E+000
  0.000000000000000E+000
  0.000000000000000E+000
  0.000000000000000E+000
  0.000000000000000E+000
  0.000000000000000E+000
  0.000000000000000E+000
  0.000000000000000E+000
  0.000000000000000E+000
  0.000000000000000E+000
  0.000000000000000E+000
  0.000000000000000E+000
  0.000000000000000E+000
  0.000000000000000E+000
  0.000000000000000E+000
  0.000000000000000E+000
  0.000000000000000E+000
  0.000000000000000E+000
  0.000000000000000E+000
  0.000000000000000E+000
  0.000000000000000E+000
  0.000000000000000E+000
  0.000000000000000E+000
  0.000000000000000E+000
  0.000000000000000E+000
  0.000000000000000E+000
  0.000000000000000E+000
  0.000000000000000E+000
  0.000000000000000E+000
  0.000000000000000E+000
  0.000000000000000E+000
  0.000000000000000E+000
  0.000000000000000E+000
  0.000000000000000E+000
  0.000000000000000E+000
  0.000000000000000E+000
  0.000000000000000E+000
  0.000000000000000E+000
  0.000000000000000E+000
  0.000000000000000E+000
  0.000000000000000E+000
  0.000000000000000E+000
  0.000000000000000E+000
  0.000000000000000E+000
  0.000000000000000E+000
  0.000000000000000E+000
  0.000000000000000E+000
  0.000000000000000E+000
  0.000000000000000E+000
  0.000000000000000E+000
  0.000000000000000E+000
  0.000000000000000E+000
  0.000000000000000E+000
  0.000000000000000E+000
  0.000000000000000E+000
  0.000000000000000E+000
  0.000000000000000E+000
  0.000000000000000E+000
  0.000000000000000E+000
  0.000000000000000E+000
  0.000000000000000E+000
  0.000000000000000E+000
  0.000000000000000E+000
  0.000000000000000E+000
  0.000000000000000E+000
  0.000000000000000E+000
  0.000000000000000E+000
  0.000000000000000E+000
  0.000000000000000E+000
  0.000000000000000E+000
  0.000000000000000E+000
  0.000000000000000E+000
  0.000000000000000E+000
  0.000000000000000E+000
  0.000000000000000E+000
  0.000000000000000E+000
  0.000000000000000E+000
  0.000000000000000E+000
  0.000000000000000E+000
  0.000000000000000E+000
  0.000000000000000E+000
  0.000000000000000E+000
  0.000000000000000E+000
  0.000000000000000E+000
  0.000000000000000E+000
  0.000000000000000E+000
  0.000000000000000E+000
  0.000000000000000E+000
  0.000000000000000E+000
  0.000000000000000E+000
  0.000000000000000E+000
  0.000000000000000E+000
  0.000000000000000E+000
  0.000000000000000E+000
  0.000000000000000E+000
  0.000000000000000E+000
  0.000000000000000E+000
  0.000000000000000E+000
  0.000000000000000E+000
  0.000000000000000E+000
  0.000000000000000E+000
  0.000000000000000E+000
  0.000000000000000E+000
  0.000000000000000E+000
  0.000000000000000E+000
  0.000000000000000E+000
  0.000000000000000E+000
  0.000000000000000E+000
  0.000000000000000E+000
  0.000000000000000E+000
  0.000000000000000E+000
  0.000000000000000E+000
  0.000000000000000E+000
  0.000000000000000E+000
  0.000000000000000E+000
  0.000000000000000E+000
  0.000000000000000E+000
  0.000000000000000E+000
  0.000000000000000E+000
  0.000000000000000E+000
  0.000000000000000E+000
  0.000000000000000E+000
  0.000000000000000E+000
  0.000000000000000E+000
  0.000000000000000E+000
  0.000000000000000E+000
  0.000000000000000E+000
  0.000000000000000E+000
  0.000000000000000E+000
  0.000000000000000E+000
  0.000000000000000E+000
  0.000000000000000E+000
  0.000000000000000E+000
  0.000000000000000E+000
  0.000000000000000E+000
  0.000000000000000E+000
  0.000000000000000E+000
  0.000000000000000E+000
  0.000000000000000E+000
  0.000000000000000E+000
  0.000000000000000E+000
  0.000000000000000E+000
  0.000000000000000E+000
  0.000000000000000E+000
  0.000000000000000E+000
  0.000000000000000E+000
  0.000000000000000E+000
  0.000000000000000E+000
  0.000000000000000E+000
  0.000000000000000E+000
  0.000000000000000E+000
  0.000000000000000E+000
  0.000000000000000E+000
  0.000000000000000E+000
  0.000000000000000E+000
  0.000000000000000E+000
  0.000000000000000E+000
  0.000000000000000E+000
  0.000000000000000E+000
  0.000000000000000E+000
  0.000000000000000E+000
  0.000000000000000E+000
  0.000000000000000E+000
  0.000000000000000E+000
  0.000000000000000E+000
  0.000000000000000E+000
  0.000000000000000E+000
  0.000000000000000E+000
  0.000000000000000E+000
  0.000000000000000E+000
  0.000000000000000E+000
  0.000000000000000E+000
  0.000000000000000E+000
  0.000000000000000E+000
  0.000000000000000E+000
  0.000000000000000E+000
  0.000000000000000E+000
  0.000000000000000E+000
  0.000000000000000E+000
  0.000000000000000E+000
  0.000000000000000E+000
  0.000000000000000E+000
  0.000000000000000E+000
  0.000000000000000E+000
  0.000000000000000E+000
  0.000000000000000E+000
  0.000000000000000E+000
  0.000000000000000E+000
  0.000000000000000E+000
  0.000000000000000E+000
  0.000000000000000E+000
  0.000000000000000E+000
  0.000000000000000E+000
  0.000000000000000E+000
  0.000000000000000E+000
  0.000000000000000E+000
  0.000000000000000E+000
  0.000000000000000E+000
  0.000000000000000E+000
  0.000000000000000E+000
  0.000000000000000E+000
  0.000000000000000E+000
  0.000000000000000E+000
  0.000000000000000E+000
  0.000000000000000E+000
  0.000000000000000E+000
  0.000000000000000E+000
  0.000000000000000E+000
  0.000000000000000E+000
  0.000000000000000E+000
  0.000000000000000E+000
  0.000000000000000E+000
  0.000000000000000E+000
  0.000000000000000E+000
  0.000000000000000E+000
  0.000000000000000E+000
  0.000000000000000E+000
  0.000000000000000E+000
  0.000000000000000E+000
  0.000000000000000E+000
  0.000000000000000E+000
  0.000000000000000E+000
  0.000000000000000E+000
  0.000000000000000E+000
  0.000000000000000E+000
  0.000000000000000E+000
  0.000000000000000E+000
  0.000000000000000E+000
  0.000000000000000E+000
  0.000000000000000E+000
  0.000000000000000E+000
  0.000000000000000E+000
  0.000000000000000E+000
  0.000000000000000E+000
  0.000000000000000E+000
  0.000000000000000E+000
  0.000000000000000E+000
  0.000000000000000E+000
  0.000000000000000E+000
  0.000000000000000E+000
  0.000000000000000E+000
  0.000000000000000E+000
  0.000000000000000E+000
  0.000000000000000E+000
  0.000000000000000E+000
  0.000000000000000E+000
  0.000000000000000E+000
  0.000000000000000E+000
  0.000000000000000E+000
  0.000000000000000E+000
  0.000000000000000E+000
  0.000000000000000E+000
  0.000000000000000E+000
  0.000000000000000E+000
  0.000000000000000E+000
  0.000000000000000E+000
  0.000000000000000E+000
  0.000000000000000E+000
  0.000000000000000E+000
  0.000000000000000E+000
  0.000000000000000E+000
  0.000000000000000E+000
  0.000000000000000E+000
  0.000000000000000E+000
  0.000000000000000E+000
  0.000000000000000E+000
  0.000000000000000E+000
  0.000000000000000E+000
  0.000000000000000E+000
  0.000000000000000E+000
  0.000000000000000E+000
  0.000000000000000E+000
  0.000000000000000E+000
  0.000000000000000E+000
  0.000000000000000E+000
  0.000000000000000E+000
  0.000000000000000E+000
  0.000000000000000E+000
  0.000000000000000E+000
  0.000000000000000E+000
  0.000000000000000E+000
  0.000000000000000E+000
  0.000000000000000E+000
  0.000000000000000E+000
  0.000000000000000E+000
  0.000000000000000E+000
  0.000000000000000E+000
  0.000000000000000E+000
  0.000000000000000E+000
  0.000000000000000E+000
  0.000000000000000E+000
  0.000000000000000E+000
  0.000000000000000E+000
  0.000000000000000E+000
  0.000000000000000E+000
  0.000000000000000E+000
  0.000000000000000E+000
  0.000000000000000E+000
  0.000000000000000E+000
  0.000000000000000E+000
  0.000000000000000E+000
  0.000000000000000E+000
  0.000000000000000E+000
  0.000000000000000E+000
  0.000000000000000E+000
  0.000000000000000E+000
  0.000000000000000E+000
  0.000000000000000E+000
  0.000000000000000E+000
  0.000000000000000E+000
  0.000000000000000E+000
  0.000000000000000E+000
  0.000000000000000E+000
  0.000000000000000E+000
  0.000000000000000E+000
  0.000000000000000E+000
  0.000000000000000E+000
  0.000000000000000E+000
  0.000000000000000E+000
  0.000000000000000E+000
  0.000000000000000E+000
  0.000000000000000E+000
  0.000000000000000E+000
  0.000000000000000E+000
  0.000000000000000E+000
  0.000000000000000E+000
  0.000000000000000E+000
  0.000000000000000E+000
  0.000000000000000E+000
  0.000000000000000E+000
  0.000000000000000E+000
  0.000000000000000E+000
  0.000000000000000E+000
  0.000000000000000E+000
  0.000000000000000E+000
  0.000000000000000E+000
  0.000000000000000E+000
  0.000000000000000E+000
  0.000000000000000E+000
  0.000000000000000E+000
  0.000000000000000E+000
  0.000000000000000E+000
  0.000000000000000E+000
  0.000000000000000E+000
  0.000000000000000E+000
  0.000000000000000E+000
  0.000000000000000E+000
  0.000000000000000E+000
  0.000000000000000E+000
  0.000000000000000E+000
  0.000000000000000E+000
  0.000000000000000E+000
  0.000000000000000E+000
  0.000000000000000E+000
  0.000000000000000E+000
  0.000000000000000E+000
  0.000000000000000E+000
  0.000000000000000E+000
  0.000000000000000E+000
  0.000000000000000E+000
  0.000000000000000E+000
  0.000000000000000E+000
  0.000000000000000E+000
  0.000000000000000E+000
  0.000000000000000E+000
  0.000000000000000E+000
  0.000000000000000E+000
  0.000000000000000E+000
  0.000000000000000E+000
  0.000000000000000E+000
  0.000000000000000E+000
  0.000000000000000E+000
  0.000000000000000E+000
  0.000000000000000E+000
  0.000000000000000E+000
  0.000000000000000E+000
  0.000000000000000E+000
  0.000000000000000E+000
  0.000000000000000E+000
  0.000000000000000E+000
  0.000000000000000E+000
  0.000000000000000E+000
  0.000000000000000E+000
  0.000000000000000E+000
  0.000000000000000E+000
  0.000000000000000E+000
  0.000000000000000E+000
  0.000000000000000E+000
  0.000000000000000E+000
  0.000000000000000E+000
  0.000000000000000E+000
  0.000000000000000E+000
  0.000000000000000E+000
  0.000000000000000E+000
  0.000000000000000E+000
  0.000000000000000E+000
  0.000000000000000E+000
  0.000000000000000E+000
  0.000000000000000E+000
  0.000000000000000E+000
  0.000000000000000E+000
  0.000000000000000E+000
  0.000000000000000E+000
  0.000000000000000E+000
  0.000000000000000E+000
  0.000000000000000E+000
  0.000000000000000E+000
  0.000000000000000E+000
  0.000000000000000E+000
  0.000000000000000E+000
  0.000000000000000E+000
  0.000000000000000E+000
  0.000000000000000E+000
  0.000000000000000E+000
  0.000000000000000E+000
  0.000000000000000E+000
  0.000000000000000E+000
  0.000000000000000E+000
  0.000000000000000E+000
  0.000000000000000E+000
  0.000000000000000E+000
  0.000000000000000E+000
  0.000000000000000E+000
  0.000000000000000E+000
  0.000000000000000E+000
  0.000000000000000E+000
  0.000000000000000E+000
  0.000000000000000E+000
  0.000000000000000E+000
  0.000000000000000E+000
  0.000000000000000E+000
  0.000000000000000E+000
  0.000000000000000E+000
  0.000000000000000E+000
  0.000000000000000E+000
  0.000000000000000E+000
  0.000000000000000E+000
  0.000000000000000E+000
  0.000000000000000E+000
  0.000000000000000E+000
  0.000000000000000E+000
  0.000000000000000E+000
  0.000000000000000E+000
  0.000000000000000E+000
  0.000000000000000E+000
  0.000000000000000E+000
  0.000000000000000E+000
  0.000000000000000E+000
  0.000000000000000E+000
  0.000000000000000E+000
  0.000000000000000E+000
  0.000000000000000E+000
  0.000000000000000E+000
  0.000000000000000E+000
  0.000000000000000E+000
  0.000000000000000E+000
  0.000000000000000E+000
  0.000000000000000E+000
  0.000000000000000E+000
  0.000000000000000E+000
  0.000000000000000E+000
  0.000000000000000E+000
  0.000000000000000E+000
  0.000000000000000E+000
  0.000000000000000E+000
  0.000000000000000E+000
  0.000000000000000E+000
  0.000000000000000E+000
  0.000000000000000E+000
  0.000000000000000E+000
  0.000000000000000E+000
  0.000000000000000E+000
  0.000000000000000E+000
  0.000000000000000E+000
  0.000000000000000E+000
  0.000000000000000E+000
  0.000000000000000E+000
  0.000000000000000E+000
  0.000000000000000E+000
  0.000000000000000E+000
  0.000000000000000E+000
  0.000000000000000E+000
  0.000000000000000E+000
  0.000000000000000E+000
  0.000000000000000E+000
  0.000000000000000E+000
  0.000000000000000E+000
  0.000000000000000E+000
  0.000000000000000E+000
  0.000000000000000E+000
  0.000000000000000E+000
  0.000000000000000E+000
  0.000000000000000E+000
  0.000000000000000E+000
  0.000000000000000E+000
  0.000000000000000E+000
  0.000000000000000E+000
  0.000000000000000E+000
  0.000000000000000E+000
  0.000000000000000E+000
  0.000000000000000E+000
  0.000000000000000E+000
  0.000000000000000E+000
  0.000000000000000E+000
  0.000000000000000E+000
  0.000000000000000E+000
  0.000000000000000E+000
  0.000000000000000E+000
  0.000000000000000E+000
  0.000000000000000E+000
  0.000000000000000E+000
  0.000000000000000E+000
  0.000000000000000E+000
  0.000000000000000E+000
  0.000000000000000E+000
  0.000000000000000E+000
  0.000000000000000E+000
  0.000000000000000E+000
  0.000000000000000E+000
  0.000000000000000E+000
  0.000000000000000E+000
  0.000000000000000E+000
  0.000000000000000E+000
  0.000000000000000E+000
  0.000000000000000E+000
  0.000000000000000E+000
  0.000000000000000E+000
  0.000000000000000E+000
  0.000000000000000E+000
  0.000000000000000E+000
  0.000000000000000E+000
  0.000000000000000E+000
  0.000000000000000E+000
  0.000000000000000E+000
  0.000000000000000E+000
  0.000000000000000E+000
  0.000000000000000E+000
  0.000000000000000E+000
  0.000000000000000E+000
  0.000000000000000E+000
  0.000000000000000E+000
  0.000000000000000E+000
  0.000000000000000E+000
  0.000000000000000E+000
  0.000000000000000E+000
  0.000000000000000E+000
  0.000000000000000E+000
  0.000000000000000E+000
  0.000000000000000E+000
  0.000000000000000E+000
  0.000000000000000E+000
  0.000000000000000E+000
  0.000000000000000E+000
  0.000000000000000E+000
  0.000000000000000E+000
  0.000000000000000E+000
  0.000000000000000E+000
  0.000000000000000E+000
  0.000000000000000E+000
  0.000000000000000E+000
  0.000000000000000E+000
  0.000000000000000E+000
  0.000000000000000E+000
  0.000000000000000E+000
  0.000000000000000E+000
  0.000000000000000E+000
  0.000000000000000E+000
  0.000000000000000E+000
  0.000000000000000E+000
  0.000000000000000E+000
  0.000000000000000E+000
  0.000000000000000E+000
  0.000000000000000E+000
  0.000000000000000E+000
  0.000000000000000E+000
  0.000000000000000E+000
  0.000000000000000E+000
  0.000000000000000E+000
  0.000000000000000E+000
  0.000000000000000E+000
  0.000000000000000E+000
  0.000000000000000E+000
  0.000000000000000E+000
  0.000000000000000E+000
  0.000000000000000E+000
  0.000000000000000E+000
  0.000000000000000E+000
  0.000000000000000E+000
  0.000000000000000E+000
  0.000000000000000E+000
  0.000000000000000E+000
  0.000000000000000E+000
  0.000000000000000E+000
  0.000000000000000E+000
  0.000000000000000E+000
  0.000000000000000E+000
  0.000000000000000E+000
  0.000000000000000E+000
  0.000000000000000E+000
  0.000000000000000E+000
  0.000000000000000E+000
  0.000000000000000E+000
  0.000000000000000E+000
  0.000000000000000E+000
  0.000000000000000E+000
  0.000000000000000E+000
  0.000000000000000E+000
  0.000000000000000E+000
  0.000000000000000E+000
  0.000000000000000E+000
  0.000000000000000E+000
  0.000000000000000E+000
  0.000000000000000E+000
  0.000000000000000E+000
  0.000000000000000E+000
  0.000000000000000E+000
  0.000000000000000E+000
  0.000000000000000E+000
  0.000000000000000E+000
  0.000000000000000E+000
  0.000000000000000E+000
  0.000000000000000E+000
  0.000000000000000E+000
  0.000000000000000E+000
  0.000000000000000E+000
  0.000000000000000E+000
  0.000000000000000E+000
  0.000000000000000E+000
  0.000000000000000E+000
  0.000000000000000E+000
  0.000000000000000E+000
  0.000000000000000E+000
  0.000000000000000E+000
  0.000000000000000E+000
  0.000000000000000E+000
  0.000000000000000E+000
  0.000000000000000E+000
  0.000000000000000E+000
  0.000000000000000E+000
  0.000000000000000E+000
  0.000000000000000E+000
  0.000000000000000E+000
  0.000000000000000E+000
  0.000000000000000E+000
  0.000000000000000E+000
  0.000000000000000E+000
  0.000000000000000E+000
  0.000000000000000E+000
  0.000000000000000E+000
  0.000000000000000E+000
  0.000000000000000E+000
  0.000000000000000E+000
  0.000000000000000E+000
  0.000000000000000E+000
  0.000000000000000E+000
  0.000000000000000E+000
  0.000000000000000E+000
  0.000000000000000E+000
  0.000000000000000E+000
  0.000000000000000E+000
  0.000000000000000E+000
  0.000000000000000E+000
  0.000000000000000E+000
  0.000000000000000E+000
  0.000000000000000E+000
  0.000000000000000E+000
  0.000000000000000E+000
  0.000000000000000E+000
  0.000000000000000E+000
  0.000000000000000E+000
  0.000000000000000E+000
  0.000000000000000E+000
  0.000000000000000E+000
  0.000000000000000E+000
  0.000000000000000E+000
  0.000000000000000E+000
  0.000000000000000E+000
  0.000000000000000E+000
  0.000000000000000E+000
  0.000000000000000E+000
  0.000000000000000E+000
  0.000000000000000E+000
  0.000000000000000E+000
  0.000000000000000E+000
  0.000000000000000E+000
  0.000000000000000E+000
  0.000000000000000E+000
  0.000000000000000E+000
  0.000000000000000E+000
  0.000000000000000E+000
  0.000000000000000E+000
  0.000000000000000E+000
  0.000000000000000E+000
  0.000000000000000E+000
  0.000000000000000E+000
  0.000000000000000E+000
  0.000000000000000E+000
  0.000000000000000E+000
  0.000000000000000E+000
  0.000000000000000E+000
  0.000000000000000E+000
  0.000000000000000E+000
  0.000000000000000E+000
  0.000000000000000E+000
  0.000000000000000E+000
  0.000000000000000E+000
  0.000000000000000E+000
  0.000000000000000E+000
  0.000000000000000E+000
  0.000000000000000E+000
  0.000000000000000E+000
  0.000000000000000E+000
  0.000000000000000E+000
  0.000000000000000E+000
  0.000000000000000E+000
  0.000000000000000E+000
  0.000000000000000E+000
  0.000000000000000E+000
  0.000000000000000E+000
  0.000000000000000E+000
  0.000000000000000E+000
  0.000000000000000E+000
  0.000000000000000E+000
  0.000000000000000E+000
  0.000000000000000E+000
  0.000000000000000E+000
  0.000000000000000E+000
  0.000000000000000E+000
  0.000000000000000E+000
  0.000000000000000E+000
  0.000000000000000E+000
  0.000000000000000E+000
  0.000000000000000E+000
  0.000000000000000E+000
  0.000000000000000E+000
  0.000000000000000E+000
  0.000000000000000E+000
  0.000000000000000E+000
  0.000000000000000E+000
  0.000000000000000E+000
  0.000000000000000E+000
  0.000000000000000E+000
  0.000000000000000E+000
  0.000000000000000E+000
  0.000000000000000E+000
  0.000000000000000E+000
  0.000000000000000E+000
  0.000000000000000E+000
  0.000000000000000E+000
  0.000000000000000E+000
  0.000000000000000E+000
  0.000000000000000E+000
  0.000000000000000E+000
  0.000000000000000E+000
  0.000000000000000E+000
  0.000000000000000E+000
  0.000000000000000E+000
  0.000000000000000E+000
  0.000000000000000E+000
  0.000000000000000E+000
  0.000000000000000E+000
  0.000000000000000E+000
  0.000000000000000E+000
  0.000000000000000E+000
  0.000000000000000E+000
  0.000000000000000E+000
  0.000000000000000E+000
  0.000000000000000E+000
  0.000000000000000E+000
  0.000000000000000E+000
  0.000000000000000E+000
  0.000000000000000E+000
  0.000000000000000E+000
  0.000000000000000E+000
  0.000000000000000E+000
  0.000000000000000E+000
  0.000000000000000E+000
  0.000000000000000E+000
  0.000000000000000E+000
  0.000000000000000E+000
  0.000000000000000E+000
  0.000000000000000E+000
  0.000000000000000E+000
  0.000000000000000E+000
  0.000000000000000E+000
  0.000000000000000E+000
  0.000000000000000E+000
  0.000000000000000E+000
  0.000000000000000E+000
  0.000000000000000E+000
  0.000000000000000E+000
  0.000000000000000E+000
  0.000000000000000E+000
  0.000000000000000E+000
  0.000000000000000E+000
  0.000000000000000E+000
  0.000000000000000E+000
  0.000000000000000E+000
  0.000000000000000E+000
  0.000000000000000E+000
  0.000000000000000E+000
  0.000000000000000E+000
  0.000000000000000E+000
  0.000000000000000E+000
  0.000000000000000E+000
  0.000000000000000E+000
  0.000000000000000E+000
  0.000000000000000E+000
  0.000000000000000E+000
  0.000000000000000E+000
  0.000000000000000E+000
  0.000000000000000E+000
  0.000000000000000E+000
  0.000000000000000E+000
  0.000000000000000E+000
  0.000000000000000E+000
  0.000000000000000E+000
  0.000000000000000E+000
  0.000000000000000E+000
  0.000000000000000E+000
  0.000000000000000E+000
  0.000000000000000E+000
  0.000000000000000E+000
  0.000000000000000E+000
  0.000000000000000E+000
  0.000000000000000E+000
  0.000000000000000E+000
  0.000000000000000E+000
  0.000000000000000E+000
  0.000000000000000E+000
  0.000000000000000E+000
  0.000000000000000E+000
  0.000000000000000E+000
  0.000000000000000E+000
  0.000000000000000E+000
  0.000000000000000E+000
  0.000000000000000E+000
  0.000000000000000E+000
  0.000000000000000E+000
  0.000000000000000E+000
  0.000000000000000E+000
  0.000000000000000E+000
  0.000000000000000E+000
  0.000000000000000E+000
  0.000000000000000E+000
  0.000000000000000E+000
  0.000000000000000E+000
  0.000000000000000E+000
  0.000000000000000E+000
  0.000000000000000E+000
  0.000000000000000E+000
  0.000000000000000E+000
  0.000000000000000E+000
  0.000000000000000E+000
  0.000000000000000E+000
  0.000000000000000E+000
  0.000000000000000E+000
  0.000000000000000E+000
  0.000000000000000E+000
  0.000000000000000E+000
  0.000000000000000E+000
  0.000000000000000E+000
  0.000000000000000E+000
  0.000000000000000E+000
  0.000000000000000E+000
  0.000000000000000E+000
  0.000000000000000E+000
  0.000000000000000E+000
  0.000000000000000E+000
  0.000000000000000E+000
  0.000000000000000E+000
  0.000000000000000E+000
  0.000000000000000E+000
  0.000000000000000E+000
  0.000000000000000E+000
  0.000000000000000E+000
  0.000000000000000E+000
  0.000000000000000E+000
  0.000000000000000E+000
  0.000000000000000E+000
  0.000000000000000E+000
  0.000000000000000E+000
  0.000000000000000E+000
  0.000000000000000E+000
  0.000000000000000E+000
  0.000000000000000E+000
  0.000000000000000E+000
  0.000000000000000E+000
  0.000000000000000E+000
  0.000000000000000E+000
  0.000000000000000E+000
  0.000000000000000E+000
  0.000000000000000E+000
  0.000000000000000E+000
  0.000000000000000E+000
  0.000000000000000E+000
  0.000000000000000E+000
  0.000000000000000E+000
  0.000000000000000E+000
  0.000000000000000E+000
  0.000000000000000E+000
  0.000000000000000E+000
  0.000000000000000E+000
  0.000000000000000E+000
  0.000000000000000E+000
  0.000000000000000E+000
  0.000000000000000E+000
  0.000000000000000E+000
  0.000000000000000E+000
  0.000000000000000E+000
  0.000000000000000E+000
  0.000000000000000E+000
  0.000000000000000E+000
  0.000000000000000E+000
  0.000000000000000E+000
  0.000000000000000E+000
  0.000000000000000E+000
  0.000000000000000E+000
  0.000000000000000E+000
  0.000000000000000E+000
  0.000000000000000E+000
  0.000000000000000E+000
  0.000000000000000E+000
  0.000000000000000E+000
  0.000000000000000E+000
  0.000000000000000E+000
  0.000000000000000E+000
  0.000000000000000E+000
  0.000000000000000E+000
  0.000000000000000E+000
  0.000000000000000E+000
  0.000000000000000E+000
  0.000000000000000E+000
  0.000000000000000E+000
  0.000000000000000E+000
  0.000000000000000E+000
  0.000000000000000E+000
  0.000000000000000E+000
  0.000000000000000E+000
  0.000000000000000E+000
  0.000000000000000E+000
  0.000000000000000E+000
  0.000000000000000E+000
  0.000000000000000E+000
  0.000000000000000E+000
  0.000000000000000E+000
  0.000000000000000E+000
  0.000000000000000E+000
  0.000000000000000E+000
  0.000000000000000E+000
  0.000000000000000E+000
  0.000000000000000E+000
  0.000000000000000E+000
  0.000000000000000E+000
  0.000000000000000E+000
  0.000000000000000E+000
  0.000000000000000E+000
  0.000000000000000E+000
  0.000000000000000E+000
  0.000000000000000E+000
  0.000000000000000E+000
  0.000000000000000E+000
  0.000000000000000E+000
  0.000000000000000E+000
  0.000000000000000E+000
  0.000000000000000E+000
  0.000000000000000E+000
  0.000000000000000E+000
  0.000000000000000E+000
  0.000000000000000E+000
  0.000000000000000E+000
  0.000000000000000E+000
  0.000000000000000E+000
  0.000000000000000E+000
  0.000000000000000E+000
  0.000000000000000E+000
  0.000000000000000E+000
  0.000000000000000E+000
  0.000000000000000E+000
  0.000000000000000E+000
  0.000000000000000E+000
  0.000000000000000E+000
  0.000000000000000E+000
  0.000000000000000E+000
  0.000000000000000E+000
  0.000000000000000E+000
  0.000000000000000E+000
  0.000000000000000E+000
  0.000000000000000E+000
  0.000000000000000E+000
  0.000000000000000E+000
  0.000000000000000E+000
  0.000000000000000E+000
  0.000000000000000E+000
  0.000000000000000E+000
  0.000000000000000E+000
  0.000000000000000E+000
  0.000000000000000E+000
  0.000000000000000E+000
  0.000000000000000E+000
  0.000000000000000E+000
  0.000000000000000E+000
  0.000000000000000E+000
  0.000000000000000E+000
  0.000000000000000E+000
  0.000000000000000E+000
  0.000000000000000E+000
  0.000000000000000E+000
  0.000000000000000E+000
  0.000000000000000E+000
  0.000000000000000E+000
  0.000000000000000E+000
  0.000000000000000E+000
  0.000000000000000E+000
  0.000000000000000E+000
  0.000000000000000E+000
  0.000000000000000E+000
  0.000000000000000E+000
  0.000000000000000E+000
  0.000000000000000E+000
  0.000000000000000E+000
  0.000000000000000E+000
  0.000000000000000E+000
  0.000000000000000E+000
  0.000000000000000E+000
  0.000000000000000E+000
  0.000000000000000E+000
  0.000000000000000E+000
  0.000000000000000E+000
  0.000000000000000E+000
  0.000000000000000E+000
  0.000000000000000E+000
  0.000000000000000E+000
  0.000000000000000E+000
  0.000000000000000E+000
  0.000000000000000E+000
  0.000000000000000E+000
  0.000000000000000E+000
  0.000000000000000E+000
  0.000000000000000E+000
  0.000000000000000E+000
  0.000000000000000E+000
  0.000000000000000E+000
  0.000000000000000E+000
  0.000000000000000E+000
  0.000000000000000E+000
  0.000000000000000E+000
  0.000000000000000E+000
  0.000000000000000E+000
  0.000000000000000E+000
  0.000000000000000E+000
  0.000000000000000E+000
  0.000000000000000E+000
  0.000000000000000E+000
  0.000000000000000E+000
  0.000000000000000E+000
  0.000000000000000E+000
  0.000000000000000E+000
  0.000000000000000E+000
  0.000000000000000E+000
  0.000000000000000E+000
  0.000000000000000E+000
  0.000000000000000E+000
  0.000000000000000E+000
  0.000000000000000E+000
  0.000000000000000E+000
  0.000000000000000E+000
  0.000000000000000E+000
  0.000000000000000E+000
  0.000000000000000E+000
  0.000000000000000E+000
  0.000000000000000E+000
  0.000000000000000E+000
  0.000000000000000E+000
  0.000000000000000E+000
  0.000000000000000E+000
  0.000000000000000E+000
  0.000000000000000E+000
  0.000000000000000E+000
  0.000000000000000E+000
  0.000000000000000E+000
  0.000000000000000E+000
  0.000000000000000E+000
  0.000000000000000E+000
  0.000000000000000E+000
  0.000000000000000E+000
  0.000000000000000E+000
  0.000000000000000E+000
  0.000000000000000E+000
  0.000000000000000E+000
  0.000000000000000E+000
  0.000000000000000E+000
  0.000000000000000E+000
  0.000000000000000E+000
  0.000000000000000E+000
  0.000000000000000E+000
  0.000000000000000E+000
  0.000000000000000E+000
  0.000000000000000E+000
  0.000000000000000E+000
  0.000000000000000E+000
  0.000000000000000E+000
  0.000000000000000E+000
  0.000000000000000E+000
  0.000000000000000E+000
  0.000000000000000E+000
  0.000000000000000E+000
  0.000000000000000E+000
  0.000000000000000E+000
  0.000000000000000E+000
  0.000000000000000E+000
  0.000000000000000E+000
  0.000000000000000E+000
  0.000000000000000E+000
  0.000000000000000E+000
  0.000000000000000E+000
  0.000000000000000E+000
  0.000000000000000E+000
  0.000000000000000E+000
  0.000000000000000E+000
  0.000000000000000E+000
  0.000000000000000E+000
  0.000000000000000E+000
  0.000000000000000E+000
  0.000000000000000E+000
  0.000000000000000E+000
  0.000000000000000E+000
  0.000000000000000E+000
  0.000000000000000E+000
  0.000000000000000E+000
  0.000000000000000E+000
  0.000000000000000E+000
  0.000000000000000E+000
  0.000000000000000E+000
  0.000000000000000E+000
  0.000000000000000E+000
  0.000000000000000E+000
  0.000000000000000E+000
  0.000000000000000E+000
  0.000000000000000E+000
  0.000000000000000E+000
  0.000000000000000E+000
  0.000000000000000E+000
  0.000000000000000E+000
  0.000000000000000E+000
  0.000000000000000E+000
  0.000000000000000E+000
  0.000000000000000E+000
  0.000000000000000E+000
  0.000000000000000E+000
  0.000000000000000E+000
  0.000000000000000E+000
  0.000000000000000E+000
  0.000000000000000E+000
  0.000000000000000E+000
  0.000000000000000E+000
  0.000000000000000E+000
  0.000000000000000E+000
  0.000000000000000E+000
  0.000000000000000E+000
  0.000000000000000E+000
  0.000000000000000E+000
  0.000000000000000E+000
  0.000000000000000E+000
  0.000000000000000E+000
  0.000000000000000E+000
  0.000000000000000E+000
  0.000000000000000E+000
  0.000000000000000E+000
  0.000000000000000E+000
  0.000000000000000E+000
  0.000000000000000E+000
  0.000000000000000E+000
  0.000000000000000E+000
  0.000000000000000E+000
  0.000000000000000E+000
  0.000000000000000E+000
  0.000000000000000E+000
  0.000000000000000E+000
  0.000000000000000E+000
  0.000000000000000E+000
  0.000000000000000E+000
  0.000000000000000E+000
  0.000000000000000E+000
  0.000000000000000E+000
  0.000000000000000E+000
  0.000000000000000E+000
  0.000000000000000E+000
  0.000000000000000E+000
  0.000000000000000E+000
  0.000000000000000E+000
  0.000000000000000E+000
  0.000000000000000E+000
  0.000000000000000E+000
  0.000000000000000E+000
  0.000000000000000E+000
  0.000000000000000E+000
  0.000000000000000E+000
  0.000000000000000E+000
  0.000000000000000E+000
  0.000000000000000E+000
  0.000000000000000E+000
  0.000000000000000E+000
  0.000000000000000E+000
  0.000000000000000E+000
  0.000000000000000E+000
  0.000000000000000E+000
  0.000000000000000E+000
  0.000000000000000E+000
  0.000000000000000E+000
  0.000000000000000E+000
  0.000000000000000E+000
  0.000000000000000E+000
  0.000000000000000E+000
  0.000000000000000E+000
  0.000000000000000E+000
  0.000000000000000E+000
  0.000000000000000E+000
  0.000000000000000E+000
  0.000000000000000E+000
  0.000000000000000E+000
  0.000000000000000E+000
  0.000000000000000E+000
  0.000000000000000E+000
  0.000000000000000E+000
  0.000000000000000E+000
  0.000000000000000E+000
  0.000000000000000E+000
  0.000000000000000E+000
  0.000000000000000E+000
  0.000000000000000E+000
  0.000000000000000E+000
  0.000000000000000E+000
  0.000000000000000E+000
  0.000000000000000E+000
  0.000000000000000E+000
  0.000000000000000E+000
  0.000000000000000E+000
  0.000000000000000E+000
  0.000000000000000E+000
  0.000000000000000E+000
  0.000000000000000E+000
  0.000000000000000E+000
  0.000000000000000E+000
  0.000000000000000E+000
  0.000000000000000E+000
  0.000000000000000E+000
  0.000000000000000E+000
  0.000000000000000E+000
  0.000000000000000E+000
  0.000000000000000E+000
  0.000000000000000E+000
  0.000000000000000E+000
  0.000000000000000E+000
  0.000000000000000E+000
  0.000000000000000E+000
  0.000000000000000E+000
  0.000000000000000E+000
  0.000000000000000E+000
  0.000000000000000E+000
  0.000000000000000E+000
  0.000000000000000E+000
  0.000000000000000E+000
  0.000000000000000E+000
  0.000000000000000E+000
  0.000000000000000E+000
  0.000000000000000E+000
  0.000000000000000E+000
  0.000000000000000E+000
  0.000000000000000E+000
  0.000000000000000E+000
  0.000000000000000E+000
  0.000000000000000E+000
  0.000000000000000E+000
  0.000000000000000E+000
  0.000000000000000E+000
  0.000000000000000E+000
  0.000000000000000E+000
  0.000000000000000E+000
  0.000000000000000E+000
  0.000000000000000E+000
  0.000000000000000E+000
  0.000000000000000E+000
  0.000000000000000E+000
  0.000000000000000E+000
  0.000000000000000E+000
  0.000000000000000E+000
  0.000000000000000E+000
  0.000000000000000E+000
  0.000000000000000E+000
  0.000000000000000E+000
  0.000000000000000E+000
  0.000000000000000E+000
  0.000000000000000E+000
  0.000000000000000E+000
  0.000000000000000E+000
  0.000000000000000E+000
  0.000000000000000E+000
  0.000000000000000E+000
  0.000000000000000E+000
  0.000000000000000E+000
  0.000000000000000E+000
  0.000000000000000E+000
  0.000000000000000E+000
  0.000000000000000E+000
  0.000000000000000E+000
  0.000000000000000E+000
  0.000000000000000E+000
  0.000000000000000E+000
  0.000000000000000E+000
  0.000000000000000E+000
  0.000000000000000E+000
  0.000000000000000E+000
  0.000000000000000E+000
  0.000000000000000E+000
  0.000000000000000E+000
  0.000000000000000E+000
  0.000000000000000E+000
  0.000000000000000E+000
  0.000000000000000E+000
  0.000000000000000E+000
  0.000000000000000E+000
  0.000000000000000E+000
  0.000000000000000E+000
  0.000000000000000E+000
  0.000000000000000E+000
  0.000000000000000E+000
  0.000000000000000E+000
  0.000000000000000E+000
  0.000000000000000E+000
  0.000000000000000E+000
  0.000000000000000E+000
  0.000000000000000E+000
  0.000000000000000E+000
  0.000000000000000E+000
  0.000000000000000E+000
  0.000000000000000E+000
  0.000000000000000E+000
  0.000000000000000E+000
  0.000000000000000E+000
  0.000000000000000E+000
  0.000000000000000E+000
  0.000000000000000E+000
  0.000000000000000E+000
  0.000000000000000E+000
  0.000000000000000E+000
  0.000000000000000E+000
  0.000000000000000E+000
  0.000000000000000E+000
  0.000000000000000E+000
  0.000000000000000E+000
  0.000000000000000E+000
  0.000000000000000E+000
  0.000000000000000E+000
  0.000000000000000E+000
  0.000000000000000E+000
  0.000000000000000E+000
  0.000000000000000E+000
  0.000000000000000E+000
  0.000000000000000E+000
  0.000000000000000E+000
  0.000000000000000E+000
  0.000000000000000E+000
  0.000000000000000E+000
  0.000000000000000E+000
  0.000000000000000E+000
  0.000000000000000E+000
  0.000000000000000E+000
  0.000000000000000E+000
  0.000000000000000E+000
  0.000000000000000E+000
  0.000000000000000E+000
  0.000000000000000E+000
  0.000000000000000E+000
  0.000000000000000E+000
  0.000000000000000E+000
  0.000000000000000E+000
  0.000000000000000E+000
  0.000000000000000E+000
  0.000000000000000E+000
  0.000000000000000E+000
  0.000000000000000E+000
  0.000000000000000E+000
  0.000000000000000E+000
  0.000000000000000E+000
  0.000000000000000E+000
  0.000000000000000E+000
  0.000000000000000E+000
  0.000000000000000E+000
  0.000000000000000E+000
  0.000000000000000E+000
  0.000000000000000E+000
  0.000000000000000E+000
  0.000000000000000E+000
  0.000000000000000E+000
  0.000000000000000E+000
  0.000000000000000E+000
  0.000000000000000E+000
  0.000000000000000E+000
  0.000000000000000E+000
  0.000000000000000E+000
  0.000000000000000E+000
  0.000000000000000E+000
  0.000000000000000E+000
  0.000000000000000E+000
  0.000000000000000E+000
  0.000000000000000E+000
  0.000000000000000E+000
  0.000000000000000E+000
  0.000000000000000E+000
  0.000000000000000E+000
  0.000000000000000E+000
  0.000000000000000E+000
  0.000000000000000E+000
  0.000000000000000E+000
  0.000000000000000E+000
  0.000000000000000E+000
  0.000000000000000E+000
  0.000000000000000E+000
  0.000000000000000E+000
  0.000000000000000E+000
  0.000000000000000E+000
  0.000000000000000E+000
  0.000000000000000E+000
  0.000000000000000E+000
  0.000000000000000E+000
  0.000000000000000E+000
  0.000000000000000E+000
  0.000000000000000E+000
  0.000000000000000E+000
  0.000000000000000E+000
  0.000000000000000E+000
  0.000000000000000E+000
  0.000000000000000E+000
  0.000000000000000E+000
  0.000000000000000E+000
  0.000000000000000E+000
  0.000000000000000E+000
  0.000000000000000E+000
  0.000000000000000E+000
  0.000000000000000E+000
  0.000000000000000E+000
  0.000000000000000E+000
  0.000000000000000E+000
  0.000000000000000E+000
  0.000000000000000E+000
  0.000000000000000E+000
  0.000000000000000E+000
  0.000000000000000E+000
  0.000000000000000E+000
  0.000000000000000E+000
  0.000000000000000E+000
  0.000000000000000E+000
  0.000000000000000E+000
  0.000000000000000E+000
  0.000000000000000E+000
  0.000000000000000E+000
  0.000000000000000E+000
  0.000000000000000E+000
  0.000000000000000E+000
  0.000000000000000E+000
  0.000000000000000E+000
  0.000000000000000E+000
  0.000000000000000E+000
  0.000000000000000E+000
  0.000000000000000E+000
  0.000000000000000E+000
  0.000000000000000E+000
  0.000000000000000E+000
  0.000000000000000E+000
  0.000000000000000E+000
  0.000000000000000E+000
  0.000000000000000E+000
  0.000000000000000E+000
  0.000000000000000E+000
  0.000000000000000E+000
  0.000000000000000E+000
  0.000000000000000E+000
  0.000000000000000E+000
  0.000000000000000E+000
  0.000000000000000E+000
  0.000000000000000E+000
  0.000000000000000E+000
  0.000000000000000E+000
  0.000000000000000E+000
  0.000000000000000E+000
  0.000000000000000E+000
  0.000000000000000E+000
  0.000000000000000E+000
  0.000000000000000E+000
  0.000000000000000E+000
  0.000000000000000E+000
  0.000000000000000E+000
  0.000000000000000E+000
  0.000000000000000E+000
  0.000000000000000E+000
  0.000000000000000E+000
  0.000000000000000E+000
  0.000000000000000E+000
  0.000000000000000E+000
  0.000000000000000E+000
  0.000000000000000E+000
  0.000000000000000E+000
  0.000000000000000E+000
  0.000000000000000E+000
  0.000000000000000E+000
  0.000000000000000E+000
  0.000000000000000E+000
  0.000000000000000E+000
  0.000000000000000E+000
  0.000000000000000E+000
  0.000000000000000E+000
  0.000000000000000E+000
  0.000000000000000E+000
  0.000000000000000E+000
  0.000000000000000E+000
  0.000000000000000E+000
  0.000000000000000E+000
  0.000000000000000E+000
  0.000000000000000E+000
  0.000000000000000E+000
  0.000000000000000E+000
  0.000000000000000E+000
  0.000000000000000E+000
  0.000000000000000E+000
  0.000000000000000E+000
  0.000000000000000E+000
  0.000000000000000E+000
  0.000000000000000E+000
  0.000000000000000E+000
  0.000000000000000E+000
  0.000000000000000E+000
  0.000000000000000E+000
  0.000000000000000E+000
  0.000000000000000E+000
  0.000000000000000E+000
  0.000000000000000E+000
  0.000000000000000E+000
  0.000000000000000E+000
  0.000000000000000E+000
  0.000000000000000E+000
  0.000000000000000E+000
  0.000000000000000E+000
  0.000000000000000E+000
  0.000000000000000E+000
  0.000000000000000E+000
  0.000000000000000E+000
  0.000000000000000E+000
  0.000000000000000E+000
  0.000000000000000E+000
  0.000000000000000E+000
  0.000000000000000E+000
  0.000000000000000E+000
  0.000000000000000E+000
  0.000000000000000E+000
  0.000000000000000E+000
  0.000000000000000E+000
  0.000000000000000E+000
  0.000000000000000E+000
  0.000000000000000E+000
  0.000000000000000E+000
  0.000000000000000E+000
  0.000000000000000E+000
  0.000000000000000E+000
  0.000000000000000E+000
  0.000000000000000E+000
  0.000000000000000E+000
  0.000000000000000E+000
  0.000000000000000E+000
  0.000000000000000E+000
  0.000000000000000E+000
  0.000000000000000E+000
  0.000000000000000E+000
  0.000000000000000E+000
  0.000000000000000E+000
  0.000000000000000E+000
  0.000000000000000E+000
  0.000000000000000E+000
  0.000000000000000E+000
  0.000000000000000E+000
  0.000000000000000E+000
  0.000000000000000E+000
  0.000000000000000E+000
  0.000000000000000E+000
  0.000000000000000E+000
  0.000000000000000E+000
  0.000000000000000E+000
  0.000000000000000E+000
  0.000000000000000E+000
  0.000000000000000E+000
  0.000000000000000E+000
  0.000000000000000E+000
  0.000000000000000E+000
  0.000000000000000E+000
  0.000000000000000E+000
  0.000000000000000E+000
  0.000000000000000E+000
  0.000000000000000E+000
  0.000000000000000E+000
  0.000000000000000E+000
  0.000000000000000E+000
  0.000000000000000E+000
  0.000000000000000E+000
  0.000000000000000E+000
  0.000000000000000E+000
  0.000000000000000E+000
  0.000000000000000E+000
  0.000000000000000E+000
  0.000000000000000E+000
  0.000000000000000E+000
  0.000000000000000E+000
  0.000000000000000E+000
  0.000000000000000E+000
  0.000000000000000E+000
  0.000000000000000E+000
  0.000000000000000E+000
  0.000000000000000E+000
  0.000000000000000E+000
  0.000000000000000E+000
  0.000000000000000E+000
  0.000000000000000E+000
  0.000000000000000E+000
  0.000000000000000E+000
  0.000000000000000E+000
  0.000000000000000E+000
  0.000000000000000E+000
  0.000000000000000E+000
  0.000000000000000E+000
  0.000000000000000E+000
  0.000000000000000E+000
  0.000000000000000E+000
  0.000000000000000E+000
  0.000000000000000E+000
  0.000000000000000E+000
  0.000000000000000E+000
  0.000000000000000E+000
  0.000000000000000E+000
  0.000000000000000E+000
  0.000000000000000E+000
  0.000000000000000E+000
  0.000000000000000E+000
  0.000000000000000E+000
  0.000000000000000E+000
  0.000000000000000E+000
  0.000000000000000E+000
  0.000000000000000E+000
  0.000000000000000E+000
  0.000000000000000E+000
  0.000000000000000E+000
  0.000000000000000E+000
  0.000000000000000E+000
  0.000000000000000E+000
  0.000000000000000E+000
  0.000000000000000E+000
  0.000000000000000E+000
  0.000000000000000E+000
  0.000000000000000E+000
  0.000000000000000E+000
  0.000000000000000E+000
  0.000000000000000E+000
  0.000000000000000E+000
  0.000000000000000E+000
  0.000000000000000E+000
  0.000000000000000E+000
  0.000000000000000E+000
  0.000000000000000E+000
  0.000000000000000E+000
  0.000000000000000E+000
  0.000000000000000E+000
  0.000000000000000E+000
  0.000000000000000E+000
  0.000000000000000E+000
  0.000000000000000E+000
  0.000000000000000E+000
  0.000000000000000E+000
  0.000000000000000E+000
  0.000000000000000E+000
  0.000000000000000E+000
  0.000000000000000E+000
  0.000000000000000E+000
  0.000000000000000E+000
  0.000000000000000E+000
  0.000000000000000E+000
  0.000000000000000E+000
  0.000000000000000E+000
  0.000000000000000E+000
  0.000000000000000E+000
  0.000000000000000E+000
  0.000000000000000E+000
  0.000000000000000E+000
  0.000000000000000E+000
  0.000000000000000E+000
  0.000000000000000E+000
  0.000000000000000E+000
  0.000000000000000E+000
  0.000000000000000E+000
  0.000000000000000E+000
  0.000000000000000E+000
  0.000000000000000E+000
  0.000000000000000E+000
  0.000000000000000E+000
  0.000000000000000E+000
  0.000000000000000E+000
  0.000000000000000E+000
  0.000000000000000E+000
  0.000000000000000E+000
  0.000000000000000E+000
  0.000000000000000E+000
  0.000000000000000E+000
  0.000000000000000E+000
  0.000000000000000E+000
  0.000000000000000E+000
  0.000000000000000E+000
  0.000000000000000E+000
  0.000000000000000E+000
  0.000000000000000E+000
  0.000000000000000E+000
  0.000000000000000E+000
  0.000000000000000E+000
  0.000000000000000E+000
  0.000000000000000E+000
  0.000000000000000E+000
  0.000000000000000E+000
  0.000000000000000E+000
  0.000000000000000E+000
  0.000000000000000E+000
  0.000000000000000E+000
  0.000000000000000E+000
  0.000000000000000E+000
  0.000000000000000E+000
  0.000000000000000E+000
  0.000000000000000E+000
  0.000000000000000E+000
  0.000000000000000E+000
  0.000000000000000E+000
  0.000000000000000E+000
  0.000000000000000E+000
  0.000000000000000E+000
  0.000000000000000E+000
  0.000000000000000E+000
  0.000000000000000E+000
  0.000000000000000E+000
  0.000000000000000E+000
  0.000000000000000E+000
  0.000000000000000E+000
  0.000000000000000E+000
  0.000000000000000E+000
  0.000000000000000E+000
  0.000000000000000E+000
  0.000000000000000E+000
  0.000000000000000E+000
  0.000000000000000E+000
  0.000000000000000E+000
  0.000000000000000E+000
  0.000000000000000E+000
  0.000000000000000E+000
  0.000000000000000E+000
  0.000000000000000E+000
  0.000000000000000E+000
  0.000000000000000E+000
  0.000000000000000E+000
  0.000000000000000E+000
  0.000000000000000E+000
  0.000000000000000E+000
  0.000000000000000E+000
  0.000000000000000E+000
  0.000000000000000E+000
  0.000000000000000E+000
  0.000000000000000E+000
  0.000000000000000E+000
  0.000000000000000E+000
  0.000000000000000E+000
  0.000000000000000E+000
  0.000000000000000E+000
  0.000000000000000E+000
  0.000000000000000E+000
  0.000000000000000E+000
  0.000000000000000E+000
  0.000000000000000E+000
  0.000000000000000E+000
  0.000000000000000E+000
  0.000000000000000E+000
  0.000000000000000E+000
  0.000000000000000E+000
  0.000000000000000E+000
  0.000000000000000E+000
  0.000000000000000E+000
  0.000000000000000E+000
  0.000000000000000E+000
  0.000000000000000E+000
  0.000000000000000E+000
  0.000000000000000E+000
  0.000000000000000E+000
  0.000000000000000E+000
  0.000000000000000E+000
  0.000000000000000E+000
  0.000000000000000E+000
  0.000000000000000E+000
  0.000000000000000E+000
  0.000000000000000E+000
  0.000000000000000E+000
  0.000000000000000E+000
  0.000000000000000E+000
  0.000000000000000E+000
  0.000000000000000E+000
  0.000000000000000E+000
  0.000000000000000E+000
  0.000000000000000E+000
  0.000000000000000E+000
  0.000000000000000E+000
  0.000000000000000E+000
  0.000000000000000E+000
  0.000000000000000E+000
  0.000000000000000E+000
  0.000000000000000E+000
  0.000000000000000E+000
  0.000000000000000E+000
  0.000000000000000E+000
  0.000000000000000E+000
  0.000000000000000E+000
  0.000000000000000E+000
  0.000000000000000E+000
  0.000000000000000E+000
  0.000000000000000E+000
  0.000000000000000E+000
  0.000000000000000E+000
  0.000000000000000E+000
  0.000000000000000E+000
  0.000000000000000E+000
  0.000000000000000E+000
  0.000000000000000E+000
  0.000000000000000E+000
  0.000000000000000E+000
  0.000000000000000E+000
  0.000000000000000E+000
  0.000000000000000E+000
  0.000000000000000E+000
  0.000000000000000E+000
  0.000000000000000E+000
  0.000000000000000E+000
  0.000000000000000E+000
  0.000000000000000E+000
  0.000000000000000E+000
  0.000000000000000E+000
  0.000000000000000E+000
  0.000000000000000E+000
  0.000000000000000E+000
  0.000000000000000E+000
  0.000000000000000E+000
  0.000000000000000E+000
  0.000000000000000E+000
  0.000000000000000E+000
  0.000000000000000E+000
  0.000000000000000E+000
  0.000000000000000E+000
  0.000000000000000E+000
  0.000000000000000E+000
  0.000000000000000E+000
  0.000000000000000E+000
  0.000000000000000E+000
  0.000000000000000E+000
  0.000000000000000E+000
  0.000000000000000E+000
  0.000000000000000E+000
  0.000000000000000E+000
  0.000000000000000E+000
  0.000000000000000E+000
  0.000000000000000E+000
  0.000000000000000E+000
  0.000000000000000E+000
  0.000000000000000E+000
  0.000000000000000E+000
  0.000000000000000E+000
  0.000000000000000E+000
  0.000000000000000E+000
  0.000000000000000E+000
  0.000000000000000E+000
  0.000000000000000E+000
  0.000000000000000E+000
  0.000000000000000E+000
  0.000000000000000E+000
  0.000000000000000E+000
  0.000000000000000E+000
  0.000000000000000E+000
  0.000000000000000E+000
  0.000000000000000E+000
  0.000000000000000E+000
  0.000000000000000E+000
  0.000000000000000E+000
  0.000000000000000E+000
  0.000000000000000E+000
  0.000000000000000E+000
  0.000000000000000E+000
  0.000000000000000E+000
  0.000000000000000E+000
  0.000000000000000E+000
  0.000000000000000E+000
  0.000000000000000E+000
  0.000000000000000E+000
  0.000000000000000E+000
  0.000000000000000E+000
  0.000000000000000E+000
  0.000000000000000E+000
  0.000000000000000E+000
  0.000000000000000E+000
  0.000000000000000E+000
  0.000000000000000E+000
  0.000000000000000E+000
  0.000000000000000E+000
  0.000000000000000E+000
  0.000000000000000E+000
  0.000000000000000E+000
  0.000000000000000E+000
  0.000000000000000E+000
  0.000000000000000E+000
  0.000000000000000E+000
  0.000000000000000E+000
  0.000000000000000E+000
  0.000000000000000E+000
  0.000000000000000E+000
  0.000000000000000E+000
  0.000000000000000E+000
  0.000000000000000E+000
  0.000000000000000E+000
  0.000000000000000E+000
  0.000000000000000E+000
  0.000000000000000E+000
  0.000000000000000E+000
  0.000000000000000E+000
  0.000000000000000E+000
  0.000000000000000E+000
  0.000000000000000E+000
  0.000000000000000E+000
  0.000000000000000E+000
  0.000000000000000E+000
  0.000000000000000E+000
  0.000000000000000E+000
  0.000000000000000E+000
  0.000000000000000E+000
  0.000000000000000E+000
  0.000000000000000E+000
  0.000000000000000E+000
  0.000000000000000E+000
  0.000000000000000E+000
  0.000000000000000E+000
  0.000000000000000E+000
  0.000000000000000E+000
  0.000000000000000E+000
  0.000000000000000E+000
  0.000000000000000E+000
  0.000000000000000E+000
  0.000000000000000E+000
  0.000000000000000E+000
  0.000000000000000E+000
  0.000000000000000E+000
  0.000000000000000E+000
  0.000000000000000E+000
  0.000000000000000E+000
  0.000000000000000E+000
  0.000000000000000E+000
  0.000000000000000E+000
  0.000000000000000E+000
  0.000000000000000E+000
  0.000000000000000E+000
  0.000000000000000E+000
  0.000000000000000E+000
  0.000000000000000E+000
  0.000000000000000E+000
  0.000000000000000E+000
  0.000000000000000E+000
  0.000000000000000E+000
  0.000000000000000E+000
  0.000000000000000E+000
  0.000000000000000E+000
  0.000000000000000E+000
  0.000000000000000E+000
  0.000000000000000E+000
  0.000000000000000E+000
  0.000000000000000E+000
  0.000000000000000E+000
  0.000000000000000E+000
  0.000000000000000E+000
  0.000000000000000E+000
  0.000000000000000E+000
  0.000000000000000E+000
  0.000000000000000E+000
  0.000000000000000E+000
  0.000000000000000E+000
  0.000000000000000E+000
  0.000000000000000E+000
  0.000000000000000E+000
  0.000000000000000E+000
  0.000000000000000E+000
  0.000000000000000E+000
  0.000000000000000E+000
  0.000000000000000E+000
  0.000000000000000E+000
  0.000000000000000E+000
  0.000000000000000E+000
  0.000000000000000E+000
  0.000000000000000E+000
  0.000000000000000E+000
  0.000000000000000E+000
  0.000000000000000E+000
  0.000000000000000E+000
  0.000000000000000E+000
  0.000000000000000E+000
  0.000000000000000E+000
  0.000000000000000E+000
  0.000000000000000E+000
  0.000000000000000E+000
  0.000000000000000E+000
  0.000000000000000E+000
  0.000000000000000E+000
  0.000000000000000E+000
  0.000000000000000E+000
  0.000000000000000E+000
  0.000000000000000E+000
  0.000000000000000E+000
  0.000000000000000E+000
  0.000000000000000E+000
  0.000000000000000E+000
  0.000000000000000E+000
  0.000000000000000E+000
  0.000000000000000E+000
  0.000000000000000E+000
  0.000000000000000E+000
  0.000000000000000E+000
  0.000000000000000E+000
  0.000000000000000E+000
  0.000000000000000E+000
  0.000000000000000E+000
  0.000000000000000E+000
  0.000000000000000E+000
  0.000000000000000E+000
  0.000000000000000E+000
  0.000000000000000E+000
  0.000000000000000E+000
  0.000000000000000E+000
  0.000000000000000E+000
  0.000000000000000E+000
  0.000000000000000E+000
  0.000000000000000E+000
  0.000000000000000E+000
  0.000000000000000E+000
  0.000000000000000E+000
  0.000000000000000E+000
  0.000000000000000E+000
  0.000000000000000E+000
  0.000000000000000E+000
  0.000000000000000E+000
  0.000000000000000E+000
  0.000000000000000E+000
  0.000000000000000E+000
  0.000000000000000E+000
  0.000000000000000E+000
  0.000000000000000E+000
  0.000000000000000E+000
  0.000000000000000E+000
  0.000000000000000E+000
  0.000000000000000E+000
  0.000000000000000E+000
  0.000000000000000E+000
  0.000000000000000E+000
  0.000000000000000E+000
  0.000000000000000E+000
  0.000000000000000E+000
  0.000000000000000E+000
  0.000000000000000E+000
  0.000000000000000E+000
  0.000000000000000E+000
  0.000000000000000E+000
  0.000000000000000E+000
  0.000000000000000E+000
  0.000000000000000E+000
  0.000000000000000E+000
  0.000000000000000E+000
  0.000000000000000E+000
  0.000000000000000E+000
  0.000000000000000E+000
  0.000000000000000E+000
  0.000000000000000E+000
  0.000000000000000E+000
  0.000000000000000E+000
  0.000000000000000E+000
  0.000000000000000E+000
  0.000000000000000E+000
  0.000000000000000E+000
  0.000000000000000E+000
  0.000000000000000E+000
  0.000000000000000E+000
  0.000000000000000E+000
  0.000000000000000E+000
  0.000000000000000E+000
  0.000000000000000E+000
  0.000000000000000E+000
  0.000000000000000E+000
  0.000000000000000E+000
  0.000000000000000E+000
  0.000000000000000E+000
  0.000000000000000E+000
  0.000000000000000E+000
  0.000000000000000E+000
  0.000000000000000E+000
  0.000000000000000E+000
  0.000000000000000E+000
  0.000000000000000E+000
  0.000000000000000E+000
  0.000000000000000E+000
  0.000000000000000E+000
  0.000000000000000E+000
  0.000000000000000E+000
  0.000000000000000E+000
  0.000000000000000E+000
  0.000000000000000E+000
  0.000000000000000E+000
  0.000000000000000E+000
  0.000000000000000E+000
  0.000000000000000E+000
  0.000000000000000E+000
  0.000000000000000E+000
  0.000000000000000E+000
  0.000000000000000E+000
  0.000000000000000E+000
  0.000000000000000E+000
  0.000000000000000E+000
  0.000000000000000E+000
  0.000000000000000E+000
  0.000000000000000E+000
  0.000000000000000E+000
  0.000000000000000E+000
  0.000000000000000E+000
  0.000000000000000E+000
  0.000000000000000E+000
  0.000000000000000E+000
  0.000000000000000E+000
  0.000000000000000E+000
  0.000000000000000E+000
  0.000000000000000E+000
  0.000000000000000E+000
  0.000000000000000E+000
  0.000000000000000E+000
  0.000000000000000E+000
  0.000000000000000E+000
  0.000000000000000E+000
  0.000000000000000E+000
  0.000000000000000E+000
  0.000000000000000E+000
  0.000000000000000E+000
  0.000000000000000E+000
  0.000000000000000E+000
  0.000000000000000E+000
  0.000000000000000E+000
  0.000000000000000E+000
  0.000000000000000E+000
  0.000000000000000E+000
  0.000000000000000E+000
  0.000000000000000E+000
  0.000000000000000E+000
  0.000000000000000E+000
  0.000000000000000E+000
  0.000000000000000E+000
  0.000000000000000E+000
  0.000000000000000E+000
  0.000000000000000E+000
  0.000000000000000E+000
  0.000000000000000E+000
  0.000000000000000E+000
  0.000000000000000E+000
  0.000000000000000E+000
  0.000000000000000E+000
  0.000000000000000E+000
  0.000000000000000E+000
  0.000000000000000E+000
  0.000000000000000E+000
  0.000000000000000E+000
  0.000000000000000E+000
  0.000000000000000E+000
  0.000000000000000E+000
  0.000000000000000E+000
  0.000000000000000E+000
  0.000000000000000E+000
  0.000000000000000E+000
  0.000000000000000E+000
  0.000000000000000E+000
  0.000000000000000E+000
  0.000000000000000E+000
  0.000000000000000E+000
  0.000000000000000E+000
  0.000000000000000E+000
  0.000000000000000E+000
  0.000000000000000E+000
  0.000000000000000E+000
  0.000000000000000E+000
  0.000000000000000E+000
  0.000000000000000E+000
  0.000000000000000E+000
  0.000000000000000E+000
  0.000000000000000E+000
  0.000000000000000E+000
  0.000000000000000E+000
  0.000000000000000E+000
  0.000000000000000E+000
  0.000000000000000E+000
  0.000000000000000E+000
  0.000000000000000E+000
  0.000000000000000E+000
  0.000000000000000E+000
  0.000000000000000E+000
  0.000000000000000E+000
  0.000000000000000E+000
  0.000000000000000E+000
  0.000000000000000E+000
  0.000000000000000E+000
  0.000000000000000E+000
  0.000000000000000E+000
  0.000000000000000E+000
  0.000000000000000E+000
  0.000000000000000E+000
  0.000000000000000E+000
  0.000000000000000E+000
  0.000000000000000E+000
  0.000000000000000E+000
  0.000000000000000E+000
  0.000000000000000E+000
  0.000000000000000E+000
  0.000000000000000E+000
  0.000000000000000E+000
  0.000000000000000E+000
  0.000000000000000E+000
  0.000000000000000E+000
  0.000000000000000E+000
  0.000000000000000E+000
  0.000000000000000E+000
  0.000000000000000E+000
  0.000000000000000E+000
  0.000000000000000E+000
  0.000000000000000E+000
  0.000000000000000E+000
  0.000000000000000E+000
  0.000000000000000E+000
  0.000000000000000E+000
  0.000000000000000E+000
  0.000000000000000E+000
  0.000000000000000E+000
  0.000000000000000E+000
  0.000000000000000E+000
  0.000000000000000E+000
  0.000000000000000E+000
  0.000000000000000E+000
  0.000000000000000E+000
  0.000000000000000E+000
  0.000000000000000E+000
  0.000000000000000E+000
  0.000000000000000E+000
  0.000000000000000E+000
  0.000000000000000E+000
  0.000000000000000E+000
  0.000000000000000E+000
  0.000000000000000E+000
  0.000000000000000E+000
  0.000000000000000E+000
  0.000000000000000E+000
  0.000000000000000E+000
  0.000000000000000E+000
  0.000000000000000E+000
  0.000000000000000E+000
  0.000000000000000E+000
  0.000000000000000E+000
  0.000000000000000E+000
  0.000000000000000E+000
  0.000000000000000E+000
  0.000000000000000E+000
  0.000000000000000E+000
  0.000000000000000E+000
  0.000000000000000E+000
  0.000000000000000E+000
  0.000000000000000E+000
  0.000000000000000E+000
  0.000000000000000E+000
  0.000000000000000E+000
  0.000000000000000E+000
  0.000000000000000E+000
  0.000000000000000E+000
  0.000000000000000E+000
  0.000000000000000E+000
  0.000000000000000E+000
  0.000000000000000E+000
  0.000000000000000E+000
  0.000000000000000E+000
  0.000000000000000E+000
  0.000000000000000E+000
  0.000000000000000E+000
  0.000000000000000E+000
  0.000000000000000E+000
  0.000000000000000E+000
  0.000000000000000E+000
  0.000000000000000E+000
  0.000000000000000E+000
  0.000000000000000E+000
  0.000000000000000E+000
  0.000000000000000E+000
  0.000000000000000E+000
  0.000000000000000E+000
  0.000000000000000E+000
  0.000000000000000E+000
  0.000000000000000E+000
  0.000000000000000E+000
  0.000000000000000E+000
  0.000000000000000E+000
  0.000000000000000E+000
  0.000000000000000E+000
  0.000000000000000E+000
  0.000000000000000E+000
  0.000000000000000E+000
  0.000000000000000E+000
  0.000000000000000E+000
  0.000000000000000E+000
  0.000000000000000E+000
  0.000000000000000E+000
  0.000000000000000E+000
  0.000000000000000E+000
  0.000000000000000E+000
  0.000000000000000E+000
  0.000000000000000E+000
  0.000000000000000E+000
  0.000000000000000E+000
  0.000000000000000E+000
  0.000000000000000E+000
  0.000000000000000E+000
  0.000000000000000E+000
  0.000000000000000E+000
  0.000000000000000E+000
  0.000000000000000E+000
  0.000000000000000E+000
  0.000000000000000E+000
  0.000000000000000E+000
  0.000000000000000E+000
  0.000000000000000E+000
  0.000000000000000E+000
  0.000000000000000E+000
  0.000000000000000E+000
  0.000000000000000E+000
  0.000000000000000E+000
  0.000000000000000E+000
  0.000000000000000E+000
  0.000000000000000E+000
  0.000000000000000E+000
  0.000000000000000E+000
  0.000000000000000E+000
  0.000000000000000E+000
  0.000000000000000E+000
  0.000000000000000E+000
  0.000000000000000E+000
  0.000000000000000E+000
  0.000000000000000E+000
  0.000000000000000E+000
  0.000000000000000E+000
  0.000000000000000E+000
  0.000000000000000E+000
  0.000000000000000E+000
  0.000000000000000E+000
  0.000000000000000E+000
  0.000000000000000E+000
  0.000000000000000E+000
  0.000000000000000E+000
  0.000000000000000E+000
  0.000000000000000E+000
  0.000000000000000E+000
  0.000000000000000E+000
  0.000000000000000E+000
  0.000000000000000E+000
  0.000000000000000E+000
  0.000000000000000E+000
  0.000000000000000E+000
  0.000000000000000E+000
  0.000000000000000E+000
  0.000000000000000E+000
  0.000000000000000E+000
  0.000000000000000E+000
  0.000000000000000E+000
  0.000000000000000E+000
  0.000000000000000E+000
  0.000000000000000E+000
  0.000000000000000E+000
  0.000000000000000E+000
  0.000000000000000E+000
  0.000000000000000E+000
  0.000000000000000E+000
  0.000000000000000E+000
  0.000000000000000E+000
  0.000000000000000E+000
  0.000000000000000E+000
  0.000000000000000E+000
  0.000000000000000E+000
  0.000000000000000E+000
  0.000000000000000E+000
  0.000000000000000E+000
  0.000000000000000E+000
  0.000000000000000E+000
  0.000000000000000E+000
  0.000000000000000E+000
  0.000000000000000E+000
  0.000000000000000E+000
  0.000000000000000E+000
  0.000000000000000E+000
  0.000000000000000E+000
  0.000000000000000E+000
  0.000000000000000E+000
  0.000000000000000E+000
  0.000000000000000E+000
  0.000000000000000E+000
  0.000000000000000E+000
  0.000000000000000E+000
  0.000000000000000E+000
  0.000000000000000E+000
  0.000000000000000E+000
  0.000000000000000E+000
  0.000000000000000E+000
  0.000000000000000E+000
  0.000000000000000E+000
  0.000000000000000E+000
  0.000000000000000E+000
  0.000000000000000E+000
  0.000000000000000E+000
  0.000000000000000E+000
  0.000000000000000E+000
  0.000000000000000E+000
  0.000000000000000E+000
  0.000000000000000E+000
  0.000000000000000E+000
  0.000000000000000E+000
  0.000000000000000E+000
  0.000000000000000E+000
  0.000000000000000E+000
  0.000000000000000E+000
  0.000000000000000E+000
  0.000000000000000E+000
  0.000000000000000E+000
  0.000000000000000E+000
  0.000000000000000E+000
  0.000000000000000E+000
  0.000000000000000E+000
  0.000000000000000E+000
  0.000000000000000E+000
  0.000000000000000E+000
  0.000000000000000E+000
  0.000000000000000E+000
  0.000000000000000E+000
  0.000000000000000E+000
  0.000000000000000E+000
  0.000000000000000E+000
  0.000000000000000E+000
  0.000000000000000E+000
  0.000000000000000E+000
  0.000000000000000E+000
  0.000000000000000E+000
  0.000000000000000E+000
  0.000000000000000E+000
  0.000000000000000E+000
  0.000000000000000E+000
  0.000000000000000E+000
  0.000000000000000E+000
  0.000000000000000E+000
  0.000000000000000E+000
  0.000000000000000E+000
  0.000000000000000E+000
  0.000000000000000E+000
  0.000000000000000E+000
  0.000000000000000E+000
  0.000000000000000E+000
  0.000000000000000E+000
  0.000000000000000E+000
  0.000000000000000E+000
  0.000000000000000E+000
  0.000000000000000E+000
  0.000000000000000E+000
  0.000000000000000E+000
  0.000000000000000E+000
  0.000000000000000E+000
  0.000000000000000E+000
  0.000000000000000E+000
  0.000000000000000E+000
  0.000000000000000E+000
  0.000000000000000E+000
  0.000000000000000E+000
  0.000000000000000E+000
  0.000000000000000E+000
  0.000000000000000E+000
  0.000000000000000E+000
  0.000000000000000E+000
  0.000000000000000E+000
  0.000000000000000E+000
  0.000000000000000E+000
  0.000000000000000E+000
  0.000000000000000E+000
  0.000000000000000E+000
  0.000000000000000E+000
  0.000000000000000E+000
  0.000000000000000E+000
  0.000000000000000E+000
  0.000000000000000E+000
  0.000000000000000E+000
  0.000000000000000E+000
  0.000000000000000E+000
  0.000000000000000E+000
  0.000000000000000E+000
  0.000000000000000E+000
  0.000000000000000E+000
  0.000000000000000E+000
  0.000000000000000E+000
  0.000000000000000E+000
  0.000000000000000E+000
  0.000000000000000E+000
  0.000000000000000E+000
  0.000000000000000E+000
  0.000000000000000E+000
  0.000000000000000E+000
  0.000000000000000E+000
  0.000000000000000E+000
  0.000000000000000E+000
  0.000000000000000E+000
  0.000000000000000E+000
  0.000000000000000E+000
  0.000000000000000E+000
  0.000000000000000E+000
  0.000000000000000E+000
  0.000000000000000E+000
  0.000000000000000E+000
  0.000000000000000E+000
  0.000000000000000E+000
  0.000000000000000E+000
  0.000000000000000E+000
  0.000000000000000E+000
  0.000000000000000E+000
  0.000000000000000E+000
  0.000000000000000E+000
  0.000000000000000E+000
  0.000000000000000E+000
  0.000000000000000E+000
  0.000000000000000E+000
  0.000000000000000E+000
  0.000000000000000E+000
  0.000000000000000E+000
  0.000000000000000E+000
  0.000000000000000E+000
  0.000000000000000E+000
  0.000000000000000E+000
  0.000000000000000E+000
  0.000000000000000E+000
  0.000000000000000E+000
  0.000000000000000E+000
  0.000000000000000E+000
  0.000000000000000E+000
  0.000000000000000E+000
  0.000000000000000E+000
  0.000000000000000E+000
  0.000000000000000E+000
  0.000000000000000E+000
  0.000000000000000E+000
  0.000000000000000E+000
  0.000000000000000E+000
  0.000000000000000E+000
  0.000000000000000E+000
  0.000000000000000E+000
  0.000000000000000E+000
  0.000000000000000E+000
  0.000000000000000E+000
  0.000000000000000E+000
  0.000000000000000E+000
  0.000000000000000E+000
  0.000000000000000E+000
  0.000000000000000E+000
  0.000000000000000E+000
  0.000000000000000E+000
  0.000000000000000E+000
  0.000000000000000E+000
  0.000000000000000E+000
  0.000000000000000E+000
  0.000000000000000E+000
  0.000000000000000E+000
  0.000000000000000E+000
  0.000000000000000E+000
  0.000000000000000E+000
  0.000000000000000E+000
  0.000000000000000E+000
  0.000000000000000E+000
  0.000000000000000E+000
  0.000000000000000E+000
  0.000000000000000E+000
  0.000000000000000E+000
  0.000000000000000E+000
  0.000000000000000E+000
  0.000000000000000E+000
  0.000000000000000E+000
  0.000000000000000E+000
  0.000000000000000E+000
  0.000000000000000E+000
  0.000000000000000E+000
  0.000000000000000E+000
  0.000000000000000E+000
  0.000000000000000E+000
  0.000000000000000E+000
  0.000000000000000E+000
  0.000000000000000E+000
  0.000000000000000E+000
  0.000000000000000E+000
  0.000000000000000E+000
  0.000000000000000E+000
  0.000000000000000E+000
  0.000000000000000E+000
  0.000000000000000E+000
  0.000000000000000E+000
  0.000000000000000E+000
  0.000000000000000E+000
  0.000000000000000E+000
  0.000000000000000E+000
  0.000000000000000E+000
  0.000000000000000E+000
  0.000000000000000E+000
  0.000000000000000E+000
  0.000000000000000E+000
  0.000000000000000E+000
  0.000000000000000E+000
  0.000000000000000E+000
  0.000000000000000E+000
  0.000000000000000E+000
  0.000000000000000E+000
  0.000000000000000E+000
  0.000000000000000E+000
  0.000000000000000E+000
  0.000000000000000E+000
  0.000000000000000E+000
  0.000000000000000E+000
  0.000000000000000E+000
  0.000000000000000E+000
  0.000000000000000E+000
  0.000000000000000E+000
  0.000000000000000E+000
  0.000000000000000E+000
  0.000000000000000E+000
  0.000000000000000E+000
  0.000000000000000E+000
  0.000000000000000E+000
  0.000000000000000E+000
  0.000000000000000E+000
  0.000000000000000E+000
  0.000000000000000E+000
  0.000000000000000E+000
  0.000000000000000E+000
  0.000000000000000E+000
  0.000000000000000E+000
  0.000000000000000E+000
  0.000000000000000E+000
  0.000000000000000E+000
  0.000000000000000E+000
  0.000000000000000E+000
  0.000000000000000E+000
  0.000000000000000E+000
  0.000000000000000E+000
  0.000000000000000E+000
  0.000000000000000E+000
  0.000000000000000E+000
  0.000000000000000E+000
  0.000000000000000E+000
  0.000000000000000E+000
  0.000000000000000E+000
  0.000000000000000E+000
  0.000000000000000E+000
  0.000000000000000E+000
  0.000000000000000E+000
  0.000000000000000E+000
  0.000000000000000E+000
  0.000000000000000E+000
  0.000000000000000E+000
  0.000000000000000E+000
  0.000000000000000E+000
  0.000000000000000E+000
  0.000000000000000E+000
  0.000000000000000E+000
  0.000000000000000E+000
  0.000000000000000E+000
  0.000000000000000E+000
  0.000000000000000E+000
  0.000000000000000E+000
  0.000000000000000E+000
  0.000000000000000E+000
  0.000000000000000E+000
  0.000000000000000E+000
  0.000000000000000E+000
  0.000000000000000E+000
  0.000000000000000E+000
  0.000000000000000E+000
  0.000000000000000E+000
  0.000000000000000E+000
  0.000000000000000E+000
  0.000000000000000E+000
  0.000000000000000E+000
  0.000000000000000E+000
  0.000000000000000E+000
  0.000000000000000E+000
  0.000000000000000E+000
  0.000000000000000E+000
  0.000000000000000E+000
  0.000000000000000E+000
  0.000000000000000E+000
  0.000000000000000E+000
  0.000000000000000E+000
  0.000000000000000E+000
  0.000000000000000E+000
  0.000000000000000E+000
  0.000000000000000E+000
  0.000000000000000E+000
  0.000000000000000E+000
  0.000000000000000E+000
  0.000000000000000E+000
  0.000000000000000E+000
  0.000000000000000E+000
  0.000000000000000E+000
  0.000000000000000E+000
  0.000000000000000E+000
  0.000000000000000E+000
  0.000000000000000E+000
  0.000000000000000E+000
  0.000000000000000E+000
  0.000000000000000E+000
  0.000000000000000E+000
  0.000000000000000E+000
  0.000000000000000E+000
  0.000000000000000E+000
  0.000000000000000E+000
  0.000000000000000E+000
  0.000000000000000E+000
  0.000000000000000E+000
  0.000000000000000E+000
  0.000000000000000E+000
  0.000000000000000E+000
  0.000000000000000E+000
  0.000000000000000E+000
  0.000000000000000E+000
  0.000000000000000E+000
  0.000000000000000E+000
  0.000000000000000E+000
  0.000000000000000E+000
  0.000000000000000E+000
  0.000000000000000E+000
  0.000000000000000E+000
  0.000000000000000E+000
  0.000000000000000E+000
  0.000000000000000E+000
  0.000000000000000E+000
  0.000000000000000E+000
  0.000000000000000E+000
  0.000000000000000E+000
  0.000000000000000E+000
  0.000000000000000E+000
  0.000000000000000E+000
  0.000000000000000E+000
  0.000000000000000E+000
  0.000000000000000E+000
  0.000000000000000E+000
  0.000000000000000E+000
  0.000000000000000E+000
  0.000000000000000E+000
  0.000000000000000E+000
  0.000000000000000E+000
  0.000000000000000E+000
  0.000000000000000E+000
  0.000000000000000E+000
  0.000000000000000E+000
  0.000000000000000E+000
  0.000000000000000E+000
  0.000000000000000E+000
  0.000000000000000E+000
  0.000000000000000E+000
  0.000000000000000E+000
  0.000000000000000E+000
  0.000000000000000E+000
  0.000000000000000E+000
  0.000000000000000E+000
  0.000000000000000E+000
  0.000000000000000E+000
  0.000000000000000E+000
  0.000000000000000E+000
  0.000000000000000E+000
  0.000000000000000E+000
  0.000000000000000E+000
  0.000000000000000E+000
  0.000000000000000E+000
  0.000000000000000E+000
  0.000000000000000E+000
  0.000000000000000E+000
  0.000000000000000E+000
  0.000000000000000E+000
  0.000000000000000E+000
  0.000000000000000E+000
  0.000000000000000E+000
  0.000000000000000E+000
  0.000000000000000E+000
  0.000000000000000E+000
  0.000000000000000E+000
  0.000000000000000E+000
  0.000000000000000E+000
  0.000000000000000E+000
  0.000000000000000E+000
  0.000000000000000E+000
  0.000000000000000E+000
  0.000000000000000E+000
  0.000000000000000E+000
  0.000000000000000E+000
  0.000000000000000E+000
  0.000000000000000E+000
  0.000000000000000E+000
  0.000000000000000E+000
  0.000000000000000E+000
  0.000000000000000E+000
  0.000000000000000E+000
  0.000000000000000E+000
  0.000000000000000E+000
  0.000000000000000E+000
  0.000000000000000E+000
  0.000000000000000E+000
  0.000000000000000E+000
  0.000000000000000E+000
  0.000000000000000E+000
  0.000000000000000E+000
  0.000000000000000E+000
  0.000000000000000E+000
  0.000000000000000E+000
  0.000000000000000E+000
  0.000000000000000E+000
  0.000000000000000E+000
  0.000000000000000E+000
  0.000000000000000E+000
  0.000000000000000E+000
  0.000000000000000E+000
  0.000000000000000E+000
  0.000000000000000E+000
  0.000000000000000E+000
  0.000000000000000E+000
  0.000000000000000E+000
  0.000000000000000E+000
  0.000000000000000E+000
  0.000000000000000E+000
  0.000000000000000E+000
  0.000000000000000E+000
  0.000000000000000E+000
  0.000000000000000E+000
  0.000000000000000E+000
  0.000000000000000E+000
  0.000000000000000E+000
  0.000000000000000E+000
  0.000000000000000E+000
  0.000000000000000E+000
  0.000000000000000E+000
  0.000000000000000E+000
  0.000000000000000E+000
  0.000000000000000E+000
  0.000000000000000E+000
  0.000000000000000E+000
  0.000000000000000E+000
  0.000000000000000E+000
  0.000000000000000E+000
  0.000000000000000E+000
  0.000000000000000E+000
  0.000000000000000E+000
  0.000000000000000E+000
  0.000000000000000E+000
  0.000000000000000E+000
  0.000000000000000E+000
  0.000000000000000E+000
  0.000000000000000E+000
  0.000000000000000E+000
  0.000000000000000E+000
  0.000000000000000E+000
  0.000000000000000E+000
  0.000000000000000E+000
  0.000000000000000E+000
  0.000000000000000E+000
  0.000000000000000E+000
  0.000000000000000E+000
  0.000000000000000E+000
  0.000000000000000E+000
  0.000000000000000E+000
  0.000000000000000E+000
  0.000000000000000E+000
  0.000000000000000E+000
  0.000000000000000E+000
  0.000000000000000E+000
  0.000000000000000E+000
  0.000000000000000E+000
  0.000000000000000E+000
  0.000000000000000E+000
  0.000000000000000E+000
  0.000000000000000E+000
  0.000000000000000E+000
  0.000000000000000E+000
  0.000000000000000E+000
  0.000000000000000E+000
  0.000000000000000E+000
  0.000000000000000E+000
  0.000000000000000E+000
  0.000000000000000E+000
  0.000000000000000E+000
  0.000000000000000E+000
  0.000000000000000E+000
  0.000000000000000E+000
  0.000000000000000E+000
  0.000000000000000E+000
  0.000000000000000E+000
  0.000000000000000E+000
  0.000000000000000E+000
  0.000000000000000E+000
  0.000000000000000E+000
  0.000000000000000E+000
  0.000000000000000E+000
  0.000000000000000E+000
  0.000000000000000E+000
  0.000000000000000E+000
  0.000000000000000E+000
  0.000000000000000E+000
  0.000000000000000E+000
  0.000000000000000E+000
  0.000000000000000E+000
  0.000000000000000E+000
  0.000000000000000E+000
  0.000000000000000E+000
  0.000000000000000E+000
  0.000000000000000E+000
  0.000000000000000E+000
  0.000000000000000E+000
  0.000000000000000E+000
  0.000000000000000E+000
  0.000000000000000E+000
  0.000000000000000E+000
  0.000000000000000E+000
  0.000000000000000E+000
  0.000000000000000E+000
  0.000000000000000E+000
  0.000000000000000E+000
  0.000000000000000E+000
  0.000000000000000E+000
  0.000000000000000E+000
  0.000000000000000E+000
  0.000000000000000E+000
  0.000000000000000E+000
  0.000000000000000E+000
  0.000000000000000E+000
  0.000000000000000E+000
  0.000000000000000E+000
  0.000000000000000E+000
  0.000000000000000E+000
  0.000000000000000E+000
  0.000000000000000E+000
  0.000000000000000E+000
  0.000000000000000E+000
  0.000000000000000E+000
  0.000000000000000E+000
  0.000000000000000E+000
  0.000000000000000E+000
  0.000000000000000E+000
  0.000000000000000E+000
  0.000000000000000E+000
  0.000000000000000E+000
  0.000000000000000E+000
  0.000000000000000E+000
  0.000000000000000E+000
  0.000000000000000E+000
  0.000000000000000E+000
  0.000000000000000E+000
  0.000000000000000E+000
  0.000000000000000E+000
  0.000000000000000E+000
  0.000000000000000E+000
  0.000000000000000E+000
  0.000000000000000E+000
  0.000000000000000E+000
  0.000000000000000E+000
  0.000000000000000E+000
  0.000000000000000E+000
  0.000000000000000E+000
  0.000000000000000E+000
  0.000000000000000E+000
  0.000000000000000E+000
  0.000000000000000E+000
  0.000000000000000E+000
  0.000000000000000E+000
  0.000000000000000E+000
  0.000000000000000E+000
  0.000000000000000E+000
  0.000000000000000E+000
  0.000000000000000E+000
  0.000000000000000E+000
  0.000000000000000E+000
  0.000000000000000E+000
  0.000000000000000E+000
  0.000000000000000E+000
  0.000000000000000E+000
  0.000000000000000E+000
  0.000000000000000E+000
  0.000000000000000E+000
  0.000000000000000E+000
  0.000000000000000E+000
  0.000000000000000E+000
  0.000000000000000E+000
  0.000000000000000E+000
  0.000000000000000E+000
  0.000000000000000E+000
  0.000000000000000E+000
  0.000000000000000E+000
  0.000000000000000E+000
  0.000000000000000E+000
  0.000000000000000E+000
  0.000000000000000E+000
  0.000000000000000E+000
  0.000000000000000E+000
  0.000000000000000E+000
  0.000000000000000E+000
  0.000000000000000E+000
  0.000000000000000E+000
  0.000000000000000E+000
  0.000000000000000E+000
  0.000000000000000E+000
  0.000000000000000E+000
  0.000000000000000E+000
  0.000000000000000E+000
  0.000000000000000E+000
  0.000000000000000E+000
  0.000000000000000E+000
  0.000000000000000E+000
  0.000000000000000E+000
  0.000000000000000E+000
  0.000000000000000E+000
  0.000000000000000E+000
  0.000000000000000E+000
  0.000000000000000E+000
SCALARS elementIsPlast double 
LOOKUP_TABLE default
  0.000000000000000E+000
  0.000000000000000E+000
  0.000000000000000E+000
  0.000000000000000E+000
  0.000000000000000E+000
  0.000000000000000E+000
  0.000000000000000E+000
  0.000000000000000E+000
  0.000000000000000E+000
  0.000000000000000E+000
  0.000000000000000E+000
  0.000000000000000E+000
  0.000000000000000E+000
  0.000000000000000E+000
  0.000000000000000E+000
  0.000000000000000E+000
  0.000000000000000E+000
  0.000000000000000E+000
  0.000000000000000E+000
  0.000000000000000E+000
  0.000000000000000E+000
  0.000000000000000E+000
  0.000000000000000E+000
  0.000000000000000E+000
  0.000000000000000E+000
  0.000000000000000E+000
  0.000000000000000E+000
  0.000000000000000E+000
  0.000000000000000E+000
  0.000000000000000E+000
  0.000000000000000E+000
  0.000000000000000E+000
  0.000000000000000E+000
  0.000000000000000E+000
  0.000000000000000E+000
  0.000000000000000E+000
  0.000000000000000E+000
  0.000000000000000E+000
  0.000000000000000E+000
  0.000000000000000E+000
  0.000000000000000E+000
  0.000000000000000E+000
  0.000000000000000E+000
  0.000000000000000E+000
  0.000000000000000E+000
  0.000000000000000E+000
  0.000000000000000E+000
  0.000000000000000E+000
  0.000000000000000E+000
  0.000000000000000E+000
  0.000000000000000E+000
  0.000000000000000E+000
  0.000000000000000E+000
  0.000000000000000E+000
  0.000000000000000E+000
  0.000000000000000E+000
  0.000000000000000E+000
  0.000000000000000E+000
  0.000000000000000E+000
  0.000000000000000E+000
  0.000000000000000E+000
  0.000000000000000E+000
  0.000000000000000E+000
  0.000000000000000E+000
  0.000000000000000E+000
  0.000000000000000E+000
  0.000000000000000E+000
  0.000000000000000E+000
  0.000000000000000E+000
  0.000000000000000E+000
  0.000000000000000E+000
  0.000000000000000E+000
  0.000000000000000E+000
  0.000000000000000E+000
  0.000000000000000E+000
  0.000000000000000E+000
  0.000000000000000E+000
  0.000000000000000E+000
  0.000000000000000E+000
  0.000000000000000E+000
  0.000000000000000E+000
  0.000000000000000E+000
  0.000000000000000E+000
  0.000000000000000E+000
  0.000000000000000E+000
  0.000000000000000E+000
  0.000000000000000E+000
  0.000000000000000E+000
  0.000000000000000E+000
  0.000000000000000E+000
  0.000000000000000E+000
  0.000000000000000E+000
  0.000000000000000E+000
  0.000000000000000E+000
  0.000000000000000E+000
  0.000000000000000E+000
  0.000000000000000E+000
  0.000000000000000E+000
  0.000000000000000E+000
  0.000000000000000E+000
  0.000000000000000E+000
  0.000000000000000E+000
  0.000000000000000E+000
  0.000000000000000E+000
  0.000000000000000E+000
  0.000000000000000E+000
  0.000000000000000E+000
  0.000000000000000E+000
  0.000000000000000E+000
  0.000000000000000E+000
  0.000000000000000E+000
  0.000000000000000E+000
  0.000000000000000E+000
  0.000000000000000E+000
  0.000000000000000E+000
  0.000000000000000E+000
  0.000000000000000E+000
  0.000000000000000E+000
  0.000000000000000E+000
  0.000000000000000E+000
  0.000000000000000E+000
  0.000000000000000E+000
  0.000000000000000E+000
  0.000000000000000E+000
  0.000000000000000E+000
  0.000000000000000E+000
  0.000000000000000E+000
  0.000000000000000E+000
  0.000000000000000E+000
  0.000000000000000E+000
  0.000000000000000E+000
  0.000000000000000E+000
  0.000000000000000E+000
  0.000000000000000E+000
  0.000000000000000E+000
  0.000000000000000E+000
  0.000000000000000E+000
  0.000000000000000E+000
  0.000000000000000E+000
  0.000000000000000E+000
  0.000000000000000E+000
  0.000000000000000E+000
  0.000000000000000E+000
  0.000000000000000E+000
  0.000000000000000E+000
  0.000000000000000E+000
  0.000000000000000E+000
  0.000000000000000E+000
  0.000000000000000E+000
  0.000000000000000E+000
  0.000000000000000E+000
  0.000000000000000E+000
  0.000000000000000E+000
  0.000000000000000E+000
  0.000000000000000E+000
  0.000000000000000E+000
  0.000000000000000E+000
  0.000000000000000E+000
  0.000000000000000E+000
  0.000000000000000E+000
  0.000000000000000E+000
  0.000000000000000E+000
  0.000000000000000E+000
  0.000000000000000E+000
  0.000000000000000E+000
  0.000000000000000E+000
  0.000000000000000E+000
  0.000000000000000E+000
  0.000000000000000E+000
  0.000000000000000E+000
  0.000000000000000E+000
  0.000000000000000E+000
  0.000000000000000E+000
  0.000000000000000E+000
  0.000000000000000E+000
  0.000000000000000E+000
  0.000000000000000E+000
  0.000000000000000E+000
  0.000000000000000E+000
  0.000000000000000E+000
  0.000000000000000E+000
  0.000000000000000E+000
  0.000000000000000E+000
  0.000000000000000E+000
  0.000000000000000E+000
  0.000000000000000E+000
  0.000000000000000E+000
  0.000000000000000E+000
  0.000000000000000E+000
  0.000000000000000E+000
  0.000000000000000E+000
  0.000000000000000E+000
  0.000000000000000E+000
  0.000000000000000E+000
  0.000000000000000E+000
  0.000000000000000E+000
  0.000000000000000E+000
  0.000000000000000E+000
  0.000000000000000E+000
  0.000000000000000E+000
  0.000000000000000E+000
  0.000000000000000E+000
  0.000000000000000E+000
  0.000000000000000E+000
  0.000000000000000E+000
  0.000000000000000E+000
  0.000000000000000E+000
  0.000000000000000E+000
  0.000000000000000E+000
  0.000000000000000E+000
  0.000000000000000E+000
  0.000000000000000E+000
  0.000000000000000E+000
  0.000000000000000E+000
  0.000000000000000E+000
  0.000000000000000E+000
  0.000000000000000E+000
  0.000000000000000E+000
  0.000000000000000E+000
  0.000000000000000E+000
  0.000000000000000E+000
  0.000000000000000E+000
  0.000000000000000E+000
  0.000000000000000E+000
  0.000000000000000E+000
  0.000000000000000E+000
  0.000000000000000E+000
  0.000000000000000E+000
  0.000000000000000E+000
  0.000000000000000E+000
  0.000000000000000E+000
  0.000000000000000E+000
  0.000000000000000E+000
  0.000000000000000E+000
  0.000000000000000E+000
  0.000000000000000E+000
  0.000000000000000E+000
  0.000000000000000E+000
  0.000000000000000E+000
  0.000000000000000E+000
  0.000000000000000E+000
  0.000000000000000E+000
  0.000000000000000E+000
  0.000000000000000E+000
  0.000000000000000E+000
  0.000000000000000E+000
  0.000000000000000E+000
  0.000000000000000E+000
  0.000000000000000E+000
  0.000000000000000E+000
  0.000000000000000E+000
  0.000000000000000E+000
  0.000000000000000E+000
  0.000000000000000E+000
  0.000000000000000E+000
  0.000000000000000E+000
  0.000000000000000E+000
  0.000000000000000E+000
  0.000000000000000E+000
  0.000000000000000E+000
  0.000000000000000E+000
  0.000000000000000E+000
  0.000000000000000E+000
  0.000000000000000E+000
  0.000000000000000E+000
  0.000000000000000E+000
  0.000000000000000E+000
  0.000000000000000E+000
  0.000000000000000E+000
  0.000000000000000E+000
  0.000000000000000E+000
  0.000000000000000E+000
  0.000000000000000E+000
  0.000000000000000E+000
  0.000000000000000E+000
  0.000000000000000E+000
  0.000000000000000E+000
  0.000000000000000E+000
  0.000000000000000E+000
  0.000000000000000E+000
  0.000000000000000E+000
  0.000000000000000E+000
  0.000000000000000E+000
  0.000000000000000E+000
  0.000000000000000E+000
  0.000000000000000E+000
  0.000000000000000E+000
  0.000000000000000E+000
  0.000000000000000E+000
  0.000000000000000E+000
  0.000000000000000E+000
  0.000000000000000E+000
  0.000000000000000E+000
  0.000000000000000E+000
  0.000000000000000E+000
  0.000000000000000E+000
  0.000000000000000E+000
  0.000000000000000E+000
  0.000000000000000E+000
  0.000000000000000E+000
  0.000000000000000E+000
  0.000000000000000E+000
  0.000000000000000E+000
  0.000000000000000E+000
  0.000000000000000E+000
  0.000000000000000E+000
  0.000000000000000E+000
  0.000000000000000E+000
  0.000000000000000E+000
  0.000000000000000E+000
  0.000000000000000E+000
  0.000000000000000E+000
  0.000000000000000E+000
  0.000000000000000E+000
  0.000000000000000E+000
  0.000000000000000E+000
  0.000000000000000E+000
  0.000000000000000E+000
  0.000000000000000E+000
  0.000000000000000E+000
  0.000000000000000E+000
  0.000000000000000E+000
  0.000000000000000E+000
  0.000000000000000E+000
  0.000000000000000E+000
  0.000000000000000E+000
  0.000000000000000E+000
  0.000000000000000E+000
  0.000000000000000E+000
  0.000000000000000E+000
  0.000000000000000E+000
  0.000000000000000E+000
  0.000000000000000E+000
  0.000000000000000E+000
  0.000000000000000E+000
  0.000000000000000E+000
  0.000000000000000E+000
  0.000000000000000E+000
  0.000000000000000E+000
  0.000000000000000E+000
  0.000000000000000E+000
  0.000000000000000E+000
  0.000000000000000E+000
  0.000000000000000E+000
  0.000000000000000E+000
  0.000000000000000E+000
  0.000000000000000E+000
  0.000000000000000E+000
  0.000000000000000E+000
  0.000000000000000E+000
  0.000000000000000E+000
  0.000000000000000E+000
  0.000000000000000E+000
  0.000000000000000E+000
  0.000000000000000E+000
  0.000000000000000E+000
  0.000000000000000E+000
  0.000000000000000E+000
  0.000000000000000E+000
  0.000000000000000E+000
  0.000000000000000E+000
  0.000000000000000E+000
  0.000000000000000E+000
  0.000000000000000E+000
  0.000000000000000E+000
  0.000000000000000E+000
  0.000000000000000E+000
  0.000000000000000E+000
  0.000000000000000E+000
  0.000000000000000E+000
  0.000000000000000E+000
  0.000000000000000E+000
  0.000000000000000E+000
  0.000000000000000E+000
  0.000000000000000E+000
  0.000000000000000E+000
  0.000000000000000E+000
  0.000000000000000E+000
  0.000000000000000E+000
  0.000000000000000E+000
  0.000000000000000E+000
  0.000000000000000E+000
  0.000000000000000E+000
  0.000000000000000E+000
  0.000000000000000E+000
  0.000000000000000E+000
  0.000000000000000E+000
  0.000000000000000E+000
  0.000000000000000E+000
  0.000000000000000E+000
  0.000000000000000E+000
  0.000000000000000E+000
  0.000000000000000E+000
  0.000000000000000E+000
  0.000000000000000E+000
  0.000000000000000E+000
  0.000000000000000E+000
  0.000000000000000E+000
  0.000000000000000E+000
  0.000000000000000E+000
  0.000000000000000E+000
  0.000000000000000E+000
  0.000000000000000E+000
  0.000000000000000E+000
  0.000000000000000E+000
  0.000000000000000E+000
  0.000000000000000E+000
  0.000000000000000E+000
  0.000000000000000E+000
  0.000000000000000E+000
  0.000000000000000E+000
  0.000000000000000E+000
  0.000000000000000E+000
  0.000000000000000E+000
  0.000000000000000E+000
  0.000000000000000E+000
  0.000000000000000E+000
  0.000000000000000E+000
  0.000000000000000E+000
  0.000000000000000E+000
  0.000000000000000E+000
  0.000000000000000E+000
  0.000000000000000E+000
  0.000000000000000E+000
  0.000000000000000E+000
  0.000000000000000E+000
  0.000000000000000E+000
  0.000000000000000E+000
  0.000000000000000E+000
  0.000000000000000E+000
  0.000000000000000E+000
  0.000000000000000E+000
  0.000000000000000E+000
  0.000000000000000E+000
  0.000000000000000E+000
  0.000000000000000E+000
  0.000000000000000E+000
  0.000000000000000E+000
  0.000000000000000E+000
  0.000000000000000E+000
  0.000000000000000E+000
  0.000000000000000E+000
  0.000000000000000E+000
  0.000000000000000E+000
  0.000000000000000E+000
  0.000000000000000E+000
  0.000000000000000E+000
  0.000000000000000E+000
  0.000000000000000E+000
  0.000000000000000E+000
  0.000000000000000E+000
  0.000000000000000E+000
  0.000000000000000E+000
  0.000000000000000E+000
  0.000000000000000E+000
  0.000000000000000E+000
  0.000000000000000E+000
  0.000000000000000E+000
  0.000000000000000E+000
  0.000000000000000E+000
  0.000000000000000E+000
  0.000000000000000E+000
  0.000000000000000E+000
  0.000000000000000E+000
  0.000000000000000E+000
  0.000000000000000E+000
  0.000000000000000E+000
  0.000000000000000E+000
  0.000000000000000E+000
  0.000000000000000E+000
  0.000000000000000E+000
  0.000000000000000E+000
  0.000000000000000E+000
  0.000000000000000E+000
  0.000000000000000E+000
  0.000000000000000E+000
  0.000000000000000E+000
  0.000000000000000E+000
  0.000000000000000E+000
  0.000000000000000E+000
  0.000000000000000E+000
  0.000000000000000E+000
  0.000000000000000E+000
  0.000000000000000E+000
  0.000000000000000E+000
  0.000000000000000E+000
  0.000000000000000E+000
  0.000000000000000E+000
  0.000000000000000E+000
  0.000000000000000E+000
  0.000000000000000E+000
  0.000000000000000E+000
  0.000000000000000E+000
  0.000000000000000E+000
  0.000000000000000E+000
  0.000000000000000E+000
  0.000000000000000E+000
  0.000000000000000E+000
  0.000000000000000E+000
  0.000000000000000E+000
  0.000000000000000E+000
  0.000000000000000E+000
  0.000000000000000E+000
  0.000000000000000E+000
  0.000000000000000E+000
  0.000000000000000E+000
  0.000000000000000E+000
  0.000000000000000E+000
  0.000000000000000E+000
  0.000000000000000E+000
  0.000000000000000E+000
  0.000000000000000E+000
  0.000000000000000E+000
  0.000000000000000E+000
  0.000000000000000E+000
  0.000000000000000E+000
  0.000000000000000E+000
  0.000000000000000E+000
  0.000000000000000E+000
  0.000000000000000E+000
  0.000000000000000E+000
  0.000000000000000E+000
  0.000000000000000E+000
  0.000000000000000E+000
  0.000000000000000E+000
  0.000000000000000E+000
  0.000000000000000E+000
  0.000000000000000E+000
  0.000000000000000E+000
  0.000000000000000E+000
  0.000000000000000E+000
  0.000000000000000E+000
  0.000000000000000E+000
  0.000000000000000E+000
  0.000000000000000E+000
  0.000000000000000E+000
  0.000000000000000E+000
  0.000000000000000E+000
  0.000000000000000E+000
  0.000000000000000E+000
  0.000000000000000E+000
  0.000000000000000E+000
  0.000000000000000E+000
  0.000000000000000E+000
  0.000000000000000E+000
  0.000000000000000E+000
  0.000000000000000E+000
  0.000000000000000E+000
  0.000000000000000E+000
  0.000000000000000E+000
  0.000000000000000E+000
  0.000000000000000E+000
  0.000000000000000E+000
  0.000000000000000E+000
  0.000000000000000E+000
  0.000000000000000E+000
  0.000000000000000E+000
  0.000000000000000E+000
  0.000000000000000E+000
  0.000000000000000E+000
  0.000000000000000E+000
  0.000000000000000E+000
  0.000000000000000E+000
  0.000000000000000E+000
  0.000000000000000E+000
  0.000000000000000E+000
  0.000000000000000E+000
  0.000000000000000E+000
  0.000000000000000E+000
  0.000000000000000E+000
  0.000000000000000E+000
  0.000000000000000E+000
  0.000000000000000E+000
  0.000000000000000E+000
  0.000000000000000E+000
  0.000000000000000E+000
  0.000000000000000E+000
  0.000000000000000E+000
  0.000000000000000E+000
  0.000000000000000E+000
  0.000000000000000E+000
  0.000000000000000E+000
  0.000000000000000E+000
  0.000000000000000E+000
  0.000000000000000E+000
  0.000000000000000E+000
  0.000000000000000E+000
  0.000000000000000E+000
  0.000000000000000E+000
  0.000000000000000E+000
  0.000000000000000E+000
  0.000000000000000E+000
  0.000000000000000E+000
  0.000000000000000E+000
  0.000000000000000E+000
  0.000000000000000E+000
  0.000000000000000E+000
  0.000000000000000E+000
  0.000000000000000E+000
  0.000000000000000E+000
  0.000000000000000E+000
  0.000000000000000E+000
  0.000000000000000E+000
  0.000000000000000E+000
  0.000000000000000E+000
  0.000000000000000E+000
  0.000000000000000E+000
  0.000000000000000E+000
  0.000000000000000E+000
  0.000000000000000E+000
  0.000000000000000E+000
  0.000000000000000E+000
  0.000000000000000E+000
  0.000000000000000E+000
  0.000000000000000E+000
  0.000000000000000E+000
  0.000000000000000E+000
  0.000000000000000E+000
  0.000000000000000E+000
  0.000000000000000E+000
  0.000000000000000E+000
  0.000000000000000E+000
  0.000000000000000E+000
  0.000000000000000E+000
  0.000000000000000E+000
  0.000000000000000E+000
  0.000000000000000E+000
  0.000000000000000E+000
  0.000000000000000E+000
  0.000000000000000E+000
  0.000000000000000E+000
  0.000000000000000E+000
  0.000000000000000E+000
  0.000000000000000E+000
  0.000000000000000E+000
  0.000000000000000E+000
  0.000000000000000E+000
  0.000000000000000E+000
  0.000000000000000E+000
  0.000000000000000E+000
  0.000000000000000E+000
  0.000000000000000E+000
  0.000000000000000E+000
  0.000000000000000E+000
  0.000000000000000E+000
  0.000000000000000E+000
  0.000000000000000E+000
  0.000000000000000E+000
  0.000000000000000E+000
  0.000000000000000E+000
  0.000000000000000E+000
  0.000000000000000E+000
  0.000000000000000E+000
  0.000000000000000E+000
  0.000000000000000E+000
  0.000000000000000E+000
  0.000000000000000E+000
  0.000000000000000E+000
  0.000000000000000E+000
  0.000000000000000E+000
  0.000000000000000E+000
  0.000000000000000E+000
  0.000000000000000E+000
  0.000000000000000E+000
  0.000000000000000E+000
  0.000000000000000E+000
  0.000000000000000E+000
  0.000000000000000E+000
  0.000000000000000E+000
  0.000000000000000E+000
  0.000000000000000E+000
  0.000000000000000E+000
  0.000000000000000E+000
  0.000000000000000E+000
  0.000000000000000E+000
  0.000000000000000E+000
  0.000000000000000E+000
  0.000000000000000E+000
  0.000000000000000E+000
  0.000000000000000E+000
  0.000000000000000E+000
  0.000000000000000E+000
  0.000000000000000E+000
  0.000000000000000E+000
  0.000000000000000E+000
  0.000000000000000E+000
  0.000000000000000E+000
  0.000000000000000E+000
  0.000000000000000E+000
  0.000000000000000E+000
  0.000000000000000E+000
  0.000000000000000E+000
  0.000000000000000E+000
  0.000000000000000E+000
  0.000000000000000E+000
  0.000000000000000E+000
  0.000000000000000E+000
  0.000000000000000E+000
  0.000000000000000E+000
  0.000000000000000E+000
  0.000000000000000E+000
  0.000000000000000E+000
  0.000000000000000E+000
  0.000000000000000E+000
  0.000000000000000E+000
  0.000000000000000E+000
  0.000000000000000E+000
  0.000000000000000E+000
  0.000000000000000E+000
  0.000000000000000E+000
  0.000000000000000E+000
  0.000000000000000E+000
  0.000000000000000E+000
  0.000000000000000E+000
  0.000000000000000E+000
  0.000000000000000E+000
  0.000000000000000E+000
  0.000000000000000E+000
  0.000000000000000E+000
  0.000000000000000E+000
  0.000000000000000E+000
  0.000000000000000E+000
  0.000000000000000E+000
  0.000000000000000E+000
  0.000000000000000E+000
  0.000000000000000E+000
  0.000000000000000E+000
  0.000000000000000E+000
  0.000000000000000E+000
  0.000000000000000E+000
  0.000000000000000E+000
  0.000000000000000E+000
  0.000000000000000E+000
  0.000000000000000E+000
  0.000000000000000E+000
  0.000000000000000E+000
  0.000000000000000E+000
  0.000000000000000E+000
  0.000000000000000E+000
  0.000000000000000E+000
  0.000000000000000E+000
  0.000000000000000E+000
  0.000000000000000E+000
  0.000000000000000E+000
  0.000000000000000E+000
  0.000000000000000E+000
  0.000000000000000E+000
  0.000000000000000E+000
  0.000000000000000E+000
  0.000000000000000E+000
  0.000000000000000E+000
  0.000000000000000E+000
  0.000000000000000E+000
  0.000000000000000E+000
  0.000000000000000E+000
  0.000000000000000E+000
  0.000000000000000E+000
  0.000000000000000E+000
  0.000000000000000E+000
  0.000000000000000E+000
  0.000000000000000E+000
  0.000000000000000E+000
  0.000000000000000E+000
  0.000000000000000E+000
  0.000000000000000E+000
  0.000000000000000E+000
  0.000000000000000E+000
  0.000000000000000E+000
  0.000000000000000E+000
  0.000000000000000E+000
  0.000000000000000E+000
  0.000000000000000E+000
  0.000000000000000E+000
  0.000000000000000E+000
  0.000000000000000E+000
  0.000000000000000E+000
  0.000000000000000E+000
  0.000000000000000E+000
  0.000000000000000E+000
  0.000000000000000E+000
  0.000000000000000E+000
  0.000000000000000E+000
  0.000000000000000E+000
  0.000000000000000E+000
  0.000000000000000E+000
  0.000000000000000E+000
  0.000000000000000E+000
  0.000000000000000E+000
  0.000000000000000E+000
  0.000000000000000E+000
  0.000000000000000E+000
  0.000000000000000E+000
  0.000000000000000E+000
  0.000000000000000E+000
  0.000000000000000E+000
  0.000000000000000E+000
  0.000000000000000E+000
  0.000000000000000E+000
  0.000000000000000E+000
  0.000000000000000E+000
  0.000000000000000E+000
  0.000000000000000E+000
  0.000000000000000E+000
  0.000000000000000E+000
  0.000000000000000E+000
  0.000000000000000E+000
  0.000000000000000E+000
  0.000000000000000E+000
  0.000000000000000E+000
  0.000000000000000E+000
  0.000000000000000E+000
  0.000000000000000E+000
  0.000000000000000E+000
  0.000000000000000E+000
  0.000000000000000E+000
  0.000000000000000E+000
  0.000000000000000E+000
  0.000000000000000E+000
  0.000000000000000E+000
  0.000000000000000E+000
  0.000000000000000E+000
  0.000000000000000E+000
  0.000000000000000E+000
  0.000000000000000E+000
  0.000000000000000E+000
  0.000000000000000E+000
  0.000000000000000E+000
  0.000000000000000E+000
  0.000000000000000E+000
  0.000000000000000E+000
  0.000000000000000E+000
  0.000000000000000E+000
  0.000000000000000E+000
  0.000000000000000E+000
  0.000000000000000E+000
  0.000000000000000E+000
  0.000000000000000E+000
  0.000000000000000E+000
  0.000000000000000E+000
  0.000000000000000E+000
  0.000000000000000E+000
  0.000000000000000E+000
  0.000000000000000E+000
  0.000000000000000E+000
  0.000000000000000E+000
  0.000000000000000E+000
  0.000000000000000E+000
  0.000000000000000E+000
  0.000000000000000E+000
  0.000000000000000E+000
  0.000000000000000E+000
  0.000000000000000E+000
  0.000000000000000E+000
  0.000000000000000E+000
  0.000000000000000E+000
  0.000000000000000E+000
  0.000000000000000E+000
  0.000000000000000E+000
  0.000000000000000E+000
  0.000000000000000E+000
  0.000000000000000E+000
  0.000000000000000E+000
  0.000000000000000E+000
  0.000000000000000E+000
  0.000000000000000E+000
  0.000000000000000E+000
  0.000000000000000E+000
  0.000000000000000E+000
  0.000000000000000E+000
  0.000000000000000E+000
  0.000000000000000E+000
  0.000000000000000E+000
  0.000000000000000E+000
  0.000000000000000E+000
  0.000000000000000E+000
  0.000000000000000E+000
  0.000000000000000E+000
  0.000000000000000E+000
  0.000000000000000E+000
  0.000000000000000E+000
  0.000000000000000E+000
  0.000000000000000E+000
  0.000000000000000E+000
  0.000000000000000E+000
  0.000000000000000E+000
  0.000000000000000E+000
  0.000000000000000E+000
  0.000000000000000E+000
  0.000000000000000E+000
  0.000000000000000E+000
  0.000000000000000E+000
  0.000000000000000E+000
  0.000000000000000E+000
  0.000000000000000E+000
  0.000000000000000E+000
  0.000000000000000E+000
  0.000000000000000E+000
  0.000000000000000E+000
  0.000000000000000E+000
  0.000000000000000E+000
  0.000000000000000E+000
  0.000000000000000E+000
  0.000000000000000E+000
  0.000000000000000E+000
  0.000000000000000E+000
  0.000000000000000E+000
  0.000000000000000E+000
  0.000000000000000E+000
  0.000000000000000E+000
  0.000000000000000E+000
  0.000000000000000E+000
  0.000000000000000E+000
  0.000000000000000E+000
  0.000000000000000E+000
  0.000000000000000E+000
  0.000000000000000E+000
  0.000000000000000E+000
  0.000000000000000E+000
  0.000000000000000E+000
  0.000000000000000E+000
  0.000000000000000E+000
  0.000000000000000E+000
  0.000000000000000E+000
  0.000000000000000E+000
  0.000000000000000E+000
  0.000000000000000E+000
  0.000000000000000E+000
  0.000000000000000E+000
  0.000000000000000E+000
  0.000000000000000E+000
  0.000000000000000E+000
  0.000000000000000E+000
  0.000000000000000E+000
  0.000000000000000E+000
  0.000000000000000E+000
  0.000000000000000E+000
  0.000000000000000E+000
  0.000000000000000E+000
  0.000000000000000E+000
  0.000000000000000E+000
  0.000000000000000E+000
  0.000000000000000E+000
  0.000000000000000E+000
  0.000000000000000E+000
  0.000000000000000E+000
  0.000000000000000E+000
  0.000000000000000E+000
  0.000000000000000E+000
  0.000000000000000E+000
  0.000000000000000E+000
  0.000000000000000E+000
  0.000000000000000E+000
  0.000000000000000E+000
  0.000000000000000E+000
  0.000000000000000E+000
  0.000000000000000E+000
  0.000000000000000E+000
  0.000000000000000E+000
  0.000000000000000E+000
  0.000000000000000E+000
  0.000000000000000E+000
  0.000000000000000E+000
  0.000000000000000E+000
  0.000000000000000E+000
  0.000000000000000E+000
  0.000000000000000E+000
  0.000000000000000E+000
  0.000000000000000E+000
  0.000000000000000E+000
  0.000000000000000E+000
  0.000000000000000E+000
  0.000000000000000E+000
  0.000000000000000E+000
  0.000000000000000E+000
  0.000000000000000E+000
  0.000000000000000E+000
  0.000000000000000E+000
  0.000000000000000E+000
  0.000000000000000E+000
  0.000000000000000E+000
  0.000000000000000E+000
  0.000000000000000E+000
  0.000000000000000E+000
  0.000000000000000E+000
  0.000000000000000E+000
  0.000000000000000E+000
  0.000000000000000E+000
  0.000000000000000E+000
  0.000000000000000E+000
  0.000000000000000E+000
  0.000000000000000E+000
  0.000000000000000E+000
  0.000000000000000E+000
  0.000000000000000E+000
  0.000000000000000E+000
  0.000000000000000E+000
  0.000000000000000E+000
  0.000000000000000E+000
  0.000000000000000E+000
  0.000000000000000E+000
  0.000000000000000E+000
  0.000000000000000E+000
  0.000000000000000E+000
  0.000000000000000E+000
  0.000000000000000E+000
  0.000000000000000E+000
  0.000000000000000E+000
  0.000000000000000E+000
  0.000000000000000E+000
  0.000000000000000E+000
  0.000000000000000E+000
  0.000000000000000E+000
  0.000000000000000E+000
  0.000000000000000E+000
  0.000000000000000E+000
  0.000000000000000E+000
  0.000000000000000E+000
  0.000000000000000E+000
  0.000000000000000E+000
  0.000000000000000E+000
  0.000000000000000E+000
  0.000000000000000E+000
  0.000000000000000E+000
  0.000000000000000E+000
  0.000000000000000E+000
  0.000000000000000E+000
  0.000000000000000E+000
  0.000000000000000E+000
  0.000000000000000E+000
  0.000000000000000E+000
  0.000000000000000E+000
  0.000000000000000E+000
  0.000000000000000E+000
  0.000000000000000E+000
  0.000000000000000E+000
  0.000000000000000E+000
  0.000000000000000E+000
  0.000000000000000E+000
  0.000000000000000E+000
  0.000000000000000E+000
  0.000000000000000E+000
  0.000000000000000E+000
  0.000000000000000E+000
  0.000000000000000E+000
  0.000000000000000E+000
  0.000000000000000E+000
  0.000000000000000E+000
  0.000000000000000E+000
  0.000000000000000E+000
  0.000000000000000E+000
  0.000000000000000E+000
  0.000000000000000E+000
  0.000000000000000E+000
  0.000000000000000E+000
  0.000000000000000E+000
  0.000000000000000E+000
  0.000000000000000E+000
  0.000000000000000E+000
  0.000000000000000E+000
  0.000000000000000E+000
  0.000000000000000E+000
  0.000000000000000E+000
  0.000000000000000E+000
  0.000000000000000E+000
  0.000000000000000E+000
  0.000000000000000E+000
  0.000000000000000E+000
  0.000000000000000E+000
  0.000000000000000E+000
  0.000000000000000E+000
  0.000000000000000E+000
  0.000000000000000E+000
  0.000000000000000E+000
  0.000000000000000E+000
  0.000000000000000E+000
  0.000000000000000E+000
  0.000000000000000E+000
  0.000000000000000E+000
  0.000000000000000E+000
  0.000000000000000E+000
  0.000000000000000E+000
  0.000000000000000E+000
  0.000000000000000E+000
  0.000000000000000E+000
  0.000000000000000E+000
  0.000000000000000E+000
  0.000000000000000E+000
  0.000000000000000E+000
  0.000000000000000E+000
  0.000000000000000E+000
  0.000000000000000E+000
  0.000000000000000E+000
  0.000000000000000E+000
  0.000000000000000E+000
  0.000000000000000E+000
  0.000000000000000E+000
  0.000000000000000E+000
  0.000000000000000E+000
  0.000000000000000E+000
  0.000000000000000E+000
  0.000000000000000E+000
  0.000000000000000E+000
  0.000000000000000E+000
  0.000000000000000E+000
  0.000000000000000E+000
  0.000000000000000E+000
  0.000000000000000E+000
  0.000000000000000E+000
  0.000000000000000E+000
  0.000000000000000E+000
  0.000000000000000E+000
  0.000000000000000E+000
  0.000000000000000E+000
  0.000000000000000E+000
  0.000000000000000E+000
  0.000000000000000E+000
  0.000000000000000E+000
  0.000000000000000E+000
  0.000000000000000E+000
  0.000000000000000E+000
  0.000000000000000E+000
  0.000000000000000E+000
  0.000000000000000E+000
  0.000000000000000E+000
  0.000000000000000E+000
  0.000000000000000E+000
  0.000000000000000E+000
  0.000000000000000E+000
  0.000000000000000E+000
  0.000000000000000E+000
  0.000000000000000E+000
  0.000000000000000E+000
  0.000000000000000E+000
  0.000000000000000E+000
  0.000000000000000E+000
  0.000000000000000E+000
  0.000000000000000E+000
  0.000000000000000E+000
  0.000000000000000E+000
  0.000000000000000E+000
  0.000000000000000E+000
  0.000000000000000E+000
  0.000000000000000E+000
  0.000000000000000E+000
  0.000000000000000E+000
  0.000000000000000E+000
  0.000000000000000E+000
  0.000000000000000E+000
  0.000000000000000E+000
  0.000000000000000E+000
  0.000000000000000E+000
  0.000000000000000E+000
  0.000000000000000E+000
  0.000000000000000E+000
  0.000000000000000E+000
  0.000000000000000E+000
  0.000000000000000E+000
  0.000000000000000E+000
  0.000000000000000E+000
  0.000000000000000E+000
  0.000000000000000E+000
  0.000000000000000E+000
  0.000000000000000E+000
  0.000000000000000E+000
  0.000000000000000E+000
  0.000000000000000E+000
  0.000000000000000E+000
  0.000000000000000E+000
  0.000000000000000E+000
  0.000000000000000E+000
  0.000000000000000E+000
  0.000000000000000E+000
  0.000000000000000E+000
  0.000000000000000E+000
  0.000000000000000E+000
  0.000000000000000E+000
  0.000000000000000E+000
  0.000000000000000E+000
  0.000000000000000E+000
  0.000000000000000E+000
  0.000000000000000E+000
  0.000000000000000E+000
  0.000000000000000E+000
  0.000000000000000E+000
  0.000000000000000E+000
  0.000000000000000E+000
  0.000000000000000E+000
  0.000000000000000E+000
  0.000000000000000E+000
  0.000000000000000E+000
  0.000000000000000E+000
  0.000000000000000E+000
  0.000000000000000E+000
  0.000000000000000E+000
  0.000000000000000E+000
  0.000000000000000E+000
  0.000000000000000E+000
  0.000000000000000E+000
  0.000000000000000E+000
  0.000000000000000E+000
  0.000000000000000E+000
  0.000000000000000E+000
  0.000000000000000E+000
  0.000000000000000E+000
  0.000000000000000E+000
  0.000000000000000E+000
  0.000000000000000E+000
  0.000000000000000E+000
  0.000000000000000E+000
  0.000000000000000E+000
  0.000000000000000E+000
  0.000000000000000E+000
  0.000000000000000E+000
  0.000000000000000E+000
  0.000000000000000E+000
  0.000000000000000E+000
  0.000000000000000E+000
  0.000000000000000E+000
  0.000000000000000E+000
  0.000000000000000E+000
  0.000000000000000E+000
  0.000000000000000E+000
  0.000000000000000E+000
  0.000000000000000E+000
  0.000000000000000E+000
  0.000000000000000E+000
  0.000000000000000E+000
  0.000000000000000E+000
  0.000000000000000E+000
  0.000000000000000E+000
  0.000000000000000E+000
  0.000000000000000E+000
  0.000000000000000E+000
  0.000000000000000E+000
  0.000000000000000E+000
  0.000000000000000E+000
  0.000000000000000E+000
  0.000000000000000E+000
  0.000000000000000E+000
  0.000000000000000E+000
  0.000000000000000E+000
  0.000000000000000E+000
  0.000000000000000E+000
  0.000000000000000E+000
  0.000000000000000E+000
  0.000000000000000E+000
  0.000000000000000E+000
  0.000000000000000E+000
  0.000000000000000E+000
  0.000000000000000E+000
  0.000000000000000E+000
  0.000000000000000E+000
  0.000000000000000E+000
  0.000000000000000E+000
  0.000000000000000E+000
  0.000000000000000E+000
  0.000000000000000E+000
  0.000000000000000E+000
  0.000000000000000E+000
  0.000000000000000E+000
  0.000000000000000E+000
  0.000000000000000E+000
  0.000000000000000E+000
  0.000000000000000E+000
  0.000000000000000E+000
  0.000000000000000E+000
  0.000000000000000E+000
  0.000000000000000E+000
  0.000000000000000E+000
  0.000000000000000E+000
  0.000000000000000E+000
  0.000000000000000E+000
  0.000000000000000E+000
  0.000000000000000E+000
  0.000000000000000E+000
  0.000000000000000E+000
  0.000000000000000E+000
  0.000000000000000E+000
  0.000000000000000E+000
  0.000000000000000E+000
  0.000000000000000E+000
  0.000000000000000E+000
  0.000000000000000E+000
  0.000000000000000E+000
  0.000000000000000E+000
  0.000000000000000E+000
  0.000000000000000E+000
  0.000000000000000E+000
  0.000000000000000E+000
  0.000000000000000E+000
  0.000000000000000E+000
  0.000000000000000E+000
  0.000000000000000E+000
  0.000000000000000E+000
  0.000000000000000E+000
  0.000000000000000E+000
  0.000000000000000E+000
  0.000000000000000E+000
  0.000000000000000E+000
  0.000000000000000E+000
  0.000000000000000E+000
  0.000000000000000E+000
  0.000000000000000E+000
  0.000000000000000E+000
  0.000000000000000E+000
  0.000000000000000E+000
  0.000000000000000E+000
  0.000000000000000E+000
  0.000000000000000E+000
  0.000000000000000E+000
  0.000000000000000E+000
  0.000000000000000E+000
  0.000000000000000E+000
  0.000000000000000E+000
  0.000000000000000E+000
  0.000000000000000E+000
  0.000000000000000E+000
  0.000000000000000E+000
  0.000000000000000E+000
  0.000000000000000E+000
  0.000000000000000E+000
  0.000000000000000E+000
  0.000000000000000E+000
  0.000000000000000E+000
  0.000000000000000E+000
  0.000000000000000E+000
  0.000000000000000E+000
  0.000000000000000E+000
  0.000000000000000E+000
  0.000000000000000E+000
  0.000000000000000E+000
  0.000000000000000E+000
  0.000000000000000E+000
  0.000000000000000E+000
  0.000000000000000E+000
  0.000000000000000E+000
  0.000000000000000E+000
  0.000000000000000E+000
  0.000000000000000E+000
  0.000000000000000E+000
  0.000000000000000E+000
  0.000000000000000E+000
  0.000000000000000E+000
  0.000000000000000E+000
  0.000000000000000E+000
  0.000000000000000E+000
  0.000000000000000E+000
  0.000000000000000E+000
  0.000000000000000E+000
  0.000000000000000E+000
  0.000000000000000E+000
  0.000000000000000E+000
  0.000000000000000E+000
  0.000000000000000E+000
  0.000000000000000E+000
  0.000000000000000E+000
  0.000000000000000E+000
  0.000000000000000E+000
  0.000000000000000E+000
  0.000000000000000E+000
  0.000000000000000E+000
  0.000000000000000E+000
  0.000000000000000E+000
  0.000000000000000E+000
  0.000000000000000E+000
  0.000000000000000E+000
  0.000000000000000E+000
  0.000000000000000E+000
  0.000000000000000E+000
  0.000000000000000E+000
  0.000000000000000E+000
  0.000000000000000E+000
  0.000000000000000E+000
  0.000000000000000E+000
  0.000000000000000E+000
  0.000000000000000E+000
  0.000000000000000E+000
  0.000000000000000E+000
  0.000000000000000E+000
  0.000000000000000E+000
  0.000000000000000E+000
  0.000000000000000E+000
  0.000000000000000E+000
  0.000000000000000E+000
  0.000000000000000E+000
  0.000000000000000E+000
  0.000000000000000E+000
  0.000000000000000E+000
  0.000000000000000E+000
  0.000000000000000E+000
  0.000000000000000E+000
  0.000000000000000E+000
  0.000000000000000E+000
  0.000000000000000E+000
  0.000000000000000E+000
  0.000000000000000E+000
  0.000000000000000E+000
  0.000000000000000E+000
  0.000000000000000E+000
  0.000000000000000E+000
  0.000000000000000E+000
  0.000000000000000E+000
  0.000000000000000E+000
  0.000000000000000E+000
  0.000000000000000E+000
  0.000000000000000E+000
  0.000000000000000E+000
  0.000000000000000E+000
  0.000000000000000E+000
  0.000000000000000E+000
  0.000000000000000E+000
  0.000000000000000E+000
  0.000000000000000E+000
  0.000000000000000E+000
  0.000000000000000E+000
  0.000000000000000E+000
  0.000000000000000E+000
  0.000000000000000E+000
  0.000000000000000E+000
  0.000000000000000E+000
  0.000000000000000E+000
  0.000000000000000E+000
  0.000000000000000E+000
  0.000000000000000E+000
  0.000000000000000E+000
  0.000000000000000E+000
  0.000000000000000E+000
  0.000000000000000E+000
  0.000000000000000E+000
  0.000000000000000E+000
  0.000000000000000E+000
  0.000000000000000E+000
  0.000000000000000E+000
  0.000000000000000E+000
  0.000000000000000E+000
  0.000000000000000E+000
  0.000000000000000E+000
  0.000000000000000E+000
  0.000000000000000E+000
  0.000000000000000E+000
  0.000000000000000E+000
  0.000000000000000E+000
  0.000000000000000E+000
  0.000000000000000E+000
  0.000000000000000E+000
  0.000000000000000E+000
  0.000000000000000E+000
  0.000000000000000E+000
  0.000000000000000E+000
  0.000000000000000E+000
  0.000000000000000E+000
  0.000000000000000E+000
  0.000000000000000E+000
  0.000000000000000E+000
  0.000000000000000E+000
  0.000000000000000E+000
  0.000000000000000E+000
  0.000000000000000E+000
  0.000000000000000E+000
  0.000000000000000E+000
  0.000000000000000E+000
  0.000000000000000E+000
  0.000000000000000E+000
  0.000000000000000E+000
  0.000000000000000E+000
  0.000000000000000E+000
  0.000000000000000E+000
  0.000000000000000E+000
  0.000000000000000E+000
  0.000000000000000E+000
  0.000000000000000E+000
  0.000000000000000E+000
  0.000000000000000E+000
  0.000000000000000E+000
  0.000000000000000E+000
  0.000000000000000E+000
  0.000000000000000E+000
  0.000000000000000E+000
  0.000000000000000E+000
  0.000000000000000E+000
  0.000000000000000E+000
  0.000000000000000E+000
  0.000000000000000E+000
  0.000000000000000E+000
  0.000000000000000E+000
  0.000000000000000E+000
  0.000000000000000E+000
  0.000000000000000E+000
  0.000000000000000E+000
  0.000000000000000E+000
  0.000000000000000E+000
  0.000000000000000E+000
  0.000000000000000E+000
  0.000000000000000E+000
  0.000000000000000E+000
  0.000000000000000E+000
  0.000000000000000E+000
  0.000000000000000E+000
  0.000000000000000E+000
  0.000000000000000E+000
  0.000000000000000E+000
  0.000000000000000E+000
  0.000000000000000E+000
  0.000000000000000E+000
  0.000000000000000E+000
  0.000000000000000E+000
  0.000000000000000E+000
  0.000000000000000E+000
  0.000000000000000E+000
  0.000000000000000E+000
  0.000000000000000E+000
  0.000000000000000E+000
  0.000000000000000E+000
  0.000000000000000E+000
  0.000000000000000E+000
  0.000000000000000E+000
  0.000000000000000E+000
  0.000000000000000E+000
  0.000000000000000E+000
  0.000000000000000E+000
  0.000000000000000E+000
  0.000000000000000E+000
  0.000000000000000E+000
  0.000000000000000E+000
  0.000000000000000E+000
  0.000000000000000E+000
  0.000000000000000E+000
  0.000000000000000E+000
  0.000000000000000E+000
  0.000000000000000E+000
  0.000000000000000E+000
  0.000000000000000E+000
  0.000000000000000E+000
  0.000000000000000E+000
  0.000000000000000E+000
  0.000000000000000E+000
  0.000000000000000E+000
  0.000000000000000E+000
  0.000000000000000E+000
  0.000000000000000E+000
  0.000000000000000E+000
  0.000000000000000E+000
  0.000000000000000E+000
  0.000000000000000E+000
  0.000000000000000E+000
  0.000000000000000E+000
  0.000000000000000E+000
  0.000000000000000E+000
  0.000000000000000E+000
  0.000000000000000E+000
  0.000000000000000E+000
  0.000000000000000E+000
  0.000000000000000E+000
  0.000000000000000E+000
  0.000000000000000E+000
  0.000000000000000E+000
  0.000000000000000E+000
  0.000000000000000E+000
  0.000000000000000E+000
  0.000000000000000E+000
  0.000000000000000E+000
  0.000000000000000E+000
  0.000000000000000E+000
  0.000000000000000E+000
  0.000000000000000E+000
  0.000000000000000E+000
  0.000000000000000E+000
  0.000000000000000E+000
  0.000000000000000E+000
  0.000000000000000E+000
  0.000000000000000E+000
  0.000000000000000E+000
  0.000000000000000E+000
  0.000000000000000E+000
  0.000000000000000E+000
  0.000000000000000E+000
  0.000000000000000E+000
  0.000000000000000E+000
  0.000000000000000E+000
  0.000000000000000E+000
  0.000000000000000E+000
  0.000000000000000E+000
  0.000000000000000E+000
  0.000000000000000E+000
  0.000000000000000E+000
  0.000000000000000E+000
  0.000000000000000E+000
  0.000000000000000E+000
  0.000000000000000E+000
  0.000000000000000E+000
  0.000000000000000E+000
  0.000000000000000E+000
  0.000000000000000E+000
  0.000000000000000E+000
  0.000000000000000E+000
  0.000000000000000E+000
  0.000000000000000E+000
  0.000000000000000E+000
  0.000000000000000E+000
  0.000000000000000E+000
  0.000000000000000E+000
  0.000000000000000E+000
  0.000000000000000E+000
  0.000000000000000E+000
  0.000000000000000E+000
  0.000000000000000E+000
  0.000000000000000E+000
  0.000000000000000E+000
  0.000000000000000E+000
  0.000000000000000E+000
  0.000000000000000E+000
  0.000000000000000E+000
  0.000000000000000E+000
  0.000000000000000E+000
  0.000000000000000E+000
  0.000000000000000E+000
  0.000000000000000E+000
  0.000000000000000E+000
  0.000000000000000E+000
  0.000000000000000E+000
  0.000000000000000E+000
  0.000000000000000E+000
  0.000000000000000E+000
  0.000000000000000E+000
  0.000000000000000E+000
  0.000000000000000E+000
  0.000000000000000E+000
  0.000000000000000E+000
  0.000000000000000E+000
  0.000000000000000E+000
  0.000000000000000E+000
  0.000000000000000E+000
  0.000000000000000E+000
  0.000000000000000E+000
  0.000000000000000E+000
  0.000000000000000E+000
  0.000000000000000E+000
  0.000000000000000E+000
  0.000000000000000E+000
  0.000000000000000E+000
  0.000000000000000E+000
  0.000000000000000E+000
  0.000000000000000E+000
  0.000000000000000E+000
  0.000000000000000E+000
  0.000000000000000E+000
  0.000000000000000E+000
  0.000000000000000E+000
  0.000000000000000E+000
  0.000000000000000E+000
  0.000000000000000E+000
  0.000000000000000E+000
  0.000000000000000E+000
  0.000000000000000E+000
  0.000000000000000E+000
  0.000000000000000E+000
  0.000000000000000E+000
  0.000000000000000E+000
  0.000000000000000E+000
  0.000000000000000E+000
  0.000000000000000E+000
  0.000000000000000E+000
  0.000000000000000E+000
  0.000000000000000E+000
  0.000000000000000E+000
  0.000000000000000E+000
  0.000000000000000E+000
  0.000000000000000E+000
  0.000000000000000E+000
  0.000000000000000E+000
  0.000000000000000E+000
  0.000000000000000E+000
  0.000000000000000E+000
  0.000000000000000E+000
  0.000000000000000E+000
  0.000000000000000E+000
  0.000000000000000E+000
  0.000000000000000E+000
  0.000000000000000E+000
  0.000000000000000E+000
  0.000000000000000E+000
  0.000000000000000E+000
  0.000000000000000E+000
  0.000000000000000E+000
  0.000000000000000E+000
  0.000000000000000E+000
  0.000000000000000E+000
  0.000000000000000E+000
  0.000000000000000E+000
  0.000000000000000E+000
  0.000000000000000E+000
  0.000000000000000E+000
  0.000000000000000E+000
  0.000000000000000E+000
  0.000000000000000E+000
  0.000000000000000E+000
  0.000000000000000E+000
  0.000000000000000E+000
  0.000000000000000E+000
  0.000000000000000E+000
  0.000000000000000E+000
  0.000000000000000E+000
  0.000000000000000E+000
  0.000000000000000E+000
  0.000000000000000E+000
  0.000000000000000E+000
  0.000000000000000E+000
  0.000000000000000E+000
  0.000000000000000E+000
  0.000000000000000E+000
  0.000000000000000E+000
  0.000000000000000E+000
  0.000000000000000E+000
  0.000000000000000E+000
  0.000000000000000E+000
  0.000000000000000E+000
  0.000000000000000E+000
  0.000000000000000E+000
  0.000000000000000E+000
  0.000000000000000E+000
  0.000000000000000E+000
  0.000000000000000E+000
  0.000000000000000E+000
  0.000000000000000E+000
  0.000000000000000E+000
  0.000000000000000E+000
  0.000000000000000E+000
  0.000000000000000E+000
  0.000000000000000E+000
  0.000000000000000E+000
  0.000000000000000E+000
  0.000000000000000E+000
  0.000000000000000E+000
  0.000000000000000E+000
  0.000000000000000E+000
  0.000000000000000E+000
  0.000000000000000E+000
  0.000000000000000E+000
  0.000000000000000E+000
  0.000000000000000E+000
  0.000000000000000E+000
  0.000000000000000E+000
  0.000000000000000E+000
  0.000000000000000E+000
  0.000000000000000E+000
  0.000000000000000E+000
  0.000000000000000E+000
  0.000000000000000E+000
  0.000000000000000E+000
  0.000000000000000E+000
  0.000000000000000E+000
  0.000000000000000E+000
  0.000000000000000E+000
  0.000000000000000E+000
  0.000000000000000E+000
  0.000000000000000E+000
  0.000000000000000E+000
  0.000000000000000E+000
  0.000000000000000E+000
  0.000000000000000E+000
  0.000000000000000E+000
  0.000000000000000E+000
  0.000000000000000E+000
  0.000000000000000E+000
  0.000000000000000E+000
  0.000000000000000E+000
  0.000000000000000E+000
  0.000000000000000E+000
  0.000000000000000E+000
  0.000000000000000E+000
  0.000000000000000E+000
  0.000000000000000E+000
  0.000000000000000E+000
  0.000000000000000E+000
  0.000000000000000E+000
  0.000000000000000E+000
  0.000000000000000E+000
  0.000000000000000E+000
  0.000000000000000E+000
  0.000000000000000E+000
  0.000000000000000E+000
  0.000000000000000E+000
  0.000000000000000E+000
  0.000000000000000E+000
  0.000000000000000E+000
  0.000000000000000E+000
  0.000000000000000E+000
  0.000000000000000E+000
  0.000000000000000E+000
  0.000000000000000E+000
  0.000000000000000E+000
  0.000000000000000E+000
  0.000000000000000E+000
  0.000000000000000E+000
  0.000000000000000E+000
  0.000000000000000E+000
  0.000000000000000E+000
  0.000000000000000E+000
  0.000000000000000E+000
  0.000000000000000E+000
  0.000000000000000E+000
  0.000000000000000E+000
  0.000000000000000E+000
  0.000000000000000E+000
  0.000000000000000E+000
  0.000000000000000E+000
  0.000000000000000E+000
  0.000000000000000E+000
  0.000000000000000E+000
  0.000000000000000E+000
  0.000000000000000E+000
  0.000000000000000E+000
  0.000000000000000E+000
  0.000000000000000E+000
  0.000000000000000E+000
  0.000000000000000E+000
  0.000000000000000E+000
  0.000000000000000E+000
  0.000000000000000E+000
  0.000000000000000E+000
  0.000000000000000E+000
  0.000000000000000E+000
  0.000000000000000E+000
  0.000000000000000E+000
  0.000000000000000E+000
  0.000000000000000E+000
  0.000000000000000E+000
  0.000000000000000E+000
  0.000000000000000E+000
  0.000000000000000E+000
  0.000000000000000E+000
  0.000000000000000E+000
  0.000000000000000E+000
  0.000000000000000E+000
  0.000000000000000E+000
  0.000000000000000E+000
  0.000000000000000E+000
  0.000000000000000E+000
  0.000000000000000E+000
  0.000000000000000E+000
  0.000000000000000E+000
  0.000000000000000E+000
  0.000000000000000E+000
  0.000000000000000E+000
  0.000000000000000E+000
  0.000000000000000E+000
  0.000000000000000E+000
  0.000000000000000E+000
  0.000000000000000E+000
  0.000000000000000E+000
  0.000000000000000E+000
  0.000000000000000E+000
  0.000000000000000E+000
  0.000000000000000E+000
  0.000000000000000E+000
  0.000000000000000E+000
  0.000000000000000E+000
  0.000000000000000E+000
  0.000000000000000E+000
  0.000000000000000E+000
  0.000000000000000E+000
  0.000000000000000E+000
  0.000000000000000E+000
  0.000000000000000E+000
  0.000000000000000E+000
  0.000000000000000E+000
  0.000000000000000E+000
  0.000000000000000E+000
  0.000000000000000E+000
  0.000000000000000E+000
  0.000000000000000E+000
  0.000000000000000E+000
  0.000000000000000E+000
  0.000000000000000E+000
  0.000000000000000E+000
  0.000000000000000E+000
  0.000000000000000E+000
  0.000000000000000E+000
  0.000000000000000E+000
  0.000000000000000E+000
  0.000000000000000E+000
  0.000000000000000E+000
  0.000000000000000E+000
  0.000000000000000E+000
  0.000000000000000E+000
  0.000000000000000E+000
  0.000000000000000E+000
  0.000000000000000E+000
  0.000000000000000E+000
  0.000000000000000E+000
  0.000000000000000E+000
  0.000000000000000E+000
  0.000000000000000E+000
  0.000000000000000E+000
  0.000000000000000E+000
  0.000000000000000E+000
  0.000000000000000E+000
  0.000000000000000E+000
  0.000000000000000E+000
  0.000000000000000E+000
  0.000000000000000E+000
  0.000000000000000E+000
  0.000000000000000E+000
  0.000000000000000E+000
  0.000000000000000E+000
  0.000000000000000E+000
  0.000000000000000E+000
  0.000000000000000E+000
  0.000000000000000E+000
  0.000000000000000E+000
  0.000000000000000E+000
  0.000000000000000E+000
  0.000000000000000E+000
  0.000000000000000E+000
  0.000000000000000E+000
  0.000000000000000E+000
  0.000000000000000E+000
  0.000000000000000E+000
  0.000000000000000E+000
  0.000000000000000E+000
  0.000000000000000E+000
  0.000000000000000E+000
  0.000000000000000E+000
  0.000000000000000E+000
  0.000000000000000E+000
  0.000000000000000E+000
  0.000000000000000E+000
  0.000000000000000E+000
  0.000000000000000E+000
  0.000000000000000E+000
  0.000000000000000E+000
  0.000000000000000E+000
  0.000000000000000E+000
  0.000000000000000E+000
  0.000000000000000E+000
  0.000000000000000E+000
  0.000000000000000E+000
  0.000000000000000E+000
  0.000000000000000E+000
  0.000000000000000E+000
  0.000000000000000E+000
  0.000000000000000E+000
  0.000000000000000E+000
  0.000000000000000E+000
  0.000000000000000E+000
  0.000000000000000E+000
  0.000000000000000E+000
  0.000000000000000E+000
  0.000000000000000E+000
  0.000000000000000E+000
  0.000000000000000E+000
  0.000000000000000E+000
  0.000000000000000E+000
  0.000000000000000E+000
  0.000000000000000E+000
  0.000000000000000E+000
  0.000000000000000E+000
  0.000000000000000E+000
  0.000000000000000E+000
  0.000000000000000E+000
  0.000000000000000E+000
  0.000000000000000E+000
  0.000000000000000E+000
  0.000000000000000E+000
  0.000000000000000E+000
  0.000000000000000E+000
  0.000000000000000E+000
  0.000000000000000E+000
  0.000000000000000E+000
  0.000000000000000E+000
  0.000000000000000E+000
  0.000000000000000E+000
  0.000000000000000E+000
  0.000000000000000E+000
  0.000000000000000E+000
  0.000000000000000E+000
  0.000000000000000E+000
  0.000000000000000E+000
  0.000000000000000E+000
  0.000000000000000E+000
  0.000000000000000E+000
  0.000000000000000E+000
  0.000000000000000E+000
  0.000000000000000E+000
  0.000000000000000E+000
  0.000000000000000E+000
  0.000000000000000E+000
  0.000000000000000E+000
  0.000000000000000E+000
  0.000000000000000E+000
  0.000000000000000E+000
  0.000000000000000E+000
  0.000000000000000E+000
  0.000000000000000E+000
  0.000000000000000E+000
  0.000000000000000E+000
  0.000000000000000E+000
  0.000000000000000E+000
  0.000000000000000E+000
  0.000000000000000E+000
  0.000000000000000E+000
  0.000000000000000E+000
  0.000000000000000E+000
  0.000000000000000E+000
  0.000000000000000E+000
  0.000000000000000E+000
  0.000000000000000E+000
  0.000000000000000E+000
  0.000000000000000E+000
  0.000000000000000E+000
  0.000000000000000E+000
  0.000000000000000E+000
  0.000000000000000E+000
  0.000000000000000E+000
  0.000000000000000E+000
  0.000000000000000E+000
  0.000000000000000E+000
  0.000000000000000E+000
  0.000000000000000E+000
  0.000000000000000E+000
  0.000000000000000E+000
  0.000000000000000E+000
  0.000000000000000E+000
  0.000000000000000E+000
  0.000000000000000E+000
  0.000000000000000E+000
  0.000000000000000E+000
  0.000000000000000E+000
  0.000000000000000E+000
  0.000000000000000E+000
  0.000000000000000E+000
  0.000000000000000E+000
  0.000000000000000E+000
  0.000000000000000E+000
  0.000000000000000E+000
  0.000000000000000E+000
  0.000000000000000E+000
  0.000000000000000E+000
  0.000000000000000E+000
  0.000000000000000E+000
  0.000000000000000E+000
  0.000000000000000E+000
  0.000000000000000E+000
  0.000000000000000E+000
  0.000000000000000E+000
  0.000000000000000E+000
  0.000000000000000E+000
  0.000000000000000E+000
  0.000000000000000E+000
  0.000000000000000E+000
  0.000000000000000E+000
  0.000000000000000E+000
  0.000000000000000E+000
  0.000000000000000E+000
  0.000000000000000E+000
  0.000000000000000E+000
  0.000000000000000E+000
  0.000000000000000E+000
  0.000000000000000E+000
  0.000000000000000E+000
  0.000000000000000E+000
  0.000000000000000E+000
  0.000000000000000E+000
  0.000000000000000E+000
  0.000000000000000E+000
  0.000000000000000E+000
  0.000000000000000E+000
  0.000000000000000E+000
  0.000000000000000E+000
  0.000000000000000E+000
  0.000000000000000E+000
  0.000000000000000E+000
  0.000000000000000E+000
  0.000000000000000E+000
  0.000000000000000E+000
  0.000000000000000E+000
  0.000000000000000E+000
  0.000000000000000E+000
  0.000000000000000E+000
  0.000000000000000E+000
  0.000000000000000E+000
  0.000000000000000E+000
  0.000000000000000E+000
  0.000000000000000E+000
  0.000000000000000E+000
  0.000000000000000E+000
  0.000000000000000E+000
  0.000000000000000E+000
  0.000000000000000E+000
  0.000000000000000E+000
  0.000000000000000E+000
  0.000000000000000E+000
  0.000000000000000E+000
  0.000000000000000E+000
  0.000000000000000E+000
  0.000000000000000E+000
  0.000000000000000E+000
  0.000000000000000E+000
  0.000000000000000E+000
  0.000000000000000E+000
  0.000000000000000E+000
  0.000000000000000E+000
  0.000000000000000E+000
  0.000000000000000E+000
  0.000000000000000E+000
  0.000000000000000E+000
  0.000000000000000E+000
  0.000000000000000E+000
  0.000000000000000E+000
  0.000000000000000E+000
  0.000000000000000E+000
  0.000000000000000E+000
  0.000000000000000E+000
  0.000000000000000E+000
  0.000000000000000E+000
  0.000000000000000E+000
  0.000000000000000E+000
  0.000000000000000E+000
  0.000000000000000E+000
  0.000000000000000E+000
  0.000000000000000E+000
  0.000000000000000E+000
  0.000000000000000E+000
  0.000000000000000E+000
  0.000000000000000E+000
  0.000000000000000E+000
  0.000000000000000E+000
  0.000000000000000E+000
  0.000000000000000E+000
  0.000000000000000E+000
  0.000000000000000E+000
  0.000000000000000E+000
  0.000000000000000E+000
  0.000000000000000E+000
  0.000000000000000E+000
  0.000000000000000E+000
  0.000000000000000E+000
  0.000000000000000E+000
  0.000000000000000E+000
  0.000000000000000E+000
  0.000000000000000E+000
  0.000000000000000E+000
  0.000000000000000E+000
  0.000000000000000E+000
  0.000000000000000E+000
  0.000000000000000E+000
  0.000000000000000E+000
  0.000000000000000E+000
  0.000000000000000E+000
  0.000000000000000E+000
  0.000000000000000E+000
  0.000000000000000E+000
  0.000000000000000E+000
  0.000000000000000E+000
  0.000000000000000E+000
  0.000000000000000E+000
  0.000000000000000E+000
  0.000000000000000E+000
  0.000000000000000E+000
  0.000000000000000E+000
  0.000000000000000E+000
  0.000000000000000E+000
  0.000000000000000E+000
  0.000000000000000E+000
  0.000000000000000E+000
  0.000000000000000E+000
  0.000000000000000E+000
  0.000000000000000E+000
  0.000000000000000E+000
  0.000000000000000E+000
  0.000000000000000E+000
  0.000000000000000E+000
  0.000000000000000E+000
  0.000000000000000E+000
  0.000000000000000E+000
  0.000000000000000E+000
  0.000000000000000E+000
  0.000000000000000E+000
  0.000000000000000E+000
  0.000000000000000E+000
  0.000000000000000E+000
  0.000000000000000E+000
  0.000000000000000E+000
  0.000000000000000E+000
  0.000000000000000E+000
  0.000000000000000E+000
  0.000000000000000E+000
  0.000000000000000E+000
  0.000000000000000E+000
  0.000000000000000E+000
  0.000000000000000E+000
  0.000000000000000E+000
  0.000000000000000E+000
  0.000000000000000E+000
  0.000000000000000E+000
  0.000000000000000E+000
  0.000000000000000E+000
  0.000000000000000E+000
  0.000000000000000E+000
  0.000000000000000E+000
  0.000000000000000E+000
  0.000000000000000E+000
  0.000000000000000E+000
  0.000000000000000E+000
  0.000000000000000E+000
  0.000000000000000E+000
  0.000000000000000E+000
  0.000000000000000E+000
  0.000000000000000E+000
  0.000000000000000E+000
  0.000000000000000E+000
  0.000000000000000E+000
  0.000000000000000E+000
  0.000000000000000E+000
  0.000000000000000E+000
  0.000000000000000E+000
  0.000000000000000E+000
  0.000000000000000E+000
  0.000000000000000E+000
  0.000000000000000E+000
  0.000000000000000E+000
  0.000000000000000E+000
  0.000000000000000E+000
  0.000000000000000E+000
  0.000000000000000E+000
  0.000000000000000E+000
  0.000000000000000E+000
  0.000000000000000E+000
  0.000000000000000E+000
  0.000000000000000E+000
  0.000000000000000E+000
  0.000000000000000E+000
  0.000000000000000E+000
  0.000000000000000E+000
  0.000000000000000E+000
  0.000000000000000E+000
  0.000000000000000E+000
  0.000000000000000E+000
  0.000000000000000E+000
  0.000000000000000E+000
  0.000000000000000E+000
  0.000000000000000E+000
  0.000000000000000E+000
  0.000000000000000E+000
  0.000000000000000E+000
  0.000000000000000E+000
  0.000000000000000E+000
  0.000000000000000E+000
  0.000000000000000E+000
  0.000000000000000E+000
  0.000000000000000E+000
  0.000000000000000E+000
  0.000000000000000E+000
  0.000000000000000E+000
  0.000000000000000E+000
  0.000000000000000E+000
  0.000000000000000E+000
  0.000000000000000E+000
  0.000000000000000E+000
  0.000000000000000E+000
  0.000000000000000E+000
  0.000000000000000E+000
  0.000000000000000E+000
  0.000000000000000E+000
  0.000000000000000E+000
  0.000000000000000E+000
  0.000000000000000E+000
  0.000000000000000E+000
  0.000000000000000E+000
  0.000000000000000E+000
  0.000000000000000E+000
  0.000000000000000E+000
  0.000000000000000E+000
  0.000000000000000E+000
  0.000000000000000E+000
  0.000000000000000E+000
  0.000000000000000E+000
  0.000000000000000E+000
  0.000000000000000E+000
  0.000000000000000E+000
  0.000000000000000E+000
  0.000000000000000E+000
  0.000000000000000E+000
  0.000000000000000E+000
  0.000000000000000E+000
  0.000000000000000E+000
  0.000000000000000E+000
  0.000000000000000E+000
  0.000000000000000E+000
  0.000000000000000E+000
  0.000000000000000E+000
  0.000000000000000E+000
  0.000000000000000E+000
  0.000000000000000E+000
  0.000000000000000E+000
  0.000000000000000E+000
  0.000000000000000E+000
  0.000000000000000E+000
  0.000000000000000E+000
  0.000000000000000E+000
  0.000000000000000E+000
  0.000000000000000E+000
  0.000000000000000E+000
  0.000000000000000E+000
  0.000000000000000E+000
  0.000000000000000E+000
  0.000000000000000E+000
  0.000000000000000E+000
  0.000000000000000E+000
  0.000000000000000E+000
  0.000000000000000E+000
  0.000000000000000E+000
  0.000000000000000E+000
  0.000000000000000E+000
  0.000000000000000E+000
  0.000000000000000E+000
  0.000000000000000E+000
  0.000000000000000E+000
  0.000000000000000E+000
  0.000000000000000E+000
  0.000000000000000E+000
  0.000000000000000E+000
  0.000000000000000E+000
  0.000000000000000E+000
  0.000000000000000E+000
  0.000000000000000E+000
  0.000000000000000E+000
  0.000000000000000E+000
  0.000000000000000E+000
  0.000000000000000E+000
  0.000000000000000E+000
  0.000000000000000E+000
  0.000000000000000E+000
  0.000000000000000E+000
  0.000000000000000E+000
  0.000000000000000E+000
  0.000000000000000E+000
  0.000000000000000E+000
  0.000000000000000E+000
  0.000000000000000E+000
  0.000000000000000E+000
  0.000000000000000E+000
  0.000000000000000E+000
  0.000000000000000E+000
  0.000000000000000E+000
  0.000000000000000E+000
  0.000000000000000E+000
  0.000000000000000E+000
  0.000000000000000E+000
  0.000000000000000E+000
  0.000000000000000E+000
  0.000000000000000E+000
  0.000000000000000E+000
  0.000000000000000E+000
  0.000000000000000E+000
  0.000000000000000E+000
  0.000000000000000E+000
  0.000000000000000E+000
  0.000000000000000E+000
  0.000000000000000E+000
  0.000000000000000E+000
  0.000000000000000E+000
  0.000000000000000E+000
  0.000000000000000E+000
  0.000000000000000E+000
  0.000000000000000E+000
  0.000000000000000E+000
  0.000000000000000E+000
  0.000000000000000E+000
  0.000000000000000E+000
  0.000000000000000E+000
  0.000000000000000E+000
  0.000000000000000E+000
  0.000000000000000E+000
  0.000000000000000E+000
  0.000000000000000E+000
  0.000000000000000E+000
  0.000000000000000E+000
  0.000000000000000E+000
  0.000000000000000E+000
  0.000000000000000E+000
  0.000000000000000E+000
  0.000000000000000E+000
  0.000000000000000E+000
  0.000000000000000E+000
  0.000000000000000E+000
  0.000000000000000E+000
  0.000000000000000E+000
  0.000000000000000E+000
  0.000000000000000E+000
  0.000000000000000E+000
  0.000000000000000E+000
  0.000000000000000E+000
  0.000000000000000E+000
  0.000000000000000E+000
  0.000000000000000E+000
  0.000000000000000E+000
  0.000000000000000E+000
  0.000000000000000E+000
  0.000000000000000E+000
  0.000000000000000E+000
  0.000000000000000E+000
  0.000000000000000E+000
  0.000000000000000E+000
  0.000000000000000E+000
  0.000000000000000E+000
  0.000000000000000E+000
  0.000000000000000E+000
  0.000000000000000E+000
  0.000000000000000E+000
  0.000000000000000E+000
  0.000000000000000E+000
  0.000000000000000E+000
  0.000000000000000E+000
  0.000000000000000E+000
  0.000000000000000E+000
  0.000000000000000E+000
  0.000000000000000E+000
  0.000000000000000E+000
  0.000000000000000E+000
  0.000000000000000E+000
  0.000000000000000E+000
  0.000000000000000E+000
  0.000000000000000E+000
  0.000000000000000E+000
  0.000000000000000E+000
  0.000000000000000E+000
  0.000000000000000E+000
  0.000000000000000E+000
  0.000000000000000E+000
  0.000000000000000E+000
  0.000000000000000E+000
  0.000000000000000E+000
  0.000000000000000E+000
  0.000000000000000E+000
  0.000000000000000E+000
  0.000000000000000E+000
  0.000000000000000E+000
  0.000000000000000E+000
  0.000000000000000E+000
  0.000000000000000E+000
  0.000000000000000E+000
  0.000000000000000E+000
  0.000000000000000E+000
  0.000000000000000E+000
  0.000000000000000E+000
  0.000000000000000E+000
  0.000000000000000E+000
  0.000000000000000E+000
  0.000000000000000E+000
  0.000000000000000E+000
  0.000000000000000E+000
  0.000000000000000E+000
  0.000000000000000E+000
  0.000000000000000E+000
  0.000000000000000E+000
  0.000000000000000E+000
  0.000000000000000E+000
  0.000000000000000E+000
  0.000000000000000E+000
  0.000000000000000E+000
  0.000000000000000E+000
  0.000000000000000E+000
  0.000000000000000E+000
  0.000000000000000E+000
  0.000000000000000E+000
  0.000000000000000E+000
  0.000000000000000E+000
  0.000000000000000E+000
  0.000000000000000E+000
  0.000000000000000E+000
  0.000000000000000E+000
  0.000000000000000E+000
  0.000000000000000E+000
  0.000000000000000E+000
  0.000000000000000E+000
  0.000000000000000E+000
  0.000000000000000E+000
  0.000000000000000E+000
  0.000000000000000E+000
  0.000000000000000E+000
  0.000000000000000E+000
  0.000000000000000E+000
  0.000000000000000E+000
  0.000000000000000E+000
  0.000000000000000E+000
  0.000000000000000E+000
  0.000000000000000E+000
  0.000000000000000E+000
  0.000000000000000E+000
  0.000000000000000E+000
  0.000000000000000E+000
  0.000000000000000E+000
  0.000000000000000E+000
  0.000000000000000E+000
  0.000000000000000E+000
  0.000000000000000E+000
  0.000000000000000E+000
  0.000000000000000E+000
  0.000000000000000E+000
  0.000000000000000E+000
  0.000000000000000E+000
  0.000000000000000E+000
  0.000000000000000E+000
  0.000000000000000E+000
  0.000000000000000E+000
  0.000000000000000E+000
  0.000000000000000E+000
  0.000000000000000E+000
  0.000000000000000E+000
  0.000000000000000E+000
  0.000000000000000E+000
  0.000000000000000E+000
  0.000000000000000E+000
  0.000000000000000E+000
  0.000000000000000E+000
  0.000000000000000E+000
  0.000000000000000E+000
  0.000000000000000E+000
  0.000000000000000E+000
  0.000000000000000E+000
  0.000000000000000E+000
  0.000000000000000E+000
  0.000000000000000E+000
  0.000000000000000E+000
  0.000000000000000E+000
  0.000000000000000E+000
  0.000000000000000E+000
  0.000000000000000E+000
  0.000000000000000E+000
  0.000000000000000E+000
  0.000000000000000E+000
  0.000000000000000E+000
  0.000000000000000E+000
  0.000000000000000E+000
  0.000000000000000E+000
  0.000000000000000E+000
  0.000000000000000E+000
  0.000000000000000E+000
  0.000000000000000E+000
  0.000000000000000E+000
  0.000000000000000E+000
  0.000000000000000E+000
  0.000000000000000E+000
  0.000000000000000E+000
  0.000000000000000E+000
  0.000000000000000E+000
  0.000000000000000E+000
  0.000000000000000E+000
  0.000000000000000E+000
  0.000000000000000E+000
  0.000000000000000E+000
  0.000000000000000E+000
  0.000000000000000E+000
  0.000000000000000E+000
  0.000000000000000E+000
  0.000000000000000E+000
  0.000000000000000E+000
  0.000000000000000E+000
  0.000000000000000E+000
  0.000000000000000E+000
  0.000000000000000E+000
  0.000000000000000E+000
  0.000000000000000E+000
  0.000000000000000E+000
  0.000000000000000E+000
  0.000000000000000E+000
  0.000000000000000E+000
  0.000000000000000E+000
  0.000000000000000E+000
  0.000000000000000E+000
  0.000000000000000E+000
  0.000000000000000E+000
  0.000000000000000E+000
  0.000000000000000E+000
  0.000000000000000E+000
  0.000000000000000E+000
  0.000000000000000E+000
  0.000000000000000E+000
  0.000000000000000E+000
  0.000000000000000E+000
  0.000000000000000E+000
  0.000000000000000E+000
  0.000000000000000E+000
  0.000000000000000E+000
  0.000000000000000E+000
  0.000000000000000E+000
  0.000000000000000E+000
  0.000000000000000E+000
  0.000000000000000E+000
  0.000000000000000E+000
  0.000000000000000E+000
  0.000000000000000E+000
  0.000000000000000E+000
  0.000000000000000E+000
  0.000000000000000E+000
  0.000000000000000E+000
  0.000000000000000E+000
  0.000000000000000E+000
  0.000000000000000E+000
  0.000000000000000E+000
  0.000000000000000E+000
  0.000000000000000E+000
  0.000000000000000E+000
  0.000000000000000E+000
  0.000000000000000E+000
  0.000000000000000E+000
  0.000000000000000E+000
  0.000000000000000E+000
  0.000000000000000E+000
  0.000000000000000E+000
  0.000000000000000E+000
  0.000000000000000E+000
  0.000000000000000E+000
  0.000000000000000E+000
  0.000000000000000E+000
  0.000000000000000E+000
  0.000000000000000E+000
  0.000000000000000E+000
  0.000000000000000E+000
  0.000000000000000E+000
  0.000000000000000E+000
  0.000000000000000E+000
  0.000000000000000E+000
  0.000000000000000E+000
  0.000000000000000E+000
  0.000000000000000E+000
  0.000000000000000E+000
  0.000000000000000E+000
  0.000000000000000E+000
  0.000000000000000E+000
  0.000000000000000E+000
  0.000000000000000E+000
  0.000000000000000E+000
  0.000000000000000E+000
  0.000000000000000E+000
  0.000000000000000E+000
  0.000000000000000E+000
  0.000000000000000E+000
  0.000000000000000E+000
  0.000000000000000E+000
  0.000000000000000E+000
  0.000000000000000E+000
  0.000000000000000E+000
  0.000000000000000E+000
  0.000000000000000E+000
  0.000000000000000E+000
  0.000000000000000E+000
  0.000000000000000E+000
  0.000000000000000E+000
  0.000000000000000E+000
  0.000000000000000E+000
  0.000000000000000E+000
  0.000000000000000E+000
  0.000000000000000E+000
  0.000000000000000E+000
  0.000000000000000E+000
  0.000000000000000E+000
  0.000000000000000E+000
  0.000000000000000E+000
  0.000000000000000E+000
  0.000000000000000E+000
  0.000000000000000E+000
  0.000000000000000E+000
  0.000000000000000E+000
  0.000000000000000E+000
  0.000000000000000E+000
  0.000000000000000E+000
  0.000000000000000E+000
  0.000000000000000E+000
  0.000000000000000E+000
  0.000000000000000E+000
  0.000000000000000E+000
  0.000000000000000E+000
  0.000000000000000E+000
  0.000000000000000E+000
  0.000000000000000E+000
  0.000000000000000E+000
  0.000000000000000E+000
  0.000000000000000E+000
  0.000000000000000E+000
  0.000000000000000E+000
  0.000000000000000E+000
  0.000000000000000E+000
  0.000000000000000E+000
  0.000000000000000E+000
  0.000000000000000E+000
  0.000000000000000E+000
  0.000000000000000E+000
  0.000000000000000E+000
  0.000000000000000E+000
  0.000000000000000E+000
  0.000000000000000E+000
  0.000000000000000E+000
  0.000000000000000E+000
  0.000000000000000E+000
  0.000000000000000E+000
  0.000000000000000E+000
  0.000000000000000E+000
  0.000000000000000E+000
  0.000000000000000E+000
  0.000000000000000E+000
  0.000000000000000E+000
  0.000000000000000E+000
  0.000000000000000E+000
  0.000000000000000E+000
  0.000000000000000E+000
  0.000000000000000E+000
  0.000000000000000E+000
  0.000000000000000E+000
  0.000000000000000E+000
  0.000000000000000E+000
  0.000000000000000E+000
  0.000000000000000E+000
  0.000000000000000E+000
  0.000000000000000E+000
  0.000000000000000E+000
  0.000000000000000E+000
  0.000000000000000E+000
  0.000000000000000E+000
  0.000000000000000E+000
  0.000000000000000E+000
  0.000000000000000E+000
  0.000000000000000E+000
  0.000000000000000E+000
  0.000000000000000E+000
  0.000000000000000E+000
  0.000000000000000E+000
  0.000000000000000E+000
  0.000000000000000E+000
  0.000000000000000E+000
  0.000000000000000E+000
  0.000000000000000E+000
  0.000000000000000E+000
  0.000000000000000E+000
  0.000000000000000E+000
  0.000000000000000E+000
  0.000000000000000E+000
  0.000000000000000E+000
  0.000000000000000E+000
  0.000000000000000E+000
  0.000000000000000E+000
  0.000000000000000E+000
  0.000000000000000E+000
  0.000000000000000E+000
  0.000000000000000E+000
  0.000000000000000E+000
  0.000000000000000E+000
  0.000000000000000E+000
  0.000000000000000E+000
  0.000000000000000E+000
  0.000000000000000E+000
  0.000000000000000E+000
  0.000000000000000E+000
  0.000000000000000E+000
  0.000000000000000E+000
  0.000000000000000E+000
  0.000000000000000E+000
  0.000000000000000E+000
  0.000000000000000E+000
  0.000000000000000E+000
  0.000000000000000E+000
  0.000000000000000E+000
  0.000000000000000E+000
  0.000000000000000E+000
  0.000000000000000E+000
  0.000000000000000E+000
  0.000000000000000E+000
  0.000000000000000E+000
  0.000000000000000E+000
  0.000000000000000E+000
  0.000000000000000E+000
  0.000000000000000E+000
  0.000000000000000E+000
  0.000000000000000E+000
  0.000000000000000E+000
  0.000000000000000E+000
  0.000000000000000E+000
  0.000000000000000E+000
  0.000000000000000E+000
  0.000000000000000E+000
  0.000000000000000E+000
  0.000000000000000E+000
  0.000000000000000E+000
  0.000000000000000E+000
  0.000000000000000E+000
  0.000000000000000E+000
  0.000000000000000E+000
  0.000000000000000E+000
  0.000000000000000E+000
  0.000000000000000E+000
  0.000000000000000E+000
  0.000000000000000E+000
  0.000000000000000E+000
  0.000000000000000E+000
  0.000000000000000E+000
  0.000000000000000E+000
  0.000000000000000E+000
  0.000000000000000E+000
  0.000000000000000E+000
  0.000000000000000E+000
  0.000000000000000E+000
  0.000000000000000E+000
  0.000000000000000E+000
  0.000000000000000E+000
  0.000000000000000E+000
  0.000000000000000E+000
  0.000000000000000E+000
  0.000000000000000E+000
  0.000000000000000E+000
  0.000000000000000E+000
  0.000000000000000E+000
  0.000000000000000E+000
  0.000000000000000E+000
  0.000000000000000E+000
  0.000000000000000E+000
  0.000000000000000E+000
  0.000000000000000E+000
  0.000000000000000E+000
  0.000000000000000E+000
  0.000000000000000E+000
  0.000000000000000E+000
  0.000000000000000E+000
  0.000000000000000E+000
  0.000000000000000E+000
  0.000000000000000E+000
  0.000000000000000E+000
  0.000000000000000E+000
  0.000000000000000E+000
  0.000000000000000E+000
  0.000000000000000E+000
  0.000000000000000E+000
  0.000000000000000E+000
  0.000000000000000E+000
  0.000000000000000E+000
  0.000000000000000E+000
  0.000000000000000E+000
  0.000000000000000E+000
  0.000000000000000E+000
  0.000000000000000E+000
  0.000000000000000E+000
  0.000000000000000E+000
  0.000000000000000E+000
  0.000000000000000E+000
  0.000000000000000E+000
  0.000000000000000E+000
  0.000000000000000E+000
  0.000000000000000E+000
  0.000000000000000E+000
  0.000000000000000E+000
  0.000000000000000E+000
  0.000000000000000E+000
  0.000000000000000E+000
  0.000000000000000E+000
  0.000000000000000E+000
  0.000000000000000E+000
  0.000000000000000E+000
  0.000000000000000E+000
  0.000000000000000E+000
  0.000000000000000E+000
  0.000000000000000E+000
  0.000000000000000E+000
  0.000000000000000E+000
  0.000000000000000E+000
  0.000000000000000E+000
  0.000000000000000E+000
  0.000000000000000E+000
  0.000000000000000E+000
  0.000000000000000E+000
  0.000000000000000E+000
  0.000000000000000E+000
  0.000000000000000E+000
  0.000000000000000E+000
  0.000000000000000E+000
  0.000000000000000E+000
  0.000000000000000E+000
  0.000000000000000E+000
  0.000000000000000E+000
  0.000000000000000E+000
  0.000000000000000E+000
  0.000000000000000E+000
  0.000000000000000E+000
  0.000000000000000E+000
  0.000000000000000E+000
  0.000000000000000E+000
  0.000000000000000E+000
  0.000000000000000E+000
  0.000000000000000E+000
  0.000000000000000E+000
  0.000000000000000E+000
  0.000000000000000E+000
  0.000000000000000E+000
  0.000000000000000E+000
  0.000000000000000E+000
  0.000000000000000E+000
  0.000000000000000E+000
  0.000000000000000E+000
  0.000000000000000E+000
  0.000000000000000E+000
  0.000000000000000E+000
  0.000000000000000E+000
  0.000000000000000E+000
  0.000000000000000E+000
  0.000000000000000E+000
  0.000000000000000E+000
  0.000000000000000E+000
  0.000000000000000E+000
  0.000000000000000E+000
  0.000000000000000E+000
  0.000000000000000E+000
  0.000000000000000E+000
  0.000000000000000E+000
  0.000000000000000E+000
  0.000000000000000E+000
  0.000000000000000E+000
  0.000000000000000E+000
  0.000000000000000E+000
  0.000000000000000E+000
  0.000000000000000E+000
  0.000000000000000E+000
  0.000000000000000E+000
  0.000000000000000E+000
  0.000000000000000E+000
  0.000000000000000E+000
  0.000000000000000E+000
  0.000000000000000E+000
  0.000000000000000E+000
  0.000000000000000E+000
  0.000000000000000E+000
  0.000000000000000E+000
  0.000000000000000E+000
  0.000000000000000E+000
  0.000000000000000E+000
  0.000000000000000E+000
  0.000000000000000E+000
  0.000000000000000E+000
  0.000000000000000E+000
  0.000000000000000E+000
  0.000000000000000E+000
  0.000000000000000E+000
  0.000000000000000E+000
  0.000000000000000E+000
  0.000000000000000E+000
  0.000000000000000E+000
  0.000000000000000E+000
  0.000000000000000E+000
  0.000000000000000E+000
  0.000000000000000E+000
  0.000000000000000E+000
  0.000000000000000E+000
  0.000000000000000E+000
  0.000000000000000E+000
  0.000000000000000E+000
  0.000000000000000E+000
  0.000000000000000E+000
  0.000000000000000E+000
  0.000000000000000E+000
  0.000000000000000E+000
  0.000000000000000E+000
  0.000000000000000E+000
  0.000000000000000E+000
  0.000000000000000E+000
  0.000000000000000E+000
  0.000000000000000E+000
  0.000000000000000E+000
  0.000000000000000E+000
  0.000000000000000E+000
  0.000000000000000E+000
  0.000000000000000E+000
  0.000000000000000E+000
  0.000000000000000E+000
  0.000000000000000E+000
  0.000000000000000E+000
  0.000000000000000E+000
  0.000000000000000E+000
  0.000000000000000E+000
  0.000000000000000E+000
  0.000000000000000E+000
  0.000000000000000E+000
  0.000000000000000E+000
  0.000000000000000E+000
  0.000000000000000E+000
  0.000000000000000E+000
  0.000000000000000E+000
  0.000000000000000E+000
  0.000000000000000E+000
  0.000000000000000E+000
  0.000000000000000E+000
  0.000000000000000E+000
  0.000000000000000E+000
  0.000000000000000E+000
  0.000000000000000E+000
  0.000000000000000E+000
  0.000000000000000E+000
  0.000000000000000E+000
  0.000000000000000E+000
  0.000000000000000E+000
  0.000000000000000E+000
  0.000000000000000E+000
  0.000000000000000E+000
  0.000000000000000E+000
  0.000000000000000E+000
  0.000000000000000E+000
  0.000000000000000E+000
  0.000000000000000E+000
  0.000000000000000E+000
  0.000000000000000E+000
  0.000000000000000E+000
  0.000000000000000E+000
  0.000000000000000E+000
  0.000000000000000E+000
  0.000000000000000E+000
  0.000000000000000E+000
  0.000000000000000E+000
  0.000000000000000E+000
  0.000000000000000E+000
  0.000000000000000E+000
  0.000000000000000E+000
  0.000000000000000E+000
  0.000000000000000E+000
  0.000000000000000E+000
  0.000000000000000E+000
  0.000000000000000E+000
  0.000000000000000E+000
  0.000000000000000E+000
  0.000000000000000E+000
  0.000000000000000E+000
  0.000000000000000E+000
  0.000000000000000E+000
  0.000000000000000E+000
  0.000000000000000E+000
  0.000000000000000E+000
  0.000000000000000E+000
  0.000000000000000E+000
  0.000000000000000E+000
  0.000000000000000E+000
  0.000000000000000E+000
  0.000000000000000E+000
  0.000000000000000E+000
  0.000000000000000E+000
  0.000000000000000E+000
  0.000000000000000E+000
  0.000000000000000E+000
  0.000000000000000E+000
  0.000000000000000E+000
  0.000000000000000E+000
  0.000000000000000E+000
  0.000000000000000E+000
  0.000000000000000E+000
  0.000000000000000E+000
  0.000000000000000E+000
  0.000000000000000E+000
  0.000000000000000E+000
  0.000000000000000E+000
  0.000000000000000E+000
  0.000000000000000E+000
  0.000000000000000E+000
  0.000000000000000E+000
  0.000000000000000E+000
  0.000000000000000E+000
  0.000000000000000E+000
  0.000000000000000E+000
  0.000000000000000E+000
  0.000000000000000E+000
  0.000000000000000E+000
  0.000000000000000E+000
  0.000000000000000E+000
  0.000000000000000E+000
  0.000000000000000E+000
  0.000000000000000E+000
  0.000000000000000E+000
  0.000000000000000E+000
  0.000000000000000E+000
  0.000000000000000E+000
  0.000000000000000E+000
  0.000000000000000E+000
  0.000000000000000E+000
  0.000000000000000E+000
  0.000000000000000E+000
  0.000000000000000E+000
  0.000000000000000E+000
  0.000000000000000E+000
  0.000000000000000E+000
  0.000000000000000E+000
  0.000000000000000E+000
  0.000000000000000E+000
  0.000000000000000E+000
  0.000000000000000E+000
  0.000000000000000E+000
  0.000000000000000E+000
  0.000000000000000E+000
  0.000000000000000E+000
  0.000000000000000E+000
  0.000000000000000E+000
  0.000000000000000E+000
  0.000000000000000E+000
  0.000000000000000E+000
  0.000000000000000E+000
  0.000000000000000E+000
  0.000000000000000E+000
  0.000000000000000E+000
  0.000000000000000E+000
  0.000000000000000E+000
  0.000000000000000E+000
  0.000000000000000E+000
  0.000000000000000E+000
  0.000000000000000E+000
  0.000000000000000E+000
  0.000000000000000E+000
  0.000000000000000E+000
  0.000000000000000E+000
  0.000000000000000E+000
  0.000000000000000E+000
  0.000000000000000E+000
  0.000000000000000E+000
  0.000000000000000E+000
  0.000000000000000E+000
  0.000000000000000E+000
  0.000000000000000E+000
  0.000000000000000E+000
  0.000000000000000E+000
  0.000000000000000E+000
  0.000000000000000E+000
  0.000000000000000E+000
  0.000000000000000E+000
  0.000000000000000E+000
  0.000000000000000E+000
  0.000000000000000E+000
  0.000000000000000E+000
  0.000000000000000E+000
  0.000000000000000E+000
  0.000000000000000E+000
  0.000000000000000E+000
  0.000000000000000E+000
  0.000000000000000E+000
  0.000000000000000E+000
  0.000000000000000E+000
  0.000000000000000E+000
  0.000000000000000E+000
  0.000000000000000E+000
  0.000000000000000E+000
  0.000000000000000E+000
  0.000000000000000E+000
  0.000000000000000E+000
  0.000000000000000E+000
  0.000000000000000E+000
  0.000000000000000E+000
  0.000000000000000E+000
  0.000000000000000E+000
  0.000000000000000E+000
  0.000000000000000E+000
  0.000000000000000E+000
  0.000000000000000E+000
  0.000000000000000E+000
  0.000000000000000E+000
  0.000000000000000E+000
  0.000000000000000E+000
  0.000000000000000E+000
  0.000000000000000E+000
  0.000000000000000E+000
  0.000000000000000E+000
  0.000000000000000E+000
  0.000000000000000E+000
  0.000000000000000E+000
  0.000000000000000E+000
  0.000000000000000E+000
  0.000000000000000E+000
  0.000000000000000E+000
  0.000000000000000E+000
  0.000000000000000E+000
  0.000000000000000E+000
  0.000000000000000E+000
  0.000000000000000E+000
  0.000000000000000E+000
  0.000000000000000E+000
  0.000000000000000E+000
  0.000000000000000E+000
  0.000000000000000E+000
  0.000000000000000E+000
  0.000000000000000E+000
  0.000000000000000E+000
  0.000000000000000E+000
  0.000000000000000E+000
  0.000000000000000E+000
  0.000000000000000E+000
  0.000000000000000E+000
  0.000000000000000E+000
  0.000000000000000E+000
  0.000000000000000E+000
  0.000000000000000E+000
  0.000000000000000E+000
  0.000000000000000E+000
  0.000000000000000E+000
  0.000000000000000E+000
  0.000000000000000E+000
  0.000000000000000E+000
  0.000000000000000E+000
  0.000000000000000E+000
  0.000000000000000E+000
  0.000000000000000E+000
  0.000000000000000E+000
  0.000000000000000E+000
  0.000000000000000E+000
  0.000000000000000E+000
  0.000000000000000E+000
  0.000000000000000E+000
  0.000000000000000E+000
  0.000000000000000E+000
  0.000000000000000E+000
  0.000000000000000E+000
  0.000000000000000E+000
  0.000000000000000E+000
  0.000000000000000E+000
  0.000000000000000E+000
  0.000000000000000E+000
  0.000000000000000E+000
  0.000000000000000E+000
  0.000000000000000E+000
  0.000000000000000E+000
  0.000000000000000E+000
  0.000000000000000E+000
  0.000000000000000E+000
  0.000000000000000E+000
  0.000000000000000E+000
  0.000000000000000E+000
  0.000000000000000E+000
  0.000000000000000E+000
  0.000000000000000E+000
  0.000000000000000E+000
  0.000000000000000E+000
  0.000000000000000E+000
  0.000000000000000E+000
  0.000000000000000E+000
  0.000000000000000E+000
  0.000000000000000E+000
  0.000000000000000E+000
  0.000000000000000E+000
  0.000000000000000E+000
  0.000000000000000E+000
  0.000000000000000E+000
  0.000000000000000E+000
  0.000000000000000E+000
  0.000000000000000E+000
  0.000000000000000E+000
  0.000000000000000E+000
  0.000000000000000E+000
  0.000000000000000E+000
  0.000000000000000E+000
  0.000000000000000E+000
  0.000000000000000E+000
  0.000000000000000E+000
  0.000000000000000E+000
  0.000000000000000E+000
  0.000000000000000E+000
  0.000000000000000E+000
  0.000000000000000E+000
  0.000000000000000E+000
  0.000000000000000E+000
  0.000000000000000E+000
  0.000000000000000E+000
  0.000000000000000E+000
  0.000000000000000E+000
  0.000000000000000E+000
  0.000000000000000E+000
  0.000000000000000E+000
  0.000000000000000E+000
  0.000000000000000E+000
  0.000000000000000E+000
  0.000000000000000E+000
  0.000000000000000E+000
  0.000000000000000E+000
  0.000000000000000E+000
  0.000000000000000E+000
  0.000000000000000E+000
  0.000000000000000E+000
  0.000000000000000E+000
  0.000000000000000E+000
  0.000000000000000E+000
  0.000000000000000E+000
  0.000000000000000E+000
  0.000000000000000E+000
  0.000000000000000E+000
  0.000000000000000E+000
  0.000000000000000E+000
  0.000000000000000E+000
  0.000000000000000E+000
  0.000000000000000E+000
  0.000000000000000E+000
  0.000000000000000E+000
  0.000000000000000E+000
  0.000000000000000E+000
  0.000000000000000E+000
  0.000000000000000E+000
  0.000000000000000E+000
  0.000000000000000E+000
  0.000000000000000E+000
  0.000000000000000E+000
  0.000000000000000E+000
  0.000000000000000E+000
  0.000000000000000E+000
  0.000000000000000E+000
  0.000000000000000E+000
  0.000000000000000E+000
  0.000000000000000E+000
  0.000000000000000E+000
  0.000000000000000E+000
  0.000000000000000E+000
  0.000000000000000E+000
  0.000000000000000E+000
  0.000000000000000E+000
  0.000000000000000E+000
  0.000000000000000E+000
  0.000000000000000E+000
  0.000000000000000E+000
  0.000000000000000E+000
  0.000000000000000E+000
  0.000000000000000E+000
  0.000000000000000E+000
  0.000000000000000E+000
  0.000000000000000E+000
  0.000000000000000E+000
  0.000000000000000E+000
  0.000000000000000E+000
  0.000000000000000E+000
  0.000000000000000E+000
  0.000000000000000E+000
  0.000000000000000E+000
  0.000000000000000E+000
  0.000000000000000E+000
  0.000000000000000E+000
  0.000000000000000E+000
  0.000000000000000E+000
  0.000000000000000E+000
  0.000000000000000E+000
  0.000000000000000E+000
  0.000000000000000E+000
  0.000000000000000E+000
  0.000000000000000E+000
  0.000000000000000E+000
  0.000000000000000E+000
  0.000000000000000E+000
  0.000000000000000E+000
  0.000000000000000E+000
  0.000000000000000E+000
  0.000000000000000E+000
  0.000000000000000E+000
  0.000000000000000E+000
  0.000000000000000E+000
  0.000000000000000E+000
  0.000000000000000E+000
  0.000000000000000E+000
  0.000000000000000E+000
  0.000000000000000E+000
  0.000000000000000E+000
  0.000000000000000E+000
  0.000000000000000E+000
  0.000000000000000E+000
  0.000000000000000E+000
  0.000000000000000E+000
  0.000000000000000E+000
  0.000000000000000E+000
  0.000000000000000E+000
  0.000000000000000E+000
  0.000000000000000E+000
  0.000000000000000E+000
  0.000000000000000E+000
  0.000000000000000E+000
  0.000000000000000E+000
  0.000000000000000E+000
  0.000000000000000E+000
  0.000000000000000E+000
  0.000000000000000E+000
  0.000000000000000E+000
  0.000000000000000E+000
  0.000000000000000E+000
  0.000000000000000E+000
  0.000000000000000E+000
  0.000000000000000E+000
  0.000000000000000E+000
  0.000000000000000E+000
  0.000000000000000E+000
  0.000000000000000E+000
  0.000000000000000E+000
  0.000000000000000E+000
  0.000000000000000E+000
  0.000000000000000E+000
  0.000000000000000E+000
  0.000000000000000E+000
  0.000000000000000E+000
  0.000000000000000E+000
  0.000000000000000E+000
  0.000000000000000E+000
  0.000000000000000E+000
  0.000000000000000E+000
  0.000000000000000E+000
  0.000000000000000E+000
  0.000000000000000E+000
  0.000000000000000E+000
  0.000000000000000E+000
  0.000000000000000E+000
  0.000000000000000E+000
  0.000000000000000E+000
  0.000000000000000E+000
  0.000000000000000E+000
  0.000000000000000E+000
  0.000000000000000E+000
  0.000000000000000E+000
  0.000000000000000E+000
  0.000000000000000E+000
  0.000000000000000E+000
  0.000000000000000E+000
  0.000000000000000E+000
  0.000000000000000E+000
  0.000000000000000E+000
  0.000000000000000E+000
  0.000000000000000E+000
  0.000000000000000E+000
  0.000000000000000E+000
  0.000000000000000E+000
  0.000000000000000E+000
  0.000000000000000E+000
  0.000000000000000E+000
  0.000000000000000E+000
  0.000000000000000E+000
  0.000000000000000E+000
  0.000000000000000E+000
  0.000000000000000E+000
  0.000000000000000E+000
  0.000000000000000E+000
  0.000000000000000E+000
  0.000000000000000E+000
  0.000000000000000E+000
  0.000000000000000E+000
  0.000000000000000E+000
  0.000000000000000E+000
  0.000000000000000E+000
  0.000000000000000E+000
  0.000000000000000E+000
  0.000000000000000E+000
  0.000000000000000E+000
  0.000000000000000E+000
  0.000000000000000E+000
  0.000000000000000E+000
  0.000000000000000E+000
  0.000000000000000E+000
  0.000000000000000E+000
  0.000000000000000E+000
  0.000000000000000E+000
  0.000000000000000E+000
  0.000000000000000E+000
  0.000000000000000E+000
  0.000000000000000E+000
  0.000000000000000E+000
  0.000000000000000E+000
  0.000000000000000E+000
  0.000000000000000E+000
  0.000000000000000E+000
  0.000000000000000E+000
  0.000000000000000E+000
  0.000000000000000E+000
  0.000000000000000E+000
  0.000000000000000E+000
  0.000000000000000E+000
  0.000000000000000E+000
  0.000000000000000E+000
  0.000000000000000E+000
  0.000000000000000E+000
  0.000000000000000E+000
  0.000000000000000E+000
  0.000000000000000E+000
  0.000000000000000E+000
  0.000000000000000E+000
  0.000000000000000E+000
  0.000000000000000E+000
  0.000000000000000E+000
  0.000000000000000E+000
  0.000000000000000E+000
  0.000000000000000E+000
  0.000000000000000E+000
  0.000000000000000E+000
  0.000000000000000E+000
  0.000000000000000E+000
  0.000000000000000E+000
  0.000000000000000E+000
  0.000000000000000E+000
  0.000000000000000E+000
  0.000000000000000E+000
  0.000000000000000E+000
  0.000000000000000E+000
  0.000000000000000E+000
  0.000000000000000E+000
  0.000000000000000E+000
  0.000000000000000E+000
  0.000000000000000E+000
  0.000000000000000E+000
  0.000000000000000E+000
  0.000000000000000E+000
  0.000000000000000E+000
  0.000000000000000E+000
  0.000000000000000E+000
  0.000000000000000E+000
  0.000000000000000E+000
  0.000000000000000E+000
  0.000000000000000E+000
  0.000000000000000E+000
  0.000000000000000E+000
  0.000000000000000E+000
  0.000000000000000E+000
  0.000000000000000E+000
  0.000000000000000E+000
  0.000000000000000E+000
  0.000000000000000E+000
  0.000000000000000E+000
  0.000000000000000E+000
  0.000000000000000E+000
  0.000000000000000E+000
  0.000000000000000E+000
  0.000000000000000E+000
  0.000000000000000E+000
  0.000000000000000E+000
  0.000000000000000E+000
  0.000000000000000E+000
  0.000000000000000E+000
  0.000000000000000E+000
  0.000000000000000E+000
  0.000000000000000E+000
  0.000000000000000E+000
  0.000000000000000E+000
  0.000000000000000E+000
  0.000000000000000E+000
  0.000000000000000E+000
  0.000000000000000E+000
  0.000000000000000E+000
  0.000000000000000E+000
  0.000000000000000E+000
  0.000000000000000E+000
  0.000000000000000E+000
  0.000000000000000E+000
  0.000000000000000E+000
  0.000000000000000E+000
  0.000000000000000E+000
  0.000000000000000E+000
  0.000000000000000E+000
  0.000000000000000E+000
  0.000000000000000E+000
  0.000000000000000E+000
  0.000000000000000E+000
  0.000000000000000E+000
  0.000000000000000E+000
  0.000000000000000E+000
  0.000000000000000E+000
  0.000000000000000E+000
  0.000000000000000E+000
  0.000000000000000E+000
  0.000000000000000E+000
  0.000000000000000E+000
  0.000000000000000E+000
  0.000000000000000E+000
  0.000000000000000E+000
  0.000000000000000E+000
  0.000000000000000E+000
  0.000000000000000E+000
  0.000000000000000E+000
  0.000000000000000E+000
  0.000000000000000E+000
  0.000000000000000E+000
  0.000000000000000E+000
  0.000000000000000E+000
  0.000000000000000E+000
  0.000000000000000E+000
  0.000000000000000E+000
  0.000000000000000E+000
  0.000000000000000E+000
  0.000000000000000E+000
  0.000000000000000E+000
  0.000000000000000E+000
  0.000000000000000E+000
  0.000000000000000E+000
  0.000000000000000E+000
  0.000000000000000E+000
  0.000000000000000E+000
  0.000000000000000E+000
  0.000000000000000E+000
  0.000000000000000E+000
  0.000000000000000E+000
  0.000000000000000E+000
  0.000000000000000E+000
  0.000000000000000E+000
  0.000000000000000E+000
  0.000000000000000E+000
  0.000000000000000E+000
  0.000000000000000E+000
  0.000000000000000E+000
  0.000000000000000E+000
  0.000000000000000E+000
  0.000000000000000E+000
  0.000000000000000E+000
  0.000000000000000E+000
  0.000000000000000E+000
  0.000000000000000E+000
  0.000000000000000E+000
  0.000000000000000E+000
  0.000000000000000E+000
  0.000000000000000E+000
  0.000000000000000E+000
  0.000000000000000E+000
  0.000000000000000E+000
  0.000000000000000E+000
  0.000000000000000E+000
  0.000000000000000E+000
  0.000000000000000E+000
  0.000000000000000E+000
  0.000000000000000E+000
  0.000000000000000E+000
  0.000000000000000E+000
  0.000000000000000E+000
  0.000000000000000E+000
  0.000000000000000E+000
  0.000000000000000E+000
  0.000000000000000E+000
  0.000000000000000E+000
  0.000000000000000E+000
  0.000000000000000E+000
  0.000000000000000E+000
  0.000000000000000E+000
  0.000000000000000E+000
  0.000000000000000E+000
  0.000000000000000E+000
  0.000000000000000E+000
  0.000000000000000E+000
  0.000000000000000E+000
  0.000000000000000E+000
  0.000000000000000E+000
  0.000000000000000E+000
  0.000000000000000E+000
  0.000000000000000E+000
  0.000000000000000E+000
  0.000000000000000E+000
  0.000000000000000E+000
  0.000000000000000E+000
  0.000000000000000E+000
  0.000000000000000E+000
  0.000000000000000E+000
  0.000000000000000E+000
  0.000000000000000E+000
  0.000000000000000E+000
  0.000000000000000E+000
  0.000000000000000E+000
  0.000000000000000E+000
  0.000000000000000E+000
  0.000000000000000E+000
  0.000000000000000E+000
  0.000000000000000E+000
  0.000000000000000E+000
  0.000000000000000E+000
  0.000000000000000E+000
  0.000000000000000E+000
  0.000000000000000E+000
  0.000000000000000E+000
  0.000000000000000E+000
  0.000000000000000E+000
  0.000000000000000E+000
  0.000000000000000E+000
  0.000000000000000E+000
  0.000000000000000E+000
  0.000000000000000E+000
  0.000000000000000E+000
  0.000000000000000E+000
  0.000000000000000E+000
  0.000000000000000E+000
  0.000000000000000E+000
  0.000000000000000E+000
  0.000000000000000E+000
  0.000000000000000E+000
  0.000000000000000E+000
  0.000000000000000E+000
  0.000000000000000E+000
  0.000000000000000E+000
  0.000000000000000E+000
  0.000000000000000E+000
  0.000000000000000E+000
  0.000000000000000E+000
  0.000000000000000E+000
  0.000000000000000E+000
  0.000000000000000E+000
  0.000000000000000E+000
  0.000000000000000E+000
  0.000000000000000E+000
  0.000000000000000E+000
  0.000000000000000E+000
  0.000000000000000E+000
  0.000000000000000E+000
  0.000000000000000E+000
  0.000000000000000E+000
  0.000000000000000E+000
  0.000000000000000E+000
  0.000000000000000E+000
  0.000000000000000E+000
  0.000000000000000E+000
  0.000000000000000E+000
  0.000000000000000E+000
  0.000000000000000E+000
  0.000000000000000E+000
  0.000000000000000E+000
  0.000000000000000E+000
  0.000000000000000E+000
  0.000000000000000E+000
  0.000000000000000E+000
  0.000000000000000E+000
  0.000000000000000E+000
  0.000000000000000E+000
  0.000000000000000E+000
  0.000000000000000E+000
  0.000000000000000E+000
  0.000000000000000E+000
  0.000000000000000E+000
  0.000000000000000E+000
  0.000000000000000E+000
  0.000000000000000E+000
  0.000000000000000E+000
  0.000000000000000E+000
  0.000000000000000E+000
  0.000000000000000E+000
  0.000000000000000E+000
  0.000000000000000E+000
  0.000000000000000E+000
  0.000000000000000E+000
  0.000000000000000E+000
  0.000000000000000E+000
  0.000000000000000E+000
  0.000000000000000E+000
  0.000000000000000E+000
  0.000000000000000E+000
  0.000000000000000E+000
  0.000000000000000E+000
  0.000000000000000E+000
  0.000000000000000E+000
  0.000000000000000E+000
  0.000000000000000E+000
  0.000000000000000E+000
  0.000000000000000E+000
  0.000000000000000E+000
  0.000000000000000E+000
  0.000000000000000E+000
  0.000000000000000E+000
  0.000000000000000E+000
  0.000000000000000E+000
  0.000000000000000E+000
  0.000000000000000E+000
  0.000000000000000E+000
  0.000000000000000E+000
  0.000000000000000E+000
  0.000000000000000E+000
  0.000000000000000E+000
  0.000000000000000E+000
  0.000000000000000E+000
  0.000000000000000E+000
  0.000000000000000E+000
  0.000000000000000E+000
  0.000000000000000E+000
  0.000000000000000E+000
  0.000000000000000E+000
  0.000000000000000E+000
  0.000000000000000E+000
  0.000000000000000E+000
  0.000000000000000E+000
  0.000000000000000E+000
  0.000000000000000E+000
  0.000000000000000E+000
  0.000000000000000E+000
  0.000000000000000E+000
  0.000000000000000E+000
  0.000000000000000E+000
  0.000000000000000E+000
  0.000000000000000E+000
  0.000000000000000E+000
  0.000000000000000E+000
  0.000000000000000E+000
  0.000000000000000E+000
  0.000000000000000E+000
  0.000000000000000E+000
  0.000000000000000E+000
  0.000000000000000E+000
  0.000000000000000E+000
  0.000000000000000E+000
  0.000000000000000E+000
  0.000000000000000E+000
  0.000000000000000E+000
  0.000000000000000E+000
  0.000000000000000E+000
  0.000000000000000E+000
  0.000000000000000E+000
  0.000000000000000E+000
  0.000000000000000E+000
  0.000000000000000E+000
  0.000000000000000E+000
  0.000000000000000E+000
  0.000000000000000E+000
  0.000000000000000E+000
  0.000000000000000E+000
  0.000000000000000E+000
  0.000000000000000E+000
  0.000000000000000E+000
  0.000000000000000E+000
  0.000000000000000E+000
  0.000000000000000E+000
  0.000000000000000E+000
  0.000000000000000E+000
  0.000000000000000E+000
  0.000000000000000E+000
  0.000000000000000E+000
  0.000000000000000E+000
  0.000000000000000E+000
  0.000000000000000E+000
  0.000000000000000E+000
  0.000000000000000E+000
  0.000000000000000E+000
  0.000000000000000E+000
  0.000000000000000E+000
  0.000000000000000E+000
  0.000000000000000E+000
  0.000000000000000E+000
  0.000000000000000E+000
  0.000000000000000E+000
  0.000000000000000E+000
  0.000000000000000E+000
  0.000000000000000E+000
  0.000000000000000E+000
  0.000000000000000E+000
  0.000000000000000E+000
  0.000000000000000E+000
  0.000000000000000E+000
  0.000000000000000E+000
  0.000000000000000E+000
  0.000000000000000E+000
  0.000000000000000E+000
  0.000000000000000E+000
  0.000000000000000E+000
  0.000000000000000E+000
  0.000000000000000E+000
  0.000000000000000E+000
  0.000000000000000E+000
  0.000000000000000E+000
  0.000000000000000E+000
  0.000000000000000E+000
  0.000000000000000E+000
  0.000000000000000E+000
  0.000000000000000E+000
  0.000000000000000E+000
  0.000000000000000E+000
  0.000000000000000E+000
  0.000000000000000E+000
  0.000000000000000E+000
  0.000000000000000E+000
  0.000000000000000E+000
  0.000000000000000E+000
  0.000000000000000E+000
  0.000000000000000E+000
  0.000000000000000E+000
  0.000000000000000E+000
  0.000000000000000E+000
  0.000000000000000E+000
  0.000000000000000E+000
  0.000000000000000E+000
  0.000000000000000E+000
  0.000000000000000E+000
  0.000000000000000E+000
  0.000000000000000E+000
  0.000000000000000E+000
  0.000000000000000E+000
  0.000000000000000E+000
  0.000000000000000E+000
  0.000000000000000E+000
  0.000000000000000E+000
  0.000000000000000E+000
  0.000000000000000E+000
  0.000000000000000E+000
  0.000000000000000E+000
  0.000000000000000E+000
  0.000000000000000E+000
  0.000000000000000E+000
  0.000000000000000E+000
  0.000000000000000E+000
  0.000000000000000E+000
  0.000000000000000E+000
  0.000000000000000E+000
  0.000000000000000E+000
  0.000000000000000E+000
  0.000000000000000E+000
  0.000000000000000E+000
  0.000000000000000E+000
  0.000000000000000E+000
  0.000000000000000E+000
  0.000000000000000E+000
  0.000000000000000E+000
  0.000000000000000E+000
  0.000000000000000E+000
  0.000000000000000E+000
  0.000000000000000E+000
  0.000000000000000E+000
  0.000000000000000E+000
  0.000000000000000E+000
  0.000000000000000E+000
  0.000000000000000E+000
  0.000000000000000E+000
  0.000000000000000E+000
  0.000000000000000E+000
  0.000000000000000E+000
  0.000000000000000E+000
  0.000000000000000E+000
  0.000000000000000E+000
  0.000000000000000E+000
  0.000000000000000E+000
  0.000000000000000E+000
  0.000000000000000E+000
  0.000000000000000E+000
  0.000000000000000E+000
  0.000000000000000E+000
  0.000000000000000E+000
  0.000000000000000E+000
  0.000000000000000E+000
  0.000000000000000E+000
  0.000000000000000E+000
  0.000000000000000E+000
  0.000000000000000E+000
  0.000000000000000E+000
  0.000000000000000E+000
  0.000000000000000E+000
  0.000000000000000E+000
  0.000000000000000E+000
  0.000000000000000E+000
  0.000000000000000E+000
  0.000000000000000E+000
  0.000000000000000E+000
  0.000000000000000E+000
  0.000000000000000E+000
  0.000000000000000E+000
  0.000000000000000E+000
  0.000000000000000E+000
  0.000000000000000E+000
  0.000000000000000E+000
  0.000000000000000E+000
  0.000000000000000E+000
  0.000000000000000E+000
  0.000000000000000E+000
  0.000000000000000E+000
  0.000000000000000E+000
  0.000000000000000E+000
  0.000000000000000E+000
  0.000000000000000E+000
  0.000000000000000E+000
  0.000000000000000E+000
  0.000000000000000E+000
  0.000000000000000E+000
  0.000000000000000E+000
  0.000000000000000E+000
  0.000000000000000E+000
  0.000000000000000E+000
  0.000000000000000E+000
  0.000000000000000E+000
  0.000000000000000E+000
  0.000000000000000E+000
  0.000000000000000E+000
  0.000000000000000E+000
  0.000000000000000E+000
  0.000000000000000E+000
  0.000000000000000E+000
  0.000000000000000E+000
  0.000000000000000E+000
  0.000000000000000E+000
  0.000000000000000E+000
  0.000000000000000E+000
  0.000000000000000E+000
  0.000000000000000E+000
  0.000000000000000E+000
  0.000000000000000E+000
  0.000000000000000E+000
  0.000000000000000E+000
  0.000000000000000E+000
  0.000000000000000E+000
  0.000000000000000E+000
  0.000000000000000E+000
  0.000000000000000E+000
  0.000000000000000E+000
  0.000000000000000E+000
  0.000000000000000E+000
  0.000000000000000E+000
  0.000000000000000E+000
  0.000000000000000E+000
  0.000000000000000E+000
  0.000000000000000E+000
  0.000000000000000E+000
  0.000000000000000E+000
  0.000000000000000E+000
  0.000000000000000E+000
  0.000000000000000E+000
  0.000000000000000E+000
  0.000000000000000E+000
  0.000000000000000E+000
  0.000000000000000E+000
  0.000000000000000E+000
  0.000000000000000E+000
  0.000000000000000E+000
  0.000000000000000E+000
  0.000000000000000E+000
  0.000000000000000E+000
  0.000000000000000E+000
  0.000000000000000E+000
  0.000000000000000E+000
  0.000000000000000E+000
  0.000000000000000E+000
  0.000000000000000E+000
  0.000000000000000E+000
  0.000000000000000E+000
  0.000000000000000E+000
  0.000000000000000E+000
  0.000000000000000E+000
  0.000000000000000E+000
  0.000000000000000E+000
  0.000000000000000E+000
  0.000000000000000E+000
  0.000000000000000E+000
  0.000000000000000E+000
  0.000000000000000E+000
  0.000000000000000E+000
  0.000000000000000E+000
  0.000000000000000E+000
  0.000000000000000E+000
  0.000000000000000E+000
  0.000000000000000E+000
  0.000000000000000E+000
  0.000000000000000E+000
  0.000000000000000E+000
  0.000000000000000E+000
  0.000000000000000E+000
  0.000000000000000E+000
  0.000000000000000E+000
  0.000000000000000E+000
  0.000000000000000E+000
  0.000000000000000E+000
  0.000000000000000E+000
  0.000000000000000E+000
  0.000000000000000E+000
  0.000000000000000E+000
  0.000000000000000E+000
  0.000000000000000E+000
  0.000000000000000E+000
  0.000000000000000E+000
  0.000000000000000E+000
  0.000000000000000E+000
  0.000000000000000E+000
  0.000000000000000E+000
  0.000000000000000E+000
  0.000000000000000E+000
  0.000000000000000E+000
  0.000000000000000E+000
  0.000000000000000E+000
  0.000000000000000E+000
  0.000000000000000E+000
  0.000000000000000E+000
  0.000000000000000E+000
  0.000000000000000E+000
  0.000000000000000E+000
  0.000000000000000E+000
  0.000000000000000E+000
  0.000000000000000E+000
  0.000000000000000E+000
  0.000000000000000E+000
  0.000000000000000E+000
  0.000000000000000E+000
  0.000000000000000E+000
  0.000000000000000E+000
  0.000000000000000E+000
  0.000000000000000E+000
  0.000000000000000E+000
  0.000000000000000E+000
  0.000000000000000E+000
  0.000000000000000E+000
  0.000000000000000E+000
  0.000000000000000E+000
  0.000000000000000E+000
  0.000000000000000E+000
  0.000000000000000E+000
  0.000000000000000E+000
  0.000000000000000E+000
  0.000000000000000E+000
  0.000000000000000E+000
  0.000000000000000E+000
  0.000000000000000E+000
  0.000000000000000E+000
  0.000000000000000E+000
  0.000000000000000E+000
  0.000000000000000E+000
  0.000000000000000E+000
  0.000000000000000E+000
  0.000000000000000E+000
  0.000000000000000E+000
  0.000000000000000E+000
  0.000000000000000E+000
  0.000000000000000E+000
  0.000000000000000E+000
  0.000000000000000E+000
  0.000000000000000E+000
  0.000000000000000E+000
  0.000000000000000E+000
  0.000000000000000E+000
  0.000000000000000E+000
  0.000000000000000E+000
  0.000000000000000E+000
  0.000000000000000E+000
  0.000000000000000E+000
  0.000000000000000E+000
  0.000000000000000E+000
  0.000000000000000E+000
  0.000000000000000E+000
  0.000000000000000E+000
  0.000000000000000E+000
  0.000000000000000E+000
  0.000000000000000E+000
  0.000000000000000E+000
  0.000000000000000E+000
  0.000000000000000E+000
  0.000000000000000E+000
  0.000000000000000E+000
  0.000000000000000E+000
  0.000000000000000E+000
  0.000000000000000E+000
  0.000000000000000E+000
  0.000000000000000E+000
  0.000000000000000E+000
  0.000000000000000E+000
  0.000000000000000E+000
  0.000000000000000E+000
  0.000000000000000E+000
  0.000000000000000E+000
  0.000000000000000E+000
  0.000000000000000E+000
  0.000000000000000E+000
  0.000000000000000E+000
  0.000000000000000E+000
  0.000000000000000E+000
  0.000000000000000E+000
  0.000000000000000E+000
  0.000000000000000E+000
  0.000000000000000E+000
  0.000000000000000E+000
  0.000000000000000E+000
  0.000000000000000E+000
  0.000000000000000E+000
  0.000000000000000E+000
  0.000000000000000E+000
  0.000000000000000E+000
  0.000000000000000E+000
  0.000000000000000E+000
  0.000000000000000E+000
  0.000000000000000E+000
  0.000000000000000E+000
  0.000000000000000E+000
  0.000000000000000E+000
  0.000000000000000E+000
  0.000000000000000E+000
  0.000000000000000E+000
  0.000000000000000E+000
  0.000000000000000E+000
  0.000000000000000E+000
  0.000000000000000E+000
  0.000000000000000E+000
  0.000000000000000E+000
  0.000000000000000E+000
  0.000000000000000E+000
  0.000000000000000E+000
  0.000000000000000E+000
  0.000000000000000E+000
  0.000000000000000E+000
  0.000000000000000E+000
  0.000000000000000E+000
  0.000000000000000E+000
  0.000000000000000E+000
  0.000000000000000E+000
  0.000000000000000E+000
  0.000000000000000E+000
  0.000000000000000E+000
  0.000000000000000E+000
  0.000000000000000E+000
  0.000000000000000E+000
  0.000000000000000E+000
  0.000000000000000E+000
  0.000000000000000E+000
  0.000000000000000E+000
  0.000000000000000E+000
  0.000000000000000E+000
  0.000000000000000E+000
  0.000000000000000E+000
  0.000000000000000E+000
  0.000000000000000E+000
  0.000000000000000E+000
  0.000000000000000E+000
  0.000000000000000E+000
  0.000000000000000E+000
  0.000000000000000E+000
  0.000000000000000E+000
  0.000000000000000E+000
  0.000000000000000E+000
  0.000000000000000E+000
  0.000000000000000E+000
  0.000000000000000E+000
  0.000000000000000E+000
  0.000000000000000E+000
  0.000000000000000E+000
  0.000000000000000E+000
  0.000000000000000E+000
  0.000000000000000E+000
  0.000000000000000E+000
  0.000000000000000E+000
  0.000000000000000E+000
  0.000000000000000E+000
  0.000000000000000E+000
  0.000000000000000E+000
  0.000000000000000E+000
  0.000000000000000E+000
  0.000000000000000E+000
  0.000000000000000E+000
  0.000000000000000E+000
  0.000000000000000E+000
  0.000000000000000E+000
  0.000000000000000E+000
  0.000000000000000E+000
  0.000000000000000E+000
  0.000000000000000E+000
  0.000000000000000E+000
  0.000000000000000E+000
  0.000000000000000E+000
  0.000000000000000E+000
  0.000000000000000E+000
  0.000000000000000E+000
  0.000000000000000E+000
  0.000000000000000E+000
  0.000000000000000E+000
  0.000000000000000E+000
  0.000000000000000E+000
  0.000000000000000E+000
  0.000000000000000E+000
  0.000000000000000E+000
  0.000000000000000E+000
  0.000000000000000E+000
  0.000000000000000E+000
  0.000000000000000E+000
  0.000000000000000E+000
  0.000000000000000E+000
  0.000000000000000E+000
  0.000000000000000E+000
  0.000000000000000E+000
  0.000000000000000E+000
  0.000000000000000E+000
  0.000000000000000E+000
  0.000000000000000E+000
  0.000000000000000E+000
  0.000000000000000E+000
  0.000000000000000E+000
  0.000000000000000E+000
  0.000000000000000E+000
  0.000000000000000E+000
  0.000000000000000E+000
  0.000000000000000E+000
  0.000000000000000E+000
  0.000000000000000E+000
  0.000000000000000E+000
  0.000000000000000E+000
  0.000000000000000E+000
  0.000000000000000E+000
  0.000000000000000E+000
  0.000000000000000E+000
  0.000000000000000E+000
  0.000000000000000E+000
  0.000000000000000E+000
  0.000000000000000E+000
  0.000000000000000E+000
  0.000000000000000E+000
  0.000000000000000E+000
  0.000000000000000E+000
  0.000000000000000E+000
  0.000000000000000E+000
  0.000000000000000E+000
  0.000000000000000E+000
  0.000000000000000E+000
  0.000000000000000E+000
  0.000000000000000E+000
  0.000000000000000E+000
  0.000000000000000E+000
  0.000000000000000E+000
  0.000000000000000E+000
  0.000000000000000E+000
  0.000000000000000E+000
  0.000000000000000E+000
  0.000000000000000E+000
  0.000000000000000E+000
  0.000000000000000E+000
  0.000000000000000E+000
  0.000000000000000E+000
  0.000000000000000E+000
  0.000000000000000E+000
  0.000000000000000E+000
  0.000000000000000E+000
  0.000000000000000E+000
  0.000000000000000E+000
  0.000000000000000E+000
  0.000000000000000E+000
  0.000000000000000E+000
  0.000000000000000E+000
  0.000000000000000E+000
  0.000000000000000E+000
  0.000000000000000E+000
  0.000000000000000E+000
  0.000000000000000E+000
  0.000000000000000E+000
  0.000000000000000E+000
  0.000000000000000E+000
  0.000000000000000E+000
  0.000000000000000E+000
  0.000000000000000E+000
  0.000000000000000E+000
  0.000000000000000E+000
  0.000000000000000E+000
  0.000000000000000E+000
  0.000000000000000E+000
  0.000000000000000E+000
  0.000000000000000E+000
  0.000000000000000E+000
  0.000000000000000E+000
  0.000000000000000E+000
  0.000000000000000E+000
  0.000000000000000E+000
  0.000000000000000E+000
  0.000000000000000E+000
  0.000000000000000E+000
  0.000000000000000E+000
  0.000000000000000E+000
  0.000000000000000E+000
  0.000000000000000E+000
  0.000000000000000E+000
  0.000000000000000E+000
  0.000000000000000E+000
  0.000000000000000E+000
  0.000000000000000E+000
  0.000000000000000E+000
  0.000000000000000E+000
  0.000000000000000E+000
  0.000000000000000E+000
  0.000000000000000E+000
  0.000000000000000E+000
  0.000000000000000E+000
  0.000000000000000E+000
  0.000000000000000E+000
  0.000000000000000E+000
  0.000000000000000E+000
  0.000000000000000E+000
  0.000000000000000E+000
  0.000000000000000E+000
  0.000000000000000E+000
  0.000000000000000E+000
  0.000000000000000E+000
  0.000000000000000E+000
  0.000000000000000E+000
  0.000000000000000E+000
  0.000000000000000E+000
  0.000000000000000E+000
  0.000000000000000E+000
  0.000000000000000E+000
  0.000000000000000E+000
  0.000000000000000E+000
  0.000000000000000E+000
  0.000000000000000E+000
  0.000000000000000E+000
  0.000000000000000E+000
  0.000000000000000E+000
  0.000000000000000E+000
  0.000000000000000E+000
  0.000000000000000E+000
  0.000000000000000E+000
  0.000000000000000E+000
  0.000000000000000E+000
  0.000000000000000E+000
  0.000000000000000E+000
  0.000000000000000E+000
  0.000000000000000E+000
  0.000000000000000E+000
  0.000000000000000E+000
  0.000000000000000E+000
  0.000000000000000E+000
  0.000000000000000E+000
  0.000000000000000E+000
  0.000000000000000E+000
  0.000000000000000E+000
  0.000000000000000E+000
  0.000000000000000E+000
  0.000000000000000E+000
  0.000000000000000E+000
  0.000000000000000E+000
  0.000000000000000E+000
  0.000000000000000E+000
  0.000000000000000E+000
  0.000000000000000E+000
  0.000000000000000E+000
  0.000000000000000E+000
  0.000000000000000E+000
  0.000000000000000E+000
  0.000000000000000E+000
  0.000000000000000E+000
  0.000000000000000E+000
  0.000000000000000E+000
  0.000000000000000E+000
  0.000000000000000E+000
  0.000000000000000E+000
  0.000000000000000E+000
  0.000000000000000E+000
  0.000000000000000E+000
  0.000000000000000E+000
  0.000000000000000E+000
  0.000000000000000E+000
  0.000000000000000E+000
  0.000000000000000E+000
  0.000000000000000E+000
  0.000000000000000E+000
  0.000000000000000E+000
  0.000000000000000E+000
  0.000000000000000E+000
  0.000000000000000E+000
  0.000000000000000E+000
  0.000000000000000E+000
  0.000000000000000E+000
  0.000000000000000E+000
  0.000000000000000E+000
  0.000000000000000E+000
  0.000000000000000E+000
  0.000000000000000E+000
  0.000000000000000E+000
  0.000000000000000E+000
  0.000000000000000E+000
  0.000000000000000E+000
  0.000000000000000E+000
  0.000000000000000E+000
  0.000000000000000E+000
  0.000000000000000E+000
  0.000000000000000E+000
  0.000000000000000E+000
  0.000000000000000E+000
  0.000000000000000E+000
  0.000000000000000E+000
  0.000000000000000E+000
  0.000000000000000E+000
  0.000000000000000E+000
  0.000000000000000E+000
  0.000000000000000E+000
  0.000000000000000E+000
  0.000000000000000E+000
  0.000000000000000E+000
  0.000000000000000E+000
  0.000000000000000E+000
  0.000000000000000E+000
  0.000000000000000E+000
  0.000000000000000E+000
  0.000000000000000E+000
  0.000000000000000E+000
  0.000000000000000E+000
  0.000000000000000E+000
  0.000000000000000E+000
  0.000000000000000E+000
  0.000000000000000E+000
  0.000000000000000E+000
  0.000000000000000E+000
  0.000000000000000E+000
  0.000000000000000E+000
  0.000000000000000E+000
  0.000000000000000E+000
  0.000000000000000E+000
  0.000000000000000E+000
  0.000000000000000E+000
  0.000000000000000E+000
  0.000000000000000E+000
  0.000000000000000E+000
  0.000000000000000E+000
  0.000000000000000E+000
  0.000000000000000E+000
  0.000000000000000E+000
  0.000000000000000E+000
  0.000000000000000E+000
  0.000000000000000E+000
  0.000000000000000E+000
  0.000000000000000E+000
  0.000000000000000E+000
  0.000000000000000E+000
  0.000000000000000E+000
  0.000000000000000E+000
  0.000000000000000E+000
  0.000000000000000E+000
  0.000000000000000E+000
  0.000000000000000E+000
  0.000000000000000E+000
  0.000000000000000E+000
  0.000000000000000E+000
  0.000000000000000E+000
  0.000000000000000E+000
  0.000000000000000E+000
  0.000000000000000E+000
  0.000000000000000E+000
  0.000000000000000E+000
  0.000000000000000E+000
  0.000000000000000E+000
  0.000000000000000E+000
  0.000000000000000E+000
  0.000000000000000E+000
  0.000000000000000E+000
  0.000000000000000E+000
  0.000000000000000E+000
  0.000000000000000E+000
  0.000000000000000E+000
  0.000000000000000E+000
  0.000000000000000E+000
  0.000000000000000E+000
  0.000000000000000E+000
  0.000000000000000E+000
  0.000000000000000E+000
  0.000000000000000E+000
  0.000000000000000E+000
  0.000000000000000E+000
  0.000000000000000E+000
  0.000000000000000E+000
  0.000000000000000E+000
  0.000000000000000E+000
  0.000000000000000E+000
  0.000000000000000E+000
  0.000000000000000E+000
  0.000000000000000E+000
  0.000000000000000E+000
  0.000000000000000E+000
  0.000000000000000E+000
  0.000000000000000E+000
  0.000000000000000E+000
  0.000000000000000E+000
  0.000000000000000E+000
  0.000000000000000E+000
  0.000000000000000E+000
  0.000000000000000E+000
  0.000000000000000E+000
  0.000000000000000E+000
  0.000000000000000E+000
  0.000000000000000E+000
  0.000000000000000E+000
  0.000000000000000E+000
  0.000000000000000E+000
  0.000000000000000E+000
  0.000000000000000E+000
  0.000000000000000E+000
  0.000000000000000E+000
  0.000000000000000E+000
  0.000000000000000E+000
  0.000000000000000E+000
  0.000000000000000E+000
  0.000000000000000E+000
  0.000000000000000E+000
  0.000000000000000E+000
  0.000000000000000E+000
  0.000000000000000E+000
  0.000000000000000E+000
  0.000000000000000E+000
  0.000000000000000E+000
  0.000000000000000E+000
  0.000000000000000E+000
  0.000000000000000E+000
  0.000000000000000E+000
  0.000000000000000E+000
  0.000000000000000E+000
  0.000000000000000E+000
  0.000000000000000E+000
  0.000000000000000E+000
  0.000000000000000E+000
  0.000000000000000E+000
  0.000000000000000E+000
  0.000000000000000E+000
  0.000000000000000E+000
  0.000000000000000E+000
  0.000000000000000E+000
  0.000000000000000E+000
  0.000000000000000E+000
  0.000000000000000E+000
  0.000000000000000E+000
  0.000000000000000E+000
  0.000000000000000E+000
  0.000000000000000E+000
  0.000000000000000E+000
  0.000000000000000E+000
  0.000000000000000E+000
  0.000000000000000E+000
  0.000000000000000E+000
  0.000000000000000E+000
  0.000000000000000E+000
  0.000000000000000E+000
  0.000000000000000E+000
  0.000000000000000E+000
   1.00000000000000     
  0.000000000000000E+000
  0.000000000000000E+000
  0.000000000000000E+000
  0.000000000000000E+000
  0.000000000000000E+000
  0.000000000000000E+000
  0.000000000000000E+000
  0.000000000000000E+000
  0.000000000000000E+000
  0.000000000000000E+000
  0.000000000000000E+000
  0.000000000000000E+000
  0.000000000000000E+000
  0.000000000000000E+000
  0.000000000000000E+000
  0.000000000000000E+000
  0.000000000000000E+000
  0.000000000000000E+000
  0.000000000000000E+000
  0.000000000000000E+000
  0.000000000000000E+000
  0.000000000000000E+000
  0.000000000000000E+000
  0.000000000000000E+000
  0.000000000000000E+000
  0.000000000000000E+000
  0.000000000000000E+000
  0.000000000000000E+000
  0.000000000000000E+000
  0.000000000000000E+000
  0.000000000000000E+000
  0.000000000000000E+000
  0.000000000000000E+000
  0.000000000000000E+000
  0.000000000000000E+000
  0.000000000000000E+000
  0.000000000000000E+000
  0.000000000000000E+000
  0.000000000000000E+000
  0.000000000000000E+000
  0.000000000000000E+000
  0.000000000000000E+000
  0.000000000000000E+000
  0.000000000000000E+000
  0.000000000000000E+000
   1.00000000000000     
   1.00000000000000     
   1.00000000000000     
   1.00000000000000     
   1.00000000000000     
  0.000000000000000E+000
  0.000000000000000E+000
  0.000000000000000E+000
  0.000000000000000E+000
  0.000000000000000E+000
  0.000000000000000E+000
  0.000000000000000E+000
  0.000000000000000E+000
  0.000000000000000E+000
  0.000000000000000E+000
  0.000000000000000E+000
  0.000000000000000E+000
  0.000000000000000E+000
  0.000000000000000E+000
  0.000000000000000E+000
  0.000000000000000E+000
  0.000000000000000E+000
  0.000000000000000E+000
  0.000000000000000E+000
  0.000000000000000E+000
  0.000000000000000E+000
  0.000000000000000E+000
  0.000000000000000E+000
  0.000000000000000E+000
  0.000000000000000E+000
  0.000000000000000E+000
  0.000000000000000E+000
  0.000000000000000E+000
  0.000000000000000E+000
  0.000000000000000E+000
  0.000000000000000E+000
  0.000000000000000E+000
  0.000000000000000E+000
  0.000000000000000E+000
  0.000000000000000E+000
  0.000000000000000E+000
  0.000000000000000E+000
  0.000000000000000E+000
  0.000000000000000E+000
  0.000000000000000E+000
  0.000000000000000E+000
  0.000000000000000E+000
   1.00000000000000     
   1.00000000000000     
   1.00000000000000     
   1.00000000000000     
   1.00000000000000     
   1.00000000000000     
   1.00000000000000     
   1.00000000000000     
  0.000000000000000E+000
  0.000000000000000E+000
  0.000000000000000E+000
  0.000000000000000E+000
  0.000000000000000E+000
  0.000000000000000E+000
  0.000000000000000E+000
  0.000000000000000E+000
  0.000000000000000E+000
  0.000000000000000E+000
  0.000000000000000E+000
  0.000000000000000E+000
  0.000000000000000E+000
  0.000000000000000E+000
  0.000000000000000E+000
  0.000000000000000E+000
  0.000000000000000E+000
  0.000000000000000E+000
  0.000000000000000E+000
  0.000000000000000E+000
  0.000000000000000E+000
  0.000000000000000E+000
  0.000000000000000E+000
  0.000000000000000E+000
  0.000000000000000E+000
  0.000000000000000E+000
  0.000000000000000E+000
  0.000000000000000E+000
  0.000000000000000E+000
  0.000000000000000E+000
  0.000000000000000E+000
  0.000000000000000E+000
  0.000000000000000E+000
  0.000000000000000E+000
  0.000000000000000E+000
  0.000000000000000E+000
  0.000000000000000E+000
  0.000000000000000E+000
  0.000000000000000E+000
   1.00000000000000     
   1.00000000000000     
   1.00000000000000     
   1.00000000000000     
   1.00000000000000     
   1.00000000000000     
   1.00000000000000     
   1.00000000000000     
   1.00000000000000     
   1.00000000000000     
   1.00000000000000     
  0.000000000000000E+000
  0.000000000000000E+000
  0.000000000000000E+000
  0.000000000000000E+000
  0.000000000000000E+000
  0.000000000000000E+000
  0.000000000000000E+000
  0.000000000000000E+000
  0.000000000000000E+000
  0.000000000000000E+000
  0.000000000000000E+000
  0.000000000000000E+000
  0.000000000000000E+000
  0.000000000000000E+000
  0.000000000000000E+000
  0.000000000000000E+000
  0.000000000000000E+000
  0.000000000000000E+000
  0.000000000000000E+000
  0.000000000000000E+000
  0.000000000000000E+000
  0.000000000000000E+000
  0.000000000000000E+000
  0.000000000000000E+000
  0.000000000000000E+000
  0.000000000000000E+000
  0.000000000000000E+000
  0.000000000000000E+000
  0.000000000000000E+000
  0.000000000000000E+000
  0.000000000000000E+000
  0.000000000000000E+000
  0.000000000000000E+000
  0.000000000000000E+000
  0.000000000000000E+000
  0.000000000000000E+000
   1.00000000000000     
   1.00000000000000     
   1.00000000000000     
   1.00000000000000     
   1.00000000000000     
   1.00000000000000     
   1.00000000000000     
   1.00000000000000     
   1.00000000000000     
   1.00000000000000     
   1.00000000000000     
   1.00000000000000     
   1.00000000000000     
   1.00000000000000     
  0.000000000000000E+000
  0.000000000000000E+000
  0.000000000000000E+000
  0.000000000000000E+000
  0.000000000000000E+000
  0.000000000000000E+000
  0.000000000000000E+000
  0.000000000000000E+000
  0.000000000000000E+000
  0.000000000000000E+000
  0.000000000000000E+000
  0.000000000000000E+000
  0.000000000000000E+000
  0.000000000000000E+000
  0.000000000000000E+000
  0.000000000000000E+000
  0.000000000000000E+000
  0.000000000000000E+000
  0.000000000000000E+000
  0.000000000000000E+000
  0.000000000000000E+000
  0.000000000000000E+000
  0.000000000000000E+000
  0.000000000000000E+000
  0.000000000000000E+000
  0.000000000000000E+000
  0.000000000000000E+000
  0.000000000000000E+000
  0.000000000000000E+000
  0.000000000000000E+000
  0.000000000000000E+000
  0.000000000000000E+000
  0.000000000000000E+000
  0.000000000000000E+000
   1.00000000000000     
   1.00000000000000     
   1.00000000000000     
   1.00000000000000     
   1.00000000000000     
   1.00000000000000     
   1.00000000000000     
   1.00000000000000     
   1.00000000000000     
   1.00000000000000     
   1.00000000000000     
   1.00000000000000     
   1.00000000000000     
   1.00000000000000     
   1.00000000000000     
   1.00000000000000     
  0.000000000000000E+000
  0.000000000000000E+000
  0.000000000000000E+000
  0.000000000000000E+000
  0.000000000000000E+000
  0.000000000000000E+000
  0.000000000000000E+000
  0.000000000000000E+000
  0.000000000000000E+000
  0.000000000000000E+000
  0.000000000000000E+000
  0.000000000000000E+000
  0.000000000000000E+000
  0.000000000000000E+000
  0.000000000000000E+000
  0.000000000000000E+000
  0.000000000000000E+000
  0.000000000000000E+000
  0.000000000000000E+000
  0.000000000000000E+000
  0.000000000000000E+000
  0.000000000000000E+000
  0.000000000000000E+000
  0.000000000000000E+000
  0.000000000000000E+000
  0.000000000000000E+000
  0.000000000000000E+000
  0.000000000000000E+000
  0.000000000000000E+000
  0.000000000000000E+000
  0.000000000000000E+000
  0.000000000000000E+000
  0.000000000000000E+000
   1.00000000000000     
   1.00000000000000     
   1.00000000000000     
   1.00000000000000     
   1.00000000000000     
   1.00000000000000     
   1.00000000000000     
   1.00000000000000     
   1.00000000000000     
   1.00000000000000     
   1.00000000000000     
   1.00000000000000     
   1.00000000000000     
   1.00000000000000     
   1.00000000000000     
   1.00000000000000     
   1.00000000000000     
  0.000000000000000E+000
   1.00000000000000     
   1.00000000000000     
   1.00000000000000     
   1.00000000000000     
   1.00000000000000     
   1.00000000000000     
   1.00000000000000     
   1.00000000000000     
   1.00000000000000     
   1.00000000000000     
   1.00000000000000     
   1.00000000000000     
  0.000000000000000E+000
  0.000000000000000E+000
  0.000000000000000E+000
  0.000000000000000E+000
  0.000000000000000E+000
  0.000000000000000E+000
  0.000000000000000E+000
  0.000000000000000E+000
  0.000000000000000E+000
  0.000000000000000E+000
  0.000000000000000E+000
  0.000000000000000E+000
  0.000000000000000E+000
  0.000000000000000E+000
  0.000000000000000E+000
  0.000000000000000E+000
  0.000000000000000E+000
  0.000000000000000E+000
  0.000000000000000E+000
  0.000000000000000E+000
   1.00000000000000     
   1.00000000000000     
   1.00000000000000     
   1.00000000000000     
   1.00000000000000     
   1.00000000000000     
   1.00000000000000     
   1.00000000000000     
   1.00000000000000     
   1.00000000000000     
   1.00000000000000     
   1.00000000000000     
   1.00000000000000     
   1.00000000000000     
   1.00000000000000     
   1.00000000000000     
   1.00000000000000     
  0.000000000000000E+000
  0.000000000000000E+000
  0.000000000000000E+000
  0.000000000000000E+000
  0.000000000000000E+000
  0.000000000000000E+000
   1.00000000000000     
   1.00000000000000     
   1.00000000000000     
   1.00000000000000     
   1.00000000000000     
   1.00000000000000     
   1.00000000000000     
   1.00000000000000     
   1.00000000000000     
   1.00000000000000     
  0.000000000000000E+000
  0.000000000000000E+000
  0.000000000000000E+000
  0.000000000000000E+000
  0.000000000000000E+000
  0.000000000000000E+000
  0.000000000000000E+000
  0.000000000000000E+000
  0.000000000000000E+000
  0.000000000000000E+000
  0.000000000000000E+000
  0.000000000000000E+000
  0.000000000000000E+000
  0.000000000000000E+000
  0.000000000000000E+000
  0.000000000000000E+000
  0.000000000000000E+000
  0.000000000000000E+000
  0.000000000000000E+000
  0.000000000000000E+000
   1.00000000000000     
   1.00000000000000     
   1.00000000000000     
   1.00000000000000     
   1.00000000000000     
   1.00000000000000     
   1.00000000000000     
   1.00000000000000     
   1.00000000000000     
   1.00000000000000     
   1.00000000000000     
   1.00000000000000     
   1.00000000000000     
   1.00000000000000     
